<?xml version="1.0"?> 
<VTKFile type="UnstructuredGrid"> 
   <UnstructuredGrid> 
      <Piece NumberOfPoints="6000"  NumberOfCells="1500">  
          <Points>  
             <DataArray type="Float64" NumberOfComponents="3" format="ascii">   
-500.0   0.0   0.0
-450.0   0.0   0.0
-500.0   30.0   0.0
-500.0   0.0   16.666666666666668
-450.0   0.0   0.0
-450.0   30.0   0.0
-500.0   30.0   0.0
-450.0   30.0   16.666666666666668
-500.0   0.0   16.666666666666668
-500.0   30.0   16.666666666666668
-450.0   30.0   16.666666666666668
-500.0   30.0   0.0
-500.0   0.0   16.666666666666668
-450.0   30.0   16.666666666666668
-450.0   0.0   16.666666666666668
-450.0   0.0   0.0
-500.0   0.0   16.666666666666668
-450.0   30.0   16.666666666666668
-450.0   0.0   0.0
-500.0   30.0   0.0
-500.0   0.0   16.666666666666668
-450.0   0.0   16.666666666666668
-500.0   30.0   16.666666666666668
-500.0   0.0   33.333333333333336
-450.0   0.0   16.666666666666668
-450.0   30.0   16.666666666666668
-500.0   30.0   16.666666666666668
-450.0   30.0   33.333333333333336
-500.0   0.0   33.333333333333336
-500.0   30.0   33.333333333333336
-450.0   30.0   33.333333333333336
-500.0   30.0   16.666666666666668
-500.0   0.0   33.333333333333336
-450.0   30.0   33.333333333333336
-450.0   0.0   33.333333333333336
-450.0   0.0   16.666666666666668
-500.0   0.0   33.333333333333336
-450.0   30.0   33.333333333333336
-450.0   0.0   16.666666666666668
-500.0   30.0   16.666666666666668
-500.0   0.0   33.333333333333336
-450.0   0.0   33.333333333333336
-500.0   30.0   33.333333333333336
-500.0   0.0   50.0
-450.0   0.0   33.333333333333336
-450.0   30.0   33.333333333333336
-500.0   30.0   33.333333333333336
-450.0   30.0   50.0
-500.0   0.0   50.0
-500.0   30.0   50.0
-450.0   30.0   50.0
-500.0   30.0   33.333333333333336
-500.0   0.0   50.0
-450.0   30.0   50.0
-450.0   0.0   50.0
-450.0   0.0   33.333333333333336
-500.0   0.0   50.0
-450.0   30.0   50.0
-450.0   0.0   33.333333333333336
-500.0   30.0   33.333333333333336
-500.0   30.0   0.0
-450.0   30.0   0.0
-500.0   60.0   0.0
-500.0   30.0   16.666666666666668
-450.0   30.0   0.0
-450.0   60.0   0.0
-500.0   60.0   0.0
-450.0   60.0   16.666666666666668
-500.0   30.0   16.666666666666668
-500.0   60.0   16.666666666666668
-450.0   60.0   16.666666666666668
-500.0   60.0   0.0
-500.0   30.0   16.666666666666668
-450.0   60.0   16.666666666666668
-450.0   30.0   16.666666666666668
-450.0   30.0   0.0
-500.0   30.0   16.666666666666668
-450.0   60.0   16.666666666666668
-450.0   30.0   0.0
-500.0   60.0   0.0
-500.0   30.0   16.666666666666668
-450.0   30.0   16.666666666666668
-500.0   60.0   16.666666666666668
-500.0   30.0   33.333333333333336
-450.0   30.0   16.666666666666668
-450.0   60.0   16.666666666666668
-500.0   60.0   16.666666666666668
-450.0   60.0   33.333333333333336
-500.0   30.0   33.333333333333336
-500.0   60.0   33.333333333333336
-450.0   60.0   33.333333333333336
-500.0   60.0   16.666666666666668
-500.0   30.0   33.333333333333336
-450.0   60.0   33.333333333333336
-450.0   30.0   33.333333333333336
-450.0   30.0   16.666666666666668
-500.0   30.0   33.333333333333336
-450.0   60.0   33.333333333333336
-450.0   30.0   16.666666666666668
-500.0   60.0   16.666666666666668
-500.0   30.0   33.333333333333336
-450.0   30.0   33.333333333333336
-500.0   60.0   33.333333333333336
-500.0   30.0   50.0
-450.0   30.0   33.333333333333336
-450.0   60.0   33.333333333333336
-500.0   60.0   33.333333333333336
-450.0   60.0   50.0
-500.0   30.0   50.0
-500.0   60.0   50.0
-450.0   60.0   50.0
-500.0   60.0   33.333333333333336
-500.0   30.0   50.0
-450.0   60.0   50.0
-450.0   30.0   50.0
-450.0   30.0   33.333333333333336
-500.0   30.0   50.0
-450.0   60.0   50.0
-450.0   30.0   33.333333333333336
-500.0   60.0   33.333333333333336
-500.0   60.0   0.0
-450.0   60.0   0.0
-500.0   90.0   0.0
-500.0   60.0   16.666666666666668
-450.0   60.0   0.0
-450.0   90.0   0.0
-500.0   90.0   0.0
-450.0   90.0   16.666666666666668
-500.0   60.0   16.666666666666668
-500.0   90.0   16.666666666666668
-450.0   90.0   16.666666666666668
-500.0   90.0   0.0
-500.0   60.0   16.666666666666668
-450.0   90.0   16.666666666666668
-450.0   60.0   16.666666666666668
-450.0   60.0   0.0
-500.0   60.0   16.666666666666668
-450.0   90.0   16.666666666666668
-450.0   60.0   0.0
-500.0   90.0   0.0
-500.0   60.0   16.666666666666668
-450.0   60.0   16.666666666666668
-500.0   90.0   16.666666666666668
-500.0   60.0   33.333333333333336
-450.0   60.0   16.666666666666668
-450.0   90.0   16.666666666666668
-500.0   90.0   16.666666666666668
-450.0   90.0   33.333333333333336
-500.0   60.0   33.333333333333336
-500.0   90.0   33.333333333333336
-450.0   90.0   33.333333333333336
-500.0   90.0   16.666666666666668
-500.0   60.0   33.333333333333336
-450.0   90.0   33.333333333333336
-450.0   60.0   33.333333333333336
-450.0   60.0   16.666666666666668
-500.0   60.0   33.333333333333336
-450.0   90.0   33.333333333333336
-450.0   60.0   16.666666666666668
-500.0   90.0   16.666666666666668
-500.0   60.0   33.333333333333336
-450.0   60.0   33.333333333333336
-500.0   90.0   33.333333333333336
-500.0   60.0   50.0
-450.0   60.0   33.333333333333336
-450.0   90.0   33.333333333333336
-500.0   90.0   33.333333333333336
-450.0   90.0   50.0
-500.0   60.0   50.0
-500.0   90.0   50.0
-450.0   90.0   50.0
-500.0   90.0   33.333333333333336
-500.0   60.0   50.0
-450.0   90.0   50.0
-450.0   60.0   50.0
-450.0   60.0   33.333333333333336
-500.0   60.0   50.0
-450.0   90.0   50.0
-450.0   60.0   33.333333333333336
-500.0   90.0   33.333333333333336
-500.0   90.0   0.0
-450.0   90.0   0.0
-500.0   120.0   0.0
-500.0   90.0   16.666666666666668
-450.0   90.0   0.0
-450.0   120.0   0.0
-500.0   120.0   0.0
-450.0   120.0   16.666666666666668
-500.0   90.0   16.666666666666668
-500.0   120.0   16.666666666666668
-450.0   120.0   16.666666666666668
-500.0   120.0   0.0
-500.0   90.0   16.666666666666668
-450.0   120.0   16.666666666666668
-450.0   90.0   16.666666666666668
-450.0   90.0   0.0
-500.0   90.0   16.666666666666668
-450.0   120.0   16.666666666666668
-450.0   90.0   0.0
-500.0   120.0   0.0
-500.0   90.0   16.666666666666668
-450.0   90.0   16.666666666666668
-500.0   120.0   16.666666666666668
-500.0   90.0   33.333333333333336
-450.0   90.0   16.666666666666668
-450.0   120.0   16.666666666666668
-500.0   120.0   16.666666666666668
-450.0   120.0   33.333333333333336
-500.0   90.0   33.333333333333336
-500.0   120.0   33.333333333333336
-450.0   120.0   33.333333333333336
-500.0   120.0   16.666666666666668
-500.0   90.0   33.333333333333336
-450.0   120.0   33.333333333333336
-450.0   90.0   33.333333333333336
-450.0   90.0   16.666666666666668
-500.0   90.0   33.333333333333336
-450.0   120.0   33.333333333333336
-450.0   90.0   16.666666666666668
-500.0   120.0   16.666666666666668
-500.0   90.0   33.333333333333336
-450.0   90.0   33.333333333333336
-500.0   120.0   33.333333333333336
-500.0   90.0   50.0
-450.0   90.0   33.333333333333336
-450.0   120.0   33.333333333333336
-500.0   120.0   33.333333333333336
-450.0   120.0   50.0
-500.0   90.0   50.0
-500.0   120.0   50.0
-450.0   120.0   50.0
-500.0   120.0   33.333333333333336
-500.0   90.0   50.0
-450.0   120.0   50.0
-450.0   90.0   50.0
-450.0   90.0   33.333333333333336
-500.0   90.0   50.0
-450.0   120.0   50.0
-450.0   90.0   33.333333333333336
-500.0   120.0   33.333333333333336
-500.0   120.0   0.0
-450.0   120.0   0.0
-500.0   150.0   0.0
-500.0   120.0   16.666666666666668
-450.0   120.0   0.0
-450.0   150.0   0.0
-500.0   150.0   0.0
-450.0   150.0   16.666666666666668
-500.0   120.0   16.666666666666668
-500.0   150.0   16.666666666666668
-450.0   150.0   16.666666666666668
-500.0   150.0   0.0
-500.0   120.0   16.666666666666668
-450.0   150.0   16.666666666666668
-450.0   120.0   16.666666666666668
-450.0   120.0   0.0
-500.0   120.0   16.666666666666668
-450.0   150.0   16.666666666666668
-450.0   120.0   0.0
-500.0   150.0   0.0
-500.0   120.0   16.666666666666668
-450.0   120.0   16.666666666666668
-500.0   150.0   16.666666666666668
-500.0   120.0   33.333333333333336
-450.0   120.0   16.666666666666668
-450.0   150.0   16.666666666666668
-500.0   150.0   16.666666666666668
-450.0   150.0   33.333333333333336
-500.0   120.0   33.333333333333336
-500.0   150.0   33.333333333333336
-450.0   150.0   33.333333333333336
-500.0   150.0   16.666666666666668
-500.0   120.0   33.333333333333336
-450.0   150.0   33.333333333333336
-450.0   120.0   33.333333333333336
-450.0   120.0   16.666666666666668
-500.0   120.0   33.333333333333336
-450.0   150.0   33.333333333333336
-450.0   120.0   16.666666666666668
-500.0   150.0   16.666666666666668
-500.0   120.0   33.333333333333336
-450.0   120.0   33.333333333333336
-500.0   150.0   33.333333333333336
-500.0   120.0   50.0
-450.0   120.0   33.333333333333336
-450.0   150.0   33.333333333333336
-500.0   150.0   33.333333333333336
-450.0   150.0   50.0
-500.0   120.0   50.0
-500.0   150.0   50.0
-450.0   150.0   50.0
-500.0   150.0   33.333333333333336
-500.0   120.0   50.0
-450.0   150.0   50.0
-450.0   120.0   50.0
-450.0   120.0   33.333333333333336
-500.0   120.0   50.0
-450.0   150.0   50.0
-450.0   120.0   33.333333333333336
-500.0   150.0   33.333333333333336
-450.0   0.0   0.0
-400.0   0.0   0.0
-450.0   30.0   0.0
-450.0   0.0   16.666666666666668
-400.0   0.0   0.0
-400.0   30.0   0.0
-450.0   30.0   0.0
-400.0   30.0   16.666666666666668
-450.0   0.0   16.666666666666668
-450.0   30.0   16.666666666666668
-400.0   30.0   16.666666666666668
-450.0   30.0   0.0
-450.0   0.0   16.666666666666668
-400.0   30.0   16.666666666666668
-400.0   0.0   16.666666666666668
-400.0   0.0   0.0
-450.0   0.0   16.666666666666668
-400.0   30.0   16.666666666666668
-400.0   0.0   0.0
-450.0   30.0   0.0
-450.0   0.0   16.666666666666668
-400.0   0.0   16.666666666666668
-450.0   30.0   16.666666666666668
-450.0   0.0   33.333333333333336
-400.0   0.0   16.666666666666668
-400.0   30.0   16.666666666666668
-450.0   30.0   16.666666666666668
-400.0   30.0   33.333333333333336
-450.0   0.0   33.333333333333336
-450.0   30.0   33.333333333333336
-400.0   30.0   33.333333333333336
-450.0   30.0   16.666666666666668
-450.0   0.0   33.333333333333336
-400.0   30.0   33.333333333333336
-400.0   0.0   33.333333333333336
-400.0   0.0   16.666666666666668
-450.0   0.0   33.333333333333336
-400.0   30.0   33.333333333333336
-400.0   0.0   16.666666666666668
-450.0   30.0   16.666666666666668
-450.0   0.0   33.333333333333336
-400.0   0.0   33.333333333333336
-450.0   30.0   33.333333333333336
-450.0   0.0   50.0
-400.0   0.0   33.333333333333336
-400.0   30.0   33.333333333333336
-450.0   30.0   33.333333333333336
-400.0   30.0   50.0
-450.0   0.0   50.0
-450.0   30.0   50.0
-400.0   30.0   50.0
-450.0   30.0   33.333333333333336
-450.0   0.0   50.0
-400.0   30.0   50.0
-400.0   0.0   50.0
-400.0   0.0   33.333333333333336
-450.0   0.0   50.0
-400.0   30.0   50.0
-400.0   0.0   33.333333333333336
-450.0   30.0   33.333333333333336
-450.0   30.0   0.0
-400.0   30.0   0.0
-450.0   60.0   0.0
-450.0   30.0   16.666666666666668
-400.0   30.0   0.0
-400.0   60.0   0.0
-450.0   60.0   0.0
-400.0   60.0   16.666666666666668
-450.0   30.0   16.666666666666668
-450.0   60.0   16.666666666666668
-400.0   60.0   16.666666666666668
-450.0   60.0   0.0
-450.0   30.0   16.666666666666668
-400.0   60.0   16.666666666666668
-400.0   30.0   16.666666666666668
-400.0   30.0   0.0
-450.0   30.0   16.666666666666668
-400.0   60.0   16.666666666666668
-400.0   30.0   0.0
-450.0   60.0   0.0
-450.0   30.0   16.666666666666668
-400.0   30.0   16.666666666666668
-450.0   60.0   16.666666666666668
-450.0   30.0   33.333333333333336
-400.0   30.0   16.666666666666668
-400.0   60.0   16.666666666666668
-450.0   60.0   16.666666666666668
-400.0   60.0   33.333333333333336
-450.0   30.0   33.333333333333336
-450.0   60.0   33.333333333333336
-400.0   60.0   33.333333333333336
-450.0   60.0   16.666666666666668
-450.0   30.0   33.333333333333336
-400.0   60.0   33.333333333333336
-400.0   30.0   33.333333333333336
-400.0   30.0   16.666666666666668
-450.0   30.0   33.333333333333336
-400.0   60.0   33.333333333333336
-400.0   30.0   16.666666666666668
-450.0   60.0   16.666666666666668
-450.0   30.0   33.333333333333336
-400.0   30.0   33.333333333333336
-450.0   60.0   33.333333333333336
-450.0   30.0   50.0
-400.0   30.0   33.333333333333336
-400.0   60.0   33.333333333333336
-450.0   60.0   33.333333333333336
-400.0   60.0   50.0
-450.0   30.0   50.0
-450.0   60.0   50.0
-400.0   60.0   50.0
-450.0   60.0   33.333333333333336
-450.0   30.0   50.0
-400.0   60.0   50.0
-400.0   30.0   50.0
-400.0   30.0   33.333333333333336
-450.0   30.0   50.0
-400.0   60.0   50.0
-400.0   30.0   33.333333333333336
-450.0   60.0   33.333333333333336
-450.0   60.0   0.0
-400.0   60.0   0.0
-450.0   90.0   0.0
-450.0   60.0   16.666666666666668
-400.0   60.0   0.0
-400.0   90.0   0.0
-450.0   90.0   0.0
-400.0   90.0   16.666666666666668
-450.0   60.0   16.666666666666668
-450.0   90.0   16.666666666666668
-400.0   90.0   16.666666666666668
-450.0   90.0   0.0
-450.0   60.0   16.666666666666668
-400.0   90.0   16.666666666666668
-400.0   60.0   16.666666666666668
-400.0   60.0   0.0
-450.0   60.0   16.666666666666668
-400.0   90.0   16.666666666666668
-400.0   60.0   0.0
-450.0   90.0   0.0
-450.0   60.0   16.666666666666668
-400.0   60.0   16.666666666666668
-450.0   90.0   16.666666666666668
-450.0   60.0   33.333333333333336
-400.0   60.0   16.666666666666668
-400.0   90.0   16.666666666666668
-450.0   90.0   16.666666666666668
-400.0   90.0   33.333333333333336
-450.0   60.0   33.333333333333336
-450.0   90.0   33.333333333333336
-400.0   90.0   33.333333333333336
-450.0   90.0   16.666666666666668
-450.0   60.0   33.333333333333336
-400.0   90.0   33.333333333333336
-400.0   60.0   33.333333333333336
-400.0   60.0   16.666666666666668
-450.0   60.0   33.333333333333336
-400.0   90.0   33.333333333333336
-400.0   60.0   16.666666666666668
-450.0   90.0   16.666666666666668
-450.0   60.0   33.333333333333336
-400.0   60.0   33.333333333333336
-450.0   90.0   33.333333333333336
-450.0   60.0   50.0
-400.0   60.0   33.333333333333336
-400.0   90.0   33.333333333333336
-450.0   90.0   33.333333333333336
-400.0   90.0   50.0
-450.0   60.0   50.0
-450.0   90.0   50.0
-400.0   90.0   50.0
-450.0   90.0   33.333333333333336
-450.0   60.0   50.0
-400.0   90.0   50.0
-400.0   60.0   50.0
-400.0   60.0   33.333333333333336
-450.0   60.0   50.0
-400.0   90.0   50.0
-400.0   60.0   33.333333333333336
-450.0   90.0   33.333333333333336
-450.0   90.0   0.0
-400.0   90.0   0.0
-450.0   120.0   0.0
-450.0   90.0   16.666666666666668
-400.0   90.0   0.0
-400.0   120.0   0.0
-450.0   120.0   0.0
-400.0   120.0   16.666666666666668
-450.0   90.0   16.666666666666668
-450.0   120.0   16.666666666666668
-400.0   120.0   16.666666666666668
-450.0   120.0   0.0
-450.0   90.0   16.666666666666668
-400.0   120.0   16.666666666666668
-400.0   90.0   16.666666666666668
-400.0   90.0   0.0
-450.0   90.0   16.666666666666668
-400.0   120.0   16.666666666666668
-400.0   90.0   0.0
-450.0   120.0   0.0
-450.0   90.0   16.666666666666668
-400.0   90.0   16.666666666666668
-450.0   120.0   16.666666666666668
-450.0   90.0   33.333333333333336
-400.0   90.0   16.666666666666668
-400.0   120.0   16.666666666666668
-450.0   120.0   16.666666666666668
-400.0   120.0   33.333333333333336
-450.0   90.0   33.333333333333336
-450.0   120.0   33.333333333333336
-400.0   120.0   33.333333333333336
-450.0   120.0   16.666666666666668
-450.0   90.0   33.333333333333336
-400.0   120.0   33.333333333333336
-400.0   90.0   33.333333333333336
-400.0   90.0   16.666666666666668
-450.0   90.0   33.333333333333336
-400.0   120.0   33.333333333333336
-400.0   90.0   16.666666666666668
-450.0   120.0   16.666666666666668
-450.0   90.0   33.333333333333336
-400.0   90.0   33.333333333333336
-450.0   120.0   33.333333333333336
-450.0   90.0   50.0
-400.0   90.0   33.333333333333336
-400.0   120.0   33.333333333333336
-450.0   120.0   33.333333333333336
-400.0   120.0   50.0
-450.0   90.0   50.0
-450.0   120.0   50.0
-400.0   120.0   50.0
-450.0   120.0   33.333333333333336
-450.0   90.0   50.0
-400.0   120.0   50.0
-400.0   90.0   50.0
-400.0   90.0   33.333333333333336
-450.0   90.0   50.0
-400.0   120.0   50.0
-400.0   90.0   33.333333333333336
-450.0   120.0   33.333333333333336
-450.0   120.0   0.0
-400.0   120.0   0.0
-450.0   150.0   0.0
-450.0   120.0   16.666666666666668
-400.0   120.0   0.0
-400.0   150.0   0.0
-450.0   150.0   0.0
-400.0   150.0   16.666666666666668
-450.0   120.0   16.666666666666668
-450.0   150.0   16.666666666666668
-400.0   150.0   16.666666666666668
-450.0   150.0   0.0
-450.0   120.0   16.666666666666668
-400.0   150.0   16.666666666666668
-400.0   120.0   16.666666666666668
-400.0   120.0   0.0
-450.0   120.0   16.666666666666668
-400.0   150.0   16.666666666666668
-400.0   120.0   0.0
-450.0   150.0   0.0
-450.0   120.0   16.666666666666668
-400.0   120.0   16.666666666666668
-450.0   150.0   16.666666666666668
-450.0   120.0   33.333333333333336
-400.0   120.0   16.666666666666668
-400.0   150.0   16.666666666666668
-450.0   150.0   16.666666666666668
-400.0   150.0   33.333333333333336
-450.0   120.0   33.333333333333336
-450.0   150.0   33.333333333333336
-400.0   150.0   33.333333333333336
-450.0   150.0   16.666666666666668
-450.0   120.0   33.333333333333336
-400.0   150.0   33.333333333333336
-400.0   120.0   33.333333333333336
-400.0   120.0   16.666666666666668
-450.0   120.0   33.333333333333336
-400.0   150.0   33.333333333333336
-400.0   120.0   16.666666666666668
-450.0   150.0   16.666666666666668
-450.0   120.0   33.333333333333336
-400.0   120.0   33.333333333333336
-450.0   150.0   33.333333333333336
-450.0   120.0   50.0
-400.0   120.0   33.333333333333336
-400.0   150.0   33.333333333333336
-450.0   150.0   33.333333333333336
-400.0   150.0   50.0
-450.0   120.0   50.0
-450.0   150.0   50.0
-400.0   150.0   50.0
-450.0   150.0   33.333333333333336
-450.0   120.0   50.0
-400.0   150.0   50.0
-400.0   120.0   50.0
-400.0   120.0   33.333333333333336
-450.0   120.0   50.0
-400.0   150.0   50.0
-400.0   120.0   33.333333333333336
-450.0   150.0   33.333333333333336
-400.0   0.0   0.0
-350.0   0.0   0.0
-400.0   30.0   0.0
-400.0   0.0   16.666666666666668
-350.0   0.0   0.0
-350.0   30.0   0.0
-400.0   30.0   0.0
-350.0   30.0   16.666666666666668
-400.0   0.0   16.666666666666668
-400.0   30.0   16.666666666666668
-350.0   30.0   16.666666666666668
-400.0   30.0   0.0
-400.0   0.0   16.666666666666668
-350.0   30.0   16.666666666666668
-350.0   0.0   16.666666666666668
-350.0   0.0   0.0
-400.0   0.0   16.666666666666668
-350.0   30.0   16.666666666666668
-350.0   0.0   0.0
-400.0   30.0   0.0
-400.0   0.0   16.666666666666668
-350.0   0.0   16.666666666666668
-400.0   30.0   16.666666666666668
-400.0   0.0   33.333333333333336
-350.0   0.0   16.666666666666668
-350.0   30.0   16.666666666666668
-400.0   30.0   16.666666666666668
-350.0   30.0   33.333333333333336
-400.0   0.0   33.333333333333336
-400.0   30.0   33.333333333333336
-350.0   30.0   33.333333333333336
-400.0   30.0   16.666666666666668
-400.0   0.0   33.333333333333336
-350.0   30.0   33.333333333333336
-350.0   0.0   33.333333333333336
-350.0   0.0   16.666666666666668
-400.0   0.0   33.333333333333336
-350.0   30.0   33.333333333333336
-350.0   0.0   16.666666666666668
-400.0   30.0   16.666666666666668
-400.0   0.0   33.333333333333336
-350.0   0.0   33.333333333333336
-400.0   30.0   33.333333333333336
-400.0   0.0   50.0
-350.0   0.0   33.333333333333336
-350.0   30.0   33.333333333333336
-400.0   30.0   33.333333333333336
-350.0   30.0   50.0
-400.0   0.0   50.0
-400.0   30.0   50.0
-350.0   30.0   50.0
-400.0   30.0   33.333333333333336
-400.0   0.0   50.0
-350.0   30.0   50.0
-350.0   0.0   50.0
-350.0   0.0   33.333333333333336
-400.0   0.0   50.0
-350.0   30.0   50.0
-350.0   0.0   33.333333333333336
-400.0   30.0   33.333333333333336
-400.0   30.0   0.0
-350.0   30.0   0.0
-400.0   60.0   0.0
-400.0   30.0   16.666666666666668
-350.0   30.0   0.0
-350.0   60.0   0.0
-400.0   60.0   0.0
-350.0   60.0   16.666666666666668
-400.0   30.0   16.666666666666668
-400.0   60.0   16.666666666666668
-350.0   60.0   16.666666666666668
-400.0   60.0   0.0
-400.0   30.0   16.666666666666668
-350.0   60.0   16.666666666666668
-350.0   30.0   16.666666666666668
-350.0   30.0   0.0
-400.0   30.0   16.666666666666668
-350.0   60.0   16.666666666666668
-350.0   30.0   0.0
-400.0   60.0   0.0
-400.0   30.0   16.666666666666668
-350.0   30.0   16.666666666666668
-400.0   60.0   16.666666666666668
-400.0   30.0   33.333333333333336
-350.0   30.0   16.666666666666668
-350.0   60.0   16.666666666666668
-400.0   60.0   16.666666666666668
-350.0   60.0   33.333333333333336
-400.0   30.0   33.333333333333336
-400.0   60.0   33.333333333333336
-350.0   60.0   33.333333333333336
-400.0   60.0   16.666666666666668
-400.0   30.0   33.333333333333336
-350.0   60.0   33.333333333333336
-350.0   30.0   33.333333333333336
-350.0   30.0   16.666666666666668
-400.0   30.0   33.333333333333336
-350.0   60.0   33.333333333333336
-350.0   30.0   16.666666666666668
-400.0   60.0   16.666666666666668
-400.0   30.0   33.333333333333336
-350.0   30.0   33.333333333333336
-400.0   60.0   33.333333333333336
-400.0   30.0   50.0
-350.0   30.0   33.333333333333336
-350.0   60.0   33.333333333333336
-400.0   60.0   33.333333333333336
-350.0   60.0   50.0
-400.0   30.0   50.0
-400.0   60.0   50.0
-350.0   60.0   50.0
-400.0   60.0   33.333333333333336
-400.0   30.0   50.0
-350.0   60.0   50.0
-350.0   30.0   50.0
-350.0   30.0   33.333333333333336
-400.0   30.0   50.0
-350.0   60.0   50.0
-350.0   30.0   33.333333333333336
-400.0   60.0   33.333333333333336
-400.0   60.0   0.0
-350.0   60.0   0.0
-400.0   90.0   0.0
-400.0   60.0   16.666666666666668
-350.0   60.0   0.0
-350.0   90.0   0.0
-400.0   90.0   0.0
-350.0   90.0   16.666666666666668
-400.0   60.0   16.666666666666668
-400.0   90.0   16.666666666666668
-350.0   90.0   16.666666666666668
-400.0   90.0   0.0
-400.0   60.0   16.666666666666668
-350.0   90.0   16.666666666666668
-350.0   60.0   16.666666666666668
-350.0   60.0   0.0
-400.0   60.0   16.666666666666668
-350.0   90.0   16.666666666666668
-350.0   60.0   0.0
-400.0   90.0   0.0
-400.0   60.0   16.666666666666668
-350.0   60.0   16.666666666666668
-400.0   90.0   16.666666666666668
-400.0   60.0   33.333333333333336
-350.0   60.0   16.666666666666668
-350.0   90.0   16.666666666666668
-400.0   90.0   16.666666666666668
-350.0   90.0   33.333333333333336
-400.0   60.0   33.333333333333336
-400.0   90.0   33.333333333333336
-350.0   90.0   33.333333333333336
-400.0   90.0   16.666666666666668
-400.0   60.0   33.333333333333336
-350.0   90.0   33.333333333333336
-350.0   60.0   33.333333333333336
-350.0   60.0   16.666666666666668
-400.0   60.0   33.333333333333336
-350.0   90.0   33.333333333333336
-350.0   60.0   16.666666666666668
-400.0   90.0   16.666666666666668
-400.0   60.0   33.333333333333336
-350.0   60.0   33.333333333333336
-400.0   90.0   33.333333333333336
-400.0   60.0   50.0
-350.0   60.0   33.333333333333336
-350.0   90.0   33.333333333333336
-400.0   90.0   33.333333333333336
-350.0   90.0   50.0
-400.0   60.0   50.0
-400.0   90.0   50.0
-350.0   90.0   50.0
-400.0   90.0   33.333333333333336
-400.0   60.0   50.0
-350.0   90.0   50.0
-350.0   60.0   50.0
-350.0   60.0   33.333333333333336
-400.0   60.0   50.0
-350.0   90.0   50.0
-350.0   60.0   33.333333333333336
-400.0   90.0   33.333333333333336
-400.0   90.0   0.0
-350.0   90.0   0.0
-400.0   120.0   0.0
-400.0   90.0   16.666666666666668
-350.0   90.0   0.0
-350.0   120.0   0.0
-400.0   120.0   0.0
-350.0   120.0   16.666666666666668
-400.0   90.0   16.666666666666668
-400.0   120.0   16.666666666666668
-350.0   120.0   16.666666666666668
-400.0   120.0   0.0
-400.0   90.0   16.666666666666668
-350.0   120.0   16.666666666666668
-350.0   90.0   16.666666666666668
-350.0   90.0   0.0
-400.0   90.0   16.666666666666668
-350.0   120.0   16.666666666666668
-350.0   90.0   0.0
-400.0   120.0   0.0
-400.0   90.0   16.666666666666668
-350.0   90.0   16.666666666666668
-400.0   120.0   16.666666666666668
-400.0   90.0   33.333333333333336
-350.0   90.0   16.666666666666668
-350.0   120.0   16.666666666666668
-400.0   120.0   16.666666666666668
-350.0   120.0   33.333333333333336
-400.0   90.0   33.333333333333336
-400.0   120.0   33.333333333333336
-350.0   120.0   33.333333333333336
-400.0   120.0   16.666666666666668
-400.0   90.0   33.333333333333336
-350.0   120.0   33.333333333333336
-350.0   90.0   33.333333333333336
-350.0   90.0   16.666666666666668
-400.0   90.0   33.333333333333336
-350.0   120.0   33.333333333333336
-350.0   90.0   16.666666666666668
-400.0   120.0   16.666666666666668
-400.0   90.0   33.333333333333336
-350.0   90.0   33.333333333333336
-400.0   120.0   33.333333333333336
-400.0   90.0   50.0
-350.0   90.0   33.333333333333336
-350.0   120.0   33.333333333333336
-400.0   120.0   33.333333333333336
-350.0   120.0   50.0
-400.0   90.0   50.0
-400.0   120.0   50.0
-350.0   120.0   50.0
-400.0   120.0   33.333333333333336
-400.0   90.0   50.0
-350.0   120.0   50.0
-350.0   90.0   50.0
-350.0   90.0   33.333333333333336
-400.0   90.0   50.0
-350.0   120.0   50.0
-350.0   90.0   33.333333333333336
-400.0   120.0   33.333333333333336
-400.0   120.0   0.0
-350.0   120.0   0.0
-400.0   150.0   0.0
-400.0   120.0   16.666666666666668
-350.0   120.0   0.0
-350.0   150.0   0.0
-400.0   150.0   0.0
-350.0   150.0   16.666666666666668
-400.0   120.0   16.666666666666668
-400.0   150.0   16.666666666666668
-350.0   150.0   16.666666666666668
-400.0   150.0   0.0
-400.0   120.0   16.666666666666668
-350.0   150.0   16.666666666666668
-350.0   120.0   16.666666666666668
-350.0   120.0   0.0
-400.0   120.0   16.666666666666668
-350.0   150.0   16.666666666666668
-350.0   120.0   0.0
-400.0   150.0   0.0
-400.0   120.0   16.666666666666668
-350.0   120.0   16.666666666666668
-400.0   150.0   16.666666666666668
-400.0   120.0   33.333333333333336
-350.0   120.0   16.666666666666668
-350.0   150.0   16.666666666666668
-400.0   150.0   16.666666666666668
-350.0   150.0   33.333333333333336
-400.0   120.0   33.333333333333336
-400.0   150.0   33.333333333333336
-350.0   150.0   33.333333333333336
-400.0   150.0   16.666666666666668
-400.0   120.0   33.333333333333336
-350.0   150.0   33.333333333333336
-350.0   120.0   33.333333333333336
-350.0   120.0   16.666666666666668
-400.0   120.0   33.333333333333336
-350.0   150.0   33.333333333333336
-350.0   120.0   16.666666666666668
-400.0   150.0   16.666666666666668
-400.0   120.0   33.333333333333336
-350.0   120.0   33.333333333333336
-400.0   150.0   33.333333333333336
-400.0   120.0   50.0
-350.0   120.0   33.333333333333336
-350.0   150.0   33.333333333333336
-400.0   150.0   33.333333333333336
-350.0   150.0   50.0
-400.0   120.0   50.0
-400.0   150.0   50.0
-350.0   150.0   50.0
-400.0   150.0   33.333333333333336
-400.0   120.0   50.0
-350.0   150.0   50.0
-350.0   120.0   50.0
-350.0   120.0   33.333333333333336
-400.0   120.0   50.0
-350.0   150.0   50.0
-350.0   120.0   33.333333333333336
-400.0   150.0   33.333333333333336
-350.0   0.0   0.0
-300.0   0.0   0.0
-350.0   30.0   0.0
-350.0   0.0   16.666666666666668
-300.0   0.0   0.0
-300.0   30.0   0.0
-350.0   30.0   0.0
-300.0   30.0   16.666666666666668
-350.0   0.0   16.666666666666668
-350.0   30.0   16.666666666666668
-300.0   30.0   16.666666666666668
-350.0   30.0   0.0
-350.0   0.0   16.666666666666668
-300.0   30.0   16.666666666666668
-300.0   0.0   16.666666666666668
-300.0   0.0   0.0
-350.0   0.0   16.666666666666668
-300.0   30.0   16.666666666666668
-300.0   0.0   0.0
-350.0   30.0   0.0
-350.0   0.0   16.666666666666668
-300.0   0.0   16.666666666666668
-350.0   30.0   16.666666666666668
-350.0   0.0   33.333333333333336
-300.0   0.0   16.666666666666668
-300.0   30.0   16.666666666666668
-350.0   30.0   16.666666666666668
-300.0   30.0   33.333333333333336
-350.0   0.0   33.333333333333336
-350.0   30.0   33.333333333333336
-300.0   30.0   33.333333333333336
-350.0   30.0   16.666666666666668
-350.0   0.0   33.333333333333336
-300.0   30.0   33.333333333333336
-300.0   0.0   33.333333333333336
-300.0   0.0   16.666666666666668
-350.0   0.0   33.333333333333336
-300.0   30.0   33.333333333333336
-300.0   0.0   16.666666666666668
-350.0   30.0   16.666666666666668
-350.0   0.0   33.333333333333336
-300.0   0.0   33.333333333333336
-350.0   30.0   33.333333333333336
-350.0   0.0   50.0
-300.0   0.0   33.333333333333336
-300.0   30.0   33.333333333333336
-350.0   30.0   33.333333333333336
-300.0   30.0   50.0
-350.0   0.0   50.0
-350.0   30.0   50.0
-300.0   30.0   50.0
-350.0   30.0   33.333333333333336
-350.0   0.0   50.0
-300.0   30.0   50.0
-300.0   0.0   50.0
-300.0   0.0   33.333333333333336
-350.0   0.0   50.0
-300.0   30.0   50.0
-300.0   0.0   33.333333333333336
-350.0   30.0   33.333333333333336
-350.0   30.0   0.0
-300.0   30.0   0.0
-350.0   60.0   0.0
-350.0   30.0   16.666666666666668
-300.0   30.0   0.0
-300.0   60.0   0.0
-350.0   60.0   0.0
-300.0   60.0   16.666666666666668
-350.0   30.0   16.666666666666668
-350.0   60.0   16.666666666666668
-300.0   60.0   16.666666666666668
-350.0   60.0   0.0
-350.0   30.0   16.666666666666668
-300.0   60.0   16.666666666666668
-300.0   30.0   16.666666666666668
-300.0   30.0   0.0
-350.0   30.0   16.666666666666668
-300.0   60.0   16.666666666666668
-300.0   30.0   0.0
-350.0   60.0   0.0
-350.0   30.0   16.666666666666668
-300.0   30.0   16.666666666666668
-350.0   60.0   16.666666666666668
-350.0   30.0   33.333333333333336
-300.0   30.0   16.666666666666668
-300.0   60.0   16.666666666666668
-350.0   60.0   16.666666666666668
-300.0   60.0   33.333333333333336
-350.0   30.0   33.333333333333336
-350.0   60.0   33.333333333333336
-300.0   60.0   33.333333333333336
-350.0   60.0   16.666666666666668
-350.0   30.0   33.333333333333336
-300.0   60.0   33.333333333333336
-300.0   30.0   33.333333333333336
-300.0   30.0   16.666666666666668
-350.0   30.0   33.333333333333336
-300.0   60.0   33.333333333333336
-300.0   30.0   16.666666666666668
-350.0   60.0   16.666666666666668
-350.0   30.0   33.333333333333336
-300.0   30.0   33.333333333333336
-350.0   60.0   33.333333333333336
-350.0   30.0   50.0
-300.0   30.0   33.333333333333336
-300.0   60.0   33.333333333333336
-350.0   60.0   33.333333333333336
-300.0   60.0   50.0
-350.0   30.0   50.0
-350.0   60.0   50.0
-300.0   60.0   50.0
-350.0   60.0   33.333333333333336
-350.0   30.0   50.0
-300.0   60.0   50.0
-300.0   30.0   50.0
-300.0   30.0   33.333333333333336
-350.0   30.0   50.0
-300.0   60.0   50.0
-300.0   30.0   33.333333333333336
-350.0   60.0   33.333333333333336
-350.0   60.0   0.0
-300.0   60.0   0.0
-350.0   90.0   0.0
-350.0   60.0   16.666666666666668
-300.0   60.0   0.0
-300.0   90.0   0.0
-350.0   90.0   0.0
-300.0   90.0   16.666666666666668
-350.0   60.0   16.666666666666668
-350.0   90.0   16.666666666666668
-300.0   90.0   16.666666666666668
-350.0   90.0   0.0
-350.0   60.0   16.666666666666668
-300.0   90.0   16.666666666666668
-300.0   60.0   16.666666666666668
-300.0   60.0   0.0
-350.0   60.0   16.666666666666668
-300.0   90.0   16.666666666666668
-300.0   60.0   0.0
-350.0   90.0   0.0
-350.0   60.0   16.666666666666668
-300.0   60.0   16.666666666666668
-350.0   90.0   16.666666666666668
-350.0   60.0   33.333333333333336
-300.0   60.0   16.666666666666668
-300.0   90.0   16.666666666666668
-350.0   90.0   16.666666666666668
-300.0   90.0   33.333333333333336
-350.0   60.0   33.333333333333336
-350.0   90.0   33.333333333333336
-300.0   90.0   33.333333333333336
-350.0   90.0   16.666666666666668
-350.0   60.0   33.333333333333336
-300.0   90.0   33.333333333333336
-300.0   60.0   33.333333333333336
-300.0   60.0   16.666666666666668
-350.0   60.0   33.333333333333336
-300.0   90.0   33.333333333333336
-300.0   60.0   16.666666666666668
-350.0   90.0   16.666666666666668
-350.0   60.0   33.333333333333336
-300.0   60.0   33.333333333333336
-350.0   90.0   33.333333333333336
-350.0   60.0   50.0
-300.0   60.0   33.333333333333336
-300.0   90.0   33.333333333333336
-350.0   90.0   33.333333333333336
-300.0   90.0   50.0
-350.0   60.0   50.0
-350.0   90.0   50.0
-300.0   90.0   50.0
-350.0   90.0   33.333333333333336
-350.0   60.0   50.0
-300.0   90.0   50.0
-300.0   60.0   50.0
-300.0   60.0   33.333333333333336
-350.0   60.0   50.0
-300.0   90.0   50.0
-300.0   60.0   33.333333333333336
-350.0   90.0   33.333333333333336
-350.0   90.0   0.0
-300.0   90.0   0.0
-350.0   120.0   0.0
-350.0   90.0   16.666666666666668
-300.0   90.0   0.0
-300.0   120.0   0.0
-350.0   120.0   0.0
-300.0   120.0   16.666666666666668
-350.0   90.0   16.666666666666668
-350.0   120.0   16.666666666666668
-300.0   120.0   16.666666666666668
-350.0   120.0   0.0
-350.0   90.0   16.666666666666668
-300.0   120.0   16.666666666666668
-300.0   90.0   16.666666666666668
-300.0   90.0   0.0
-350.0   90.0   16.666666666666668
-300.0   120.0   16.666666666666668
-300.0   90.0   0.0
-350.0   120.0   0.0
-350.0   90.0   16.666666666666668
-300.0   90.0   16.666666666666668
-350.0   120.0   16.666666666666668
-350.0   90.0   33.333333333333336
-300.0   90.0   16.666666666666668
-300.0   120.0   16.666666666666668
-350.0   120.0   16.666666666666668
-300.0   120.0   33.333333333333336
-350.0   90.0   33.333333333333336
-350.0   120.0   33.333333333333336
-300.0   120.0   33.333333333333336
-350.0   120.0   16.666666666666668
-350.0   90.0   33.333333333333336
-300.0   120.0   33.333333333333336
-300.0   90.0   33.333333333333336
-300.0   90.0   16.666666666666668
-350.0   90.0   33.333333333333336
-300.0   120.0   33.333333333333336
-300.0   90.0   16.666666666666668
-350.0   120.0   16.666666666666668
-350.0   90.0   33.333333333333336
-300.0   90.0   33.333333333333336
-350.0   120.0   33.333333333333336
-350.0   90.0   50.0
-300.0   90.0   33.333333333333336
-300.0   120.0   33.333333333333336
-350.0   120.0   33.333333333333336
-300.0   120.0   50.0
-350.0   90.0   50.0
-350.0   120.0   50.0
-300.0   120.0   50.0
-350.0   120.0   33.333333333333336
-350.0   90.0   50.0
-300.0   120.0   50.0
-300.0   90.0   50.0
-300.0   90.0   33.333333333333336
-350.0   90.0   50.0
-300.0   120.0   50.0
-300.0   90.0   33.333333333333336
-350.0   120.0   33.333333333333336
-350.0   120.0   0.0
-300.0   120.0   0.0
-350.0   150.0   0.0
-350.0   120.0   16.666666666666668
-300.0   120.0   0.0
-300.0   150.0   0.0
-350.0   150.0   0.0
-300.0   150.0   16.666666666666668
-350.0   120.0   16.666666666666668
-350.0   150.0   16.666666666666668
-300.0   150.0   16.666666666666668
-350.0   150.0   0.0
-350.0   120.0   16.666666666666668
-300.0   150.0   16.666666666666668
-300.0   120.0   16.666666666666668
-300.0   120.0   0.0
-350.0   120.0   16.666666666666668
-300.0   150.0   16.666666666666668
-300.0   120.0   0.0
-350.0   150.0   0.0
-350.0   120.0   16.666666666666668
-300.0   120.0   16.666666666666668
-350.0   150.0   16.666666666666668
-350.0   120.0   33.333333333333336
-300.0   120.0   16.666666666666668
-300.0   150.0   16.666666666666668
-350.0   150.0   16.666666666666668
-300.0   150.0   33.333333333333336
-350.0   120.0   33.333333333333336
-350.0   150.0   33.333333333333336
-300.0   150.0   33.333333333333336
-350.0   150.0   16.666666666666668
-350.0   120.0   33.333333333333336
-300.0   150.0   33.333333333333336
-300.0   120.0   33.333333333333336
-300.0   120.0   16.666666666666668
-350.0   120.0   33.333333333333336
-300.0   150.0   33.333333333333336
-300.0   120.0   16.666666666666668
-350.0   150.0   16.666666666666668
-350.0   120.0   33.333333333333336
-300.0   120.0   33.333333333333336
-350.0   150.0   33.333333333333336
-350.0   120.0   50.0
-300.0   120.0   33.333333333333336
-300.0   150.0   33.333333333333336
-350.0   150.0   33.333333333333336
-300.0   150.0   50.0
-350.0   120.0   50.0
-350.0   150.0   50.0
-300.0   150.0   50.0
-350.0   150.0   33.333333333333336
-350.0   120.0   50.0
-300.0   150.0   50.0
-300.0   120.0   50.0
-300.0   120.0   33.333333333333336
-350.0   120.0   50.0
-300.0   150.0   50.0
-300.0   120.0   33.333333333333336
-350.0   150.0   33.333333333333336
-300.0   0.0   0.0
-250.0   0.0   0.0
-300.0   30.0   0.0
-300.0   0.0   16.666666666666668
-250.0   0.0   0.0
-250.0   30.0   0.0
-300.0   30.0   0.0
-250.0   30.0   16.666666666666668
-300.0   0.0   16.666666666666668
-300.0   30.0   16.666666666666668
-250.0   30.0   16.666666666666668
-300.0   30.0   0.0
-300.0   0.0   16.666666666666668
-250.0   30.0   16.666666666666668
-250.0   0.0   16.666666666666668
-250.0   0.0   0.0
-300.0   0.0   16.666666666666668
-250.0   30.0   16.666666666666668
-250.0   0.0   0.0
-300.0   30.0   0.0
-300.0   0.0   16.666666666666668
-250.0   0.0   16.666666666666668
-300.0   30.0   16.666666666666668
-300.0   0.0   33.333333333333336
-250.0   0.0   16.666666666666668
-250.0   30.0   16.666666666666668
-300.0   30.0   16.666666666666668
-250.0   30.0   33.333333333333336
-300.0   0.0   33.333333333333336
-300.0   30.0   33.333333333333336
-250.0   30.0   33.333333333333336
-300.0   30.0   16.666666666666668
-300.0   0.0   33.333333333333336
-250.0   30.0   33.333333333333336
-250.0   0.0   33.333333333333336
-250.0   0.0   16.666666666666668
-300.0   0.0   33.333333333333336
-250.0   30.0   33.333333333333336
-250.0   0.0   16.666666666666668
-300.0   30.0   16.666666666666668
-300.0   0.0   33.333333333333336
-250.0   0.0   33.333333333333336
-300.0   30.0   33.333333333333336
-300.0   0.0   50.0
-250.0   0.0   33.333333333333336
-250.0   30.0   33.333333333333336
-300.0   30.0   33.333333333333336
-250.0   30.0   50.0
-300.0   0.0   50.0
-300.0   30.0   50.0
-250.0   30.0   50.0
-300.0   30.0   33.333333333333336
-300.0   0.0   50.0
-250.0   30.0   50.0
-250.0   0.0   50.0
-250.0   0.0   33.333333333333336
-300.0   0.0   50.0
-250.0   30.0   50.0
-250.0   0.0   33.333333333333336
-300.0   30.0   33.333333333333336
-300.0   30.0   0.0
-250.0   30.0   0.0
-300.0   60.0   0.0
-300.0   30.0   16.666666666666668
-250.0   30.0   0.0
-250.0   60.0   0.0
-300.0   60.0   0.0
-250.0   60.0   16.666666666666668
-300.0   30.0   16.666666666666668
-300.0   60.0   16.666666666666668
-250.0   60.0   16.666666666666668
-300.0   60.0   0.0
-300.0   30.0   16.666666666666668
-250.0   60.0   16.666666666666668
-250.0   30.0   16.666666666666668
-250.0   30.0   0.0
-300.0   30.0   16.666666666666668
-250.0   60.0   16.666666666666668
-250.0   30.0   0.0
-300.0   60.0   0.0
-300.0   30.0   16.666666666666668
-250.0   30.0   16.666666666666668
-300.0   60.0   16.666666666666668
-300.0   30.0   33.333333333333336
-250.0   30.0   16.666666666666668
-250.0   60.0   16.666666666666668
-300.0   60.0   16.666666666666668
-250.0   60.0   33.333333333333336
-300.0   30.0   33.333333333333336
-300.0   60.0   33.333333333333336
-250.0   60.0   33.333333333333336
-300.0   60.0   16.666666666666668
-300.0   30.0   33.333333333333336
-250.0   60.0   33.333333333333336
-250.0   30.0   33.333333333333336
-250.0   30.0   16.666666666666668
-300.0   30.0   33.333333333333336
-250.0   60.0   33.333333333333336
-250.0   30.0   16.666666666666668
-300.0   60.0   16.666666666666668
-300.0   30.0   33.333333333333336
-250.0   30.0   33.333333333333336
-300.0   60.0   33.333333333333336
-300.0   30.0   50.0
-250.0   30.0   33.333333333333336
-250.0   60.0   33.333333333333336
-300.0   60.0   33.333333333333336
-250.0   60.0   50.0
-300.0   30.0   50.0
-300.0   60.0   50.0
-250.0   60.0   50.0
-300.0   60.0   33.333333333333336
-300.0   30.0   50.0
-250.0   60.0   50.0
-250.0   30.0   50.0
-250.0   30.0   33.333333333333336
-300.0   30.0   50.0
-250.0   60.0   50.0
-250.0   30.0   33.333333333333336
-300.0   60.0   33.333333333333336
-300.0   60.0   0.0
-250.0   60.0   0.0
-300.0   90.0   0.0
-300.0   60.0   16.666666666666668
-250.0   60.0   0.0
-250.0   90.0   0.0
-300.0   90.0   0.0
-250.0   90.0   16.666666666666668
-300.0   60.0   16.666666666666668
-300.0   90.0   16.666666666666668
-250.0   90.0   16.666666666666668
-300.0   90.0   0.0
-300.0   60.0   16.666666666666668
-250.0   90.0   16.666666666666668
-250.0   60.0   16.666666666666668
-250.0   60.0   0.0
-300.0   60.0   16.666666666666668
-250.0   90.0   16.666666666666668
-250.0   60.0   0.0
-300.0   90.0   0.0
-300.0   60.0   16.666666666666668
-250.0   60.0   16.666666666666668
-300.0   90.0   16.666666666666668
-300.0   60.0   33.333333333333336
-250.0   60.0   16.666666666666668
-250.0   90.0   16.666666666666668
-300.0   90.0   16.666666666666668
-250.0   90.0   33.333333333333336
-300.0   60.0   33.333333333333336
-300.0   90.0   33.333333333333336
-250.0   90.0   33.333333333333336
-300.0   90.0   16.666666666666668
-300.0   60.0   33.333333333333336
-250.0   90.0   33.333333333333336
-250.0   60.0   33.333333333333336
-250.0   60.0   16.666666666666668
-300.0   60.0   33.333333333333336
-250.0   90.0   33.333333333333336
-250.0   60.0   16.666666666666668
-300.0   90.0   16.666666666666668
-300.0   60.0   33.333333333333336
-250.0   60.0   33.333333333333336
-300.0   90.0   33.333333333333336
-300.0   60.0   50.0
-250.0   60.0   33.333333333333336
-250.0   90.0   33.333333333333336
-300.0   90.0   33.333333333333336
-250.0   90.0   50.0
-300.0   60.0   50.0
-300.0   90.0   50.0
-250.0   90.0   50.0
-300.0   90.0   33.333333333333336
-300.0   60.0   50.0
-250.0   90.0   50.0
-250.0   60.0   50.0
-250.0   60.0   33.333333333333336
-300.0   60.0   50.0
-250.0   90.0   50.0
-250.0   60.0   33.333333333333336
-300.0   90.0   33.333333333333336
-300.0   90.0   0.0
-250.0   90.0   0.0
-300.0   120.0   0.0
-300.0   90.0   16.666666666666668
-250.0   90.0   0.0
-250.0   120.0   0.0
-300.0   120.0   0.0
-250.0   120.0   16.666666666666668
-300.0   90.0   16.666666666666668
-300.0   120.0   16.666666666666668
-250.0   120.0   16.666666666666668
-300.0   120.0   0.0
-300.0   90.0   16.666666666666668
-250.0   120.0   16.666666666666668
-250.0   90.0   16.666666666666668
-250.0   90.0   0.0
-300.0   90.0   16.666666666666668
-250.0   120.0   16.666666666666668
-250.0   90.0   0.0
-300.0   120.0   0.0
-300.0   90.0   16.666666666666668
-250.0   90.0   16.666666666666668
-300.0   120.0   16.666666666666668
-300.0   90.0   33.333333333333336
-250.0   90.0   16.666666666666668
-250.0   120.0   16.666666666666668
-300.0   120.0   16.666666666666668
-250.0   120.0   33.333333333333336
-300.0   90.0   33.333333333333336
-300.0   120.0   33.333333333333336
-250.0   120.0   33.333333333333336
-300.0   120.0   16.666666666666668
-300.0   90.0   33.333333333333336
-250.0   120.0   33.333333333333336
-250.0   90.0   33.333333333333336
-250.0   90.0   16.666666666666668
-300.0   90.0   33.333333333333336
-250.0   120.0   33.333333333333336
-250.0   90.0   16.666666666666668
-300.0   120.0   16.666666666666668
-300.0   90.0   33.333333333333336
-250.0   90.0   33.333333333333336
-300.0   120.0   33.333333333333336
-300.0   90.0   50.0
-250.0   90.0   33.333333333333336
-250.0   120.0   33.333333333333336
-300.0   120.0   33.333333333333336
-250.0   120.0   50.0
-300.0   90.0   50.0
-300.0   120.0   50.0
-250.0   120.0   50.0
-300.0   120.0   33.333333333333336
-300.0   90.0   50.0
-250.0   120.0   50.0
-250.0   90.0   50.0
-250.0   90.0   33.333333333333336
-300.0   90.0   50.0
-250.0   120.0   50.0
-250.0   90.0   33.333333333333336
-300.0   120.0   33.333333333333336
-300.0   120.0   0.0
-250.0   120.0   0.0
-300.0   150.0   0.0
-300.0   120.0   16.666666666666668
-250.0   120.0   0.0
-250.0   150.0   0.0
-300.0   150.0   0.0
-250.0   150.0   16.666666666666668
-300.0   120.0   16.666666666666668
-300.0   150.0   16.666666666666668
-250.0   150.0   16.666666666666668
-300.0   150.0   0.0
-300.0   120.0   16.666666666666668
-250.0   150.0   16.666666666666668
-250.0   120.0   16.666666666666668
-250.0   120.0   0.0
-300.0   120.0   16.666666666666668
-250.0   150.0   16.666666666666668
-250.0   120.0   0.0
-300.0   150.0   0.0
-300.0   120.0   16.666666666666668
-250.0   120.0   16.666666666666668
-300.0   150.0   16.666666666666668
-300.0   120.0   33.333333333333336
-250.0   120.0   16.666666666666668
-250.0   150.0   16.666666666666668
-300.0   150.0   16.666666666666668
-250.0   150.0   33.333333333333336
-300.0   120.0   33.333333333333336
-300.0   150.0   33.333333333333336
-250.0   150.0   33.333333333333336
-300.0   150.0   16.666666666666668
-300.0   120.0   33.333333333333336
-250.0   150.0   33.333333333333336
-250.0   120.0   33.333333333333336
-250.0   120.0   16.666666666666668
-300.0   120.0   33.333333333333336
-250.0   150.0   33.333333333333336
-250.0   120.0   16.666666666666668
-300.0   150.0   16.666666666666668
-300.0   120.0   33.333333333333336
-250.0   120.0   33.333333333333336
-300.0   150.0   33.333333333333336
-300.0   120.0   50.0
-250.0   120.0   33.333333333333336
-250.0   150.0   33.333333333333336
-300.0   150.0   33.333333333333336
-250.0   150.0   50.0
-300.0   120.0   50.0
-300.0   150.0   50.0
-250.0   150.0   50.0
-300.0   150.0   33.333333333333336
-300.0   120.0   50.0
-250.0   150.0   50.0
-250.0   120.0   50.0
-250.0   120.0   33.333333333333336
-300.0   120.0   50.0
-250.0   150.0   50.0
-250.0   120.0   33.333333333333336
-300.0   150.0   33.333333333333336
-250.0   0.0   0.0
-200.0   0.0   0.0
-250.0   30.0   0.0
-250.0   0.0   16.666666666666668
-200.0   0.0   0.0
-200.0   30.0   0.0
-250.0   30.0   0.0
-200.0   30.0   16.666666666666668
-250.0   0.0   16.666666666666668
-250.0   30.0   16.666666666666668
-200.0   30.0   16.666666666666668
-250.0   30.0   0.0
-250.0   0.0   16.666666666666668
-200.0   30.0   16.666666666666668
-200.0   0.0   16.666666666666668
-200.0   0.0   0.0
-250.0   0.0   16.666666666666668
-200.0   30.0   16.666666666666668
-200.0   0.0   0.0
-250.0   30.0   0.0
-250.0   0.0   16.666666666666668
-200.0   0.0   16.666666666666668
-250.0   30.0   16.666666666666668
-250.0   0.0   33.333333333333336
-200.0   0.0   16.666666666666668
-200.0   30.0   16.666666666666668
-250.0   30.0   16.666666666666668
-200.0   30.0   33.333333333333336
-250.0   0.0   33.333333333333336
-250.0   30.0   33.333333333333336
-200.0   30.0   33.333333333333336
-250.0   30.0   16.666666666666668
-250.0   0.0   33.333333333333336
-200.0   30.0   33.333333333333336
-200.0   0.0   33.333333333333336
-200.0   0.0   16.666666666666668
-250.0   0.0   33.333333333333336
-200.0   30.0   33.333333333333336
-200.0   0.0   16.666666666666668
-250.0   30.0   16.666666666666668
-250.0   0.0   33.333333333333336
-200.0   0.0   33.333333333333336
-250.0   30.0   33.333333333333336
-250.0   0.0   50.0
-200.0   0.0   33.333333333333336
-200.0   30.0   33.333333333333336
-250.0   30.0   33.333333333333336
-200.0   30.0   50.0
-250.0   0.0   50.0
-250.0   30.0   50.0
-200.0   30.0   50.0
-250.0   30.0   33.333333333333336
-250.0   0.0   50.0
-200.0   30.0   50.0
-200.0   0.0   50.0
-200.0   0.0   33.333333333333336
-250.0   0.0   50.0
-200.0   30.0   50.0
-200.0   0.0   33.333333333333336
-250.0   30.0   33.333333333333336
-250.0   30.0   0.0
-200.0   30.0   0.0
-250.0   60.0   0.0
-250.0   30.0   16.666666666666668
-200.0   30.0   0.0
-200.0   60.0   0.0
-250.0   60.0   0.0
-200.0   60.0   16.666666666666668
-250.0   30.0   16.666666666666668
-250.0   60.0   16.666666666666668
-200.0   60.0   16.666666666666668
-250.0   60.0   0.0
-250.0   30.0   16.666666666666668
-200.0   60.0   16.666666666666668
-200.0   30.0   16.666666666666668
-200.0   30.0   0.0
-250.0   30.0   16.666666666666668
-200.0   60.0   16.666666666666668
-200.0   30.0   0.0
-250.0   60.0   0.0
-250.0   30.0   16.666666666666668
-200.0   30.0   16.666666666666668
-250.0   60.0   16.666666666666668
-250.0   30.0   33.333333333333336
-200.0   30.0   16.666666666666668
-200.0   60.0   16.666666666666668
-250.0   60.0   16.666666666666668
-200.0   60.0   33.333333333333336
-250.0   30.0   33.333333333333336
-250.0   60.0   33.333333333333336
-200.0   60.0   33.333333333333336
-250.0   60.0   16.666666666666668
-250.0   30.0   33.333333333333336
-200.0   60.0   33.333333333333336
-200.0   30.0   33.333333333333336
-200.0   30.0   16.666666666666668
-250.0   30.0   33.333333333333336
-200.0   60.0   33.333333333333336
-200.0   30.0   16.666666666666668
-250.0   60.0   16.666666666666668
-250.0   30.0   33.333333333333336
-200.0   30.0   33.333333333333336
-250.0   60.0   33.333333333333336
-250.0   30.0   50.0
-200.0   30.0   33.333333333333336
-200.0   60.0   33.333333333333336
-250.0   60.0   33.333333333333336
-200.0   60.0   50.0
-250.0   30.0   50.0
-250.0   60.0   50.0
-200.0   60.0   50.0
-250.0   60.0   33.333333333333336
-250.0   30.0   50.0
-200.0   60.0   50.0
-200.0   30.0   50.0
-200.0   30.0   33.333333333333336
-250.0   30.0   50.0
-200.0   60.0   50.0
-200.0   30.0   33.333333333333336
-250.0   60.0   33.333333333333336
-250.0   60.0   0.0
-200.0   60.0   0.0
-250.0   90.0   0.0
-250.0   60.0   16.666666666666668
-200.0   60.0   0.0
-200.0   90.0   0.0
-250.0   90.0   0.0
-200.0   90.0   16.666666666666668
-250.0   60.0   16.666666666666668
-250.0   90.0   16.666666666666668
-200.0   90.0   16.666666666666668
-250.0   90.0   0.0
-250.0   60.0   16.666666666666668
-200.0   90.0   16.666666666666668
-200.0   60.0   16.666666666666668
-200.0   60.0   0.0
-250.0   60.0   16.666666666666668
-200.0   90.0   16.666666666666668
-200.0   60.0   0.0
-250.0   90.0   0.0
-250.0   60.0   16.666666666666668
-200.0   60.0   16.666666666666668
-250.0   90.0   16.666666666666668
-250.0   60.0   33.333333333333336
-200.0   60.0   16.666666666666668
-200.0   90.0   16.666666666666668
-250.0   90.0   16.666666666666668
-200.0   90.0   33.333333333333336
-250.0   60.0   33.333333333333336
-250.0   90.0   33.333333333333336
-200.0   90.0   33.333333333333336
-250.0   90.0   16.666666666666668
-250.0   60.0   33.333333333333336
-200.0   90.0   33.333333333333336
-200.0   60.0   33.333333333333336
-200.0   60.0   16.666666666666668
-250.0   60.0   33.333333333333336
-200.0   90.0   33.333333333333336
-200.0   60.0   16.666666666666668
-250.0   90.0   16.666666666666668
-250.0   60.0   33.333333333333336
-200.0   60.0   33.333333333333336
-250.0   90.0   33.333333333333336
-250.0   60.0   50.0
-200.0   60.0   33.333333333333336
-200.0   90.0   33.333333333333336
-250.0   90.0   33.333333333333336
-200.0   90.0   50.0
-250.0   60.0   50.0
-250.0   90.0   50.0
-200.0   90.0   50.0
-250.0   90.0   33.333333333333336
-250.0   60.0   50.0
-200.0   90.0   50.0
-200.0   60.0   50.0
-200.0   60.0   33.333333333333336
-250.0   60.0   50.0
-200.0   90.0   50.0
-200.0   60.0   33.333333333333336
-250.0   90.0   33.333333333333336
-250.0   90.0   0.0
-200.0   90.0   0.0
-250.0   120.0   0.0
-250.0   90.0   16.666666666666668
-200.0   90.0   0.0
-200.0   120.0   0.0
-250.0   120.0   0.0
-200.0   120.0   16.666666666666668
-250.0   90.0   16.666666666666668
-250.0   120.0   16.666666666666668
-200.0   120.0   16.666666666666668
-250.0   120.0   0.0
-250.0   90.0   16.666666666666668
-200.0   120.0   16.666666666666668
-200.0   90.0   16.666666666666668
-200.0   90.0   0.0
-250.0   90.0   16.666666666666668
-200.0   120.0   16.666666666666668
-200.0   90.0   0.0
-250.0   120.0   0.0
-250.0   90.0   16.666666666666668
-200.0   90.0   16.666666666666668
-250.0   120.0   16.666666666666668
-250.0   90.0   33.333333333333336
-200.0   90.0   16.666666666666668
-200.0   120.0   16.666666666666668
-250.0   120.0   16.666666666666668
-200.0   120.0   33.333333333333336
-250.0   90.0   33.333333333333336
-250.0   120.0   33.333333333333336
-200.0   120.0   33.333333333333336
-250.0   120.0   16.666666666666668
-250.0   90.0   33.333333333333336
-200.0   120.0   33.333333333333336
-200.0   90.0   33.333333333333336
-200.0   90.0   16.666666666666668
-250.0   90.0   33.333333333333336
-200.0   120.0   33.333333333333336
-200.0   90.0   16.666666666666668
-250.0   120.0   16.666666666666668
-250.0   90.0   33.333333333333336
-200.0   90.0   33.333333333333336
-250.0   120.0   33.333333333333336
-250.0   90.0   50.0
-200.0   90.0   33.333333333333336
-200.0   120.0   33.333333333333336
-250.0   120.0   33.333333333333336
-200.0   120.0   50.0
-250.0   90.0   50.0
-250.0   120.0   50.0
-200.0   120.0   50.0
-250.0   120.0   33.333333333333336
-250.0   90.0   50.0
-200.0   120.0   50.0
-200.0   90.0   50.0
-200.0   90.0   33.333333333333336
-250.0   90.0   50.0
-200.0   120.0   50.0
-200.0   90.0   33.333333333333336
-250.0   120.0   33.333333333333336
-250.0   120.0   0.0
-200.0   120.0   0.0
-250.0   150.0   0.0
-250.0   120.0   16.666666666666668
-200.0   120.0   0.0
-200.0   150.0   0.0
-250.0   150.0   0.0
-200.0   150.0   16.666666666666668
-250.0   120.0   16.666666666666668
-250.0   150.0   16.666666666666668
-200.0   150.0   16.666666666666668
-250.0   150.0   0.0
-250.0   120.0   16.666666666666668
-200.0   150.0   16.666666666666668
-200.0   120.0   16.666666666666668
-200.0   120.0   0.0
-250.0   120.0   16.666666666666668
-200.0   150.0   16.666666666666668
-200.0   120.0   0.0
-250.0   150.0   0.0
-250.0   120.0   16.666666666666668
-200.0   120.0   16.666666666666668
-250.0   150.0   16.666666666666668
-250.0   120.0   33.333333333333336
-200.0   120.0   16.666666666666668
-200.0   150.0   16.666666666666668
-250.0   150.0   16.666666666666668
-200.0   150.0   33.333333333333336
-250.0   120.0   33.333333333333336
-250.0   150.0   33.333333333333336
-200.0   150.0   33.333333333333336
-250.0   150.0   16.666666666666668
-250.0   120.0   33.333333333333336
-200.0   150.0   33.333333333333336
-200.0   120.0   33.333333333333336
-200.0   120.0   16.666666666666668
-250.0   120.0   33.333333333333336
-200.0   150.0   33.333333333333336
-200.0   120.0   16.666666666666668
-250.0   150.0   16.666666666666668
-250.0   120.0   33.333333333333336
-200.0   120.0   33.333333333333336
-250.0   150.0   33.333333333333336
-250.0   120.0   50.0
-200.0   120.0   33.333333333333336
-200.0   150.0   33.333333333333336
-250.0   150.0   33.333333333333336
-200.0   150.0   50.0
-250.0   120.0   50.0
-250.0   150.0   50.0
-200.0   150.0   50.0
-250.0   150.0   33.333333333333336
-250.0   120.0   50.0
-200.0   150.0   50.0
-200.0   120.0   50.0
-200.0   120.0   33.333333333333336
-250.0   120.0   50.0
-200.0   150.0   50.0
-200.0   120.0   33.333333333333336
-250.0   150.0   33.333333333333336
-200.0   0.0   0.0
-150.0   0.0   0.0
-200.0   30.0   0.0
-200.0   0.0   16.666666666666668
-150.0   0.0   0.0
-150.0   30.0   0.0
-200.0   30.0   0.0
-150.0   30.0   16.666666666666668
-200.0   0.0   16.666666666666668
-200.0   30.0   16.666666666666668
-150.0   30.0   16.666666666666668
-200.0   30.0   0.0
-200.0   0.0   16.666666666666668
-150.0   30.0   16.666666666666668
-150.0   0.0   16.666666666666668
-150.0   0.0   0.0
-200.0   0.0   16.666666666666668
-150.0   30.0   16.666666666666668
-150.0   0.0   0.0
-200.0   30.0   0.0
-200.0   0.0   16.666666666666668
-150.0   0.0   16.666666666666668
-200.0   30.0   16.666666666666668
-200.0   0.0   33.333333333333336
-150.0   0.0   16.666666666666668
-150.0   30.0   16.666666666666668
-200.0   30.0   16.666666666666668
-150.0   30.0   33.333333333333336
-200.0   0.0   33.333333333333336
-200.0   30.0   33.333333333333336
-150.0   30.0   33.333333333333336
-200.0   30.0   16.666666666666668
-200.0   0.0   33.333333333333336
-150.0   30.0   33.333333333333336
-150.0   0.0   33.333333333333336
-150.0   0.0   16.666666666666668
-200.0   0.0   33.333333333333336
-150.0   30.0   33.333333333333336
-150.0   0.0   16.666666666666668
-200.0   30.0   16.666666666666668
-200.0   0.0   33.333333333333336
-150.0   0.0   33.333333333333336
-200.0   30.0   33.333333333333336
-200.0   0.0   50.0
-150.0   0.0   33.333333333333336
-150.0   30.0   33.333333333333336
-200.0   30.0   33.333333333333336
-150.0   30.0   50.0
-200.0   0.0   50.0
-200.0   30.0   50.0
-150.0   30.0   50.0
-200.0   30.0   33.333333333333336
-200.0   0.0   50.0
-150.0   30.0   50.0
-150.0   0.0   50.0
-150.0   0.0   33.333333333333336
-200.0   0.0   50.0
-150.0   30.0   50.0
-150.0   0.0   33.333333333333336
-200.0   30.0   33.333333333333336
-200.0   30.0   0.0
-150.0   30.0   0.0
-200.0   60.0   0.0
-200.0   30.0   16.666666666666668
-150.0   30.0   0.0
-150.0   60.0   0.0
-200.0   60.0   0.0
-150.0   60.0   16.666666666666668
-200.0   30.0   16.666666666666668
-200.0   60.0   16.666666666666668
-150.0   60.0   16.666666666666668
-200.0   60.0   0.0
-200.0   30.0   16.666666666666668
-150.0   60.0   16.666666666666668
-150.0   30.0   16.666666666666668
-150.0   30.0   0.0
-200.0   30.0   16.666666666666668
-150.0   60.0   16.666666666666668
-150.0   30.0   0.0
-200.0   60.0   0.0
-200.0   30.0   16.666666666666668
-150.0   30.0   16.666666666666668
-200.0   60.0   16.666666666666668
-200.0   30.0   33.333333333333336
-150.0   30.0   16.666666666666668
-150.0   60.0   16.666666666666668
-200.0   60.0   16.666666666666668
-150.0   60.0   33.333333333333336
-200.0   30.0   33.333333333333336
-200.0   60.0   33.333333333333336
-150.0   60.0   33.333333333333336
-200.0   60.0   16.666666666666668
-200.0   30.0   33.333333333333336
-150.0   60.0   33.333333333333336
-150.0   30.0   33.333333333333336
-150.0   30.0   16.666666666666668
-200.0   30.0   33.333333333333336
-150.0   60.0   33.333333333333336
-150.0   30.0   16.666666666666668
-200.0   60.0   16.666666666666668
-200.0   30.0   33.333333333333336
-150.0   30.0   33.333333333333336
-200.0   60.0   33.333333333333336
-200.0   30.0   50.0
-150.0   30.0   33.333333333333336
-150.0   60.0   33.333333333333336
-200.0   60.0   33.333333333333336
-150.0   60.0   50.0
-200.0   30.0   50.0
-200.0   60.0   50.0
-150.0   60.0   50.0
-200.0   60.0   33.333333333333336
-200.0   30.0   50.0
-150.0   60.0   50.0
-150.0   30.0   50.0
-150.0   30.0   33.333333333333336
-200.0   30.0   50.0
-150.0   60.0   50.0
-150.0   30.0   33.333333333333336
-200.0   60.0   33.333333333333336
-200.0   60.0   0.0
-150.0   60.0   0.0
-200.0   90.0   0.0
-200.0   60.0   16.666666666666668
-150.0   60.0   0.0
-150.0   90.0   0.0
-200.0   90.0   0.0
-150.0   90.0   16.666666666666668
-200.0   60.0   16.666666666666668
-200.0   90.0   16.666666666666668
-150.0   90.0   16.666666666666668
-200.0   90.0   0.0
-200.0   60.0   16.666666666666668
-150.0   90.0   16.666666666666668
-150.0   60.0   16.666666666666668
-150.0   60.0   0.0
-200.0   60.0   16.666666666666668
-150.0   90.0   16.666666666666668
-150.0   60.0   0.0
-200.0   90.0   0.0
-200.0   60.0   16.666666666666668
-150.0   60.0   16.666666666666668
-200.0   90.0   16.666666666666668
-200.0   60.0   33.333333333333336
-150.0   60.0   16.666666666666668
-150.0   90.0   16.666666666666668
-200.0   90.0   16.666666666666668
-150.0   90.0   33.333333333333336
-200.0   60.0   33.333333333333336
-200.0   90.0   33.333333333333336
-150.0   90.0   33.333333333333336
-200.0   90.0   16.666666666666668
-200.0   60.0   33.333333333333336
-150.0   90.0   33.333333333333336
-150.0   60.0   33.333333333333336
-150.0   60.0   16.666666666666668
-200.0   60.0   33.333333333333336
-150.0   90.0   33.333333333333336
-150.0   60.0   16.666666666666668
-200.0   90.0   16.666666666666668
-200.0   60.0   33.333333333333336
-150.0   60.0   33.333333333333336
-200.0   90.0   33.333333333333336
-200.0   60.0   50.0
-150.0   60.0   33.333333333333336
-150.0   90.0   33.333333333333336
-200.0   90.0   33.333333333333336
-150.0   90.0   50.0
-200.0   60.0   50.0
-200.0   90.0   50.0
-150.0   90.0   50.0
-200.0   90.0   33.333333333333336
-200.0   60.0   50.0
-150.0   90.0   50.0
-150.0   60.0   50.0
-150.0   60.0   33.333333333333336
-200.0   60.0   50.0
-150.0   90.0   50.0
-150.0   60.0   33.333333333333336
-200.0   90.0   33.333333333333336
-200.0   90.0   0.0
-150.0   90.0   0.0
-200.0   120.0   0.0
-200.0   90.0   16.666666666666668
-150.0   90.0   0.0
-150.0   120.0   0.0
-200.0   120.0   0.0
-150.0   120.0   16.666666666666668
-200.0   90.0   16.666666666666668
-200.0   120.0   16.666666666666668
-150.0   120.0   16.666666666666668
-200.0   120.0   0.0
-200.0   90.0   16.666666666666668
-150.0   120.0   16.666666666666668
-150.0   90.0   16.666666666666668
-150.0   90.0   0.0
-200.0   90.0   16.666666666666668
-150.0   120.0   16.666666666666668
-150.0   90.0   0.0
-200.0   120.0   0.0
-200.0   90.0   16.666666666666668
-150.0   90.0   16.666666666666668
-200.0   120.0   16.666666666666668
-200.0   90.0   33.333333333333336
-150.0   90.0   16.666666666666668
-150.0   120.0   16.666666666666668
-200.0   120.0   16.666666666666668
-150.0   120.0   33.333333333333336
-200.0   90.0   33.333333333333336
-200.0   120.0   33.333333333333336
-150.0   120.0   33.333333333333336
-200.0   120.0   16.666666666666668
-200.0   90.0   33.333333333333336
-150.0   120.0   33.333333333333336
-150.0   90.0   33.333333333333336
-150.0   90.0   16.666666666666668
-200.0   90.0   33.333333333333336
-150.0   120.0   33.333333333333336
-150.0   90.0   16.666666666666668
-200.0   120.0   16.666666666666668
-200.0   90.0   33.333333333333336
-150.0   90.0   33.333333333333336
-200.0   120.0   33.333333333333336
-200.0   90.0   50.0
-150.0   90.0   33.333333333333336
-150.0   120.0   33.333333333333336
-200.0   120.0   33.333333333333336
-150.0   120.0   50.0
-200.0   90.0   50.0
-200.0   120.0   50.0
-150.0   120.0   50.0
-200.0   120.0   33.333333333333336
-200.0   90.0   50.0
-150.0   120.0   50.0
-150.0   90.0   50.0
-150.0   90.0   33.333333333333336
-200.0   90.0   50.0
-150.0   120.0   50.0
-150.0   90.0   33.333333333333336
-200.0   120.0   33.333333333333336
-200.0   120.0   0.0
-150.0   120.0   0.0
-200.0   150.0   0.0
-200.0   120.0   16.666666666666668
-150.0   120.0   0.0
-150.0   150.0   0.0
-200.0   150.0   0.0
-150.0   150.0   16.666666666666668
-200.0   120.0   16.666666666666668
-200.0   150.0   16.666666666666668
-150.0   150.0   16.666666666666668
-200.0   150.0   0.0
-200.0   120.0   16.666666666666668
-150.0   150.0   16.666666666666668
-150.0   120.0   16.666666666666668
-150.0   120.0   0.0
-200.0   120.0   16.666666666666668
-150.0   150.0   16.666666666666668
-150.0   120.0   0.0
-200.0   150.0   0.0
-200.0   120.0   16.666666666666668
-150.0   120.0   16.666666666666668
-200.0   150.0   16.666666666666668
-200.0   120.0   33.333333333333336
-150.0   120.0   16.666666666666668
-150.0   150.0   16.666666666666668
-200.0   150.0   16.666666666666668
-150.0   150.0   33.333333333333336
-200.0   120.0   33.333333333333336
-200.0   150.0   33.333333333333336
-150.0   150.0   33.333333333333336
-200.0   150.0   16.666666666666668
-200.0   120.0   33.333333333333336
-150.0   150.0   33.333333333333336
-150.0   120.0   33.333333333333336
-150.0   120.0   16.666666666666668
-200.0   120.0   33.333333333333336
-150.0   150.0   33.333333333333336
-150.0   120.0   16.666666666666668
-200.0   150.0   16.666666666666668
-200.0   120.0   33.333333333333336
-150.0   120.0   33.333333333333336
-200.0   150.0   33.333333333333336
-200.0   120.0   50.0
-150.0   120.0   33.333333333333336
-150.0   150.0   33.333333333333336
-200.0   150.0   33.333333333333336
-150.0   150.0   50.0
-200.0   120.0   50.0
-200.0   150.0   50.0
-150.0   150.0   50.0
-200.0   150.0   33.333333333333336
-200.0   120.0   50.0
-150.0   150.0   50.0
-150.0   120.0   50.0
-150.0   120.0   33.333333333333336
-200.0   120.0   50.0
-150.0   150.0   50.0
-150.0   120.0   33.333333333333336
-200.0   150.0   33.333333333333336
-150.0   0.0   0.0
-100.0   0.0   0.0
-150.0   30.0   0.0
-150.0   0.0   16.666666666666668
-100.0   0.0   0.0
-100.0   30.0   0.0
-150.0   30.0   0.0
-100.0   30.0   16.666666666666668
-150.0   0.0   16.666666666666668
-150.0   30.0   16.666666666666668
-100.0   30.0   16.666666666666668
-150.0   30.0   0.0
-150.0   0.0   16.666666666666668
-100.0   30.0   16.666666666666668
-100.0   0.0   16.666666666666668
-100.0   0.0   0.0
-150.0   0.0   16.666666666666668
-100.0   30.0   16.666666666666668
-100.0   0.0   0.0
-150.0   30.0   0.0
-150.0   0.0   16.666666666666668
-100.0   0.0   16.666666666666668
-150.0   30.0   16.666666666666668
-150.0   0.0   33.333333333333336
-100.0   0.0   16.666666666666668
-100.0   30.0   16.666666666666668
-150.0   30.0   16.666666666666668
-100.0   30.0   33.333333333333336
-150.0   0.0   33.333333333333336
-150.0   30.0   33.333333333333336
-100.0   30.0   33.333333333333336
-150.0   30.0   16.666666666666668
-150.0   0.0   33.333333333333336
-100.0   30.0   33.333333333333336
-100.0   0.0   33.333333333333336
-100.0   0.0   16.666666666666668
-150.0   0.0   33.333333333333336
-100.0   30.0   33.333333333333336
-100.0   0.0   16.666666666666668
-150.0   30.0   16.666666666666668
-150.0   0.0   33.333333333333336
-100.0   0.0   33.333333333333336
-150.0   30.0   33.333333333333336
-150.0   0.0   50.0
-100.0   0.0   33.333333333333336
-100.0   30.0   33.333333333333336
-150.0   30.0   33.333333333333336
-100.0   30.0   50.0
-150.0   0.0   50.0
-150.0   30.0   50.0
-100.0   30.0   50.0
-150.0   30.0   33.333333333333336
-150.0   0.0   50.0
-100.0   30.0   50.0
-100.0   0.0   50.0
-100.0   0.0   33.333333333333336
-150.0   0.0   50.0
-100.0   30.0   50.0
-100.0   0.0   33.333333333333336
-150.0   30.0   33.333333333333336
-150.0   30.0   0.0
-100.0   30.0   0.0
-150.0   60.0   0.0
-150.0   30.0   16.666666666666668
-100.0   30.0   0.0
-100.0   60.0   0.0
-150.0   60.0   0.0
-100.0   60.0   16.666666666666668
-150.0   30.0   16.666666666666668
-150.0   60.0   16.666666666666668
-100.0   60.0   16.666666666666668
-150.0   60.0   0.0
-150.0   30.0   16.666666666666668
-100.0   60.0   16.666666666666668
-100.0   30.0   16.666666666666668
-100.0   30.0   0.0
-150.0   30.0   16.666666666666668
-100.0   60.0   16.666666666666668
-100.0   30.0   0.0
-150.0   60.0   0.0
-150.0   30.0   16.666666666666668
-100.0   30.0   16.666666666666668
-150.0   60.0   16.666666666666668
-150.0   30.0   33.333333333333336
-100.0   30.0   16.666666666666668
-100.0   60.0   16.666666666666668
-150.0   60.0   16.666666666666668
-100.0   60.0   33.333333333333336
-150.0   30.0   33.333333333333336
-150.0   60.0   33.333333333333336
-100.0   60.0   33.333333333333336
-150.0   60.0   16.666666666666668
-150.0   30.0   33.333333333333336
-100.0   60.0   33.333333333333336
-100.0   30.0   33.333333333333336
-100.0   30.0   16.666666666666668
-150.0   30.0   33.333333333333336
-100.0   60.0   33.333333333333336
-100.0   30.0   16.666666666666668
-150.0   60.0   16.666666666666668
-150.0   30.0   33.333333333333336
-100.0   30.0   33.333333333333336
-150.0   60.0   33.333333333333336
-150.0   30.0   50.0
-100.0   30.0   33.333333333333336
-100.0   60.0   33.333333333333336
-150.0   60.0   33.333333333333336
-100.0   60.0   50.0
-150.0   30.0   50.0
-150.0   60.0   50.0
-100.0   60.0   50.0
-150.0   60.0   33.333333333333336
-150.0   30.0   50.0
-100.0   60.0   50.0
-100.0   30.0   50.0
-100.0   30.0   33.333333333333336
-150.0   30.0   50.0
-100.0   60.0   50.0
-100.0   30.0   33.333333333333336
-150.0   60.0   33.333333333333336
-150.0   60.0   0.0
-100.0   60.0   0.0
-150.0   90.0   0.0
-150.0   60.0   16.666666666666668
-100.0   60.0   0.0
-100.0   90.0   0.0
-150.0   90.0   0.0
-100.0   90.0   16.666666666666668
-150.0   60.0   16.666666666666668
-150.0   90.0   16.666666666666668
-100.0   90.0   16.666666666666668
-150.0   90.0   0.0
-150.0   60.0   16.666666666666668
-100.0   90.0   16.666666666666668
-100.0   60.0   16.666666666666668
-100.0   60.0   0.0
-150.0   60.0   16.666666666666668
-100.0   90.0   16.666666666666668
-100.0   60.0   0.0
-150.0   90.0   0.0
-150.0   60.0   16.666666666666668
-100.0   60.0   16.666666666666668
-150.0   90.0   16.666666666666668
-150.0   60.0   33.333333333333336
-100.0   60.0   16.666666666666668
-100.0   90.0   16.666666666666668
-150.0   90.0   16.666666666666668
-100.0   90.0   33.333333333333336
-150.0   60.0   33.333333333333336
-150.0   90.0   33.333333333333336
-100.0   90.0   33.333333333333336
-150.0   90.0   16.666666666666668
-150.0   60.0   33.333333333333336
-100.0   90.0   33.333333333333336
-100.0   60.0   33.333333333333336
-100.0   60.0   16.666666666666668
-150.0   60.0   33.333333333333336
-100.0   90.0   33.333333333333336
-100.0   60.0   16.666666666666668
-150.0   90.0   16.666666666666668
-150.0   60.0   33.333333333333336
-100.0   60.0   33.333333333333336
-150.0   90.0   33.333333333333336
-150.0   60.0   50.0
-100.0   60.0   33.333333333333336
-100.0   90.0   33.333333333333336
-150.0   90.0   33.333333333333336
-100.0   90.0   50.0
-150.0   60.0   50.0
-150.0   90.0   50.0
-100.0   90.0   50.0
-150.0   90.0   33.333333333333336
-150.0   60.0   50.0
-100.0   90.0   50.0
-100.0   60.0   50.0
-100.0   60.0   33.333333333333336
-150.0   60.0   50.0
-100.0   90.0   50.0
-100.0   60.0   33.333333333333336
-150.0   90.0   33.333333333333336
-150.0   90.0   0.0
-100.0   90.0   0.0
-150.0   120.0   0.0
-150.0   90.0   16.666666666666668
-100.0   90.0   0.0
-100.0   120.0   0.0
-150.0   120.0   0.0
-100.0   120.0   16.666666666666668
-150.0   90.0   16.666666666666668
-150.0   120.0   16.666666666666668
-100.0   120.0   16.666666666666668
-150.0   120.0   0.0
-150.0   90.0   16.666666666666668
-100.0   120.0   16.666666666666668
-100.0   90.0   16.666666666666668
-100.0   90.0   0.0
-150.0   90.0   16.666666666666668
-100.0   120.0   16.666666666666668
-100.0   90.0   0.0
-150.0   120.0   0.0
-150.0   90.0   16.666666666666668
-100.0   90.0   16.666666666666668
-150.0   120.0   16.666666666666668
-150.0   90.0   33.333333333333336
-100.0   90.0   16.666666666666668
-100.0   120.0   16.666666666666668
-150.0   120.0   16.666666666666668
-100.0   120.0   33.333333333333336
-150.0   90.0   33.333333333333336
-150.0   120.0   33.333333333333336
-100.0   120.0   33.333333333333336
-150.0   120.0   16.666666666666668
-150.0   90.0   33.333333333333336
-100.0   120.0   33.333333333333336
-100.0   90.0   33.333333333333336
-100.0   90.0   16.666666666666668
-150.0   90.0   33.333333333333336
-100.0   120.0   33.333333333333336
-100.0   90.0   16.666666666666668
-150.0   120.0   16.666666666666668
-150.0   90.0   33.333333333333336
-100.0   90.0   33.333333333333336
-150.0   120.0   33.333333333333336
-150.0   90.0   50.0
-100.0   90.0   33.333333333333336
-100.0   120.0   33.333333333333336
-150.0   120.0   33.333333333333336
-100.0   120.0   50.0
-150.0   90.0   50.0
-150.0   120.0   50.0
-100.0   120.0   50.0
-150.0   120.0   33.333333333333336
-150.0   90.0   50.0
-100.0   120.0   50.0
-100.0   90.0   50.0
-100.0   90.0   33.333333333333336
-150.0   90.0   50.0
-100.0   120.0   50.0
-100.0   90.0   33.333333333333336
-150.0   120.0   33.333333333333336
-150.0   120.0   0.0
-100.0   120.0   0.0
-150.0   150.0   0.0
-150.0   120.0   16.666666666666668
-100.0   120.0   0.0
-100.0   150.0   0.0
-150.0   150.0   0.0
-100.0   150.0   16.666666666666668
-150.0   120.0   16.666666666666668
-150.0   150.0   16.666666666666668
-100.0   150.0   16.666666666666668
-150.0   150.0   0.0
-150.0   120.0   16.666666666666668
-100.0   150.0   16.666666666666668
-100.0   120.0   16.666666666666668
-100.0   120.0   0.0
-150.0   120.0   16.666666666666668
-100.0   150.0   16.666666666666668
-100.0   120.0   0.0
-150.0   150.0   0.0
-150.0   120.0   16.666666666666668
-100.0   120.0   16.666666666666668
-150.0   150.0   16.666666666666668
-150.0   120.0   33.333333333333336
-100.0   120.0   16.666666666666668
-100.0   150.0   16.666666666666668
-150.0   150.0   16.666666666666668
-100.0   150.0   33.333333333333336
-150.0   120.0   33.333333333333336
-150.0   150.0   33.333333333333336
-100.0   150.0   33.333333333333336
-150.0   150.0   16.666666666666668
-150.0   120.0   33.333333333333336
-100.0   150.0   33.333333333333336
-100.0   120.0   33.333333333333336
-100.0   120.0   16.666666666666668
-150.0   120.0   33.333333333333336
-100.0   150.0   33.333333333333336
-100.0   120.0   16.666666666666668
-150.0   150.0   16.666666666666668
-150.0   120.0   33.333333333333336
-100.0   120.0   33.333333333333336
-150.0   150.0   33.333333333333336
-150.0   120.0   50.0
-100.0   120.0   33.333333333333336
-100.0   150.0   33.333333333333336
-150.0   150.0   33.333333333333336
-100.0   150.0   50.0
-150.0   120.0   50.0
-150.0   150.0   50.0
-100.0   150.0   50.0
-150.0   150.0   33.333333333333336
-150.0   120.0   50.0
-100.0   150.0   50.0
-100.0   120.0   50.0
-100.0   120.0   33.333333333333336
-150.0   120.0   50.0
-100.0   150.0   50.0
-100.0   120.0   33.333333333333336
-150.0   150.0   33.333333333333336
-100.0   0.0   0.0
-50.0   0.0   0.0
-100.0   30.0   0.0
-100.0   0.0   16.666666666666668
-50.0   0.0   0.0
-50.0   30.0   0.0
-100.0   30.0   0.0
-50.0   30.0   16.666666666666668
-100.0   0.0   16.666666666666668
-100.0   30.0   16.666666666666668
-50.0   30.0   16.666666666666668
-100.0   30.0   0.0
-100.0   0.0   16.666666666666668
-50.0   30.0   16.666666666666668
-50.0   0.0   16.666666666666668
-50.0   0.0   0.0
-100.0   0.0   16.666666666666668
-50.0   30.0   16.666666666666668
-50.0   0.0   0.0
-100.0   30.0   0.0
-100.0   0.0   16.666666666666668
-50.0   0.0   16.666666666666668
-100.0   30.0   16.666666666666668
-100.0   0.0   33.333333333333336
-50.0   0.0   16.666666666666668
-50.0   30.0   16.666666666666668
-100.0   30.0   16.666666666666668
-50.0   30.0   33.333333333333336
-100.0   0.0   33.333333333333336
-100.0   30.0   33.333333333333336
-50.0   30.0   33.333333333333336
-100.0   30.0   16.666666666666668
-100.0   0.0   33.333333333333336
-50.0   30.0   33.333333333333336
-50.0   0.0   33.333333333333336
-50.0   0.0   16.666666666666668
-100.0   0.0   33.333333333333336
-50.0   30.0   33.333333333333336
-50.0   0.0   16.666666666666668
-100.0   30.0   16.666666666666668
-100.0   0.0   33.333333333333336
-50.0   0.0   33.333333333333336
-100.0   30.0   33.333333333333336
-100.0   0.0   50.0
-50.0   0.0   33.333333333333336
-50.0   30.0   33.333333333333336
-100.0   30.0   33.333333333333336
-50.0   30.0   50.0
-100.0   0.0   50.0
-100.0   30.0   50.0
-50.0   30.0   50.0
-100.0   30.0   33.333333333333336
-100.0   0.0   50.0
-50.0   30.0   50.0
-50.0   0.0   50.0
-50.0   0.0   33.333333333333336
-100.0   0.0   50.0
-50.0   30.0   50.0
-50.0   0.0   33.333333333333336
-100.0   30.0   33.333333333333336
-100.0   30.0   0.0
-50.0   30.0   0.0
-100.0   60.0   0.0
-100.0   30.0   16.666666666666668
-50.0   30.0   0.0
-50.0   60.0   0.0
-100.0   60.0   0.0
-50.0   60.0   16.666666666666668
-100.0   30.0   16.666666666666668
-100.0   60.0   16.666666666666668
-50.0   60.0   16.666666666666668
-100.0   60.0   0.0
-100.0   30.0   16.666666666666668
-50.0   60.0   16.666666666666668
-50.0   30.0   16.666666666666668
-50.0   30.0   0.0
-100.0   30.0   16.666666666666668
-50.0   60.0   16.666666666666668
-50.0   30.0   0.0
-100.0   60.0   0.0
-100.0   30.0   16.666666666666668
-50.0   30.0   16.666666666666668
-100.0   60.0   16.666666666666668
-100.0   30.0   33.333333333333336
-50.0   30.0   16.666666666666668
-50.0   60.0   16.666666666666668
-100.0   60.0   16.666666666666668
-50.0   60.0   33.333333333333336
-100.0   30.0   33.333333333333336
-100.0   60.0   33.333333333333336
-50.0   60.0   33.333333333333336
-100.0   60.0   16.666666666666668
-100.0   30.0   33.333333333333336
-50.0   60.0   33.333333333333336
-50.0   30.0   33.333333333333336
-50.0   30.0   16.666666666666668
-100.0   30.0   33.333333333333336
-50.0   60.0   33.333333333333336
-50.0   30.0   16.666666666666668
-100.0   60.0   16.666666666666668
-100.0   30.0   33.333333333333336
-50.0   30.0   33.333333333333336
-100.0   60.0   33.333333333333336
-100.0   30.0   50.0
-50.0   30.0   33.333333333333336
-50.0   60.0   33.333333333333336
-100.0   60.0   33.333333333333336
-50.0   60.0   50.0
-100.0   30.0   50.0
-100.0   60.0   50.0
-50.0   60.0   50.0
-100.0   60.0   33.333333333333336
-100.0   30.0   50.0
-50.0   60.0   50.0
-50.0   30.0   50.0
-50.0   30.0   33.333333333333336
-100.0   30.0   50.0
-50.0   60.0   50.0
-50.0   30.0   33.333333333333336
-100.0   60.0   33.333333333333336
-100.0   60.0   0.0
-50.0   60.0   0.0
-100.0   90.0   0.0
-100.0   60.0   16.666666666666668
-50.0   60.0   0.0
-50.0   90.0   0.0
-100.0   90.0   0.0
-50.0   90.0   16.666666666666668
-100.0   60.0   16.666666666666668
-100.0   90.0   16.666666666666668
-50.0   90.0   16.666666666666668
-100.0   90.0   0.0
-100.0   60.0   16.666666666666668
-50.0   90.0   16.666666666666668
-50.0   60.0   16.666666666666668
-50.0   60.0   0.0
-100.0   60.0   16.666666666666668
-50.0   90.0   16.666666666666668
-50.0   60.0   0.0
-100.0   90.0   0.0
-100.0   60.0   16.666666666666668
-50.0   60.0   16.666666666666668
-100.0   90.0   16.666666666666668
-100.0   60.0   33.333333333333336
-50.0   60.0   16.666666666666668
-50.0   90.0   16.666666666666668
-100.0   90.0   16.666666666666668
-50.0   90.0   33.333333333333336
-100.0   60.0   33.333333333333336
-100.0   90.0   33.333333333333336
-50.0   90.0   33.333333333333336
-100.0   90.0   16.666666666666668
-100.0   60.0   33.333333333333336
-50.0   90.0   33.333333333333336
-50.0   60.0   33.333333333333336
-50.0   60.0   16.666666666666668
-100.0   60.0   33.333333333333336
-50.0   90.0   33.333333333333336
-50.0   60.0   16.666666666666668
-100.0   90.0   16.666666666666668
-100.0   60.0   33.333333333333336
-50.0   60.0   33.333333333333336
-100.0   90.0   33.333333333333336
-100.0   60.0   50.0
-50.0   60.0   33.333333333333336
-50.0   90.0   33.333333333333336
-100.0   90.0   33.333333333333336
-50.0   90.0   50.0
-100.0   60.0   50.0
-100.0   90.0   50.0
-50.0   90.0   50.0
-100.0   90.0   33.333333333333336
-100.0   60.0   50.0
-50.0   90.0   50.0
-50.0   60.0   50.0
-50.0   60.0   33.333333333333336
-100.0   60.0   50.0
-50.0   90.0   50.0
-50.0   60.0   33.333333333333336
-100.0   90.0   33.333333333333336
-100.0   90.0   0.0
-50.0   90.0   0.0
-100.0   120.0   0.0
-100.0   90.0   16.666666666666668
-50.0   90.0   0.0
-50.0   120.0   0.0
-100.0   120.0   0.0
-50.0   120.0   16.666666666666668
-100.0   90.0   16.666666666666668
-100.0   120.0   16.666666666666668
-50.0   120.0   16.666666666666668
-100.0   120.0   0.0
-100.0   90.0   16.666666666666668
-50.0   120.0   16.666666666666668
-50.0   90.0   16.666666666666668
-50.0   90.0   0.0
-100.0   90.0   16.666666666666668
-50.0   120.0   16.666666666666668
-50.0   90.0   0.0
-100.0   120.0   0.0
-100.0   90.0   16.666666666666668
-50.0   90.0   16.666666666666668
-100.0   120.0   16.666666666666668
-100.0   90.0   33.333333333333336
-50.0   90.0   16.666666666666668
-50.0   120.0   16.666666666666668
-100.0   120.0   16.666666666666668
-50.0   120.0   33.333333333333336
-100.0   90.0   33.333333333333336
-100.0   120.0   33.333333333333336
-50.0   120.0   33.333333333333336
-100.0   120.0   16.666666666666668
-100.0   90.0   33.333333333333336
-50.0   120.0   33.333333333333336
-50.0   90.0   33.333333333333336
-50.0   90.0   16.666666666666668
-100.0   90.0   33.333333333333336
-50.0   120.0   33.333333333333336
-50.0   90.0   16.666666666666668
-100.0   120.0   16.666666666666668
-100.0   90.0   33.333333333333336
-50.0   90.0   33.333333333333336
-100.0   120.0   33.333333333333336
-100.0   90.0   50.0
-50.0   90.0   33.333333333333336
-50.0   120.0   33.333333333333336
-100.0   120.0   33.333333333333336
-50.0   120.0   50.0
-100.0   90.0   50.0
-100.0   120.0   50.0
-50.0   120.0   50.0
-100.0   120.0   33.333333333333336
-100.0   90.0   50.0
-50.0   120.0   50.0
-50.0   90.0   50.0
-50.0   90.0   33.333333333333336
-100.0   90.0   50.0
-50.0   120.0   50.0
-50.0   90.0   33.333333333333336
-100.0   120.0   33.333333333333336
-100.0   120.0   0.0
-50.0   120.0   0.0
-100.0   150.0   0.0
-100.0   120.0   16.666666666666668
-50.0   120.0   0.0
-50.0   150.0   0.0
-100.0   150.0   0.0
-50.0   150.0   16.666666666666668
-100.0   120.0   16.666666666666668
-100.0   150.0   16.666666666666668
-50.0   150.0   16.666666666666668
-100.0   150.0   0.0
-100.0   120.0   16.666666666666668
-50.0   150.0   16.666666666666668
-50.0   120.0   16.666666666666668
-50.0   120.0   0.0
-100.0   120.0   16.666666666666668
-50.0   150.0   16.666666666666668
-50.0   120.0   0.0
-100.0   150.0   0.0
-100.0   120.0   16.666666666666668
-50.0   120.0   16.666666666666668
-100.0   150.0   16.666666666666668
-100.0   120.0   33.333333333333336
-50.0   120.0   16.666666666666668
-50.0   150.0   16.666666666666668
-100.0   150.0   16.666666666666668
-50.0   150.0   33.333333333333336
-100.0   120.0   33.333333333333336
-100.0   150.0   33.333333333333336
-50.0   150.0   33.333333333333336
-100.0   150.0   16.666666666666668
-100.0   120.0   33.333333333333336
-50.0   150.0   33.333333333333336
-50.0   120.0   33.333333333333336
-50.0   120.0   16.666666666666668
-100.0   120.0   33.333333333333336
-50.0   150.0   33.333333333333336
-50.0   120.0   16.666666666666668
-100.0   150.0   16.666666666666668
-100.0   120.0   33.333333333333336
-50.0   120.0   33.333333333333336
-100.0   150.0   33.333333333333336
-100.0   120.0   50.0
-50.0   120.0   33.333333333333336
-50.0   150.0   33.333333333333336
-100.0   150.0   33.333333333333336
-50.0   150.0   50.0
-100.0   120.0   50.0
-100.0   150.0   50.0
-50.0   150.0   50.0
-100.0   150.0   33.333333333333336
-100.0   120.0   50.0
-50.0   150.0   50.0
-50.0   120.0   50.0
-50.0   120.0   33.333333333333336
-100.0   120.0   50.0
-50.0   150.0   50.0
-50.0   120.0   33.333333333333336
-100.0   150.0   33.333333333333336
-50.0   0.0   0.0
0.0   0.0   0.0
-50.0   30.0   0.0
-50.0   0.0   16.666666666666668
0.0   0.0   0.0
0.0   30.0   0.0
-50.0   30.0   0.0
0.0   30.0   16.666666666666668
-50.0   0.0   16.666666666666668
-50.0   30.0   16.666666666666668
0.0   30.0   16.666666666666668
-50.0   30.0   0.0
-50.0   0.0   16.666666666666668
0.0   30.0   16.666666666666668
0.0   0.0   16.666666666666668
0.0   0.0   0.0
-50.0   0.0   16.666666666666668
0.0   30.0   16.666666666666668
0.0   0.0   0.0
-50.0   30.0   0.0
-50.0   0.0   16.666666666666668
0.0   0.0   16.666666666666668
-50.0   30.0   16.666666666666668
-50.0   0.0   33.333333333333336
0.0   0.0   16.666666666666668
0.0   30.0   16.666666666666668
-50.0   30.0   16.666666666666668
0.0   30.0   33.333333333333336
-50.0   0.0   33.333333333333336
-50.0   30.0   33.333333333333336
0.0   30.0   33.333333333333336
-50.0   30.0   16.666666666666668
-50.0   0.0   33.333333333333336
0.0   30.0   33.333333333333336
0.0   0.0   33.333333333333336
0.0   0.0   16.666666666666668
-50.0   0.0   33.333333333333336
0.0   30.0   33.333333333333336
0.0   0.0   16.666666666666668
-50.0   30.0   16.666666666666668
-50.0   0.0   33.333333333333336
0.0   0.0   33.333333333333336
-50.0   30.0   33.333333333333336
-50.0   0.0   50.0
0.0   0.0   33.333333333333336
0.0   30.0   33.333333333333336
-50.0   30.0   33.333333333333336
0.0   30.0   50.0
-50.0   0.0   50.0
-50.0   30.0   50.0
0.0   30.0   50.0
-50.0   30.0   33.333333333333336
-50.0   0.0   50.0
0.0   30.0   50.0
0.0   0.0   50.0
0.0   0.0   33.333333333333336
-50.0   0.0   50.0
0.0   30.0   50.0
0.0   0.0   33.333333333333336
-50.0   30.0   33.333333333333336
-50.0   30.0   0.0
0.0   30.0   0.0
-50.0   60.0   0.0
-50.0   30.0   16.666666666666668
0.0   30.0   0.0
0.0   60.0   0.0
-50.0   60.0   0.0
0.0   60.0   16.666666666666668
-50.0   30.0   16.666666666666668
-50.0   60.0   16.666666666666668
0.0   60.0   16.666666666666668
-50.0   60.0   0.0
-50.0   30.0   16.666666666666668
0.0   60.0   16.666666666666668
0.0   30.0   16.666666666666668
0.0   30.0   0.0
-50.0   30.0   16.666666666666668
0.0   60.0   16.666666666666668
0.0   30.0   0.0
-50.0   60.0   0.0
-50.0   30.0   16.666666666666668
0.0   30.0   16.666666666666668
-50.0   60.0   16.666666666666668
-50.0   30.0   33.333333333333336
0.0   30.0   16.666666666666668
0.0   60.0   16.666666666666668
-50.0   60.0   16.666666666666668
0.0   60.0   33.333333333333336
-50.0   30.0   33.333333333333336
-50.0   60.0   33.333333333333336
0.0   60.0   33.333333333333336
-50.0   60.0   16.666666666666668
-50.0   30.0   33.333333333333336
0.0   60.0   33.333333333333336
0.0   30.0   33.333333333333336
0.0   30.0   16.666666666666668
-50.0   30.0   33.333333333333336
0.0   60.0   33.333333333333336
0.0   30.0   16.666666666666668
-50.0   60.0   16.666666666666668
-50.0   30.0   33.333333333333336
0.0   30.0   33.333333333333336
-50.0   60.0   33.333333333333336
-50.0   30.0   50.0
0.0   30.0   33.333333333333336
0.0   60.0   33.333333333333336
-50.0   60.0   33.333333333333336
0.0   60.0   50.0
-50.0   30.0   50.0
-50.0   60.0   50.0
0.0   60.0   50.0
-50.0   60.0   33.333333333333336
-50.0   30.0   50.0
0.0   60.0   50.0
0.0   30.0   50.0
0.0   30.0   33.333333333333336
-50.0   30.0   50.0
0.0   60.0   50.0
0.0   30.0   33.333333333333336
-50.0   60.0   33.333333333333336
-50.0   60.0   0.0
0.0   60.0   0.0
-50.0   90.0   0.0
-50.0   60.0   16.666666666666668
0.0   60.0   0.0
0.0   90.0   0.0
-50.0   90.0   0.0
0.0   90.0   16.666666666666668
-50.0   60.0   16.666666666666668
-50.0   90.0   16.666666666666668
0.0   90.0   16.666666666666668
-50.0   90.0   0.0
-50.0   60.0   16.666666666666668
0.0   90.0   16.666666666666668
0.0   60.0   16.666666666666668
0.0   60.0   0.0
-50.0   60.0   16.666666666666668
0.0   90.0   16.666666666666668
0.0   60.0   0.0
-50.0   90.0   0.0
-50.0   60.0   16.666666666666668
0.0   60.0   16.666666666666668
-50.0   90.0   16.666666666666668
-50.0   60.0   33.333333333333336
0.0   60.0   16.666666666666668
0.0   90.0   16.666666666666668
-50.0   90.0   16.666666666666668
0.0   90.0   33.333333333333336
-50.0   60.0   33.333333333333336
-50.0   90.0   33.333333333333336
0.0   90.0   33.333333333333336
-50.0   90.0   16.666666666666668
-50.0   60.0   33.333333333333336
0.0   90.0   33.333333333333336
0.0   60.0   33.333333333333336
0.0   60.0   16.666666666666668
-50.0   60.0   33.333333333333336
0.0   90.0   33.333333333333336
0.0   60.0   16.666666666666668
-50.0   90.0   16.666666666666668
-50.0   60.0   33.333333333333336
0.0   60.0   33.333333333333336
-50.0   90.0   33.333333333333336
-50.0   60.0   50.0
0.0   60.0   33.333333333333336
0.0   90.0   33.333333333333336
-50.0   90.0   33.333333333333336
0.0   90.0   50.0
-50.0   60.0   50.0
-50.0   90.0   50.0
0.0   90.0   50.0
-50.0   90.0   33.333333333333336
-50.0   60.0   50.0
0.0   90.0   50.0
0.0   60.0   50.0
0.0   60.0   33.333333333333336
-50.0   60.0   50.0
0.0   90.0   50.0
0.0   60.0   33.333333333333336
-50.0   90.0   33.333333333333336
-50.0   90.0   0.0
0.0   90.0   0.0
-50.0   120.0   0.0
-50.0   90.0   16.666666666666668
0.0   90.0   0.0
0.0   120.0   0.0
-50.0   120.0   0.0
0.0   120.0   16.666666666666668
-50.0   90.0   16.666666666666668
-50.0   120.0   16.666666666666668
0.0   120.0   16.666666666666668
-50.0   120.0   0.0
-50.0   90.0   16.666666666666668
0.0   120.0   16.666666666666668
0.0   90.0   16.666666666666668
0.0   90.0   0.0
-50.0   90.0   16.666666666666668
0.0   120.0   16.666666666666668
0.0   90.0   0.0
-50.0   120.0   0.0
-50.0   90.0   16.666666666666668
0.0   90.0   16.666666666666668
-50.0   120.0   16.666666666666668
-50.0   90.0   33.333333333333336
0.0   90.0   16.666666666666668
0.0   120.0   16.666666666666668
-50.0   120.0   16.666666666666668
0.0   120.0   33.333333333333336
-50.0   90.0   33.333333333333336
-50.0   120.0   33.333333333333336
0.0   120.0   33.333333333333336
-50.0   120.0   16.666666666666668
-50.0   90.0   33.333333333333336
0.0   120.0   33.333333333333336
0.0   90.0   33.333333333333336
0.0   90.0   16.666666666666668
-50.0   90.0   33.333333333333336
0.0   120.0   33.333333333333336
0.0   90.0   16.666666666666668
-50.0   120.0   16.666666666666668
-50.0   90.0   33.333333333333336
0.0   90.0   33.333333333333336
-50.0   120.0   33.333333333333336
-50.0   90.0   50.0
0.0   90.0   33.333333333333336
0.0   120.0   33.333333333333336
-50.0   120.0   33.333333333333336
0.0   120.0   50.0
-50.0   90.0   50.0
-50.0   120.0   50.0
0.0   120.0   50.0
-50.0   120.0   33.333333333333336
-50.0   90.0   50.0
0.0   120.0   50.0
0.0   90.0   50.0
0.0   90.0   33.333333333333336
-50.0   90.0   50.0
0.0   120.0   50.0
0.0   90.0   33.333333333333336
-50.0   120.0   33.333333333333336
-50.0   120.0   0.0
0.0   120.0   0.0
-50.0   150.0   0.0
-50.0   120.0   16.666666666666668
0.0   120.0   0.0
0.0   150.0   0.0
-50.0   150.0   0.0
0.0   150.0   16.666666666666668
-50.0   120.0   16.666666666666668
-50.0   150.0   16.666666666666668
0.0   150.0   16.666666666666668
-50.0   150.0   0.0
-50.0   120.0   16.666666666666668
0.0   150.0   16.666666666666668
0.0   120.0   16.666666666666668
0.0   120.0   0.0
-50.0   120.0   16.666666666666668
0.0   150.0   16.666666666666668
0.0   120.0   0.0
-50.0   150.0   0.0
-50.0   120.0   16.666666666666668
0.0   120.0   16.666666666666668
-50.0   150.0   16.666666666666668
-50.0   120.0   33.333333333333336
0.0   120.0   16.666666666666668
0.0   150.0   16.666666666666668
-50.0   150.0   16.666666666666668
0.0   150.0   33.333333333333336
-50.0   120.0   33.333333333333336
-50.0   150.0   33.333333333333336
0.0   150.0   33.333333333333336
-50.0   150.0   16.666666666666668
-50.0   120.0   33.333333333333336
0.0   150.0   33.333333333333336
0.0   120.0   33.333333333333336
0.0   120.0   16.666666666666668
-50.0   120.0   33.333333333333336
0.0   150.0   33.333333333333336
0.0   120.0   16.666666666666668
-50.0   150.0   16.666666666666668
-50.0   120.0   33.333333333333336
0.0   120.0   33.333333333333336
-50.0   150.0   33.333333333333336
-50.0   120.0   50.0
0.0   120.0   33.333333333333336
0.0   150.0   33.333333333333336
-50.0   150.0   33.333333333333336
0.0   150.0   50.0
-50.0   120.0   50.0
-50.0   150.0   50.0
0.0   150.0   50.0
-50.0   150.0   33.333333333333336
-50.0   120.0   50.0
0.0   150.0   50.0
0.0   120.0   50.0
0.0   120.0   33.333333333333336
-50.0   120.0   50.0
0.0   150.0   50.0
0.0   120.0   33.333333333333336
-50.0   150.0   33.333333333333336
0.0   0.0   0.0
50.0   0.0   0.0
0.0   30.0   0.0
0.0   0.0   16.666666666666668
50.0   0.0   0.0
50.0   30.0   0.0
0.0   30.0   0.0
50.0   30.0   16.666666666666668
0.0   0.0   16.666666666666668
0.0   30.0   16.666666666666668
50.0   30.0   16.666666666666668
0.0   30.0   0.0
0.0   0.0   16.666666666666668
50.0   30.0   16.666666666666668
50.0   0.0   16.666666666666668
50.0   0.0   0.0
0.0   0.0   16.666666666666668
50.0   30.0   16.666666666666668
50.0   0.0   0.0
0.0   30.0   0.0
0.0   0.0   16.666666666666668
50.0   0.0   16.666666666666668
0.0   30.0   16.666666666666668
0.0   0.0   33.333333333333336
50.0   0.0   16.666666666666668
50.0   30.0   16.666666666666668
0.0   30.0   16.666666666666668
50.0   30.0   33.333333333333336
0.0   0.0   33.333333333333336
0.0   30.0   33.333333333333336
50.0   30.0   33.333333333333336
0.0   30.0   16.666666666666668
0.0   0.0   33.333333333333336
50.0   30.0   33.333333333333336
50.0   0.0   33.333333333333336
50.0   0.0   16.666666666666668
0.0   0.0   33.333333333333336
50.0   30.0   33.333333333333336
50.0   0.0   16.666666666666668
0.0   30.0   16.666666666666668
0.0   0.0   33.333333333333336
50.0   0.0   33.333333333333336
0.0   30.0   33.333333333333336
0.0   0.0   50.0
50.0   0.0   33.333333333333336
50.0   30.0   33.333333333333336
0.0   30.0   33.333333333333336
50.0   30.0   50.0
0.0   0.0   50.0
0.0   30.0   50.0
50.0   30.0   50.0
0.0   30.0   33.333333333333336
0.0   0.0   50.0
50.0   30.0   50.0
50.0   0.0   50.0
50.0   0.0   33.333333333333336
0.0   0.0   50.0
50.0   30.0   50.0
50.0   0.0   33.333333333333336
0.0   30.0   33.333333333333336
0.0   30.0   0.0
50.0   30.0   0.0
0.0   60.0   0.0
0.0   30.0   16.666666666666668
50.0   30.0   0.0
50.0   60.0   0.0
0.0   60.0   0.0
50.0   60.0   16.666666666666668
0.0   30.0   16.666666666666668
0.0   60.0   16.666666666666668
50.0   60.0   16.666666666666668
0.0   60.0   0.0
0.0   30.0   16.666666666666668
50.0   60.0   16.666666666666668
50.0   30.0   16.666666666666668
50.0   30.0   0.0
0.0   30.0   16.666666666666668
50.0   60.0   16.666666666666668
50.0   30.0   0.0
0.0   60.0   0.0
0.0   30.0   16.666666666666668
50.0   30.0   16.666666666666668
0.0   60.0   16.666666666666668
0.0   30.0   33.333333333333336
50.0   30.0   16.666666666666668
50.0   60.0   16.666666666666668
0.0   60.0   16.666666666666668
50.0   60.0   33.333333333333336
0.0   30.0   33.333333333333336
0.0   60.0   33.333333333333336
50.0   60.0   33.333333333333336
0.0   60.0   16.666666666666668
0.0   30.0   33.333333333333336
50.0   60.0   33.333333333333336
50.0   30.0   33.333333333333336
50.0   30.0   16.666666666666668
0.0   30.0   33.333333333333336
50.0   60.0   33.333333333333336
50.0   30.0   16.666666666666668
0.0   60.0   16.666666666666668
0.0   30.0   33.333333333333336
50.0   30.0   33.333333333333336
0.0   60.0   33.333333333333336
0.0   30.0   50.0
50.0   30.0   33.333333333333336
50.0   60.0   33.333333333333336
0.0   60.0   33.333333333333336
50.0   60.0   50.0
0.0   30.0   50.0
0.0   60.0   50.0
50.0   60.0   50.0
0.0   60.0   33.333333333333336
0.0   30.0   50.0
50.0   60.0   50.0
50.0   30.0   50.0
50.0   30.0   33.333333333333336
0.0   30.0   50.0
50.0   60.0   50.0
50.0   30.0   33.333333333333336
0.0   60.0   33.333333333333336
0.0   60.0   0.0
50.0   60.0   0.0
0.0   90.0   0.0
0.0   60.0   16.666666666666668
50.0   60.0   0.0
50.0   90.0   0.0
0.0   90.0   0.0
50.0   90.0   16.666666666666668
0.0   60.0   16.666666666666668
0.0   90.0   16.666666666666668
50.0   90.0   16.666666666666668
0.0   90.0   0.0
0.0   60.0   16.666666666666668
50.0   90.0   16.666666666666668
50.0   60.0   16.666666666666668
50.0   60.0   0.0
0.0   60.0   16.666666666666668
50.0   90.0   16.666666666666668
50.0   60.0   0.0
0.0   90.0   0.0
0.0   60.0   16.666666666666668
50.0   60.0   16.666666666666668
0.0   90.0   16.666666666666668
0.0   60.0   33.333333333333336
50.0   60.0   16.666666666666668
50.0   90.0   16.666666666666668
0.0   90.0   16.666666666666668
50.0   90.0   33.333333333333336
0.0   60.0   33.333333333333336
0.0   90.0   33.333333333333336
50.0   90.0   33.333333333333336
0.0   90.0   16.666666666666668
0.0   60.0   33.333333333333336
50.0   90.0   33.333333333333336
50.0   60.0   33.333333333333336
50.0   60.0   16.666666666666668
0.0   60.0   33.333333333333336
50.0   90.0   33.333333333333336
50.0   60.0   16.666666666666668
0.0   90.0   16.666666666666668
0.0   60.0   33.333333333333336
50.0   60.0   33.333333333333336
0.0   90.0   33.333333333333336
0.0   60.0   50.0
50.0   60.0   33.333333333333336
50.0   90.0   33.333333333333336
0.0   90.0   33.333333333333336
50.0   90.0   50.0
0.0   60.0   50.0
0.0   90.0   50.0
50.0   90.0   50.0
0.0   90.0   33.333333333333336
0.0   60.0   50.0
50.0   90.0   50.0
50.0   60.0   50.0
50.0   60.0   33.333333333333336
0.0   60.0   50.0
50.0   90.0   50.0
50.0   60.0   33.333333333333336
0.0   90.0   33.333333333333336
0.0   90.0   0.0
50.0   90.0   0.0
0.0   120.0   0.0
0.0   90.0   16.666666666666668
50.0   90.0   0.0
50.0   120.0   0.0
0.0   120.0   0.0
50.0   120.0   16.666666666666668
0.0   90.0   16.666666666666668
0.0   120.0   16.666666666666668
50.0   120.0   16.666666666666668
0.0   120.0   0.0
0.0   90.0   16.666666666666668
50.0   120.0   16.666666666666668
50.0   90.0   16.666666666666668
50.0   90.0   0.0
0.0   90.0   16.666666666666668
50.0   120.0   16.666666666666668
50.0   90.0   0.0
0.0   120.0   0.0
0.0   90.0   16.666666666666668
50.0   90.0   16.666666666666668
0.0   120.0   16.666666666666668
0.0   90.0   33.333333333333336
50.0   90.0   16.666666666666668
50.0   120.0   16.666666666666668
0.0   120.0   16.666666666666668
50.0   120.0   33.333333333333336
0.0   90.0   33.333333333333336
0.0   120.0   33.333333333333336
50.0   120.0   33.333333333333336
0.0   120.0   16.666666666666668
0.0   90.0   33.333333333333336
50.0   120.0   33.333333333333336
50.0   90.0   33.333333333333336
50.0   90.0   16.666666666666668
0.0   90.0   33.333333333333336
50.0   120.0   33.333333333333336
50.0   90.0   16.666666666666668
0.0   120.0   16.666666666666668
0.0   90.0   33.333333333333336
50.0   90.0   33.333333333333336
0.0   120.0   33.333333333333336
0.0   90.0   50.0
50.0   90.0   33.333333333333336
50.0   120.0   33.333333333333336
0.0   120.0   33.333333333333336
50.0   120.0   50.0
0.0   90.0   50.0
0.0   120.0   50.0
50.0   120.0   50.0
0.0   120.0   33.333333333333336
0.0   90.0   50.0
50.0   120.0   50.0
50.0   90.0   50.0
50.0   90.0   33.333333333333336
0.0   90.0   50.0
50.0   120.0   50.0
50.0   90.0   33.333333333333336
0.0   120.0   33.333333333333336
0.0   120.0   0.0
50.0   120.0   0.0
0.0   150.0   0.0
0.0   120.0   16.666666666666668
50.0   120.0   0.0
50.0   150.0   0.0
0.0   150.0   0.0
50.0   150.0   16.666666666666668
0.0   120.0   16.666666666666668
0.0   150.0   16.666666666666668
50.0   150.0   16.666666666666668
0.0   150.0   0.0
0.0   120.0   16.666666666666668
50.0   150.0   16.666666666666668
50.0   120.0   16.666666666666668
50.0   120.0   0.0
0.0   120.0   16.666666666666668
50.0   150.0   16.666666666666668
50.0   120.0   0.0
0.0   150.0   0.0
0.0   120.0   16.666666666666668
50.0   120.0   16.666666666666668
0.0   150.0   16.666666666666668
0.0   120.0   33.333333333333336
50.0   120.0   16.666666666666668
50.0   150.0   16.666666666666668
0.0   150.0   16.666666666666668
50.0   150.0   33.333333333333336
0.0   120.0   33.333333333333336
0.0   150.0   33.333333333333336
50.0   150.0   33.333333333333336
0.0   150.0   16.666666666666668
0.0   120.0   33.333333333333336
50.0   150.0   33.333333333333336
50.0   120.0   33.333333333333336
50.0   120.0   16.666666666666668
0.0   120.0   33.333333333333336
50.0   150.0   33.333333333333336
50.0   120.0   16.666666666666668
0.0   150.0   16.666666666666668
0.0   120.0   33.333333333333336
50.0   120.0   33.333333333333336
0.0   150.0   33.333333333333336
0.0   120.0   50.0
50.0   120.0   33.333333333333336
50.0   150.0   33.333333333333336
0.0   150.0   33.333333333333336
50.0   150.0   50.0
0.0   120.0   50.0
0.0   150.0   50.0
50.0   150.0   50.0
0.0   150.0   33.333333333333336
0.0   120.0   50.0
50.0   150.0   50.0
50.0   120.0   50.0
50.0   120.0   33.333333333333336
0.0   120.0   50.0
50.0   150.0   50.0
50.0   120.0   33.333333333333336
0.0   150.0   33.333333333333336
50.0   0.0   0.0
100.0   0.0   0.0
50.0   30.0   0.0
50.0   0.0   16.666666666666668
100.0   0.0   0.0
100.0   30.0   0.0
50.0   30.0   0.0
100.0   30.0   16.666666666666668
50.0   0.0   16.666666666666668
50.0   30.0   16.666666666666668
100.0   30.0   16.666666666666668
50.0   30.0   0.0
50.0   0.0   16.666666666666668
100.0   30.0   16.666666666666668
100.0   0.0   16.666666666666668
100.0   0.0   0.0
50.0   0.0   16.666666666666668
100.0   30.0   16.666666666666668
100.0   0.0   0.0
50.0   30.0   0.0
50.0   0.0   16.666666666666668
100.0   0.0   16.666666666666668
50.0   30.0   16.666666666666668
50.0   0.0   33.333333333333336
100.0   0.0   16.666666666666668
100.0   30.0   16.666666666666668
50.0   30.0   16.666666666666668
100.0   30.0   33.333333333333336
50.0   0.0   33.333333333333336
50.0   30.0   33.333333333333336
100.0   30.0   33.333333333333336
50.0   30.0   16.666666666666668
50.0   0.0   33.333333333333336
100.0   30.0   33.333333333333336
100.0   0.0   33.333333333333336
100.0   0.0   16.666666666666668
50.0   0.0   33.333333333333336
100.0   30.0   33.333333333333336
100.0   0.0   16.666666666666668
50.0   30.0   16.666666666666668
50.0   0.0   33.333333333333336
100.0   0.0   33.333333333333336
50.0   30.0   33.333333333333336
50.0   0.0   50.0
100.0   0.0   33.333333333333336
100.0   30.0   33.333333333333336
50.0   30.0   33.333333333333336
100.0   30.0   50.0
50.0   0.0   50.0
50.0   30.0   50.0
100.0   30.0   50.0
50.0   30.0   33.333333333333336
50.0   0.0   50.0
100.0   30.0   50.0
100.0   0.0   50.0
100.0   0.0   33.333333333333336
50.0   0.0   50.0
100.0   30.0   50.0
100.0   0.0   33.333333333333336
50.0   30.0   33.333333333333336
50.0   30.0   0.0
100.0   30.0   0.0
50.0   60.0   0.0
50.0   30.0   16.666666666666668
100.0   30.0   0.0
100.0   60.0   0.0
50.0   60.0   0.0
100.0   60.0   16.666666666666668
50.0   30.0   16.666666666666668
50.0   60.0   16.666666666666668
100.0   60.0   16.666666666666668
50.0   60.0   0.0
50.0   30.0   16.666666666666668
100.0   60.0   16.666666666666668
100.0   30.0   16.666666666666668
100.0   30.0   0.0
50.0   30.0   16.666666666666668
100.0   60.0   16.666666666666668
100.0   30.0   0.0
50.0   60.0   0.0
50.0   30.0   16.666666666666668
100.0   30.0   16.666666666666668
50.0   60.0   16.666666666666668
50.0   30.0   33.333333333333336
100.0   30.0   16.666666666666668
100.0   60.0   16.666666666666668
50.0   60.0   16.666666666666668
100.0   60.0   33.333333333333336
50.0   30.0   33.333333333333336
50.0   60.0   33.333333333333336
100.0   60.0   33.333333333333336
50.0   60.0   16.666666666666668
50.0   30.0   33.333333333333336
100.0   60.0   33.333333333333336
100.0   30.0   33.333333333333336
100.0   30.0   16.666666666666668
50.0   30.0   33.333333333333336
100.0   60.0   33.333333333333336
100.0   30.0   16.666666666666668
50.0   60.0   16.666666666666668
50.0   30.0   33.333333333333336
100.0   30.0   33.333333333333336
50.0   60.0   33.333333333333336
50.0   30.0   50.0
100.0   30.0   33.333333333333336
100.0   60.0   33.333333333333336
50.0   60.0   33.333333333333336
100.0   60.0   50.0
50.0   30.0   50.0
50.0   60.0   50.0
100.0   60.0   50.0
50.0   60.0   33.333333333333336
50.0   30.0   50.0
100.0   60.0   50.0
100.0   30.0   50.0
100.0   30.0   33.333333333333336
50.0   30.0   50.0
100.0   60.0   50.0
100.0   30.0   33.333333333333336
50.0   60.0   33.333333333333336
50.0   60.0   0.0
100.0   60.0   0.0
50.0   90.0   0.0
50.0   60.0   16.666666666666668
100.0   60.0   0.0
100.0   90.0   0.0
50.0   90.0   0.0
100.0   90.0   16.666666666666668
50.0   60.0   16.666666666666668
50.0   90.0   16.666666666666668
100.0   90.0   16.666666666666668
50.0   90.0   0.0
50.0   60.0   16.666666666666668
100.0   90.0   16.666666666666668
100.0   60.0   16.666666666666668
100.0   60.0   0.0
50.0   60.0   16.666666666666668
100.0   90.0   16.666666666666668
100.0   60.0   0.0
50.0   90.0   0.0
50.0   60.0   16.666666666666668
100.0   60.0   16.666666666666668
50.0   90.0   16.666666666666668
50.0   60.0   33.333333333333336
100.0   60.0   16.666666666666668
100.0   90.0   16.666666666666668
50.0   90.0   16.666666666666668
100.0   90.0   33.333333333333336
50.0   60.0   33.333333333333336
50.0   90.0   33.333333333333336
100.0   90.0   33.333333333333336
50.0   90.0   16.666666666666668
50.0   60.0   33.333333333333336
100.0   90.0   33.333333333333336
100.0   60.0   33.333333333333336
100.0   60.0   16.666666666666668
50.0   60.0   33.333333333333336
100.0   90.0   33.333333333333336
100.0   60.0   16.666666666666668
50.0   90.0   16.666666666666668
50.0   60.0   33.333333333333336
100.0   60.0   33.333333333333336
50.0   90.0   33.333333333333336
50.0   60.0   50.0
100.0   60.0   33.333333333333336
100.0   90.0   33.333333333333336
50.0   90.0   33.333333333333336
100.0   90.0   50.0
50.0   60.0   50.0
50.0   90.0   50.0
100.0   90.0   50.0
50.0   90.0   33.333333333333336
50.0   60.0   50.0
100.0   90.0   50.0
100.0   60.0   50.0
100.0   60.0   33.333333333333336
50.0   60.0   50.0
100.0   90.0   50.0
100.0   60.0   33.333333333333336
50.0   90.0   33.333333333333336
50.0   90.0   0.0
100.0   90.0   0.0
50.0   120.0   0.0
50.0   90.0   16.666666666666668
100.0   90.0   0.0
100.0   120.0   0.0
50.0   120.0   0.0
100.0   120.0   16.666666666666668
50.0   90.0   16.666666666666668
50.0   120.0   16.666666666666668
100.0   120.0   16.666666666666668
50.0   120.0   0.0
50.0   90.0   16.666666666666668
100.0   120.0   16.666666666666668
100.0   90.0   16.666666666666668
100.0   90.0   0.0
50.0   90.0   16.666666666666668
100.0   120.0   16.666666666666668
100.0   90.0   0.0
50.0   120.0   0.0
50.0   90.0   16.666666666666668
100.0   90.0   16.666666666666668
50.0   120.0   16.666666666666668
50.0   90.0   33.333333333333336
100.0   90.0   16.666666666666668
100.0   120.0   16.666666666666668
50.0   120.0   16.666666666666668
100.0   120.0   33.333333333333336
50.0   90.0   33.333333333333336
50.0   120.0   33.333333333333336
100.0   120.0   33.333333333333336
50.0   120.0   16.666666666666668
50.0   90.0   33.333333333333336
100.0   120.0   33.333333333333336
100.0   90.0   33.333333333333336
100.0   90.0   16.666666666666668
50.0   90.0   33.333333333333336
100.0   120.0   33.333333333333336
100.0   90.0   16.666666666666668
50.0   120.0   16.666666666666668
50.0   90.0   33.333333333333336
100.0   90.0   33.333333333333336
50.0   120.0   33.333333333333336
50.0   90.0   50.0
100.0   90.0   33.333333333333336
100.0   120.0   33.333333333333336
50.0   120.0   33.333333333333336
100.0   120.0   50.0
50.0   90.0   50.0
50.0   120.0   50.0
100.0   120.0   50.0
50.0   120.0   33.333333333333336
50.0   90.0   50.0
100.0   120.0   50.0
100.0   90.0   50.0
100.0   90.0   33.333333333333336
50.0   90.0   50.0
100.0   120.0   50.0
100.0   90.0   33.333333333333336
50.0   120.0   33.333333333333336
50.0   120.0   0.0
100.0   120.0   0.0
50.0   150.0   0.0
50.0   120.0   16.666666666666668
100.0   120.0   0.0
100.0   150.0   0.0
50.0   150.0   0.0
100.0   150.0   16.666666666666668
50.0   120.0   16.666666666666668
50.0   150.0   16.666666666666668
100.0   150.0   16.666666666666668
50.0   150.0   0.0
50.0   120.0   16.666666666666668
100.0   150.0   16.666666666666668
100.0   120.0   16.666666666666668
100.0   120.0   0.0
50.0   120.0   16.666666666666668
100.0   150.0   16.666666666666668
100.0   120.0   0.0
50.0   150.0   0.0
50.0   120.0   16.666666666666668
100.0   120.0   16.666666666666668
50.0   150.0   16.666666666666668
50.0   120.0   33.333333333333336
100.0   120.0   16.666666666666668
100.0   150.0   16.666666666666668
50.0   150.0   16.666666666666668
100.0   150.0   33.333333333333336
50.0   120.0   33.333333333333336
50.0   150.0   33.333333333333336
100.0   150.0   33.333333333333336
50.0   150.0   16.666666666666668
50.0   120.0   33.333333333333336
100.0   150.0   33.333333333333336
100.0   120.0   33.333333333333336
100.0   120.0   16.666666666666668
50.0   120.0   33.333333333333336
100.0   150.0   33.333333333333336
100.0   120.0   16.666666666666668
50.0   150.0   16.666666666666668
50.0   120.0   33.333333333333336
100.0   120.0   33.333333333333336
50.0   150.0   33.333333333333336
50.0   120.0   50.0
100.0   120.0   33.333333333333336
100.0   150.0   33.333333333333336
50.0   150.0   33.333333333333336
100.0   150.0   50.0
50.0   120.0   50.0
50.0   150.0   50.0
100.0   150.0   50.0
50.0   150.0   33.333333333333336
50.0   120.0   50.0
100.0   150.0   50.0
100.0   120.0   50.0
100.0   120.0   33.333333333333336
50.0   120.0   50.0
100.0   150.0   50.0
100.0   120.0   33.333333333333336
50.0   150.0   33.333333333333336
100.0   0.0   0.0
150.0   0.0   0.0
100.0   30.0   0.0
100.0   0.0   16.666666666666668
150.0   0.0   0.0
150.0   30.0   0.0
100.0   30.0   0.0
150.0   30.0   16.666666666666668
100.0   0.0   16.666666666666668
100.0   30.0   16.666666666666668
150.0   30.0   16.666666666666668
100.0   30.0   0.0
100.0   0.0   16.666666666666668
150.0   30.0   16.666666666666668
150.0   0.0   16.666666666666668
150.0   0.0   0.0
100.0   0.0   16.666666666666668
150.0   30.0   16.666666666666668
150.0   0.0   0.0
100.0   30.0   0.0
100.0   0.0   16.666666666666668
150.0   0.0   16.666666666666668
100.0   30.0   16.666666666666668
100.0   0.0   33.333333333333336
150.0   0.0   16.666666666666668
150.0   30.0   16.666666666666668
100.0   30.0   16.666666666666668
150.0   30.0   33.333333333333336
100.0   0.0   33.333333333333336
100.0   30.0   33.333333333333336
150.0   30.0   33.333333333333336
100.0   30.0   16.666666666666668
100.0   0.0   33.333333333333336
150.0   30.0   33.333333333333336
150.0   0.0   33.333333333333336
150.0   0.0   16.666666666666668
100.0   0.0   33.333333333333336
150.0   30.0   33.333333333333336
150.0   0.0   16.666666666666668
100.0   30.0   16.666666666666668
100.0   0.0   33.333333333333336
150.0   0.0   33.333333333333336
100.0   30.0   33.333333333333336
100.0   0.0   50.0
150.0   0.0   33.333333333333336
150.0   30.0   33.333333333333336
100.0   30.0   33.333333333333336
150.0   30.0   50.0
100.0   0.0   50.0
100.0   30.0   50.0
150.0   30.0   50.0
100.0   30.0   33.333333333333336
100.0   0.0   50.0
150.0   30.0   50.0
150.0   0.0   50.0
150.0   0.0   33.333333333333336
100.0   0.0   50.0
150.0   30.0   50.0
150.0   0.0   33.333333333333336
100.0   30.0   33.333333333333336
100.0   30.0   0.0
150.0   30.0   0.0
100.0   60.0   0.0
100.0   30.0   16.666666666666668
150.0   30.0   0.0
150.0   60.0   0.0
100.0   60.0   0.0
150.0   60.0   16.666666666666668
100.0   30.0   16.666666666666668
100.0   60.0   16.666666666666668
150.0   60.0   16.666666666666668
100.0   60.0   0.0
100.0   30.0   16.666666666666668
150.0   60.0   16.666666666666668
150.0   30.0   16.666666666666668
150.0   30.0   0.0
100.0   30.0   16.666666666666668
150.0   60.0   16.666666666666668
150.0   30.0   0.0
100.0   60.0   0.0
100.0   30.0   16.666666666666668
150.0   30.0   16.666666666666668
100.0   60.0   16.666666666666668
100.0   30.0   33.333333333333336
150.0   30.0   16.666666666666668
150.0   60.0   16.666666666666668
100.0   60.0   16.666666666666668
150.0   60.0   33.333333333333336
100.0   30.0   33.333333333333336
100.0   60.0   33.333333333333336
150.0   60.0   33.333333333333336
100.0   60.0   16.666666666666668
100.0   30.0   33.333333333333336
150.0   60.0   33.333333333333336
150.0   30.0   33.333333333333336
150.0   30.0   16.666666666666668
100.0   30.0   33.333333333333336
150.0   60.0   33.333333333333336
150.0   30.0   16.666666666666668
100.0   60.0   16.666666666666668
100.0   30.0   33.333333333333336
150.0   30.0   33.333333333333336
100.0   60.0   33.333333333333336
100.0   30.0   50.0
150.0   30.0   33.333333333333336
150.0   60.0   33.333333333333336
100.0   60.0   33.333333333333336
150.0   60.0   50.0
100.0   30.0   50.0
100.0   60.0   50.0
150.0   60.0   50.0
100.0   60.0   33.333333333333336
100.0   30.0   50.0
150.0   60.0   50.0
150.0   30.0   50.0
150.0   30.0   33.333333333333336
100.0   30.0   50.0
150.0   60.0   50.0
150.0   30.0   33.333333333333336
100.0   60.0   33.333333333333336
100.0   60.0   0.0
150.0   60.0   0.0
100.0   90.0   0.0
100.0   60.0   16.666666666666668
150.0   60.0   0.0
150.0   90.0   0.0
100.0   90.0   0.0
150.0   90.0   16.666666666666668
100.0   60.0   16.666666666666668
100.0   90.0   16.666666666666668
150.0   90.0   16.666666666666668
100.0   90.0   0.0
100.0   60.0   16.666666666666668
150.0   90.0   16.666666666666668
150.0   60.0   16.666666666666668
150.0   60.0   0.0
100.0   60.0   16.666666666666668
150.0   90.0   16.666666666666668
150.0   60.0   0.0
100.0   90.0   0.0
100.0   60.0   16.666666666666668
150.0   60.0   16.666666666666668
100.0   90.0   16.666666666666668
100.0   60.0   33.333333333333336
150.0   60.0   16.666666666666668
150.0   90.0   16.666666666666668
100.0   90.0   16.666666666666668
150.0   90.0   33.333333333333336
100.0   60.0   33.333333333333336
100.0   90.0   33.333333333333336
150.0   90.0   33.333333333333336
100.0   90.0   16.666666666666668
100.0   60.0   33.333333333333336
150.0   90.0   33.333333333333336
150.0   60.0   33.333333333333336
150.0   60.0   16.666666666666668
100.0   60.0   33.333333333333336
150.0   90.0   33.333333333333336
150.0   60.0   16.666666666666668
100.0   90.0   16.666666666666668
100.0   60.0   33.333333333333336
150.0   60.0   33.333333333333336
100.0   90.0   33.333333333333336
100.0   60.0   50.0
150.0   60.0   33.333333333333336
150.0   90.0   33.333333333333336
100.0   90.0   33.333333333333336
150.0   90.0   50.0
100.0   60.0   50.0
100.0   90.0   50.0
150.0   90.0   50.0
100.0   90.0   33.333333333333336
100.0   60.0   50.0
150.0   90.0   50.0
150.0   60.0   50.0
150.0   60.0   33.333333333333336
100.0   60.0   50.0
150.0   90.0   50.0
150.0   60.0   33.333333333333336
100.0   90.0   33.333333333333336
100.0   90.0   0.0
150.0   90.0   0.0
100.0   120.0   0.0
100.0   90.0   16.666666666666668
150.0   90.0   0.0
150.0   120.0   0.0
100.0   120.0   0.0
150.0   120.0   16.666666666666668
100.0   90.0   16.666666666666668
100.0   120.0   16.666666666666668
150.0   120.0   16.666666666666668
100.0   120.0   0.0
100.0   90.0   16.666666666666668
150.0   120.0   16.666666666666668
150.0   90.0   16.666666666666668
150.0   90.0   0.0
100.0   90.0   16.666666666666668
150.0   120.0   16.666666666666668
150.0   90.0   0.0
100.0   120.0   0.0
100.0   90.0   16.666666666666668
150.0   90.0   16.666666666666668
100.0   120.0   16.666666666666668
100.0   90.0   33.333333333333336
150.0   90.0   16.666666666666668
150.0   120.0   16.666666666666668
100.0   120.0   16.666666666666668
150.0   120.0   33.333333333333336
100.0   90.0   33.333333333333336
100.0   120.0   33.333333333333336
150.0   120.0   33.333333333333336
100.0   120.0   16.666666666666668
100.0   90.0   33.333333333333336
150.0   120.0   33.333333333333336
150.0   90.0   33.333333333333336
150.0   90.0   16.666666666666668
100.0   90.0   33.333333333333336
150.0   120.0   33.333333333333336
150.0   90.0   16.666666666666668
100.0   120.0   16.666666666666668
100.0   90.0   33.333333333333336
150.0   90.0   33.333333333333336
100.0   120.0   33.333333333333336
100.0   90.0   50.0
150.0   90.0   33.333333333333336
150.0   120.0   33.333333333333336
100.0   120.0   33.333333333333336
150.0   120.0   50.0
100.0   90.0   50.0
100.0   120.0   50.0
150.0   120.0   50.0
100.0   120.0   33.333333333333336
100.0   90.0   50.0
150.0   120.0   50.0
150.0   90.0   50.0
150.0   90.0   33.333333333333336
100.0   90.0   50.0
150.0   120.0   50.0
150.0   90.0   33.333333333333336
100.0   120.0   33.333333333333336
100.0   120.0   0.0
150.0   120.0   0.0
100.0   150.0   0.0
100.0   120.0   16.666666666666668
150.0   120.0   0.0
150.0   150.0   0.0
100.0   150.0   0.0
150.0   150.0   16.666666666666668
100.0   120.0   16.666666666666668
100.0   150.0   16.666666666666668
150.0   150.0   16.666666666666668
100.0   150.0   0.0
100.0   120.0   16.666666666666668
150.0   150.0   16.666666666666668
150.0   120.0   16.666666666666668
150.0   120.0   0.0
100.0   120.0   16.666666666666668
150.0   150.0   16.666666666666668
150.0   120.0   0.0
100.0   150.0   0.0
100.0   120.0   16.666666666666668
150.0   120.0   16.666666666666668
100.0   150.0   16.666666666666668
100.0   120.0   33.333333333333336
150.0   120.0   16.666666666666668
150.0   150.0   16.666666666666668
100.0   150.0   16.666666666666668
150.0   150.0   33.333333333333336
100.0   120.0   33.333333333333336
100.0   150.0   33.333333333333336
150.0   150.0   33.333333333333336
100.0   150.0   16.666666666666668
100.0   120.0   33.333333333333336
150.0   150.0   33.333333333333336
150.0   120.0   33.333333333333336
150.0   120.0   16.666666666666668
100.0   120.0   33.333333333333336
150.0   150.0   33.333333333333336
150.0   120.0   16.666666666666668
100.0   150.0   16.666666666666668
100.0   120.0   33.333333333333336
150.0   120.0   33.333333333333336
100.0   150.0   33.333333333333336
100.0   120.0   50.0
150.0   120.0   33.333333333333336
150.0   150.0   33.333333333333336
100.0   150.0   33.333333333333336
150.0   150.0   50.0
100.0   120.0   50.0
100.0   150.0   50.0
150.0   150.0   50.0
100.0   150.0   33.333333333333336
100.0   120.0   50.0
150.0   150.0   50.0
150.0   120.0   50.0
150.0   120.0   33.333333333333336
100.0   120.0   50.0
150.0   150.0   50.0
150.0   120.0   33.333333333333336
100.0   150.0   33.333333333333336
150.0   0.0   0.0
200.0   0.0   0.0
150.0   30.0   0.0
150.0   0.0   16.666666666666668
200.0   0.0   0.0
200.0   30.0   0.0
150.0   30.0   0.0
200.0   30.0   16.666666666666668
150.0   0.0   16.666666666666668
150.0   30.0   16.666666666666668
200.0   30.0   16.666666666666668
150.0   30.0   0.0
150.0   0.0   16.666666666666668
200.0   30.0   16.666666666666668
200.0   0.0   16.666666666666668
200.0   0.0   0.0
150.0   0.0   16.666666666666668
200.0   30.0   16.666666666666668
200.0   0.0   0.0
150.0   30.0   0.0
150.0   0.0   16.666666666666668
200.0   0.0   16.666666666666668
150.0   30.0   16.666666666666668
150.0   0.0   33.333333333333336
200.0   0.0   16.666666666666668
200.0   30.0   16.666666666666668
150.0   30.0   16.666666666666668
200.0   30.0   33.333333333333336
150.0   0.0   33.333333333333336
150.0   30.0   33.333333333333336
200.0   30.0   33.333333333333336
150.0   30.0   16.666666666666668
150.0   0.0   33.333333333333336
200.0   30.0   33.333333333333336
200.0   0.0   33.333333333333336
200.0   0.0   16.666666666666668
150.0   0.0   33.333333333333336
200.0   30.0   33.333333333333336
200.0   0.0   16.666666666666668
150.0   30.0   16.666666666666668
150.0   0.0   33.333333333333336
200.0   0.0   33.333333333333336
150.0   30.0   33.333333333333336
150.0   0.0   50.0
200.0   0.0   33.333333333333336
200.0   30.0   33.333333333333336
150.0   30.0   33.333333333333336
200.0   30.0   50.0
150.0   0.0   50.0
150.0   30.0   50.0
200.0   30.0   50.0
150.0   30.0   33.333333333333336
150.0   0.0   50.0
200.0   30.0   50.0
200.0   0.0   50.0
200.0   0.0   33.333333333333336
150.0   0.0   50.0
200.0   30.0   50.0
200.0   0.0   33.333333333333336
150.0   30.0   33.333333333333336
150.0   30.0   0.0
200.0   30.0   0.0
150.0   60.0   0.0
150.0   30.0   16.666666666666668
200.0   30.0   0.0
200.0   60.0   0.0
150.0   60.0   0.0
200.0   60.0   16.666666666666668
150.0   30.0   16.666666666666668
150.0   60.0   16.666666666666668
200.0   60.0   16.666666666666668
150.0   60.0   0.0
150.0   30.0   16.666666666666668
200.0   60.0   16.666666666666668
200.0   30.0   16.666666666666668
200.0   30.0   0.0
150.0   30.0   16.666666666666668
200.0   60.0   16.666666666666668
200.0   30.0   0.0
150.0   60.0   0.0
150.0   30.0   16.666666666666668
200.0   30.0   16.666666666666668
150.0   60.0   16.666666666666668
150.0   30.0   33.333333333333336
200.0   30.0   16.666666666666668
200.0   60.0   16.666666666666668
150.0   60.0   16.666666666666668
200.0   60.0   33.333333333333336
150.0   30.0   33.333333333333336
150.0   60.0   33.333333333333336
200.0   60.0   33.333333333333336
150.0   60.0   16.666666666666668
150.0   30.0   33.333333333333336
200.0   60.0   33.333333333333336
200.0   30.0   33.333333333333336
200.0   30.0   16.666666666666668
150.0   30.0   33.333333333333336
200.0   60.0   33.333333333333336
200.0   30.0   16.666666666666668
150.0   60.0   16.666666666666668
150.0   30.0   33.333333333333336
200.0   30.0   33.333333333333336
150.0   60.0   33.333333333333336
150.0   30.0   50.0
200.0   30.0   33.333333333333336
200.0   60.0   33.333333333333336
150.0   60.0   33.333333333333336
200.0   60.0   50.0
150.0   30.0   50.0
150.0   60.0   50.0
200.0   60.0   50.0
150.0   60.0   33.333333333333336
150.0   30.0   50.0
200.0   60.0   50.0
200.0   30.0   50.0
200.0   30.0   33.333333333333336
150.0   30.0   50.0
200.0   60.0   50.0
200.0   30.0   33.333333333333336
150.0   60.0   33.333333333333336
150.0   60.0   0.0
200.0   60.0   0.0
150.0   90.0   0.0
150.0   60.0   16.666666666666668
200.0   60.0   0.0
200.0   90.0   0.0
150.0   90.0   0.0
200.0   90.0   16.666666666666668
150.0   60.0   16.666666666666668
150.0   90.0   16.666666666666668
200.0   90.0   16.666666666666668
150.0   90.0   0.0
150.0   60.0   16.666666666666668
200.0   90.0   16.666666666666668
200.0   60.0   16.666666666666668
200.0   60.0   0.0
150.0   60.0   16.666666666666668
200.0   90.0   16.666666666666668
200.0   60.0   0.0
150.0   90.0   0.0
150.0   60.0   16.666666666666668
200.0   60.0   16.666666666666668
150.0   90.0   16.666666666666668
150.0   60.0   33.333333333333336
200.0   60.0   16.666666666666668
200.0   90.0   16.666666666666668
150.0   90.0   16.666666666666668
200.0   90.0   33.333333333333336
150.0   60.0   33.333333333333336
150.0   90.0   33.333333333333336
200.0   90.0   33.333333333333336
150.0   90.0   16.666666666666668
150.0   60.0   33.333333333333336
200.0   90.0   33.333333333333336
200.0   60.0   33.333333333333336
200.0   60.0   16.666666666666668
150.0   60.0   33.333333333333336
200.0   90.0   33.333333333333336
200.0   60.0   16.666666666666668
150.0   90.0   16.666666666666668
150.0   60.0   33.333333333333336
200.0   60.0   33.333333333333336
150.0   90.0   33.333333333333336
150.0   60.0   50.0
200.0   60.0   33.333333333333336
200.0   90.0   33.333333333333336
150.0   90.0   33.333333333333336
200.0   90.0   50.0
150.0   60.0   50.0
150.0   90.0   50.0
200.0   90.0   50.0
150.0   90.0   33.333333333333336
150.0   60.0   50.0
200.0   90.0   50.0
200.0   60.0   50.0
200.0   60.0   33.333333333333336
150.0   60.0   50.0
200.0   90.0   50.0
200.0   60.0   33.333333333333336
150.0   90.0   33.333333333333336
150.0   90.0   0.0
200.0   90.0   0.0
150.0   120.0   0.0
150.0   90.0   16.666666666666668
200.0   90.0   0.0
200.0   120.0   0.0
150.0   120.0   0.0
200.0   120.0   16.666666666666668
150.0   90.0   16.666666666666668
150.0   120.0   16.666666666666668
200.0   120.0   16.666666666666668
150.0   120.0   0.0
150.0   90.0   16.666666666666668
200.0   120.0   16.666666666666668
200.0   90.0   16.666666666666668
200.0   90.0   0.0
150.0   90.0   16.666666666666668
200.0   120.0   16.666666666666668
200.0   90.0   0.0
150.0   120.0   0.0
150.0   90.0   16.666666666666668
200.0   90.0   16.666666666666668
150.0   120.0   16.666666666666668
150.0   90.0   33.333333333333336
200.0   90.0   16.666666666666668
200.0   120.0   16.666666666666668
150.0   120.0   16.666666666666668
200.0   120.0   33.333333333333336
150.0   90.0   33.333333333333336
150.0   120.0   33.333333333333336
200.0   120.0   33.333333333333336
150.0   120.0   16.666666666666668
150.0   90.0   33.333333333333336
200.0   120.0   33.333333333333336
200.0   90.0   33.333333333333336
200.0   90.0   16.666666666666668
150.0   90.0   33.333333333333336
200.0   120.0   33.333333333333336
200.0   90.0   16.666666666666668
150.0   120.0   16.666666666666668
150.0   90.0   33.333333333333336
200.0   90.0   33.333333333333336
150.0   120.0   33.333333333333336
150.0   90.0   50.0
200.0   90.0   33.333333333333336
200.0   120.0   33.333333333333336
150.0   120.0   33.333333333333336
200.0   120.0   50.0
150.0   90.0   50.0
150.0   120.0   50.0
200.0   120.0   50.0
150.0   120.0   33.333333333333336
150.0   90.0   50.0
200.0   120.0   50.0
200.0   90.0   50.0
200.0   90.0   33.333333333333336
150.0   90.0   50.0
200.0   120.0   50.0
200.0   90.0   33.333333333333336
150.0   120.0   33.333333333333336
150.0   120.0   0.0
200.0   120.0   0.0
150.0   150.0   0.0
150.0   120.0   16.666666666666668
200.0   120.0   0.0
200.0   150.0   0.0
150.0   150.0   0.0
200.0   150.0   16.666666666666668
150.0   120.0   16.666666666666668
150.0   150.0   16.666666666666668
200.0   150.0   16.666666666666668
150.0   150.0   0.0
150.0   120.0   16.666666666666668
200.0   150.0   16.666666666666668
200.0   120.0   16.666666666666668
200.0   120.0   0.0
150.0   120.0   16.666666666666668
200.0   150.0   16.666666666666668
200.0   120.0   0.0
150.0   150.0   0.0
150.0   120.0   16.666666666666668
200.0   120.0   16.666666666666668
150.0   150.0   16.666666666666668
150.0   120.0   33.333333333333336
200.0   120.0   16.666666666666668
200.0   150.0   16.666666666666668
150.0   150.0   16.666666666666668
200.0   150.0   33.333333333333336
150.0   120.0   33.333333333333336
150.0   150.0   33.333333333333336
200.0   150.0   33.333333333333336
150.0   150.0   16.666666666666668
150.0   120.0   33.333333333333336
200.0   150.0   33.333333333333336
200.0   120.0   33.333333333333336
200.0   120.0   16.666666666666668
150.0   120.0   33.333333333333336
200.0   150.0   33.333333333333336
200.0   120.0   16.666666666666668
150.0   150.0   16.666666666666668
150.0   120.0   33.333333333333336
200.0   120.0   33.333333333333336
150.0   150.0   33.333333333333336
150.0   120.0   50.0
200.0   120.0   33.333333333333336
200.0   150.0   33.333333333333336
150.0   150.0   33.333333333333336
200.0   150.0   50.0
150.0   120.0   50.0
150.0   150.0   50.0
200.0   150.0   50.0
150.0   150.0   33.333333333333336
150.0   120.0   50.0
200.0   150.0   50.0
200.0   120.0   50.0
200.0   120.0   33.333333333333336
150.0   120.0   50.0
200.0   150.0   50.0
200.0   120.0   33.333333333333336
150.0   150.0   33.333333333333336
200.0   0.0   0.0
250.0   0.0   0.0
200.0   30.0   0.0
200.0   0.0   16.666666666666668
250.0   0.0   0.0
250.0   30.0   0.0
200.0   30.0   0.0
250.0   30.0   16.666666666666668
200.0   0.0   16.666666666666668
200.0   30.0   16.666666666666668
250.0   30.0   16.666666666666668
200.0   30.0   0.0
200.0   0.0   16.666666666666668
250.0   30.0   16.666666666666668
250.0   0.0   16.666666666666668
250.0   0.0   0.0
200.0   0.0   16.666666666666668
250.0   30.0   16.666666666666668
250.0   0.0   0.0
200.0   30.0   0.0
200.0   0.0   16.666666666666668
250.0   0.0   16.666666666666668
200.0   30.0   16.666666666666668
200.0   0.0   33.333333333333336
250.0   0.0   16.666666666666668
250.0   30.0   16.666666666666668
200.0   30.0   16.666666666666668
250.0   30.0   33.333333333333336
200.0   0.0   33.333333333333336
200.0   30.0   33.333333333333336
250.0   30.0   33.333333333333336
200.0   30.0   16.666666666666668
200.0   0.0   33.333333333333336
250.0   30.0   33.333333333333336
250.0   0.0   33.333333333333336
250.0   0.0   16.666666666666668
200.0   0.0   33.333333333333336
250.0   30.0   33.333333333333336
250.0   0.0   16.666666666666668
200.0   30.0   16.666666666666668
200.0   0.0   33.333333333333336
250.0   0.0   33.333333333333336
200.0   30.0   33.333333333333336
200.0   0.0   50.0
250.0   0.0   33.333333333333336
250.0   30.0   33.333333333333336
200.0   30.0   33.333333333333336
250.0   30.0   50.0
200.0   0.0   50.0
200.0   30.0   50.0
250.0   30.0   50.0
200.0   30.0   33.333333333333336
200.0   0.0   50.0
250.0   30.0   50.0
250.0   0.0   50.0
250.0   0.0   33.333333333333336
200.0   0.0   50.0
250.0   30.0   50.0
250.0   0.0   33.333333333333336
200.0   30.0   33.333333333333336
200.0   30.0   0.0
250.0   30.0   0.0
200.0   60.0   0.0
200.0   30.0   16.666666666666668
250.0   30.0   0.0
250.0   60.0   0.0
200.0   60.0   0.0
250.0   60.0   16.666666666666668
200.0   30.0   16.666666666666668
200.0   60.0   16.666666666666668
250.0   60.0   16.666666666666668
200.0   60.0   0.0
200.0   30.0   16.666666666666668
250.0   60.0   16.666666666666668
250.0   30.0   16.666666666666668
250.0   30.0   0.0
200.0   30.0   16.666666666666668
250.0   60.0   16.666666666666668
250.0   30.0   0.0
200.0   60.0   0.0
200.0   30.0   16.666666666666668
250.0   30.0   16.666666666666668
200.0   60.0   16.666666666666668
200.0   30.0   33.333333333333336
250.0   30.0   16.666666666666668
250.0   60.0   16.666666666666668
200.0   60.0   16.666666666666668
250.0   60.0   33.333333333333336
200.0   30.0   33.333333333333336
200.0   60.0   33.333333333333336
250.0   60.0   33.333333333333336
200.0   60.0   16.666666666666668
200.0   30.0   33.333333333333336
250.0   60.0   33.333333333333336
250.0   30.0   33.333333333333336
250.0   30.0   16.666666666666668
200.0   30.0   33.333333333333336
250.0   60.0   33.333333333333336
250.0   30.0   16.666666666666668
200.0   60.0   16.666666666666668
200.0   30.0   33.333333333333336
250.0   30.0   33.333333333333336
200.0   60.0   33.333333333333336
200.0   30.0   50.0
250.0   30.0   33.333333333333336
250.0   60.0   33.333333333333336
200.0   60.0   33.333333333333336
250.0   60.0   50.0
200.0   30.0   50.0
200.0   60.0   50.0
250.0   60.0   50.0
200.0   60.0   33.333333333333336
200.0   30.0   50.0
250.0   60.0   50.0
250.0   30.0   50.0
250.0   30.0   33.333333333333336
200.0   30.0   50.0
250.0   60.0   50.0
250.0   30.0   33.333333333333336
200.0   60.0   33.333333333333336
200.0   60.0   0.0
250.0   60.0   0.0
200.0   90.0   0.0
200.0   60.0   16.666666666666668
250.0   60.0   0.0
250.0   90.0   0.0
200.0   90.0   0.0
250.0   90.0   16.666666666666668
200.0   60.0   16.666666666666668
200.0   90.0   16.666666666666668
250.0   90.0   16.666666666666668
200.0   90.0   0.0
200.0   60.0   16.666666666666668
250.0   90.0   16.666666666666668
250.0   60.0   16.666666666666668
250.0   60.0   0.0
200.0   60.0   16.666666666666668
250.0   90.0   16.666666666666668
250.0   60.0   0.0
200.0   90.0   0.0
200.0   60.0   16.666666666666668
250.0   60.0   16.666666666666668
200.0   90.0   16.666666666666668
200.0   60.0   33.333333333333336
250.0   60.0   16.666666666666668
250.0   90.0   16.666666666666668
200.0   90.0   16.666666666666668
250.0   90.0   33.333333333333336
200.0   60.0   33.333333333333336
200.0   90.0   33.333333333333336
250.0   90.0   33.333333333333336
200.0   90.0   16.666666666666668
200.0   60.0   33.333333333333336
250.0   90.0   33.333333333333336
250.0   60.0   33.333333333333336
250.0   60.0   16.666666666666668
200.0   60.0   33.333333333333336
250.0   90.0   33.333333333333336
250.0   60.0   16.666666666666668
200.0   90.0   16.666666666666668
200.0   60.0   33.333333333333336
250.0   60.0   33.333333333333336
200.0   90.0   33.333333333333336
200.0   60.0   50.0
250.0   60.0   33.333333333333336
250.0   90.0   33.333333333333336
200.0   90.0   33.333333333333336
250.0   90.0   50.0
200.0   60.0   50.0
200.0   90.0   50.0
250.0   90.0   50.0
200.0   90.0   33.333333333333336
200.0   60.0   50.0
250.0   90.0   50.0
250.0   60.0   50.0
250.0   60.0   33.333333333333336
200.0   60.0   50.0
250.0   90.0   50.0
250.0   60.0   33.333333333333336
200.0   90.0   33.333333333333336
200.0   90.0   0.0
250.0   90.0   0.0
200.0   120.0   0.0
200.0   90.0   16.666666666666668
250.0   90.0   0.0
250.0   120.0   0.0
200.0   120.0   0.0
250.0   120.0   16.666666666666668
200.0   90.0   16.666666666666668
200.0   120.0   16.666666666666668
250.0   120.0   16.666666666666668
200.0   120.0   0.0
200.0   90.0   16.666666666666668
250.0   120.0   16.666666666666668
250.0   90.0   16.666666666666668
250.0   90.0   0.0
200.0   90.0   16.666666666666668
250.0   120.0   16.666666666666668
250.0   90.0   0.0
200.0   120.0   0.0
200.0   90.0   16.666666666666668
250.0   90.0   16.666666666666668
200.0   120.0   16.666666666666668
200.0   90.0   33.333333333333336
250.0   90.0   16.666666666666668
250.0   120.0   16.666666666666668
200.0   120.0   16.666666666666668
250.0   120.0   33.333333333333336
200.0   90.0   33.333333333333336
200.0   120.0   33.333333333333336
250.0   120.0   33.333333333333336
200.0   120.0   16.666666666666668
200.0   90.0   33.333333333333336
250.0   120.0   33.333333333333336
250.0   90.0   33.333333333333336
250.0   90.0   16.666666666666668
200.0   90.0   33.333333333333336
250.0   120.0   33.333333333333336
250.0   90.0   16.666666666666668
200.0   120.0   16.666666666666668
200.0   90.0   33.333333333333336
250.0   90.0   33.333333333333336
200.0   120.0   33.333333333333336
200.0   90.0   50.0
250.0   90.0   33.333333333333336
250.0   120.0   33.333333333333336
200.0   120.0   33.333333333333336
250.0   120.0   50.0
200.0   90.0   50.0
200.0   120.0   50.0
250.0   120.0   50.0
200.0   120.0   33.333333333333336
200.0   90.0   50.0
250.0   120.0   50.0
250.0   90.0   50.0
250.0   90.0   33.333333333333336
200.0   90.0   50.0
250.0   120.0   50.0
250.0   90.0   33.333333333333336
200.0   120.0   33.333333333333336
200.0   120.0   0.0
250.0   120.0   0.0
200.0   150.0   0.0
200.0   120.0   16.666666666666668
250.0   120.0   0.0
250.0   150.0   0.0
200.0   150.0   0.0
250.0   150.0   16.666666666666668
200.0   120.0   16.666666666666668
200.0   150.0   16.666666666666668
250.0   150.0   16.666666666666668
200.0   150.0   0.0
200.0   120.0   16.666666666666668
250.0   150.0   16.666666666666668
250.0   120.0   16.666666666666668
250.0   120.0   0.0
200.0   120.0   16.666666666666668
250.0   150.0   16.666666666666668
250.0   120.0   0.0
200.0   150.0   0.0
200.0   120.0   16.666666666666668
250.0   120.0   16.666666666666668
200.0   150.0   16.666666666666668
200.0   120.0   33.333333333333336
250.0   120.0   16.666666666666668
250.0   150.0   16.666666666666668
200.0   150.0   16.666666666666668
250.0   150.0   33.333333333333336
200.0   120.0   33.333333333333336
200.0   150.0   33.333333333333336
250.0   150.0   33.333333333333336
200.0   150.0   16.666666666666668
200.0   120.0   33.333333333333336
250.0   150.0   33.333333333333336
250.0   120.0   33.333333333333336
250.0   120.0   16.666666666666668
200.0   120.0   33.333333333333336
250.0   150.0   33.333333333333336
250.0   120.0   16.666666666666668
200.0   150.0   16.666666666666668
200.0   120.0   33.333333333333336
250.0   120.0   33.333333333333336
200.0   150.0   33.333333333333336
200.0   120.0   50.0
250.0   120.0   33.333333333333336
250.0   150.0   33.333333333333336
200.0   150.0   33.333333333333336
250.0   150.0   50.0
200.0   120.0   50.0
200.0   150.0   50.0
250.0   150.0   50.0
200.0   150.0   33.333333333333336
200.0   120.0   50.0
250.0   150.0   50.0
250.0   120.0   50.0
250.0   120.0   33.333333333333336
200.0   120.0   50.0
250.0   150.0   50.0
250.0   120.0   33.333333333333336
200.0   150.0   33.333333333333336
250.0   0.0   0.0
300.0   0.0   0.0
250.0   30.0   0.0
250.0   0.0   16.666666666666668
300.0   0.0   0.0
300.0   30.0   0.0
250.0   30.0   0.0
300.0   30.0   16.666666666666668
250.0   0.0   16.666666666666668
250.0   30.0   16.666666666666668
300.0   30.0   16.666666666666668
250.0   30.0   0.0
250.0   0.0   16.666666666666668
300.0   30.0   16.666666666666668
300.0   0.0   16.666666666666668
300.0   0.0   0.0
250.0   0.0   16.666666666666668
300.0   30.0   16.666666666666668
300.0   0.0   0.0
250.0   30.0   0.0
250.0   0.0   16.666666666666668
300.0   0.0   16.666666666666668
250.0   30.0   16.666666666666668
250.0   0.0   33.333333333333336
300.0   0.0   16.666666666666668
300.0   30.0   16.666666666666668
250.0   30.0   16.666666666666668
300.0   30.0   33.333333333333336
250.0   0.0   33.333333333333336
250.0   30.0   33.333333333333336
300.0   30.0   33.333333333333336
250.0   30.0   16.666666666666668
250.0   0.0   33.333333333333336
300.0   30.0   33.333333333333336
300.0   0.0   33.333333333333336
300.0   0.0   16.666666666666668
250.0   0.0   33.333333333333336
300.0   30.0   33.333333333333336
300.0   0.0   16.666666666666668
250.0   30.0   16.666666666666668
250.0   0.0   33.333333333333336
300.0   0.0   33.333333333333336
250.0   30.0   33.333333333333336
250.0   0.0   50.0
300.0   0.0   33.333333333333336
300.0   30.0   33.333333333333336
250.0   30.0   33.333333333333336
300.0   30.0   50.0
250.0   0.0   50.0
250.0   30.0   50.0
300.0   30.0   50.0
250.0   30.0   33.333333333333336
250.0   0.0   50.0
300.0   30.0   50.0
300.0   0.0   50.0
300.0   0.0   33.333333333333336
250.0   0.0   50.0
300.0   30.0   50.0
300.0   0.0   33.333333333333336
250.0   30.0   33.333333333333336
250.0   30.0   0.0
300.0   30.0   0.0
250.0   60.0   0.0
250.0   30.0   16.666666666666668
300.0   30.0   0.0
300.0   60.0   0.0
250.0   60.0   0.0
300.0   60.0   16.666666666666668
250.0   30.0   16.666666666666668
250.0   60.0   16.666666666666668
300.0   60.0   16.666666666666668
250.0   60.0   0.0
250.0   30.0   16.666666666666668
300.0   60.0   16.666666666666668
300.0   30.0   16.666666666666668
300.0   30.0   0.0
250.0   30.0   16.666666666666668
300.0   60.0   16.666666666666668
300.0   30.0   0.0
250.0   60.0   0.0
250.0   30.0   16.666666666666668
300.0   30.0   16.666666666666668
250.0   60.0   16.666666666666668
250.0   30.0   33.333333333333336
300.0   30.0   16.666666666666668
300.0   60.0   16.666666666666668
250.0   60.0   16.666666666666668
300.0   60.0   33.333333333333336
250.0   30.0   33.333333333333336
250.0   60.0   33.333333333333336
300.0   60.0   33.333333333333336
250.0   60.0   16.666666666666668
250.0   30.0   33.333333333333336
300.0   60.0   33.333333333333336
300.0   30.0   33.333333333333336
300.0   30.0   16.666666666666668
250.0   30.0   33.333333333333336
300.0   60.0   33.333333333333336
300.0   30.0   16.666666666666668
250.0   60.0   16.666666666666668
250.0   30.0   33.333333333333336
300.0   30.0   33.333333333333336
250.0   60.0   33.333333333333336
250.0   30.0   50.0
300.0   30.0   33.333333333333336
300.0   60.0   33.333333333333336
250.0   60.0   33.333333333333336
300.0   60.0   50.0
250.0   30.0   50.0
250.0   60.0   50.0
300.0   60.0   50.0
250.0   60.0   33.333333333333336
250.0   30.0   50.0
300.0   60.0   50.0
300.0   30.0   50.0
300.0   30.0   33.333333333333336
250.0   30.0   50.0
300.0   60.0   50.0
300.0   30.0   33.333333333333336
250.0   60.0   33.333333333333336
250.0   60.0   0.0
300.0   60.0   0.0
250.0   90.0   0.0
250.0   60.0   16.666666666666668
300.0   60.0   0.0
300.0   90.0   0.0
250.0   90.0   0.0
300.0   90.0   16.666666666666668
250.0   60.0   16.666666666666668
250.0   90.0   16.666666666666668
300.0   90.0   16.666666666666668
250.0   90.0   0.0
250.0   60.0   16.666666666666668
300.0   90.0   16.666666666666668
300.0   60.0   16.666666666666668
300.0   60.0   0.0
250.0   60.0   16.666666666666668
300.0   90.0   16.666666666666668
300.0   60.0   0.0
250.0   90.0   0.0
250.0   60.0   16.666666666666668
300.0   60.0   16.666666666666668
250.0   90.0   16.666666666666668
250.0   60.0   33.333333333333336
300.0   60.0   16.666666666666668
300.0   90.0   16.666666666666668
250.0   90.0   16.666666666666668
300.0   90.0   33.333333333333336
250.0   60.0   33.333333333333336
250.0   90.0   33.333333333333336
300.0   90.0   33.333333333333336
250.0   90.0   16.666666666666668
250.0   60.0   33.333333333333336
300.0   90.0   33.333333333333336
300.0   60.0   33.333333333333336
300.0   60.0   16.666666666666668
250.0   60.0   33.333333333333336
300.0   90.0   33.333333333333336
300.0   60.0   16.666666666666668
250.0   90.0   16.666666666666668
250.0   60.0   33.333333333333336
300.0   60.0   33.333333333333336
250.0   90.0   33.333333333333336
250.0   60.0   50.0
300.0   60.0   33.333333333333336
300.0   90.0   33.333333333333336
250.0   90.0   33.333333333333336
300.0   90.0   50.0
250.0   60.0   50.0
250.0   90.0   50.0
300.0   90.0   50.0
250.0   90.0   33.333333333333336
250.0   60.0   50.0
300.0   90.0   50.0
300.0   60.0   50.0
300.0   60.0   33.333333333333336
250.0   60.0   50.0
300.0   90.0   50.0
300.0   60.0   33.333333333333336
250.0   90.0   33.333333333333336
250.0   90.0   0.0
300.0   90.0   0.0
250.0   120.0   0.0
250.0   90.0   16.666666666666668
300.0   90.0   0.0
300.0   120.0   0.0
250.0   120.0   0.0
300.0   120.0   16.666666666666668
250.0   90.0   16.666666666666668
250.0   120.0   16.666666666666668
300.0   120.0   16.666666666666668
250.0   120.0   0.0
250.0   90.0   16.666666666666668
300.0   120.0   16.666666666666668
300.0   90.0   16.666666666666668
300.0   90.0   0.0
250.0   90.0   16.666666666666668
300.0   120.0   16.666666666666668
300.0   90.0   0.0
250.0   120.0   0.0
250.0   90.0   16.666666666666668
300.0   90.0   16.666666666666668
250.0   120.0   16.666666666666668
250.0   90.0   33.333333333333336
300.0   90.0   16.666666666666668
300.0   120.0   16.666666666666668
250.0   120.0   16.666666666666668
300.0   120.0   33.333333333333336
250.0   90.0   33.333333333333336
250.0   120.0   33.333333333333336
300.0   120.0   33.333333333333336
250.0   120.0   16.666666666666668
250.0   90.0   33.333333333333336
300.0   120.0   33.333333333333336
300.0   90.0   33.333333333333336
300.0   90.0   16.666666666666668
250.0   90.0   33.333333333333336
300.0   120.0   33.333333333333336
300.0   90.0   16.666666666666668
250.0   120.0   16.666666666666668
250.0   90.0   33.333333333333336
300.0   90.0   33.333333333333336
250.0   120.0   33.333333333333336
250.0   90.0   50.0
300.0   90.0   33.333333333333336
300.0   120.0   33.333333333333336
250.0   120.0   33.333333333333336
300.0   120.0   50.0
250.0   90.0   50.0
250.0   120.0   50.0
300.0   120.0   50.0
250.0   120.0   33.333333333333336
250.0   90.0   50.0
300.0   120.0   50.0
300.0   90.0   50.0
300.0   90.0   33.333333333333336
250.0   90.0   50.0
300.0   120.0   50.0
300.0   90.0   33.333333333333336
250.0   120.0   33.333333333333336
250.0   120.0   0.0
300.0   120.0   0.0
250.0   150.0   0.0
250.0   120.0   16.666666666666668
300.0   120.0   0.0
300.0   150.0   0.0
250.0   150.0   0.0
300.0   150.0   16.666666666666668
250.0   120.0   16.666666666666668
250.0   150.0   16.666666666666668
300.0   150.0   16.666666666666668
250.0   150.0   0.0
250.0   120.0   16.666666666666668
300.0   150.0   16.666666666666668
300.0   120.0   16.666666666666668
300.0   120.0   0.0
250.0   120.0   16.666666666666668
300.0   150.0   16.666666666666668
300.0   120.0   0.0
250.0   150.0   0.0
250.0   120.0   16.666666666666668
300.0   120.0   16.666666666666668
250.0   150.0   16.666666666666668
250.0   120.0   33.333333333333336
300.0   120.0   16.666666666666668
300.0   150.0   16.666666666666668
250.0   150.0   16.666666666666668
300.0   150.0   33.333333333333336
250.0   120.0   33.333333333333336
250.0   150.0   33.333333333333336
300.0   150.0   33.333333333333336
250.0   150.0   16.666666666666668
250.0   120.0   33.333333333333336
300.0   150.0   33.333333333333336
300.0   120.0   33.333333333333336
300.0   120.0   16.666666666666668
250.0   120.0   33.333333333333336
300.0   150.0   33.333333333333336
300.0   120.0   16.666666666666668
250.0   150.0   16.666666666666668
250.0   120.0   33.333333333333336
300.0   120.0   33.333333333333336
250.0   150.0   33.333333333333336
250.0   120.0   50.0
300.0   120.0   33.333333333333336
300.0   150.0   33.333333333333336
250.0   150.0   33.333333333333336
300.0   150.0   50.0
250.0   120.0   50.0
250.0   150.0   50.0
300.0   150.0   50.0
250.0   150.0   33.333333333333336
250.0   120.0   50.0
300.0   150.0   50.0
300.0   120.0   50.0
300.0   120.0   33.333333333333336
250.0   120.0   50.0
300.0   150.0   50.0
300.0   120.0   33.333333333333336
250.0   150.0   33.333333333333336
300.0   0.0   0.0
350.0   0.0   0.0
300.0   30.0   0.0
300.0   0.0   16.666666666666668
350.0   0.0   0.0
350.0   30.0   0.0
300.0   30.0   0.0
350.0   30.0   16.666666666666668
300.0   0.0   16.666666666666668
300.0   30.0   16.666666666666668
350.0   30.0   16.666666666666668
300.0   30.0   0.0
300.0   0.0   16.666666666666668
350.0   30.0   16.666666666666668
350.0   0.0   16.666666666666668
350.0   0.0   0.0
300.0   0.0   16.666666666666668
350.0   30.0   16.666666666666668
350.0   0.0   0.0
300.0   30.0   0.0
300.0   0.0   16.666666666666668
350.0   0.0   16.666666666666668
300.0   30.0   16.666666666666668
300.0   0.0   33.333333333333336
350.0   0.0   16.666666666666668
350.0   30.0   16.666666666666668
300.0   30.0   16.666666666666668
350.0   30.0   33.333333333333336
300.0   0.0   33.333333333333336
300.0   30.0   33.333333333333336
350.0   30.0   33.333333333333336
300.0   30.0   16.666666666666668
300.0   0.0   33.333333333333336
350.0   30.0   33.333333333333336
350.0   0.0   33.333333333333336
350.0   0.0   16.666666666666668
300.0   0.0   33.333333333333336
350.0   30.0   33.333333333333336
350.0   0.0   16.666666666666668
300.0   30.0   16.666666666666668
300.0   0.0   33.333333333333336
350.0   0.0   33.333333333333336
300.0   30.0   33.333333333333336
300.0   0.0   50.0
350.0   0.0   33.333333333333336
350.0   30.0   33.333333333333336
300.0   30.0   33.333333333333336
350.0   30.0   50.0
300.0   0.0   50.0
300.0   30.0   50.0
350.0   30.0   50.0
300.0   30.0   33.333333333333336
300.0   0.0   50.0
350.0   30.0   50.0
350.0   0.0   50.0
350.0   0.0   33.333333333333336
300.0   0.0   50.0
350.0   30.0   50.0
350.0   0.0   33.333333333333336
300.0   30.0   33.333333333333336
300.0   30.0   0.0
350.0   30.0   0.0
300.0   60.0   0.0
300.0   30.0   16.666666666666668
350.0   30.0   0.0
350.0   60.0   0.0
300.0   60.0   0.0
350.0   60.0   16.666666666666668
300.0   30.0   16.666666666666668
300.0   60.0   16.666666666666668
350.0   60.0   16.666666666666668
300.0   60.0   0.0
300.0   30.0   16.666666666666668
350.0   60.0   16.666666666666668
350.0   30.0   16.666666666666668
350.0   30.0   0.0
300.0   30.0   16.666666666666668
350.0   60.0   16.666666666666668
350.0   30.0   0.0
300.0   60.0   0.0
300.0   30.0   16.666666666666668
350.0   30.0   16.666666666666668
300.0   60.0   16.666666666666668
300.0   30.0   33.333333333333336
350.0   30.0   16.666666666666668
350.0   60.0   16.666666666666668
300.0   60.0   16.666666666666668
350.0   60.0   33.333333333333336
300.0   30.0   33.333333333333336
300.0   60.0   33.333333333333336
350.0   60.0   33.333333333333336
300.0   60.0   16.666666666666668
300.0   30.0   33.333333333333336
350.0   60.0   33.333333333333336
350.0   30.0   33.333333333333336
350.0   30.0   16.666666666666668
300.0   30.0   33.333333333333336
350.0   60.0   33.333333333333336
350.0   30.0   16.666666666666668
300.0   60.0   16.666666666666668
300.0   30.0   33.333333333333336
350.0   30.0   33.333333333333336
300.0   60.0   33.333333333333336
300.0   30.0   50.0
350.0   30.0   33.333333333333336
350.0   60.0   33.333333333333336
300.0   60.0   33.333333333333336
350.0   60.0   50.0
300.0   30.0   50.0
300.0   60.0   50.0
350.0   60.0   50.0
300.0   60.0   33.333333333333336
300.0   30.0   50.0
350.0   60.0   50.0
350.0   30.0   50.0
350.0   30.0   33.333333333333336
300.0   30.0   50.0
350.0   60.0   50.0
350.0   30.0   33.333333333333336
300.0   60.0   33.333333333333336
300.0   60.0   0.0
350.0   60.0   0.0
300.0   90.0   0.0
300.0   60.0   16.666666666666668
350.0   60.0   0.0
350.0   90.0   0.0
300.0   90.0   0.0
350.0   90.0   16.666666666666668
300.0   60.0   16.666666666666668
300.0   90.0   16.666666666666668
350.0   90.0   16.666666666666668
300.0   90.0   0.0
300.0   60.0   16.666666666666668
350.0   90.0   16.666666666666668
350.0   60.0   16.666666666666668
350.0   60.0   0.0
300.0   60.0   16.666666666666668
350.0   90.0   16.666666666666668
350.0   60.0   0.0
300.0   90.0   0.0
300.0   60.0   16.666666666666668
350.0   60.0   16.666666666666668
300.0   90.0   16.666666666666668
300.0   60.0   33.333333333333336
350.0   60.0   16.666666666666668
350.0   90.0   16.666666666666668
300.0   90.0   16.666666666666668
350.0   90.0   33.333333333333336
300.0   60.0   33.333333333333336
300.0   90.0   33.333333333333336
350.0   90.0   33.333333333333336
300.0   90.0   16.666666666666668
300.0   60.0   33.333333333333336
350.0   90.0   33.333333333333336
350.0   60.0   33.333333333333336
350.0   60.0   16.666666666666668
300.0   60.0   33.333333333333336
350.0   90.0   33.333333333333336
350.0   60.0   16.666666666666668
300.0   90.0   16.666666666666668
300.0   60.0   33.333333333333336
350.0   60.0   33.333333333333336
300.0   90.0   33.333333333333336
300.0   60.0   50.0
350.0   60.0   33.333333333333336
350.0   90.0   33.333333333333336
300.0   90.0   33.333333333333336
350.0   90.0   50.0
300.0   60.0   50.0
300.0   90.0   50.0
350.0   90.0   50.0
300.0   90.0   33.333333333333336
300.0   60.0   50.0
350.0   90.0   50.0
350.0   60.0   50.0
350.0   60.0   33.333333333333336
300.0   60.0   50.0
350.0   90.0   50.0
350.0   60.0   33.333333333333336
300.0   90.0   33.333333333333336
300.0   90.0   0.0
350.0   90.0   0.0
300.0   120.0   0.0
300.0   90.0   16.666666666666668
350.0   90.0   0.0
350.0   120.0   0.0
300.0   120.0   0.0
350.0   120.0   16.666666666666668
300.0   90.0   16.666666666666668
300.0   120.0   16.666666666666668
350.0   120.0   16.666666666666668
300.0   120.0   0.0
300.0   90.0   16.666666666666668
350.0   120.0   16.666666666666668
350.0   90.0   16.666666666666668
350.0   90.0   0.0
300.0   90.0   16.666666666666668
350.0   120.0   16.666666666666668
350.0   90.0   0.0
300.0   120.0   0.0
300.0   90.0   16.666666666666668
350.0   90.0   16.666666666666668
300.0   120.0   16.666666666666668
300.0   90.0   33.333333333333336
350.0   90.0   16.666666666666668
350.0   120.0   16.666666666666668
300.0   120.0   16.666666666666668
350.0   120.0   33.333333333333336
300.0   90.0   33.333333333333336
300.0   120.0   33.333333333333336
350.0   120.0   33.333333333333336
300.0   120.0   16.666666666666668
300.0   90.0   33.333333333333336
350.0   120.0   33.333333333333336
350.0   90.0   33.333333333333336
350.0   90.0   16.666666666666668
300.0   90.0   33.333333333333336
350.0   120.0   33.333333333333336
350.0   90.0   16.666666666666668
300.0   120.0   16.666666666666668
300.0   90.0   33.333333333333336
350.0   90.0   33.333333333333336
300.0   120.0   33.333333333333336
300.0   90.0   50.0
350.0   90.0   33.333333333333336
350.0   120.0   33.333333333333336
300.0   120.0   33.333333333333336
350.0   120.0   50.0
300.0   90.0   50.0
300.0   120.0   50.0
350.0   120.0   50.0
300.0   120.0   33.333333333333336
300.0   90.0   50.0
350.0   120.0   50.0
350.0   90.0   50.0
350.0   90.0   33.333333333333336
300.0   90.0   50.0
350.0   120.0   50.0
350.0   90.0   33.333333333333336
300.0   120.0   33.333333333333336
300.0   120.0   0.0
350.0   120.0   0.0
300.0   150.0   0.0
300.0   120.0   16.666666666666668
350.0   120.0   0.0
350.0   150.0   0.0
300.0   150.0   0.0
350.0   150.0   16.666666666666668
300.0   120.0   16.666666666666668
300.0   150.0   16.666666666666668
350.0   150.0   16.666666666666668
300.0   150.0   0.0
300.0   120.0   16.666666666666668
350.0   150.0   16.666666666666668
350.0   120.0   16.666666666666668
350.0   120.0   0.0
300.0   120.0   16.666666666666668
350.0   150.0   16.666666666666668
350.0   120.0   0.0
300.0   150.0   0.0
300.0   120.0   16.666666666666668
350.0   120.0   16.666666666666668
300.0   150.0   16.666666666666668
300.0   120.0   33.333333333333336
350.0   120.0   16.666666666666668
350.0   150.0   16.666666666666668
300.0   150.0   16.666666666666668
350.0   150.0   33.333333333333336
300.0   120.0   33.333333333333336
300.0   150.0   33.333333333333336
350.0   150.0   33.333333333333336
300.0   150.0   16.666666666666668
300.0   120.0   33.333333333333336
350.0   150.0   33.333333333333336
350.0   120.0   33.333333333333336
350.0   120.0   16.666666666666668
300.0   120.0   33.333333333333336
350.0   150.0   33.333333333333336
350.0   120.0   16.666666666666668
300.0   150.0   16.666666666666668
300.0   120.0   33.333333333333336
350.0   120.0   33.333333333333336
300.0   150.0   33.333333333333336
300.0   120.0   50.0
350.0   120.0   33.333333333333336
350.0   150.0   33.333333333333336
300.0   150.0   33.333333333333336
350.0   150.0   50.0
300.0   120.0   50.0
300.0   150.0   50.0
350.0   150.0   50.0
300.0   150.0   33.333333333333336
300.0   120.0   50.0
350.0   150.0   50.0
350.0   120.0   50.0
350.0   120.0   33.333333333333336
300.0   120.0   50.0
350.0   150.0   50.0
350.0   120.0   33.333333333333336
300.0   150.0   33.333333333333336
350.0   0.0   0.0
400.0   0.0   0.0
350.0   30.0   0.0
350.0   0.0   16.666666666666668
400.0   0.0   0.0
400.0   30.0   0.0
350.0   30.0   0.0
400.0   30.0   16.666666666666668
350.0   0.0   16.666666666666668
350.0   30.0   16.666666666666668
400.0   30.0   16.666666666666668
350.0   30.0   0.0
350.0   0.0   16.666666666666668
400.0   30.0   16.666666666666668
400.0   0.0   16.666666666666668
400.0   0.0   0.0
350.0   0.0   16.666666666666668
400.0   30.0   16.666666666666668
400.0   0.0   0.0
350.0   30.0   0.0
350.0   0.0   16.666666666666668
400.0   0.0   16.666666666666668
350.0   30.0   16.666666666666668
350.0   0.0   33.333333333333336
400.0   0.0   16.666666666666668
400.0   30.0   16.666666666666668
350.0   30.0   16.666666666666668
400.0   30.0   33.333333333333336
350.0   0.0   33.333333333333336
350.0   30.0   33.333333333333336
400.0   30.0   33.333333333333336
350.0   30.0   16.666666666666668
350.0   0.0   33.333333333333336
400.0   30.0   33.333333333333336
400.0   0.0   33.333333333333336
400.0   0.0   16.666666666666668
350.0   0.0   33.333333333333336
400.0   30.0   33.333333333333336
400.0   0.0   16.666666666666668
350.0   30.0   16.666666666666668
350.0   0.0   33.333333333333336
400.0   0.0   33.333333333333336
350.0   30.0   33.333333333333336
350.0   0.0   50.0
400.0   0.0   33.333333333333336
400.0   30.0   33.333333333333336
350.0   30.0   33.333333333333336
400.0   30.0   50.0
350.0   0.0   50.0
350.0   30.0   50.0
400.0   30.0   50.0
350.0   30.0   33.333333333333336
350.0   0.0   50.0
400.0   30.0   50.0
400.0   0.0   50.0
400.0   0.0   33.333333333333336
350.0   0.0   50.0
400.0   30.0   50.0
400.0   0.0   33.333333333333336
350.0   30.0   33.333333333333336
350.0   30.0   0.0
400.0   30.0   0.0
350.0   60.0   0.0
350.0   30.0   16.666666666666668
400.0   30.0   0.0
400.0   60.0   0.0
350.0   60.0   0.0
400.0   60.0   16.666666666666668
350.0   30.0   16.666666666666668
350.0   60.0   16.666666666666668
400.0   60.0   16.666666666666668
350.0   60.0   0.0
350.0   30.0   16.666666666666668
400.0   60.0   16.666666666666668
400.0   30.0   16.666666666666668
400.0   30.0   0.0
350.0   30.0   16.666666666666668
400.0   60.0   16.666666666666668
400.0   30.0   0.0
350.0   60.0   0.0
350.0   30.0   16.666666666666668
400.0   30.0   16.666666666666668
350.0   60.0   16.666666666666668
350.0   30.0   33.333333333333336
400.0   30.0   16.666666666666668
400.0   60.0   16.666666666666668
350.0   60.0   16.666666666666668
400.0   60.0   33.333333333333336
350.0   30.0   33.333333333333336
350.0   60.0   33.333333333333336
400.0   60.0   33.333333333333336
350.0   60.0   16.666666666666668
350.0   30.0   33.333333333333336
400.0   60.0   33.333333333333336
400.0   30.0   33.333333333333336
400.0   30.0   16.666666666666668
350.0   30.0   33.333333333333336
400.0   60.0   33.333333333333336
400.0   30.0   16.666666666666668
350.0   60.0   16.666666666666668
350.0   30.0   33.333333333333336
400.0   30.0   33.333333333333336
350.0   60.0   33.333333333333336
350.0   30.0   50.0
400.0   30.0   33.333333333333336
400.0   60.0   33.333333333333336
350.0   60.0   33.333333333333336
400.0   60.0   50.0
350.0   30.0   50.0
350.0   60.0   50.0
400.0   60.0   50.0
350.0   60.0   33.333333333333336
350.0   30.0   50.0
400.0   60.0   50.0
400.0   30.0   50.0
400.0   30.0   33.333333333333336
350.0   30.0   50.0
400.0   60.0   50.0
400.0   30.0   33.333333333333336
350.0   60.0   33.333333333333336
350.0   60.0   0.0
400.0   60.0   0.0
350.0   90.0   0.0
350.0   60.0   16.666666666666668
400.0   60.0   0.0
400.0   90.0   0.0
350.0   90.0   0.0
400.0   90.0   16.666666666666668
350.0   60.0   16.666666666666668
350.0   90.0   16.666666666666668
400.0   90.0   16.666666666666668
350.0   90.0   0.0
350.0   60.0   16.666666666666668
400.0   90.0   16.666666666666668
400.0   60.0   16.666666666666668
400.0   60.0   0.0
350.0   60.0   16.666666666666668
400.0   90.0   16.666666666666668
400.0   60.0   0.0
350.0   90.0   0.0
350.0   60.0   16.666666666666668
400.0   60.0   16.666666666666668
350.0   90.0   16.666666666666668
350.0   60.0   33.333333333333336
400.0   60.0   16.666666666666668
400.0   90.0   16.666666666666668
350.0   90.0   16.666666666666668
400.0   90.0   33.333333333333336
350.0   60.0   33.333333333333336
350.0   90.0   33.333333333333336
400.0   90.0   33.333333333333336
350.0   90.0   16.666666666666668
350.0   60.0   33.333333333333336
400.0   90.0   33.333333333333336
400.0   60.0   33.333333333333336
400.0   60.0   16.666666666666668
350.0   60.0   33.333333333333336
400.0   90.0   33.333333333333336
400.0   60.0   16.666666666666668
350.0   90.0   16.666666666666668
350.0   60.0   33.333333333333336
400.0   60.0   33.333333333333336
350.0   90.0   33.333333333333336
350.0   60.0   50.0
400.0   60.0   33.333333333333336
400.0   90.0   33.333333333333336
350.0   90.0   33.333333333333336
400.0   90.0   50.0
350.0   60.0   50.0
350.0   90.0   50.0
400.0   90.0   50.0
350.0   90.0   33.333333333333336
350.0   60.0   50.0
400.0   90.0   50.0
400.0   60.0   50.0
400.0   60.0   33.333333333333336
350.0   60.0   50.0
400.0   90.0   50.0
400.0   60.0   33.333333333333336
350.0   90.0   33.333333333333336
350.0   90.0   0.0
400.0   90.0   0.0
350.0   120.0   0.0
350.0   90.0   16.666666666666668
400.0   90.0   0.0
400.0   120.0   0.0
350.0   120.0   0.0
400.0   120.0   16.666666666666668
350.0   90.0   16.666666666666668
350.0   120.0   16.666666666666668
400.0   120.0   16.666666666666668
350.0   120.0   0.0
350.0   90.0   16.666666666666668
400.0   120.0   16.666666666666668
400.0   90.0   16.666666666666668
400.0   90.0   0.0
350.0   90.0   16.666666666666668
400.0   120.0   16.666666666666668
400.0   90.0   0.0
350.0   120.0   0.0
350.0   90.0   16.666666666666668
400.0   90.0   16.666666666666668
350.0   120.0   16.666666666666668
350.0   90.0   33.333333333333336
400.0   90.0   16.666666666666668
400.0   120.0   16.666666666666668
350.0   120.0   16.666666666666668
400.0   120.0   33.333333333333336
350.0   90.0   33.333333333333336
350.0   120.0   33.333333333333336
400.0   120.0   33.333333333333336
350.0   120.0   16.666666666666668
350.0   90.0   33.333333333333336
400.0   120.0   33.333333333333336
400.0   90.0   33.333333333333336
400.0   90.0   16.666666666666668
350.0   90.0   33.333333333333336
400.0   120.0   33.333333333333336
400.0   90.0   16.666666666666668
350.0   120.0   16.666666666666668
350.0   90.0   33.333333333333336
400.0   90.0   33.333333333333336
350.0   120.0   33.333333333333336
350.0   90.0   50.0
400.0   90.0   33.333333333333336
400.0   120.0   33.333333333333336
350.0   120.0   33.333333333333336
400.0   120.0   50.0
350.0   90.0   50.0
350.0   120.0   50.0
400.0   120.0   50.0
350.0   120.0   33.333333333333336
350.0   90.0   50.0
400.0   120.0   50.0
400.0   90.0   50.0
400.0   90.0   33.333333333333336
350.0   90.0   50.0
400.0   120.0   50.0
400.0   90.0   33.333333333333336
350.0   120.0   33.333333333333336
350.0   120.0   0.0
400.0   120.0   0.0
350.0   150.0   0.0
350.0   120.0   16.666666666666668
400.0   120.0   0.0
400.0   150.0   0.0
350.0   150.0   0.0
400.0   150.0   16.666666666666668
350.0   120.0   16.666666666666668
350.0   150.0   16.666666666666668
400.0   150.0   16.666666666666668
350.0   150.0   0.0
350.0   120.0   16.666666666666668
400.0   150.0   16.666666666666668
400.0   120.0   16.666666666666668
400.0   120.0   0.0
350.0   120.0   16.666666666666668
400.0   150.0   16.666666666666668
400.0   120.0   0.0
350.0   150.0   0.0
350.0   120.0   16.666666666666668
400.0   120.0   16.666666666666668
350.0   150.0   16.666666666666668
350.0   120.0   33.333333333333336
400.0   120.0   16.666666666666668
400.0   150.0   16.666666666666668
350.0   150.0   16.666666666666668
400.0   150.0   33.333333333333336
350.0   120.0   33.333333333333336
350.0   150.0   33.333333333333336
400.0   150.0   33.333333333333336
350.0   150.0   16.666666666666668
350.0   120.0   33.333333333333336
400.0   150.0   33.333333333333336
400.0   120.0   33.333333333333336
400.0   120.0   16.666666666666668
350.0   120.0   33.333333333333336
400.0   150.0   33.333333333333336
400.0   120.0   16.666666666666668
350.0   150.0   16.666666666666668
350.0   120.0   33.333333333333336
400.0   120.0   33.333333333333336
350.0   150.0   33.333333333333336
350.0   120.0   50.0
400.0   120.0   33.333333333333336
400.0   150.0   33.333333333333336
350.0   150.0   33.333333333333336
400.0   150.0   50.0
350.0   120.0   50.0
350.0   150.0   50.0
400.0   150.0   50.0
350.0   150.0   33.333333333333336
350.0   120.0   50.0
400.0   150.0   50.0
400.0   120.0   50.0
400.0   120.0   33.333333333333336
350.0   120.0   50.0
400.0   150.0   50.0
400.0   120.0   33.333333333333336
350.0   150.0   33.333333333333336
400.0   0.0   0.0
450.0   0.0   0.0
400.0   30.0   0.0
400.0   0.0   16.666666666666668
450.0   0.0   0.0
450.0   30.0   0.0
400.0   30.0   0.0
450.0   30.0   16.666666666666668
400.0   0.0   16.666666666666668
400.0   30.0   16.666666666666668
450.0   30.0   16.666666666666668
400.0   30.0   0.0
400.0   0.0   16.666666666666668
450.0   30.0   16.666666666666668
450.0   0.0   16.666666666666668
450.0   0.0   0.0
400.0   0.0   16.666666666666668
450.0   30.0   16.666666666666668
450.0   0.0   0.0
400.0   30.0   0.0
400.0   0.0   16.666666666666668
450.0   0.0   16.666666666666668
400.0   30.0   16.666666666666668
400.0   0.0   33.333333333333336
450.0   0.0   16.666666666666668
450.0   30.0   16.666666666666668
400.0   30.0   16.666666666666668
450.0   30.0   33.333333333333336
400.0   0.0   33.333333333333336
400.0   30.0   33.333333333333336
450.0   30.0   33.333333333333336
400.0   30.0   16.666666666666668
400.0   0.0   33.333333333333336
450.0   30.0   33.333333333333336
450.0   0.0   33.333333333333336
450.0   0.0   16.666666666666668
400.0   0.0   33.333333333333336
450.0   30.0   33.333333333333336
450.0   0.0   16.666666666666668
400.0   30.0   16.666666666666668
400.0   0.0   33.333333333333336
450.0   0.0   33.333333333333336
400.0   30.0   33.333333333333336
400.0   0.0   50.0
450.0   0.0   33.333333333333336
450.0   30.0   33.333333333333336
400.0   30.0   33.333333333333336
450.0   30.0   50.0
400.0   0.0   50.0
400.0   30.0   50.0
450.0   30.0   50.0
400.0   30.0   33.333333333333336
400.0   0.0   50.0
450.0   30.0   50.0
450.0   0.0   50.0
450.0   0.0   33.333333333333336
400.0   0.0   50.0
450.0   30.0   50.0
450.0   0.0   33.333333333333336
400.0   30.0   33.333333333333336
400.0   30.0   0.0
450.0   30.0   0.0
400.0   60.0   0.0
400.0   30.0   16.666666666666668
450.0   30.0   0.0
450.0   60.0   0.0
400.0   60.0   0.0
450.0   60.0   16.666666666666668
400.0   30.0   16.666666666666668
400.0   60.0   16.666666666666668
450.0   60.0   16.666666666666668
400.0   60.0   0.0
400.0   30.0   16.666666666666668
450.0   60.0   16.666666666666668
450.0   30.0   16.666666666666668
450.0   30.0   0.0
400.0   30.0   16.666666666666668
450.0   60.0   16.666666666666668
450.0   30.0   0.0
400.0   60.0   0.0
400.0   30.0   16.666666666666668
450.0   30.0   16.666666666666668
400.0   60.0   16.666666666666668
400.0   30.0   33.333333333333336
450.0   30.0   16.666666666666668
450.0   60.0   16.666666666666668
400.0   60.0   16.666666666666668
450.0   60.0   33.333333333333336
400.0   30.0   33.333333333333336
400.0   60.0   33.333333333333336
450.0   60.0   33.333333333333336
400.0   60.0   16.666666666666668
400.0   30.0   33.333333333333336
450.0   60.0   33.333333333333336
450.0   30.0   33.333333333333336
450.0   30.0   16.666666666666668
400.0   30.0   33.333333333333336
450.0   60.0   33.333333333333336
450.0   30.0   16.666666666666668
400.0   60.0   16.666666666666668
400.0   30.0   33.333333333333336
450.0   30.0   33.333333333333336
400.0   60.0   33.333333333333336
400.0   30.0   50.0
450.0   30.0   33.333333333333336
450.0   60.0   33.333333333333336
400.0   60.0   33.333333333333336
450.0   60.0   50.0
400.0   30.0   50.0
400.0   60.0   50.0
450.0   60.0   50.0
400.0   60.0   33.333333333333336
400.0   30.0   50.0
450.0   60.0   50.0
450.0   30.0   50.0
450.0   30.0   33.333333333333336
400.0   30.0   50.0
450.0   60.0   50.0
450.0   30.0   33.333333333333336
400.0   60.0   33.333333333333336
400.0   60.0   0.0
450.0   60.0   0.0
400.0   90.0   0.0
400.0   60.0   16.666666666666668
450.0   60.0   0.0
450.0   90.0   0.0
400.0   90.0   0.0
450.0   90.0   16.666666666666668
400.0   60.0   16.666666666666668
400.0   90.0   16.666666666666668
450.0   90.0   16.666666666666668
400.0   90.0   0.0
400.0   60.0   16.666666666666668
450.0   90.0   16.666666666666668
450.0   60.0   16.666666666666668
450.0   60.0   0.0
400.0   60.0   16.666666666666668
450.0   90.0   16.666666666666668
450.0   60.0   0.0
400.0   90.0   0.0
400.0   60.0   16.666666666666668
450.0   60.0   16.666666666666668
400.0   90.0   16.666666666666668
400.0   60.0   33.333333333333336
450.0   60.0   16.666666666666668
450.0   90.0   16.666666666666668
400.0   90.0   16.666666666666668
450.0   90.0   33.333333333333336
400.0   60.0   33.333333333333336
400.0   90.0   33.333333333333336
450.0   90.0   33.333333333333336
400.0   90.0   16.666666666666668
400.0   60.0   33.333333333333336
450.0   90.0   33.333333333333336
450.0   60.0   33.333333333333336
450.0   60.0   16.666666666666668
400.0   60.0   33.333333333333336
450.0   90.0   33.333333333333336
450.0   60.0   16.666666666666668
400.0   90.0   16.666666666666668
400.0   60.0   33.333333333333336
450.0   60.0   33.333333333333336
400.0   90.0   33.333333333333336
400.0   60.0   50.0
450.0   60.0   33.333333333333336
450.0   90.0   33.333333333333336
400.0   90.0   33.333333333333336
450.0   90.0   50.0
400.0   60.0   50.0
400.0   90.0   50.0
450.0   90.0   50.0
400.0   90.0   33.333333333333336
400.0   60.0   50.0
450.0   90.0   50.0
450.0   60.0   50.0
450.0   60.0   33.333333333333336
400.0   60.0   50.0
450.0   90.0   50.0
450.0   60.0   33.333333333333336
400.0   90.0   33.333333333333336
400.0   90.0   0.0
450.0   90.0   0.0
400.0   120.0   0.0
400.0   90.0   16.666666666666668
450.0   90.0   0.0
450.0   120.0   0.0
400.0   120.0   0.0
450.0   120.0   16.666666666666668
400.0   90.0   16.666666666666668
400.0   120.0   16.666666666666668
450.0   120.0   16.666666666666668
400.0   120.0   0.0
400.0   90.0   16.666666666666668
450.0   120.0   16.666666666666668
450.0   90.0   16.666666666666668
450.0   90.0   0.0
400.0   90.0   16.666666666666668
450.0   120.0   16.666666666666668
450.0   90.0   0.0
400.0   120.0   0.0
400.0   90.0   16.666666666666668
450.0   90.0   16.666666666666668
400.0   120.0   16.666666666666668
400.0   90.0   33.333333333333336
450.0   90.0   16.666666666666668
450.0   120.0   16.666666666666668
400.0   120.0   16.666666666666668
450.0   120.0   33.333333333333336
400.0   90.0   33.333333333333336
400.0   120.0   33.333333333333336
450.0   120.0   33.333333333333336
400.0   120.0   16.666666666666668
400.0   90.0   33.333333333333336
450.0   120.0   33.333333333333336
450.0   90.0   33.333333333333336
450.0   90.0   16.666666666666668
400.0   90.0   33.333333333333336
450.0   120.0   33.333333333333336
450.0   90.0   16.666666666666668
400.0   120.0   16.666666666666668
400.0   90.0   33.333333333333336
450.0   90.0   33.333333333333336
400.0   120.0   33.333333333333336
400.0   90.0   50.0
450.0   90.0   33.333333333333336
450.0   120.0   33.333333333333336
400.0   120.0   33.333333333333336
450.0   120.0   50.0
400.0   90.0   50.0
400.0   120.0   50.0
450.0   120.0   50.0
400.0   120.0   33.333333333333336
400.0   90.0   50.0
450.0   120.0   50.0
450.0   90.0   50.0
450.0   90.0   33.333333333333336
400.0   90.0   50.0
450.0   120.0   50.0
450.0   90.0   33.333333333333336
400.0   120.0   33.333333333333336
400.0   120.0   0.0
450.0   120.0   0.0
400.0   150.0   0.0
400.0   120.0   16.666666666666668
450.0   120.0   0.0
450.0   150.0   0.0
400.0   150.0   0.0
450.0   150.0   16.666666666666668
400.0   120.0   16.666666666666668
400.0   150.0   16.666666666666668
450.0   150.0   16.666666666666668
400.0   150.0   0.0
400.0   120.0   16.666666666666668
450.0   150.0   16.666666666666668
450.0   120.0   16.666666666666668
450.0   120.0   0.0
400.0   120.0   16.666666666666668
450.0   150.0   16.666666666666668
450.0   120.0   0.0
400.0   150.0   0.0
400.0   120.0   16.666666666666668
450.0   120.0   16.666666666666668
400.0   150.0   16.666666666666668
400.0   120.0   33.333333333333336
450.0   120.0   16.666666666666668
450.0   150.0   16.666666666666668
400.0   150.0   16.666666666666668
450.0   150.0   33.333333333333336
400.0   120.0   33.333333333333336
400.0   150.0   33.333333333333336
450.0   150.0   33.333333333333336
400.0   150.0   16.666666666666668
400.0   120.0   33.333333333333336
450.0   150.0   33.333333333333336
450.0   120.0   33.333333333333336
450.0   120.0   16.666666666666668
400.0   120.0   33.333333333333336
450.0   150.0   33.333333333333336
450.0   120.0   16.666666666666668
400.0   150.0   16.666666666666668
400.0   120.0   33.333333333333336
450.0   120.0   33.333333333333336
400.0   150.0   33.333333333333336
400.0   120.0   50.0
450.0   120.0   33.333333333333336
450.0   150.0   33.333333333333336
400.0   150.0   33.333333333333336
450.0   150.0   50.0
400.0   120.0   50.0
400.0   150.0   50.0
450.0   150.0   50.0
400.0   150.0   33.333333333333336
400.0   120.0   50.0
450.0   150.0   50.0
450.0   120.0   50.0
450.0   120.0   33.333333333333336
400.0   120.0   50.0
450.0   150.0   50.0
450.0   120.0   33.333333333333336
400.0   150.0   33.333333333333336
450.0   0.0   0.0
500.0   0.0   0.0
450.0   30.0   0.0
450.0   0.0   16.666666666666668
500.0   0.0   0.0
500.0   30.0   0.0
450.0   30.0   0.0
500.0   30.0   16.666666666666668
450.0   0.0   16.666666666666668
450.0   30.0   16.666666666666668
500.0   30.0   16.666666666666668
450.0   30.0   0.0
450.0   0.0   16.666666666666668
500.0   30.0   16.666666666666668
500.0   0.0   16.666666666666668
500.0   0.0   0.0
450.0   0.0   16.666666666666668
500.0   30.0   16.666666666666668
500.0   0.0   0.0
450.0   30.0   0.0
450.0   0.0   16.666666666666668
500.0   0.0   16.666666666666668
450.0   30.0   16.666666666666668
450.0   0.0   33.333333333333336
500.0   0.0   16.666666666666668
500.0   30.0   16.666666666666668
450.0   30.0   16.666666666666668
500.0   30.0   33.333333333333336
450.0   0.0   33.333333333333336
450.0   30.0   33.333333333333336
500.0   30.0   33.333333333333336
450.0   30.0   16.666666666666668
450.0   0.0   33.333333333333336
500.0   30.0   33.333333333333336
500.0   0.0   33.333333333333336
500.0   0.0   16.666666666666668
450.0   0.0   33.333333333333336
500.0   30.0   33.333333333333336
500.0   0.0   16.666666666666668
450.0   30.0   16.666666666666668
450.0   0.0   33.333333333333336
500.0   0.0   33.333333333333336
450.0   30.0   33.333333333333336
450.0   0.0   50.0
500.0   0.0   33.333333333333336
500.0   30.0   33.333333333333336
450.0   30.0   33.333333333333336
500.0   30.0   50.0
450.0   0.0   50.0
450.0   30.0   50.0
500.0   30.0   50.0
450.0   30.0   33.333333333333336
450.0   0.0   50.0
500.0   30.0   50.0
500.0   0.0   50.0
500.0   0.0   33.333333333333336
450.0   0.0   50.0
500.0   30.0   50.0
500.0   0.0   33.333333333333336
450.0   30.0   33.333333333333336
450.0   30.0   0.0
500.0   30.0   0.0
450.0   60.0   0.0
450.0   30.0   16.666666666666668
500.0   30.0   0.0
500.0   60.0   0.0
450.0   60.0   0.0
500.0   60.0   16.666666666666668
450.0   30.0   16.666666666666668
450.0   60.0   16.666666666666668
500.0   60.0   16.666666666666668
450.0   60.0   0.0
450.0   30.0   16.666666666666668
500.0   60.0   16.666666666666668
500.0   30.0   16.666666666666668
500.0   30.0   0.0
450.0   30.0   16.666666666666668
500.0   60.0   16.666666666666668
500.0   30.0   0.0
450.0   60.0   0.0
450.0   30.0   16.666666666666668
500.0   30.0   16.666666666666668
450.0   60.0   16.666666666666668
450.0   30.0   33.333333333333336
500.0   30.0   16.666666666666668
500.0   60.0   16.666666666666668
450.0   60.0   16.666666666666668
500.0   60.0   33.333333333333336
450.0   30.0   33.333333333333336
450.0   60.0   33.333333333333336
500.0   60.0   33.333333333333336
450.0   60.0   16.666666666666668
450.0   30.0   33.333333333333336
500.0   60.0   33.333333333333336
500.0   30.0   33.333333333333336
500.0   30.0   16.666666666666668
450.0   30.0   33.333333333333336
500.0   60.0   33.333333333333336
500.0   30.0   16.666666666666668
450.0   60.0   16.666666666666668
450.0   30.0   33.333333333333336
500.0   30.0   33.333333333333336
450.0   60.0   33.333333333333336
450.0   30.0   50.0
500.0   30.0   33.333333333333336
500.0   60.0   33.333333333333336
450.0   60.0   33.333333333333336
500.0   60.0   50.0
450.0   30.0   50.0
450.0   60.0   50.0
500.0   60.0   50.0
450.0   60.0   33.333333333333336
450.0   30.0   50.0
500.0   60.0   50.0
500.0   30.0   50.0
500.0   30.0   33.333333333333336
450.0   30.0   50.0
500.0   60.0   50.0
500.0   30.0   33.333333333333336
450.0   60.0   33.333333333333336
450.0   60.0   0.0
500.0   60.0   0.0
450.0   90.0   0.0
450.0   60.0   16.666666666666668
500.0   60.0   0.0
500.0   90.0   0.0
450.0   90.0   0.0
500.0   90.0   16.666666666666668
450.0   60.0   16.666666666666668
450.0   90.0   16.666666666666668
500.0   90.0   16.666666666666668
450.0   90.0   0.0
450.0   60.0   16.666666666666668
500.0   90.0   16.666666666666668
500.0   60.0   16.666666666666668
500.0   60.0   0.0
450.0   60.0   16.666666666666668
500.0   90.0   16.666666666666668
500.0   60.0   0.0
450.0   90.0   0.0
450.0   60.0   16.666666666666668
500.0   60.0   16.666666666666668
450.0   90.0   16.666666666666668
450.0   60.0   33.333333333333336
500.0   60.0   16.666666666666668
500.0   90.0   16.666666666666668
450.0   90.0   16.666666666666668
500.0   90.0   33.333333333333336
450.0   60.0   33.333333333333336
450.0   90.0   33.333333333333336
500.0   90.0   33.333333333333336
450.0   90.0   16.666666666666668
450.0   60.0   33.333333333333336
500.0   90.0   33.333333333333336
500.0   60.0   33.333333333333336
500.0   60.0   16.666666666666668
450.0   60.0   33.333333333333336
500.0   90.0   33.333333333333336
500.0   60.0   16.666666666666668
450.0   90.0   16.666666666666668
450.0   60.0   33.333333333333336
500.0   60.0   33.333333333333336
450.0   90.0   33.333333333333336
450.0   60.0   50.0
500.0   60.0   33.333333333333336
500.0   90.0   33.333333333333336
450.0   90.0   33.333333333333336
500.0   90.0   50.0
450.0   60.0   50.0
450.0   90.0   50.0
500.0   90.0   50.0
450.0   90.0   33.333333333333336
450.0   60.0   50.0
500.0   90.0   50.0
500.0   60.0   50.0
500.0   60.0   33.333333333333336
450.0   60.0   50.0
500.0   90.0   50.0
500.0   60.0   33.333333333333336
450.0   90.0   33.333333333333336
450.0   90.0   0.0
500.0   90.0   0.0
450.0   120.0   0.0
450.0   90.0   16.666666666666668
500.0   90.0   0.0
500.0   120.0   0.0
450.0   120.0   0.0
500.0   120.0   16.666666666666668
450.0   90.0   16.666666666666668
450.0   120.0   16.666666666666668
500.0   120.0   16.666666666666668
450.0   120.0   0.0
450.0   90.0   16.666666666666668
500.0   120.0   16.666666666666668
500.0   90.0   16.666666666666668
500.0   90.0   0.0
450.0   90.0   16.666666666666668
500.0   120.0   16.666666666666668
500.0   90.0   0.0
450.0   120.0   0.0
450.0   90.0   16.666666666666668
500.0   90.0   16.666666666666668
450.0   120.0   16.666666666666668
450.0   90.0   33.333333333333336
500.0   90.0   16.666666666666668
500.0   120.0   16.666666666666668
450.0   120.0   16.666666666666668
500.0   120.0   33.333333333333336
450.0   90.0   33.333333333333336
450.0   120.0   33.333333333333336
500.0   120.0   33.333333333333336
450.0   120.0   16.666666666666668
450.0   90.0   33.333333333333336
500.0   120.0   33.333333333333336
500.0   90.0   33.333333333333336
500.0   90.0   16.666666666666668
450.0   90.0   33.333333333333336
500.0   120.0   33.333333333333336
500.0   90.0   16.666666666666668
450.0   120.0   16.666666666666668
450.0   90.0   33.333333333333336
500.0   90.0   33.333333333333336
450.0   120.0   33.333333333333336
450.0   90.0   50.0
500.0   90.0   33.333333333333336
500.0   120.0   33.333333333333336
450.0   120.0   33.333333333333336
500.0   120.0   50.0
450.0   90.0   50.0
450.0   120.0   50.0
500.0   120.0   50.0
450.0   120.0   33.333333333333336
450.0   90.0   50.0
500.0   120.0   50.0
500.0   90.0   50.0
500.0   90.0   33.333333333333336
450.0   90.0   50.0
500.0   120.0   50.0
500.0   90.0   33.333333333333336
450.0   120.0   33.333333333333336
450.0   120.0   0.0
500.0   120.0   0.0
450.0   150.0   0.0
450.0   120.0   16.666666666666668
500.0   120.0   0.0
500.0   150.0   0.0
450.0   150.0   0.0
500.0   150.0   16.666666666666668
450.0   120.0   16.666666666666668
450.0   150.0   16.666666666666668
500.0   150.0   16.666666666666668
450.0   150.0   0.0
450.0   120.0   16.666666666666668
500.0   150.0   16.666666666666668
500.0   120.0   16.666666666666668
500.0   120.0   0.0
450.0   120.0   16.666666666666668
500.0   150.0   16.666666666666668
500.0   120.0   0.0
450.0   150.0   0.0
450.0   120.0   16.666666666666668
500.0   120.0   16.666666666666668
450.0   150.0   16.666666666666668
450.0   120.0   33.333333333333336
500.0   120.0   16.666666666666668
500.0   150.0   16.666666666666668
450.0   150.0   16.666666666666668
500.0   150.0   33.333333333333336
450.0   120.0   33.333333333333336
450.0   150.0   33.333333333333336
500.0   150.0   33.333333333333336
450.0   150.0   16.666666666666668
450.0   120.0   33.333333333333336
500.0   150.0   33.333333333333336
500.0   120.0   33.333333333333336
500.0   120.0   16.666666666666668
450.0   120.0   33.333333333333336
500.0   150.0   33.333333333333336
500.0   120.0   16.666666666666668
450.0   150.0   16.666666666666668
450.0   120.0   33.333333333333336
500.0   120.0   33.333333333333336
450.0   150.0   33.333333333333336
450.0   120.0   50.0
500.0   120.0   33.333333333333336
500.0   150.0   33.333333333333336
450.0   150.0   33.333333333333336
500.0   150.0   50.0
450.0   120.0   50.0
450.0   150.0   50.0
500.0   150.0   50.0
450.0   150.0   33.333333333333336
450.0   120.0   50.0
500.0   150.0   50.0
500.0   120.0   50.0
500.0   120.0   33.333333333333336
450.0   120.0   50.0
500.0   150.0   50.0
500.0   120.0   33.333333333333336
450.0   150.0   33.333333333333336
             </DataArray>   
          </Points>  
          <Cells>  
             <DataArray type="Int32" Name="connectivity" format="ascii">   
0   1   2   3
4   5   6   7
8   9   10   11
12   13   14   15
16   17   18   19
20   21   22   23
24   25   26   27
28   29   30   31
32   33   34   35
36   37   38   39
40   41   42   43
44   45   46   47
48   49   50   51
52   53   54   55
56   57   58   59
60   61   62   63
64   65   66   67
68   69   70   71
72   73   74   75
76   77   78   79
80   81   82   83
84   85   86   87
88   89   90   91
92   93   94   95
96   97   98   99
100   101   102   103
104   105   106   107
108   109   110   111
112   113   114   115
116   117   118   119
120   121   122   123
124   125   126   127
128   129   130   131
132   133   134   135
136   137   138   139
140   141   142   143
144   145   146   147
148   149   150   151
152   153   154   155
156   157   158   159
160   161   162   163
164   165   166   167
168   169   170   171
172   173   174   175
176   177   178   179
180   181   182   183
184   185   186   187
188   189   190   191
192   193   194   195
196   197   198   199
200   201   202   203
204   205   206   207
208   209   210   211
212   213   214   215
216   217   218   219
220   221   222   223
224   225   226   227
228   229   230   231
232   233   234   235
236   237   238   239
240   241   242   243
244   245   246   247
248   249   250   251
252   253   254   255
256   257   258   259
260   261   262   263
264   265   266   267
268   269   270   271
272   273   274   275
276   277   278   279
280   281   282   283
284   285   286   287
288   289   290   291
292   293   294   295
296   297   298   299
300   301   302   303
304   305   306   307
308   309   310   311
312   313   314   315
316   317   318   319
320   321   322   323
324   325   326   327
328   329   330   331
332   333   334   335
336   337   338   339
340   341   342   343
344   345   346   347
348   349   350   351
352   353   354   355
356   357   358   359
360   361   362   363
364   365   366   367
368   369   370   371
372   373   374   375
376   377   378   379
380   381   382   383
384   385   386   387
388   389   390   391
392   393   394   395
396   397   398   399
400   401   402   403
404   405   406   407
408   409   410   411
412   413   414   415
416   417   418   419
420   421   422   423
424   425   426   427
428   429   430   431
432   433   434   435
436   437   438   439
440   441   442   443
444   445   446   447
448   449   450   451
452   453   454   455
456   457   458   459
460   461   462   463
464   465   466   467
468   469   470   471
472   473   474   475
476   477   478   479
480   481   482   483
484   485   486   487
488   489   490   491
492   493   494   495
496   497   498   499
500   501   502   503
504   505   506   507
508   509   510   511
512   513   514   515
516   517   518   519
520   521   522   523
524   525   526   527
528   529   530   531
532   533   534   535
536   537   538   539
540   541   542   543
544   545   546   547
548   549   550   551
552   553   554   555
556   557   558   559
560   561   562   563
564   565   566   567
568   569   570   571
572   573   574   575
576   577   578   579
580   581   582   583
584   585   586   587
588   589   590   591
592   593   594   595
596   597   598   599
600   601   602   603
604   605   606   607
608   609   610   611
612   613   614   615
616   617   618   619
620   621   622   623
624   625   626   627
628   629   630   631
632   633   634   635
636   637   638   639
640   641   642   643
644   645   646   647
648   649   650   651
652   653   654   655
656   657   658   659
660   661   662   663
664   665   666   667
668   669   670   671
672   673   674   675
676   677   678   679
680   681   682   683
684   685   686   687
688   689   690   691
692   693   694   695
696   697   698   699
700   701   702   703
704   705   706   707
708   709   710   711
712   713   714   715
716   717   718   719
720   721   722   723
724   725   726   727
728   729   730   731
732   733   734   735
736   737   738   739
740   741   742   743
744   745   746   747
748   749   750   751
752   753   754   755
756   757   758   759
760   761   762   763
764   765   766   767
768   769   770   771
772   773   774   775
776   777   778   779
780   781   782   783
784   785   786   787
788   789   790   791
792   793   794   795
796   797   798   799
800   801   802   803
804   805   806   807
808   809   810   811
812   813   814   815
816   817   818   819
820   821   822   823
824   825   826   827
828   829   830   831
832   833   834   835
836   837   838   839
840   841   842   843
844   845   846   847
848   849   850   851
852   853   854   855
856   857   858   859
860   861   862   863
864   865   866   867
868   869   870   871
872   873   874   875
876   877   878   879
880   881   882   883
884   885   886   887
888   889   890   891
892   893   894   895
896   897   898   899
900   901   902   903
904   905   906   907
908   909   910   911
912   913   914   915
916   917   918   919
920   921   922   923
924   925   926   927
928   929   930   931
932   933   934   935
936   937   938   939
940   941   942   943
944   945   946   947
948   949   950   951
952   953   954   955
956   957   958   959
960   961   962   963
964   965   966   967
968   969   970   971
972   973   974   975
976   977   978   979
980   981   982   983
984   985   986   987
988   989   990   991
992   993   994   995
996   997   998   999
1000   1001   1002   1003
1004   1005   1006   1007
1008   1009   1010   1011
1012   1013   1014   1015
1016   1017   1018   1019
1020   1021   1022   1023
1024   1025   1026   1027
1028   1029   1030   1031
1032   1033   1034   1035
1036   1037   1038   1039
1040   1041   1042   1043
1044   1045   1046   1047
1048   1049   1050   1051
1052   1053   1054   1055
1056   1057   1058   1059
1060   1061   1062   1063
1064   1065   1066   1067
1068   1069   1070   1071
1072   1073   1074   1075
1076   1077   1078   1079
1080   1081   1082   1083
1084   1085   1086   1087
1088   1089   1090   1091
1092   1093   1094   1095
1096   1097   1098   1099
1100   1101   1102   1103
1104   1105   1106   1107
1108   1109   1110   1111
1112   1113   1114   1115
1116   1117   1118   1119
1120   1121   1122   1123
1124   1125   1126   1127
1128   1129   1130   1131
1132   1133   1134   1135
1136   1137   1138   1139
1140   1141   1142   1143
1144   1145   1146   1147
1148   1149   1150   1151
1152   1153   1154   1155
1156   1157   1158   1159
1160   1161   1162   1163
1164   1165   1166   1167
1168   1169   1170   1171
1172   1173   1174   1175
1176   1177   1178   1179
1180   1181   1182   1183
1184   1185   1186   1187
1188   1189   1190   1191
1192   1193   1194   1195
1196   1197   1198   1199
1200   1201   1202   1203
1204   1205   1206   1207
1208   1209   1210   1211
1212   1213   1214   1215
1216   1217   1218   1219
1220   1221   1222   1223
1224   1225   1226   1227
1228   1229   1230   1231
1232   1233   1234   1235
1236   1237   1238   1239
1240   1241   1242   1243
1244   1245   1246   1247
1248   1249   1250   1251
1252   1253   1254   1255
1256   1257   1258   1259
1260   1261   1262   1263
1264   1265   1266   1267
1268   1269   1270   1271
1272   1273   1274   1275
1276   1277   1278   1279
1280   1281   1282   1283
1284   1285   1286   1287
1288   1289   1290   1291
1292   1293   1294   1295
1296   1297   1298   1299
1300   1301   1302   1303
1304   1305   1306   1307
1308   1309   1310   1311
1312   1313   1314   1315
1316   1317   1318   1319
1320   1321   1322   1323
1324   1325   1326   1327
1328   1329   1330   1331
1332   1333   1334   1335
1336   1337   1338   1339
1340   1341   1342   1343
1344   1345   1346   1347
1348   1349   1350   1351
1352   1353   1354   1355
1356   1357   1358   1359
1360   1361   1362   1363
1364   1365   1366   1367
1368   1369   1370   1371
1372   1373   1374   1375
1376   1377   1378   1379
1380   1381   1382   1383
1384   1385   1386   1387
1388   1389   1390   1391
1392   1393   1394   1395
1396   1397   1398   1399
1400   1401   1402   1403
1404   1405   1406   1407
1408   1409   1410   1411
1412   1413   1414   1415
1416   1417   1418   1419
1420   1421   1422   1423
1424   1425   1426   1427
1428   1429   1430   1431
1432   1433   1434   1435
1436   1437   1438   1439
1440   1441   1442   1443
1444   1445   1446   1447
1448   1449   1450   1451
1452   1453   1454   1455
1456   1457   1458   1459
1460   1461   1462   1463
1464   1465   1466   1467
1468   1469   1470   1471
1472   1473   1474   1475
1476   1477   1478   1479
1480   1481   1482   1483
1484   1485   1486   1487
1488   1489   1490   1491
1492   1493   1494   1495
1496   1497   1498   1499
1500   1501   1502   1503
1504   1505   1506   1507
1508   1509   1510   1511
1512   1513   1514   1515
1516   1517   1518   1519
1520   1521   1522   1523
1524   1525   1526   1527
1528   1529   1530   1531
1532   1533   1534   1535
1536   1537   1538   1539
1540   1541   1542   1543
1544   1545   1546   1547
1548   1549   1550   1551
1552   1553   1554   1555
1556   1557   1558   1559
1560   1561   1562   1563
1564   1565   1566   1567
1568   1569   1570   1571
1572   1573   1574   1575
1576   1577   1578   1579
1580   1581   1582   1583
1584   1585   1586   1587
1588   1589   1590   1591
1592   1593   1594   1595
1596   1597   1598   1599
1600   1601   1602   1603
1604   1605   1606   1607
1608   1609   1610   1611
1612   1613   1614   1615
1616   1617   1618   1619
1620   1621   1622   1623
1624   1625   1626   1627
1628   1629   1630   1631
1632   1633   1634   1635
1636   1637   1638   1639
1640   1641   1642   1643
1644   1645   1646   1647
1648   1649   1650   1651
1652   1653   1654   1655
1656   1657   1658   1659
1660   1661   1662   1663
1664   1665   1666   1667
1668   1669   1670   1671
1672   1673   1674   1675
1676   1677   1678   1679
1680   1681   1682   1683
1684   1685   1686   1687
1688   1689   1690   1691
1692   1693   1694   1695
1696   1697   1698   1699
1700   1701   1702   1703
1704   1705   1706   1707
1708   1709   1710   1711
1712   1713   1714   1715
1716   1717   1718   1719
1720   1721   1722   1723
1724   1725   1726   1727
1728   1729   1730   1731
1732   1733   1734   1735
1736   1737   1738   1739
1740   1741   1742   1743
1744   1745   1746   1747
1748   1749   1750   1751
1752   1753   1754   1755
1756   1757   1758   1759
1760   1761   1762   1763
1764   1765   1766   1767
1768   1769   1770   1771
1772   1773   1774   1775
1776   1777   1778   1779
1780   1781   1782   1783
1784   1785   1786   1787
1788   1789   1790   1791
1792   1793   1794   1795
1796   1797   1798   1799
1800   1801   1802   1803
1804   1805   1806   1807
1808   1809   1810   1811
1812   1813   1814   1815
1816   1817   1818   1819
1820   1821   1822   1823
1824   1825   1826   1827
1828   1829   1830   1831
1832   1833   1834   1835
1836   1837   1838   1839
1840   1841   1842   1843
1844   1845   1846   1847
1848   1849   1850   1851
1852   1853   1854   1855
1856   1857   1858   1859
1860   1861   1862   1863
1864   1865   1866   1867
1868   1869   1870   1871
1872   1873   1874   1875
1876   1877   1878   1879
1880   1881   1882   1883
1884   1885   1886   1887
1888   1889   1890   1891
1892   1893   1894   1895
1896   1897   1898   1899
1900   1901   1902   1903
1904   1905   1906   1907
1908   1909   1910   1911
1912   1913   1914   1915
1916   1917   1918   1919
1920   1921   1922   1923
1924   1925   1926   1927
1928   1929   1930   1931
1932   1933   1934   1935
1936   1937   1938   1939
1940   1941   1942   1943
1944   1945   1946   1947
1948   1949   1950   1951
1952   1953   1954   1955
1956   1957   1958   1959
1960   1961   1962   1963
1964   1965   1966   1967
1968   1969   1970   1971
1972   1973   1974   1975
1976   1977   1978   1979
1980   1981   1982   1983
1984   1985   1986   1987
1988   1989   1990   1991
1992   1993   1994   1995
1996   1997   1998   1999
2000   2001   2002   2003
2004   2005   2006   2007
2008   2009   2010   2011
2012   2013   2014   2015
2016   2017   2018   2019
2020   2021   2022   2023
2024   2025   2026   2027
2028   2029   2030   2031
2032   2033   2034   2035
2036   2037   2038   2039
2040   2041   2042   2043
2044   2045   2046   2047
2048   2049   2050   2051
2052   2053   2054   2055
2056   2057   2058   2059
2060   2061   2062   2063
2064   2065   2066   2067
2068   2069   2070   2071
2072   2073   2074   2075
2076   2077   2078   2079
2080   2081   2082   2083
2084   2085   2086   2087
2088   2089   2090   2091
2092   2093   2094   2095
2096   2097   2098   2099
2100   2101   2102   2103
2104   2105   2106   2107
2108   2109   2110   2111
2112   2113   2114   2115
2116   2117   2118   2119
2120   2121   2122   2123
2124   2125   2126   2127
2128   2129   2130   2131
2132   2133   2134   2135
2136   2137   2138   2139
2140   2141   2142   2143
2144   2145   2146   2147
2148   2149   2150   2151
2152   2153   2154   2155
2156   2157   2158   2159
2160   2161   2162   2163
2164   2165   2166   2167
2168   2169   2170   2171
2172   2173   2174   2175
2176   2177   2178   2179
2180   2181   2182   2183
2184   2185   2186   2187
2188   2189   2190   2191
2192   2193   2194   2195
2196   2197   2198   2199
2200   2201   2202   2203
2204   2205   2206   2207
2208   2209   2210   2211
2212   2213   2214   2215
2216   2217   2218   2219
2220   2221   2222   2223
2224   2225   2226   2227
2228   2229   2230   2231
2232   2233   2234   2235
2236   2237   2238   2239
2240   2241   2242   2243
2244   2245   2246   2247
2248   2249   2250   2251
2252   2253   2254   2255
2256   2257   2258   2259
2260   2261   2262   2263
2264   2265   2266   2267
2268   2269   2270   2271
2272   2273   2274   2275
2276   2277   2278   2279
2280   2281   2282   2283
2284   2285   2286   2287
2288   2289   2290   2291
2292   2293   2294   2295
2296   2297   2298   2299
2300   2301   2302   2303
2304   2305   2306   2307
2308   2309   2310   2311
2312   2313   2314   2315
2316   2317   2318   2319
2320   2321   2322   2323
2324   2325   2326   2327
2328   2329   2330   2331
2332   2333   2334   2335
2336   2337   2338   2339
2340   2341   2342   2343
2344   2345   2346   2347
2348   2349   2350   2351
2352   2353   2354   2355
2356   2357   2358   2359
2360   2361   2362   2363
2364   2365   2366   2367
2368   2369   2370   2371
2372   2373   2374   2375
2376   2377   2378   2379
2380   2381   2382   2383
2384   2385   2386   2387
2388   2389   2390   2391
2392   2393   2394   2395
2396   2397   2398   2399
2400   2401   2402   2403
2404   2405   2406   2407
2408   2409   2410   2411
2412   2413   2414   2415
2416   2417   2418   2419
2420   2421   2422   2423
2424   2425   2426   2427
2428   2429   2430   2431
2432   2433   2434   2435
2436   2437   2438   2439
2440   2441   2442   2443
2444   2445   2446   2447
2448   2449   2450   2451
2452   2453   2454   2455
2456   2457   2458   2459
2460   2461   2462   2463
2464   2465   2466   2467
2468   2469   2470   2471
2472   2473   2474   2475
2476   2477   2478   2479
2480   2481   2482   2483
2484   2485   2486   2487
2488   2489   2490   2491
2492   2493   2494   2495
2496   2497   2498   2499
2500   2501   2502   2503
2504   2505   2506   2507
2508   2509   2510   2511
2512   2513   2514   2515
2516   2517   2518   2519
2520   2521   2522   2523
2524   2525   2526   2527
2528   2529   2530   2531
2532   2533   2534   2535
2536   2537   2538   2539
2540   2541   2542   2543
2544   2545   2546   2547
2548   2549   2550   2551
2552   2553   2554   2555
2556   2557   2558   2559
2560   2561   2562   2563
2564   2565   2566   2567
2568   2569   2570   2571
2572   2573   2574   2575
2576   2577   2578   2579
2580   2581   2582   2583
2584   2585   2586   2587
2588   2589   2590   2591
2592   2593   2594   2595
2596   2597   2598   2599
2600   2601   2602   2603
2604   2605   2606   2607
2608   2609   2610   2611
2612   2613   2614   2615
2616   2617   2618   2619
2620   2621   2622   2623
2624   2625   2626   2627
2628   2629   2630   2631
2632   2633   2634   2635
2636   2637   2638   2639
2640   2641   2642   2643
2644   2645   2646   2647
2648   2649   2650   2651
2652   2653   2654   2655
2656   2657   2658   2659
2660   2661   2662   2663
2664   2665   2666   2667
2668   2669   2670   2671
2672   2673   2674   2675
2676   2677   2678   2679
2680   2681   2682   2683
2684   2685   2686   2687
2688   2689   2690   2691
2692   2693   2694   2695
2696   2697   2698   2699
2700   2701   2702   2703
2704   2705   2706   2707
2708   2709   2710   2711
2712   2713   2714   2715
2716   2717   2718   2719
2720   2721   2722   2723
2724   2725   2726   2727
2728   2729   2730   2731
2732   2733   2734   2735
2736   2737   2738   2739
2740   2741   2742   2743
2744   2745   2746   2747
2748   2749   2750   2751
2752   2753   2754   2755
2756   2757   2758   2759
2760   2761   2762   2763
2764   2765   2766   2767
2768   2769   2770   2771
2772   2773   2774   2775
2776   2777   2778   2779
2780   2781   2782   2783
2784   2785   2786   2787
2788   2789   2790   2791
2792   2793   2794   2795
2796   2797   2798   2799
2800   2801   2802   2803
2804   2805   2806   2807
2808   2809   2810   2811
2812   2813   2814   2815
2816   2817   2818   2819
2820   2821   2822   2823
2824   2825   2826   2827
2828   2829   2830   2831
2832   2833   2834   2835
2836   2837   2838   2839
2840   2841   2842   2843
2844   2845   2846   2847
2848   2849   2850   2851
2852   2853   2854   2855
2856   2857   2858   2859
2860   2861   2862   2863
2864   2865   2866   2867
2868   2869   2870   2871
2872   2873   2874   2875
2876   2877   2878   2879
2880   2881   2882   2883
2884   2885   2886   2887
2888   2889   2890   2891
2892   2893   2894   2895
2896   2897   2898   2899
2900   2901   2902   2903
2904   2905   2906   2907
2908   2909   2910   2911
2912   2913   2914   2915
2916   2917   2918   2919
2920   2921   2922   2923
2924   2925   2926   2927
2928   2929   2930   2931
2932   2933   2934   2935
2936   2937   2938   2939
2940   2941   2942   2943
2944   2945   2946   2947
2948   2949   2950   2951
2952   2953   2954   2955
2956   2957   2958   2959
2960   2961   2962   2963
2964   2965   2966   2967
2968   2969   2970   2971
2972   2973   2974   2975
2976   2977   2978   2979
2980   2981   2982   2983
2984   2985   2986   2987
2988   2989   2990   2991
2992   2993   2994   2995
2996   2997   2998   2999
3000   3001   3002   3003
3004   3005   3006   3007
3008   3009   3010   3011
3012   3013   3014   3015
3016   3017   3018   3019
3020   3021   3022   3023
3024   3025   3026   3027
3028   3029   3030   3031
3032   3033   3034   3035
3036   3037   3038   3039
3040   3041   3042   3043
3044   3045   3046   3047
3048   3049   3050   3051
3052   3053   3054   3055
3056   3057   3058   3059
3060   3061   3062   3063
3064   3065   3066   3067
3068   3069   3070   3071
3072   3073   3074   3075
3076   3077   3078   3079
3080   3081   3082   3083
3084   3085   3086   3087
3088   3089   3090   3091
3092   3093   3094   3095
3096   3097   3098   3099
3100   3101   3102   3103
3104   3105   3106   3107
3108   3109   3110   3111
3112   3113   3114   3115
3116   3117   3118   3119
3120   3121   3122   3123
3124   3125   3126   3127
3128   3129   3130   3131
3132   3133   3134   3135
3136   3137   3138   3139
3140   3141   3142   3143
3144   3145   3146   3147
3148   3149   3150   3151
3152   3153   3154   3155
3156   3157   3158   3159
3160   3161   3162   3163
3164   3165   3166   3167
3168   3169   3170   3171
3172   3173   3174   3175
3176   3177   3178   3179
3180   3181   3182   3183
3184   3185   3186   3187
3188   3189   3190   3191
3192   3193   3194   3195
3196   3197   3198   3199
3200   3201   3202   3203
3204   3205   3206   3207
3208   3209   3210   3211
3212   3213   3214   3215
3216   3217   3218   3219
3220   3221   3222   3223
3224   3225   3226   3227
3228   3229   3230   3231
3232   3233   3234   3235
3236   3237   3238   3239
3240   3241   3242   3243
3244   3245   3246   3247
3248   3249   3250   3251
3252   3253   3254   3255
3256   3257   3258   3259
3260   3261   3262   3263
3264   3265   3266   3267
3268   3269   3270   3271
3272   3273   3274   3275
3276   3277   3278   3279
3280   3281   3282   3283
3284   3285   3286   3287
3288   3289   3290   3291
3292   3293   3294   3295
3296   3297   3298   3299
3300   3301   3302   3303
3304   3305   3306   3307
3308   3309   3310   3311
3312   3313   3314   3315
3316   3317   3318   3319
3320   3321   3322   3323
3324   3325   3326   3327
3328   3329   3330   3331
3332   3333   3334   3335
3336   3337   3338   3339
3340   3341   3342   3343
3344   3345   3346   3347
3348   3349   3350   3351
3352   3353   3354   3355
3356   3357   3358   3359
3360   3361   3362   3363
3364   3365   3366   3367
3368   3369   3370   3371
3372   3373   3374   3375
3376   3377   3378   3379
3380   3381   3382   3383
3384   3385   3386   3387
3388   3389   3390   3391
3392   3393   3394   3395
3396   3397   3398   3399
3400   3401   3402   3403
3404   3405   3406   3407
3408   3409   3410   3411
3412   3413   3414   3415
3416   3417   3418   3419
3420   3421   3422   3423
3424   3425   3426   3427
3428   3429   3430   3431
3432   3433   3434   3435
3436   3437   3438   3439
3440   3441   3442   3443
3444   3445   3446   3447
3448   3449   3450   3451
3452   3453   3454   3455
3456   3457   3458   3459
3460   3461   3462   3463
3464   3465   3466   3467
3468   3469   3470   3471
3472   3473   3474   3475
3476   3477   3478   3479
3480   3481   3482   3483
3484   3485   3486   3487
3488   3489   3490   3491
3492   3493   3494   3495
3496   3497   3498   3499
3500   3501   3502   3503
3504   3505   3506   3507
3508   3509   3510   3511
3512   3513   3514   3515
3516   3517   3518   3519
3520   3521   3522   3523
3524   3525   3526   3527
3528   3529   3530   3531
3532   3533   3534   3535
3536   3537   3538   3539
3540   3541   3542   3543
3544   3545   3546   3547
3548   3549   3550   3551
3552   3553   3554   3555
3556   3557   3558   3559
3560   3561   3562   3563
3564   3565   3566   3567
3568   3569   3570   3571
3572   3573   3574   3575
3576   3577   3578   3579
3580   3581   3582   3583
3584   3585   3586   3587
3588   3589   3590   3591
3592   3593   3594   3595
3596   3597   3598   3599
3600   3601   3602   3603
3604   3605   3606   3607
3608   3609   3610   3611
3612   3613   3614   3615
3616   3617   3618   3619
3620   3621   3622   3623
3624   3625   3626   3627
3628   3629   3630   3631
3632   3633   3634   3635
3636   3637   3638   3639
3640   3641   3642   3643
3644   3645   3646   3647
3648   3649   3650   3651
3652   3653   3654   3655
3656   3657   3658   3659
3660   3661   3662   3663
3664   3665   3666   3667
3668   3669   3670   3671
3672   3673   3674   3675
3676   3677   3678   3679
3680   3681   3682   3683
3684   3685   3686   3687
3688   3689   3690   3691
3692   3693   3694   3695
3696   3697   3698   3699
3700   3701   3702   3703
3704   3705   3706   3707
3708   3709   3710   3711
3712   3713   3714   3715
3716   3717   3718   3719
3720   3721   3722   3723
3724   3725   3726   3727
3728   3729   3730   3731
3732   3733   3734   3735
3736   3737   3738   3739
3740   3741   3742   3743
3744   3745   3746   3747
3748   3749   3750   3751
3752   3753   3754   3755
3756   3757   3758   3759
3760   3761   3762   3763
3764   3765   3766   3767
3768   3769   3770   3771
3772   3773   3774   3775
3776   3777   3778   3779
3780   3781   3782   3783
3784   3785   3786   3787
3788   3789   3790   3791
3792   3793   3794   3795
3796   3797   3798   3799
3800   3801   3802   3803
3804   3805   3806   3807
3808   3809   3810   3811
3812   3813   3814   3815
3816   3817   3818   3819
3820   3821   3822   3823
3824   3825   3826   3827
3828   3829   3830   3831
3832   3833   3834   3835
3836   3837   3838   3839
3840   3841   3842   3843
3844   3845   3846   3847
3848   3849   3850   3851
3852   3853   3854   3855
3856   3857   3858   3859
3860   3861   3862   3863
3864   3865   3866   3867
3868   3869   3870   3871
3872   3873   3874   3875
3876   3877   3878   3879
3880   3881   3882   3883
3884   3885   3886   3887
3888   3889   3890   3891
3892   3893   3894   3895
3896   3897   3898   3899
3900   3901   3902   3903
3904   3905   3906   3907
3908   3909   3910   3911
3912   3913   3914   3915
3916   3917   3918   3919
3920   3921   3922   3923
3924   3925   3926   3927
3928   3929   3930   3931
3932   3933   3934   3935
3936   3937   3938   3939
3940   3941   3942   3943
3944   3945   3946   3947
3948   3949   3950   3951
3952   3953   3954   3955
3956   3957   3958   3959
3960   3961   3962   3963
3964   3965   3966   3967
3968   3969   3970   3971
3972   3973   3974   3975
3976   3977   3978   3979
3980   3981   3982   3983
3984   3985   3986   3987
3988   3989   3990   3991
3992   3993   3994   3995
3996   3997   3998   3999
4000   4001   4002   4003
4004   4005   4006   4007
4008   4009   4010   4011
4012   4013   4014   4015
4016   4017   4018   4019
4020   4021   4022   4023
4024   4025   4026   4027
4028   4029   4030   4031
4032   4033   4034   4035
4036   4037   4038   4039
4040   4041   4042   4043
4044   4045   4046   4047
4048   4049   4050   4051
4052   4053   4054   4055
4056   4057   4058   4059
4060   4061   4062   4063
4064   4065   4066   4067
4068   4069   4070   4071
4072   4073   4074   4075
4076   4077   4078   4079
4080   4081   4082   4083
4084   4085   4086   4087
4088   4089   4090   4091
4092   4093   4094   4095
4096   4097   4098   4099
4100   4101   4102   4103
4104   4105   4106   4107
4108   4109   4110   4111
4112   4113   4114   4115
4116   4117   4118   4119
4120   4121   4122   4123
4124   4125   4126   4127
4128   4129   4130   4131
4132   4133   4134   4135
4136   4137   4138   4139
4140   4141   4142   4143
4144   4145   4146   4147
4148   4149   4150   4151
4152   4153   4154   4155
4156   4157   4158   4159
4160   4161   4162   4163
4164   4165   4166   4167
4168   4169   4170   4171
4172   4173   4174   4175
4176   4177   4178   4179
4180   4181   4182   4183
4184   4185   4186   4187
4188   4189   4190   4191
4192   4193   4194   4195
4196   4197   4198   4199
4200   4201   4202   4203
4204   4205   4206   4207
4208   4209   4210   4211
4212   4213   4214   4215
4216   4217   4218   4219
4220   4221   4222   4223
4224   4225   4226   4227
4228   4229   4230   4231
4232   4233   4234   4235
4236   4237   4238   4239
4240   4241   4242   4243
4244   4245   4246   4247
4248   4249   4250   4251
4252   4253   4254   4255
4256   4257   4258   4259
4260   4261   4262   4263
4264   4265   4266   4267
4268   4269   4270   4271
4272   4273   4274   4275
4276   4277   4278   4279
4280   4281   4282   4283
4284   4285   4286   4287
4288   4289   4290   4291
4292   4293   4294   4295
4296   4297   4298   4299
4300   4301   4302   4303
4304   4305   4306   4307
4308   4309   4310   4311
4312   4313   4314   4315
4316   4317   4318   4319
4320   4321   4322   4323
4324   4325   4326   4327
4328   4329   4330   4331
4332   4333   4334   4335
4336   4337   4338   4339
4340   4341   4342   4343
4344   4345   4346   4347
4348   4349   4350   4351
4352   4353   4354   4355
4356   4357   4358   4359
4360   4361   4362   4363
4364   4365   4366   4367
4368   4369   4370   4371
4372   4373   4374   4375
4376   4377   4378   4379
4380   4381   4382   4383
4384   4385   4386   4387
4388   4389   4390   4391
4392   4393   4394   4395
4396   4397   4398   4399
4400   4401   4402   4403
4404   4405   4406   4407
4408   4409   4410   4411
4412   4413   4414   4415
4416   4417   4418   4419
4420   4421   4422   4423
4424   4425   4426   4427
4428   4429   4430   4431
4432   4433   4434   4435
4436   4437   4438   4439
4440   4441   4442   4443
4444   4445   4446   4447
4448   4449   4450   4451
4452   4453   4454   4455
4456   4457   4458   4459
4460   4461   4462   4463
4464   4465   4466   4467
4468   4469   4470   4471
4472   4473   4474   4475
4476   4477   4478   4479
4480   4481   4482   4483
4484   4485   4486   4487
4488   4489   4490   4491
4492   4493   4494   4495
4496   4497   4498   4499
4500   4501   4502   4503
4504   4505   4506   4507
4508   4509   4510   4511
4512   4513   4514   4515
4516   4517   4518   4519
4520   4521   4522   4523
4524   4525   4526   4527
4528   4529   4530   4531
4532   4533   4534   4535
4536   4537   4538   4539
4540   4541   4542   4543
4544   4545   4546   4547
4548   4549   4550   4551
4552   4553   4554   4555
4556   4557   4558   4559
4560   4561   4562   4563
4564   4565   4566   4567
4568   4569   4570   4571
4572   4573   4574   4575
4576   4577   4578   4579
4580   4581   4582   4583
4584   4585   4586   4587
4588   4589   4590   4591
4592   4593   4594   4595
4596   4597   4598   4599
4600   4601   4602   4603
4604   4605   4606   4607
4608   4609   4610   4611
4612   4613   4614   4615
4616   4617   4618   4619
4620   4621   4622   4623
4624   4625   4626   4627
4628   4629   4630   4631
4632   4633   4634   4635
4636   4637   4638   4639
4640   4641   4642   4643
4644   4645   4646   4647
4648   4649   4650   4651
4652   4653   4654   4655
4656   4657   4658   4659
4660   4661   4662   4663
4664   4665   4666   4667
4668   4669   4670   4671
4672   4673   4674   4675
4676   4677   4678   4679
4680   4681   4682   4683
4684   4685   4686   4687
4688   4689   4690   4691
4692   4693   4694   4695
4696   4697   4698   4699
4700   4701   4702   4703
4704   4705   4706   4707
4708   4709   4710   4711
4712   4713   4714   4715
4716   4717   4718   4719
4720   4721   4722   4723
4724   4725   4726   4727
4728   4729   4730   4731
4732   4733   4734   4735
4736   4737   4738   4739
4740   4741   4742   4743
4744   4745   4746   4747
4748   4749   4750   4751
4752   4753   4754   4755
4756   4757   4758   4759
4760   4761   4762   4763
4764   4765   4766   4767
4768   4769   4770   4771
4772   4773   4774   4775
4776   4777   4778   4779
4780   4781   4782   4783
4784   4785   4786   4787
4788   4789   4790   4791
4792   4793   4794   4795
4796   4797   4798   4799
4800   4801   4802   4803
4804   4805   4806   4807
4808   4809   4810   4811
4812   4813   4814   4815
4816   4817   4818   4819
4820   4821   4822   4823
4824   4825   4826   4827
4828   4829   4830   4831
4832   4833   4834   4835
4836   4837   4838   4839
4840   4841   4842   4843
4844   4845   4846   4847
4848   4849   4850   4851
4852   4853   4854   4855
4856   4857   4858   4859
4860   4861   4862   4863
4864   4865   4866   4867
4868   4869   4870   4871
4872   4873   4874   4875
4876   4877   4878   4879
4880   4881   4882   4883
4884   4885   4886   4887
4888   4889   4890   4891
4892   4893   4894   4895
4896   4897   4898   4899
4900   4901   4902   4903
4904   4905   4906   4907
4908   4909   4910   4911
4912   4913   4914   4915
4916   4917   4918   4919
4920   4921   4922   4923
4924   4925   4926   4927
4928   4929   4930   4931
4932   4933   4934   4935
4936   4937   4938   4939
4940   4941   4942   4943
4944   4945   4946   4947
4948   4949   4950   4951
4952   4953   4954   4955
4956   4957   4958   4959
4960   4961   4962   4963
4964   4965   4966   4967
4968   4969   4970   4971
4972   4973   4974   4975
4976   4977   4978   4979
4980   4981   4982   4983
4984   4985   4986   4987
4988   4989   4990   4991
4992   4993   4994   4995
4996   4997   4998   4999
5000   5001   5002   5003
5004   5005   5006   5007
5008   5009   5010   5011
5012   5013   5014   5015
5016   5017   5018   5019
5020   5021   5022   5023
5024   5025   5026   5027
5028   5029   5030   5031
5032   5033   5034   5035
5036   5037   5038   5039
5040   5041   5042   5043
5044   5045   5046   5047
5048   5049   5050   5051
5052   5053   5054   5055
5056   5057   5058   5059
5060   5061   5062   5063
5064   5065   5066   5067
5068   5069   5070   5071
5072   5073   5074   5075
5076   5077   5078   5079
5080   5081   5082   5083
5084   5085   5086   5087
5088   5089   5090   5091
5092   5093   5094   5095
5096   5097   5098   5099
5100   5101   5102   5103
5104   5105   5106   5107
5108   5109   5110   5111
5112   5113   5114   5115
5116   5117   5118   5119
5120   5121   5122   5123
5124   5125   5126   5127
5128   5129   5130   5131
5132   5133   5134   5135
5136   5137   5138   5139
5140   5141   5142   5143
5144   5145   5146   5147
5148   5149   5150   5151
5152   5153   5154   5155
5156   5157   5158   5159
5160   5161   5162   5163
5164   5165   5166   5167
5168   5169   5170   5171
5172   5173   5174   5175
5176   5177   5178   5179
5180   5181   5182   5183
5184   5185   5186   5187
5188   5189   5190   5191
5192   5193   5194   5195
5196   5197   5198   5199
5200   5201   5202   5203
5204   5205   5206   5207
5208   5209   5210   5211
5212   5213   5214   5215
5216   5217   5218   5219
5220   5221   5222   5223
5224   5225   5226   5227
5228   5229   5230   5231
5232   5233   5234   5235
5236   5237   5238   5239
5240   5241   5242   5243
5244   5245   5246   5247
5248   5249   5250   5251
5252   5253   5254   5255
5256   5257   5258   5259
5260   5261   5262   5263
5264   5265   5266   5267
5268   5269   5270   5271
5272   5273   5274   5275
5276   5277   5278   5279
5280   5281   5282   5283
5284   5285   5286   5287
5288   5289   5290   5291
5292   5293   5294   5295
5296   5297   5298   5299
5300   5301   5302   5303
5304   5305   5306   5307
5308   5309   5310   5311
5312   5313   5314   5315
5316   5317   5318   5319
5320   5321   5322   5323
5324   5325   5326   5327
5328   5329   5330   5331
5332   5333   5334   5335
5336   5337   5338   5339
5340   5341   5342   5343
5344   5345   5346   5347
5348   5349   5350   5351
5352   5353   5354   5355
5356   5357   5358   5359
5360   5361   5362   5363
5364   5365   5366   5367
5368   5369   5370   5371
5372   5373   5374   5375
5376   5377   5378   5379
5380   5381   5382   5383
5384   5385   5386   5387
5388   5389   5390   5391
5392   5393   5394   5395
5396   5397   5398   5399
5400   5401   5402   5403
5404   5405   5406   5407
5408   5409   5410   5411
5412   5413   5414   5415
5416   5417   5418   5419
5420   5421   5422   5423
5424   5425   5426   5427
5428   5429   5430   5431
5432   5433   5434   5435
5436   5437   5438   5439
5440   5441   5442   5443
5444   5445   5446   5447
5448   5449   5450   5451
5452   5453   5454   5455
5456   5457   5458   5459
5460   5461   5462   5463
5464   5465   5466   5467
5468   5469   5470   5471
5472   5473   5474   5475
5476   5477   5478   5479
5480   5481   5482   5483
5484   5485   5486   5487
5488   5489   5490   5491
5492   5493   5494   5495
5496   5497   5498   5499
5500   5501   5502   5503
5504   5505   5506   5507
5508   5509   5510   5511
5512   5513   5514   5515
5516   5517   5518   5519
5520   5521   5522   5523
5524   5525   5526   5527
5528   5529   5530   5531
5532   5533   5534   5535
5536   5537   5538   5539
5540   5541   5542   5543
5544   5545   5546   5547
5548   5549   5550   5551
5552   5553   5554   5555
5556   5557   5558   5559
5560   5561   5562   5563
5564   5565   5566   5567
5568   5569   5570   5571
5572   5573   5574   5575
5576   5577   5578   5579
5580   5581   5582   5583
5584   5585   5586   5587
5588   5589   5590   5591
5592   5593   5594   5595
5596   5597   5598   5599
5600   5601   5602   5603
5604   5605   5606   5607
5608   5609   5610   5611
5612   5613   5614   5615
5616   5617   5618   5619
5620   5621   5622   5623
5624   5625   5626   5627
5628   5629   5630   5631
5632   5633   5634   5635
5636   5637   5638   5639
5640   5641   5642   5643
5644   5645   5646   5647
5648   5649   5650   5651
5652   5653   5654   5655
5656   5657   5658   5659
5660   5661   5662   5663
5664   5665   5666   5667
5668   5669   5670   5671
5672   5673   5674   5675
5676   5677   5678   5679
5680   5681   5682   5683
5684   5685   5686   5687
5688   5689   5690   5691
5692   5693   5694   5695
5696   5697   5698   5699
5700   5701   5702   5703
5704   5705   5706   5707
5708   5709   5710   5711
5712   5713   5714   5715
5716   5717   5718   5719
5720   5721   5722   5723
5724   5725   5726   5727
5728   5729   5730   5731
5732   5733   5734   5735
5736   5737   5738   5739
5740   5741   5742   5743
5744   5745   5746   5747
5748   5749   5750   5751
5752   5753   5754   5755
5756   5757   5758   5759
5760   5761   5762   5763
5764   5765   5766   5767
5768   5769   5770   5771
5772   5773   5774   5775
5776   5777   5778   5779
5780   5781   5782   5783
5784   5785   5786   5787
5788   5789   5790   5791
5792   5793   5794   5795
5796   5797   5798   5799
5800   5801   5802   5803
5804   5805   5806   5807
5808   5809   5810   5811
5812   5813   5814   5815
5816   5817   5818   5819
5820   5821   5822   5823
5824   5825   5826   5827
5828   5829   5830   5831
5832   5833   5834   5835
5836   5837   5838   5839
5840   5841   5842   5843
5844   5845   5846   5847
5848   5849   5850   5851
5852   5853   5854   5855
5856   5857   5858   5859
5860   5861   5862   5863
5864   5865   5866   5867
5868   5869   5870   5871
5872   5873   5874   5875
5876   5877   5878   5879
5880   5881   5882   5883
5884   5885   5886   5887
5888   5889   5890   5891
5892   5893   5894   5895
5896   5897   5898   5899
5900   5901   5902   5903
5904   5905   5906   5907
5908   5909   5910   5911
5912   5913   5914   5915
5916   5917   5918   5919
5920   5921   5922   5923
5924   5925   5926   5927
5928   5929   5930   5931
5932   5933   5934   5935
5936   5937   5938   5939
5940   5941   5942   5943
5944   5945   5946   5947
5948   5949   5950   5951
5952   5953   5954   5955
5956   5957   5958   5959
5960   5961   5962   5963
5964   5965   5966   5967
5968   5969   5970   5971
5972   5973   5974   5975
5976   5977   5978   5979
5980   5981   5982   5983
5984   5985   5986   5987
5988   5989   5990   5991
5992   5993   5994   5995
5996   5997   5998   5999
              </DataArray>   
              <DataArray type="Int32" Name="offsets" format="ascii">   
4
8
12
16
20
24
28
32
36
40
44
48
52
56
60
64
68
72
76
80
84
88
92
96
100
104
108
112
116
120
124
128
132
136
140
144
148
152
156
160
164
168
172
176
180
184
188
192
196
200
204
208
212
216
220
224
228
232
236
240
244
248
252
256
260
264
268
272
276
280
284
288
292
296
300
304
308
312
316
320
324
328
332
336
340
344
348
352
356
360
364
368
372
376
380
384
388
392
396
400
404
408
412
416
420
424
428
432
436
440
444
448
452
456
460
464
468
472
476
480
484
488
492
496
500
504
508
512
516
520
524
528
532
536
540
544
548
552
556
560
564
568
572
576
580
584
588
592
596
600
604
608
612
616
620
624
628
632
636
640
644
648
652
656
660
664
668
672
676
680
684
688
692
696
700
704
708
712
716
720
724
728
732
736
740
744
748
752
756
760
764
768
772
776
780
784
788
792
796
800
804
808
812
816
820
824
828
832
836
840
844
848
852
856
860
864
868
872
876
880
884
888
892
896
900
904
908
912
916
920
924
928
932
936
940
944
948
952
956
960
964
968
972
976
980
984
988
992
996
1000
1004
1008
1012
1016
1020
1024
1028
1032
1036
1040
1044
1048
1052
1056
1060
1064
1068
1072
1076
1080
1084
1088
1092
1096
1100
1104
1108
1112
1116
1120
1124
1128
1132
1136
1140
1144
1148
1152
1156
1160
1164
1168
1172
1176
1180
1184
1188
1192
1196
1200
1204
1208
1212
1216
1220
1224
1228
1232
1236
1240
1244
1248
1252
1256
1260
1264
1268
1272
1276
1280
1284
1288
1292
1296
1300
1304
1308
1312
1316
1320
1324
1328
1332
1336
1340
1344
1348
1352
1356
1360
1364
1368
1372
1376
1380
1384
1388
1392
1396
1400
1404
1408
1412
1416
1420
1424
1428
1432
1436
1440
1444
1448
1452
1456
1460
1464
1468
1472
1476
1480
1484
1488
1492
1496
1500
1504
1508
1512
1516
1520
1524
1528
1532
1536
1540
1544
1548
1552
1556
1560
1564
1568
1572
1576
1580
1584
1588
1592
1596
1600
1604
1608
1612
1616
1620
1624
1628
1632
1636
1640
1644
1648
1652
1656
1660
1664
1668
1672
1676
1680
1684
1688
1692
1696
1700
1704
1708
1712
1716
1720
1724
1728
1732
1736
1740
1744
1748
1752
1756
1760
1764
1768
1772
1776
1780
1784
1788
1792
1796
1800
1804
1808
1812
1816
1820
1824
1828
1832
1836
1840
1844
1848
1852
1856
1860
1864
1868
1872
1876
1880
1884
1888
1892
1896
1900
1904
1908
1912
1916
1920
1924
1928
1932
1936
1940
1944
1948
1952
1956
1960
1964
1968
1972
1976
1980
1984
1988
1992
1996
2000
2004
2008
2012
2016
2020
2024
2028
2032
2036
2040
2044
2048
2052
2056
2060
2064
2068
2072
2076
2080
2084
2088
2092
2096
2100
2104
2108
2112
2116
2120
2124
2128
2132
2136
2140
2144
2148
2152
2156
2160
2164
2168
2172
2176
2180
2184
2188
2192
2196
2200
2204
2208
2212
2216
2220
2224
2228
2232
2236
2240
2244
2248
2252
2256
2260
2264
2268
2272
2276
2280
2284
2288
2292
2296
2300
2304
2308
2312
2316
2320
2324
2328
2332
2336
2340
2344
2348
2352
2356
2360
2364
2368
2372
2376
2380
2384
2388
2392
2396
2400
2404
2408
2412
2416
2420
2424
2428
2432
2436
2440
2444
2448
2452
2456
2460
2464
2468
2472
2476
2480
2484
2488
2492
2496
2500
2504
2508
2512
2516
2520
2524
2528
2532
2536
2540
2544
2548
2552
2556
2560
2564
2568
2572
2576
2580
2584
2588
2592
2596
2600
2604
2608
2612
2616
2620
2624
2628
2632
2636
2640
2644
2648
2652
2656
2660
2664
2668
2672
2676
2680
2684
2688
2692
2696
2700
2704
2708
2712
2716
2720
2724
2728
2732
2736
2740
2744
2748
2752
2756
2760
2764
2768
2772
2776
2780
2784
2788
2792
2796
2800
2804
2808
2812
2816
2820
2824
2828
2832
2836
2840
2844
2848
2852
2856
2860
2864
2868
2872
2876
2880
2884
2888
2892
2896
2900
2904
2908
2912
2916
2920
2924
2928
2932
2936
2940
2944
2948
2952
2956
2960
2964
2968
2972
2976
2980
2984
2988
2992
2996
3000
3004
3008
3012
3016
3020
3024
3028
3032
3036
3040
3044
3048
3052
3056
3060
3064
3068
3072
3076
3080
3084
3088
3092
3096
3100
3104
3108
3112
3116
3120
3124
3128
3132
3136
3140
3144
3148
3152
3156
3160
3164
3168
3172
3176
3180
3184
3188
3192
3196
3200
3204
3208
3212
3216
3220
3224
3228
3232
3236
3240
3244
3248
3252
3256
3260
3264
3268
3272
3276
3280
3284
3288
3292
3296
3300
3304
3308
3312
3316
3320
3324
3328
3332
3336
3340
3344
3348
3352
3356
3360
3364
3368
3372
3376
3380
3384
3388
3392
3396
3400
3404
3408
3412
3416
3420
3424
3428
3432
3436
3440
3444
3448
3452
3456
3460
3464
3468
3472
3476
3480
3484
3488
3492
3496
3500
3504
3508
3512
3516
3520
3524
3528
3532
3536
3540
3544
3548
3552
3556
3560
3564
3568
3572
3576
3580
3584
3588
3592
3596
3600
3604
3608
3612
3616
3620
3624
3628
3632
3636
3640
3644
3648
3652
3656
3660
3664
3668
3672
3676
3680
3684
3688
3692
3696
3700
3704
3708
3712
3716
3720
3724
3728
3732
3736
3740
3744
3748
3752
3756
3760
3764
3768
3772
3776
3780
3784
3788
3792
3796
3800
3804
3808
3812
3816
3820
3824
3828
3832
3836
3840
3844
3848
3852
3856
3860
3864
3868
3872
3876
3880
3884
3888
3892
3896
3900
3904
3908
3912
3916
3920
3924
3928
3932
3936
3940
3944
3948
3952
3956
3960
3964
3968
3972
3976
3980
3984
3988
3992
3996
4000
4004
4008
4012
4016
4020
4024
4028
4032
4036
4040
4044
4048
4052
4056
4060
4064
4068
4072
4076
4080
4084
4088
4092
4096
4100
4104
4108
4112
4116
4120
4124
4128
4132
4136
4140
4144
4148
4152
4156
4160
4164
4168
4172
4176
4180
4184
4188
4192
4196
4200
4204
4208
4212
4216
4220
4224
4228
4232
4236
4240
4244
4248
4252
4256
4260
4264
4268
4272
4276
4280
4284
4288
4292
4296
4300
4304
4308
4312
4316
4320
4324
4328
4332
4336
4340
4344
4348
4352
4356
4360
4364
4368
4372
4376
4380
4384
4388
4392
4396
4400
4404
4408
4412
4416
4420
4424
4428
4432
4436
4440
4444
4448
4452
4456
4460
4464
4468
4472
4476
4480
4484
4488
4492
4496
4500
4504
4508
4512
4516
4520
4524
4528
4532
4536
4540
4544
4548
4552
4556
4560
4564
4568
4572
4576
4580
4584
4588
4592
4596
4600
4604
4608
4612
4616
4620
4624
4628
4632
4636
4640
4644
4648
4652
4656
4660
4664
4668
4672
4676
4680
4684
4688
4692
4696
4700
4704
4708
4712
4716
4720
4724
4728
4732
4736
4740
4744
4748
4752
4756
4760
4764
4768
4772
4776
4780
4784
4788
4792
4796
4800
4804
4808
4812
4816
4820
4824
4828
4832
4836
4840
4844
4848
4852
4856
4860
4864
4868
4872
4876
4880
4884
4888
4892
4896
4900
4904
4908
4912
4916
4920
4924
4928
4932
4936
4940
4944
4948
4952
4956
4960
4964
4968
4972
4976
4980
4984
4988
4992
4996
5000
5004
5008
5012
5016
5020
5024
5028
5032
5036
5040
5044
5048
5052
5056
5060
5064
5068
5072
5076
5080
5084
5088
5092
5096
5100
5104
5108
5112
5116
5120
5124
5128
5132
5136
5140
5144
5148
5152
5156
5160
5164
5168
5172
5176
5180
5184
5188
5192
5196
5200
5204
5208
5212
5216
5220
5224
5228
5232
5236
5240
5244
5248
5252
5256
5260
5264
5268
5272
5276
5280
5284
5288
5292
5296
5300
5304
5308
5312
5316
5320
5324
5328
5332
5336
5340
5344
5348
5352
5356
5360
5364
5368
5372
5376
5380
5384
5388
5392
5396
5400
5404
5408
5412
5416
5420
5424
5428
5432
5436
5440
5444
5448
5452
5456
5460
5464
5468
5472
5476
5480
5484
5488
5492
5496
5500
5504
5508
5512
5516
5520
5524
5528
5532
5536
5540
5544
5548
5552
5556
5560
5564
5568
5572
5576
5580
5584
5588
5592
5596
5600
5604
5608
5612
5616
5620
5624
5628
5632
5636
5640
5644
5648
5652
5656
5660
5664
5668
5672
5676
5680
5684
5688
5692
5696
5700
5704
5708
5712
5716
5720
5724
5728
5732
5736
5740
5744
5748
5752
5756
5760
5764
5768
5772
5776
5780
5784
5788
5792
5796
5800
5804
5808
5812
5816
5820
5824
5828
5832
5836
5840
5844
5848
5852
5856
5860
5864
5868
5872
5876
5880
5884
5888
5892
5896
5900
5904
5908
5912
5916
5920
5924
5928
5932
5936
5940
5944
5948
5952
5956
5960
5964
5968
5972
5976
5980
5984
5988
5992
5996
6000
              </DataArray>   
              <DataArray type="UInt8" Name="types" format="ascii">   
10
10
10
10
10
10
10
10
10
10
10
10
10
10
10
10
10
10
10
10
10
10
10
10
10
10
10
10
10
10
10
10
10
10
10
10
10
10
10
10
10
10
10
10
10
10
10
10
10
10
10
10
10
10
10
10
10
10
10
10
10
10
10
10
10
10
10
10
10
10
10
10
10
10
10
10
10
10
10
10
10
10
10
10
10
10
10
10
10
10
10
10
10
10
10
10
10
10
10
10
10
10
10
10
10
10
10
10
10
10
10
10
10
10
10
10
10
10
10
10
10
10
10
10
10
10
10
10
10
10
10
10
10
10
10
10
10
10
10
10
10
10
10
10
10
10
10
10
10
10
10
10
10
10
10
10
10
10
10
10
10
10
10
10
10
10
10
10
10
10
10
10
10
10
10
10
10
10
10
10
10
10
10
10
10
10
10
10
10
10
10
10
10
10
10
10
10
10
10
10
10
10
10
10
10
10
10
10
10
10
10
10
10
10
10
10
10
10
10
10
10
10
10
10
10
10
10
10
10
10
10
10
10
10
10
10
10
10
10
10
10
10
10
10
10
10
10
10
10
10
10
10
10
10
10
10
10
10
10
10
10
10
10
10
10
10
10
10
10
10
10
10
10
10
10
10
10
10
10
10
10
10
10
10
10
10
10
10
10
10
10
10
10
10
10
10
10
10
10
10
10
10
10
10
10
10
10
10
10
10
10
10
10
10
10
10
10
10
10
10
10
10
10
10
10
10
10
10
10
10
10
10
10
10
10
10
10
10
10
10
10
10
10
10
10
10
10
10
10
10
10
10
10
10
10
10
10
10
10
10
10
10
10
10
10
10
10
10
10
10
10
10
10
10
10
10
10
10
10
10
10
10
10
10
10
10
10
10
10
10
10
10
10
10
10
10
10
10
10
10
10
10
10
10
10
10
10
10
10
10
10
10
10
10
10
10
10
10
10
10
10
10
10
10
10
10
10
10
10
10
10
10
10
10
10
10
10
10
10
10
10
10
10
10
10
10
10
10
10
10
10
10
10
10
10
10
10
10
10
10
10
10
10
10
10
10
10
10
10
10
10
10
10
10
10
10
10
10
10
10
10
10
10
10
10
10
10
10
10
10
10
10
10
10
10
10
10
10
10
10
10
10
10
10
10
10
10
10
10
10
10
10
10
10
10
10
10
10
10
10
10
10
10
10
10
10
10
10
10
10
10
10
10
10
10
10
10
10
10
10
10
10
10
10
10
10
10
10
10
10
10
10
10
10
10
10
10
10
10
10
10
10
10
10
10
10
10
10
10
10
10
10
10
10
10
10
10
10
10
10
10
10
10
10
10
10
10
10
10
10
10
10
10
10
10
10
10
10
10
10
10
10
10
10
10
10
10
10
10
10
10
10
10
10
10
10
10
10
10
10
10
10
10
10
10
10
10
10
10
10
10
10
10
10
10
10
10
10
10
10
10
10
10
10
10
10
10
10
10
10
10
10
10
10
10
10
10
10
10
10
10
10
10
10
10
10
10
10
10
10
10
10
10
10
10
10
10
10
10
10
10
10
10
10
10
10
10
10
10
10
10
10
10
10
10
10
10
10
10
10
10
10
10
10
10
10
10
10
10
10
10
10
10
10
10
10
10
10
10
10
10
10
10
10
10
10
10
10
10
10
10
10
10
10
10
10
10
10
10
10
10
10
10
10
10
10
10
10
10
10
10
10
10
10
10
10
10
10
10
10
10
10
10
10
10
10
10
10
10
10
10
10
10
10
10
10
10
10
10
10
10
10
10
10
10
10
10
10
10
10
10
10
10
10
10
10
10
10
10
10
10
10
10
10
10
10
10
10
10
10
10
10
10
10
10
10
10
10
10
10
10
10
10
10
10
10
10
10
10
10
10
10
10
10
10
10
10
10
10
10
10
10
10
10
10
10
10
10
10
10
10
10
10
10
10
10
10
10
10
10
10
10
10
10
10
10
10
10
10
10
10
10
10
10
10
10
10
10
10
10
10
10
10
10
10
10
10
10
10
10
10
10
10
10
10
10
10
10
10
10
10
10
10
10
10
10
10
10
10
10
10
10
10
10
10
10
10
10
10
10
10
10
10
10
10
10
10
10
10
10
10
10
10
10
10
10
10
10
10
10
10
10
10
10
10
10
10
10
10
10
10
10
10
10
10
10
10
10
10
10
10
10
10
10
10
10
10
10
10
10
10
10
10
10
10
10
10
10
10
10
10
10
10
10
10
10
10
10
10
10
10
10
10
10
10
10
10
10
10
10
10
10
10
10
10
10
10
10
10
10
10
10
10
10
10
10
10
10
10
10
10
10
10
10
10
10
10
10
10
10
10
10
10
10
10
10
10
10
10
10
10
10
10
10
10
10
10
10
10
10
10
10
10
10
10
10
10
10
10
10
10
10
10
10
10
10
10
10
10
10
10
10
10
10
10
10
10
10
10
10
10
10
10
10
10
10
10
10
10
10
10
10
10
10
10
10
10
10
10
10
10
10
10
10
10
10
10
10
10
10
10
10
10
10
10
10
10
10
10
10
10
10
10
10
10
10
10
10
10
10
10
10
10
10
10
10
10
10
10
10
10
10
10
10
10
10
10
10
10
10
10
10
10
10
10
10
10
10
10
10
10
10
10
10
10
10
10
10
10
10
10
10
10
10
10
10
10
10
10
10
10
10
10
10
10
10
10
10
10
10
10
10
10
10
10
10
10
10
10
10
10
10
10
10
10
10
10
10
10
10
10
10
10
10
10
10
10
10
10
10
10
10
10
10
10
10
10
10
10
10
10
10
10
10
10
10
10
10
10
10
10
10
10
10
10
10
10
10
10
10
10
10
10
10
10
10
10
10
10
10
10
10
10
10
10
10
10
10
10
10
10
10
10
10
10
10
10
10
10
10
10
10
10
10
10
10
10
10
10
10
10
10
10
10
10
10
10
10
10
10
10
10
10
10
10
10
10
10
10
10
10
10
10
10
10
10
10
10
10
10
10
10
10
10
10
10
10
10
10
10
10
10
10
10
10
10
10
10
10
10
10
10
10
10
10
10
10
10
10
10
10
10
10
10
10
10
10
10
10
10
10
10
10
10
10
10
10
10
10
10
10
10
10
10
10
10
10
10
10
10
10
10
10
10
10
10
10
10
10
10
10
10
10
10
10
10
10
10
10
10
10
10
10
10
10
10
10
10
10
10
10
10
10
10
10
10
10
10
10
10
10
10
10
10
10
10
10
10
10
10
10
10
10
10
10
10
10
10
10
10
10
10
10
10
10
10
10
10
10
10
10
10
10
10
10
10
10
10
10
10
10
10
10
10
10
10
10
10
10
10
10
10
10
10
10
10
10
10
10
10
10
10
10
10
10
10
10
10
10
10
10
10
10
10
10
10
10
10
10
10
              </DataArray>   
          </Cells>  
          <PointData>  
             <DataArray type="Float64" NumberOfComponents="3" Name="Strains" format="ascii">   
-0.00010063189759967954   0.0   -6.602799002685733e-05
-0.00010063189759967954   0.0   -6.602799002685733e-05
-0.00010063189759967954   0.0   -6.602799002685733e-05
-0.00010063189759967954   0.0   -6.602799002685733e-05
-6.403569818432907e-05   1.1150327294092517e-05   1.6558720418488441e-06
-6.403569818432907e-05   1.1150327294092517e-05   1.6558720418488441e-06
-6.403569818432907e-05   1.1150327294092517e-05   1.6558720418488441e-06
-6.403569818432907e-05   1.1150327294092517e-05   1.6558720418488441e-06
-6.277061967548978e-05   0.0   -6.231517048247573e-05
-6.277061967548978e-05   0.0   -6.231517048247573e-05
-6.277061967548978e-05   0.0   -6.231517048247573e-05
-6.277061967548978e-05   0.0   -6.231517048247573e-05
-0.00010531770089546518   1.337989060927068e-05   5.686971852544864e-07
-0.00010531770089546518   1.337989060927068e-05   5.686971852544864e-07
-0.00010531770089546518   1.337989060927068e-05   5.686971852544864e-07
-0.00010531770089546518   1.337989060927068e-05   5.686971852544864e-07
-8.170125863758452e-05   3.094016286984654e-06   -3.262051531784165e-05
-8.170125863758452e-05   3.094016286984654e-06   -3.262051531784165e-05
-8.170125863758452e-05   3.094016286984654e-06   -3.262051531784165e-05
-8.170125863758452e-05   3.094016286984654e-06   -3.262051531784165e-05
-0.00010531770089546537   0.0   -7.034310484803816e-05
-0.00010531770089546537   0.0   -7.034310484803816e-05
-0.00010531770089546537   0.0   -7.034310484803816e-05
-0.00010531770089546537   0.0   -7.034310484803816e-05
-6.277061967548978e-05   1.3379890609270707e-05   8.596631550816903e-06
-6.277061967548978e-05   1.3379890609270707e-05   8.596631550816903e-06
-6.277061967548978e-05   1.3379890609270707e-05   8.596631550816903e-06
-6.277061967548978e-05   1.3379890609270707e-05   8.596631550816903e-06
-6.294909331254622e-05   0.0   -6.384081701998182e-05
-6.294909331254622e-05   0.0   -6.384081701998182e-05
-6.294909331254622e-05   0.0   -6.384081701998182e-05
-6.294909331254622e-05   0.0   -6.384081701998182e-05
-0.00010860916001977605   1.433424419916389e-05   3.6587476392365423e-06
-0.00010860916001977605   1.433424419916389e-05   3.6587476392365423e-06
-0.00010860916001977605   1.433424419916389e-05   3.6587476392365423e-06
-0.00010860916001977605   1.433424419916389e-05   3.6587476392365423e-06
-8.413339710400565e-05   5.418573190046941e-06   -3.1784787948243944e-05
-8.413339710400565e-05   5.418573190046941e-06   -3.1784787948243944e-05
-8.413339710400565e-05   5.418573190046941e-06   -3.1784787948243944e-05
-8.413339710400565e-05   5.418573190046941e-06   -3.1784787948243944e-05
-0.00010860916001977624   0.0   -7.244136353948017e-05
-0.00010860916001977624   0.0   -7.244136353948017e-05
-0.00010860916001977624   0.0   -7.244136353948017e-05
-0.00010860916001977624   0.0   -7.244136353948017e-05
-6.294909331254611e-05   1.433424419916389e-05   1.2259294158734865e-05
-6.294909331254611e-05   1.433424419916389e-05   1.2259294158734865e-05
-6.294909331254611e-05   1.433424419916389e-05   1.2259294158734865e-05
-6.294909331254611e-05   1.433424419916389e-05   1.2259294158734865e-05
-6.291763973707472e-05   0.0   -6.423261878088832e-05
-6.291763973707472e-05   0.0   -6.423261878088832e-05
-6.291763973707472e-05   0.0   -6.423261878088832e-05
-6.291763973707472e-05   0.0   -6.423261878088832e-05
-0.00011569843139316308   1.6328730152992087e-05   1.3938129220797299e-05
-0.00011569843139316308   1.6328730152992087e-05   1.3938129220797299e-05
-0.00011569843139316308   1.6328730152992087e-05   1.3938129220797299e-05
-0.00011569843139316308   1.6328730152992087e-05   1.3938129220797299e-05
-8.576339987842533e-05   6.840620632159877e-06   -3.0260724257932888e-05
-8.576339987842533e-05   6.840620632159877e-06   -3.0260724257932888e-05
-8.576339987842533e-05   6.840620632159877e-06   -3.0260724257932888e-05
-8.576339987842533e-05   6.840620632159877e-06   -3.0260724257932888e-05
-6.403569818432918e-05   0.0   -5.9337793650401805e-05
-6.403569818432918e-05   0.0   -5.9337793650401805e-05
-6.403569818432918e-05   0.0   -5.9337793650401805e-05
-6.403569818432918e-05   0.0   -5.9337793650401805e-05
-2.916052712699518e-05   4.089934337523401e-06   1.2414520476688597e-06
-2.916052712699518e-05   4.089934337523401e-06   1.2414520476688597e-06
-2.916052712699518e-05   4.089934337523401e-06   1.2414520476688597e-06
-2.916052712699518e-05   4.089934337523401e-06   1.2414520476688597e-06
-2.804759507274164e-05   0.0   -5.88219340406736e-05
-2.804759507274164e-05   0.0   -5.88219340406736e-05
-2.804759507274164e-05   0.0   -5.88219340406736e-05
-2.804759507274164e-05   0.0   -5.88219340406736e-05
-6.277061967548978e-05   5.822060736336722e-06   -4.443462811228914e-06
-6.277061967548978e-05   5.822060736336722e-06   -4.443462811228914e-06
-6.277061967548978e-05   5.822060736336722e-06   -4.443462811228914e-06
-6.277061967548978e-05   5.822060736336722e-06   -4.443462811228914e-06
-4.604164662853535e-05   4.2988300810674996e-07   -2.9089777919214772e-05
-4.604164662853535e-05   4.2988300810674996e-07   -2.9089777919214772e-05
-4.604164662853535e-05   4.2988300810674996e-07   -2.9089777919214772e-05
-4.604164662853535e-05   4.2988300810674996e-07   -2.9089777919214772e-05
-6.277061967548972e-05   0.0   -6.231517048247567e-05
-6.277061967548972e-05   0.0   -6.231517048247567e-05
-6.277061967548972e-05   0.0   -6.231517048247567e-05
-6.277061967548972e-05   0.0   -6.231517048247567e-05
-2.804759507274164e-05   5.822060736336709e-06   -9.502263694268818e-07
-2.804759507274164e-05   5.822060736336709e-06   -9.502263694268818e-07
-2.804759507274164e-05   5.822060736336709e-06   -9.502263694268818e-07
-2.804759507274164e-05   5.822060736336709e-06   -9.502263694268818e-07
-2.7423130635194693e-05   0.0   -5.956060774031832e-05
-2.7423130635194693e-05   0.0   -5.956060774031832e-05
-2.7423130635194693e-05   0.0   -5.956060774031832e-05
-2.7423130635194693e-05   0.0   -5.956060774031832e-05
-6.294909331254622e-05   7.1336821327723195e-06   -4.630879224396035e-06
-6.294909331254622e-05   7.1336821327723195e-06   -4.630879224396035e-06
-6.294909331254622e-05   7.1336821327723195e-06   -4.630879224396035e-06
-6.294909331254622e-05   7.1336821327723195e-06   -4.630879224396035e-06
-4.509687515534217e-05   2.2954689517977475e-06   -3.148164824448445e-05
-4.509687515534217e-05   2.2954689517977475e-06   -3.148164824448445e-05
-4.509687515534217e-05   2.2954689517977475e-06   -3.148164824448445e-05
-4.509687515534217e-05   2.2954689517977475e-06   -3.148164824448445e-05
-6.294909331254622e-05   0.0   -6.384081701998182e-05
-6.294909331254622e-05   0.0   -6.384081701998182e-05
-6.294909331254622e-05   0.0   -6.384081701998182e-05
-6.294909331254622e-05   0.0   -6.384081701998182e-05
-2.742313063519474e-05   7.1336821327723195e-06   -3.506699447326531e-07
-2.742313063519474e-05   7.1336821327723195e-06   -3.506699447326531e-07
-2.742313063519474e-05   7.1336821327723195e-06   -3.506699447326531e-07
-2.742313063519474e-05   7.1336821327723195e-06   -3.506699447326531e-07
-2.6854746281386637e-05   0.0   -5.925230201396063e-05
-2.6854746281386637e-05   0.0   -5.925230201396063e-05
-2.6854746281386637e-05   0.0   -5.925230201396063e-05
-2.6854746281386637e-05   0.0   -5.925230201396063e-05
-6.291763973707467e-05   8.300527944879395e-06   -4.127796354741492e-06
-6.291763973707467e-05   8.300527944879395e-06   -4.127796354741492e-06
-6.291763973707467e-05   8.300527944879395e-06   -4.127796354741492e-06
-6.291763973707467e-05   8.300527944879395e-06   -4.127796354741492e-06
-4.490191979696641e-05   3.823762505017616e-06   -3.146793699100491e-05
-4.490191979696641e-05   3.823762505017616e-06   -3.146793699100491e-05
-4.490191979696641e-05   3.823762505017616e-06   -3.146793699100491e-05
-4.490191979696641e-05   3.823762505017616e-06   -3.146793699100491e-05
-2.916052712699523e-05   0.0   -5.688383304788776e-05
-2.916052712699523e-05   0.0   -5.688383304788776e-05
-2.916052712699523e-05   0.0   -5.688383304788776e-05
-2.916052712699523e-05   0.0   -5.688383304788776e-05
3.791196713610242e-06   -5.23654987328177e-07   -2.2784863059421616e-06
3.791196713610242e-06   -5.23654987328177e-07   -2.2784863059421616e-06
3.791196713610242e-06   -5.23654987328177e-07   -2.2784863059421616e-06
3.791196713610242e-06   -5.23654987328177e-07   -2.2784863059421616e-06
4.50090753890227e-06   0.0   -5.8202718809775736e-05
4.50090753890227e-06   0.0   -5.8202718809775736e-05
4.50090753890227e-06   0.0   -5.8202718809775736e-05
4.50090753890227e-06   0.0   -5.8202718809775736e-05
-2.804759507274164e-05   1.032025384829614e-06   -4.574429687933747e-06
-2.804759507274164e-05   1.032025384829614e-06   -4.574429687933747e-06
-2.804759507274164e-05   1.032025384829614e-06   -4.574429687933747e-06
-2.804759507274164e-05   1.032025384829614e-06   -4.574429687933747e-06
-1.232980979404645e-05   -1.0990714682401436e-06   -2.949208037391718e-05
-1.232980979404645e-05   -1.0990714682401436e-06   -2.949208037391718e-05
-1.232980979404645e-05   -1.0990714682401436e-06   -2.949208037391718e-05
-1.232980979404645e-05   -1.0990714682401436e-06   -2.949208037391718e-05
-2.804759507274169e-05   0.0   -5.88219340406737e-05
-2.804759507274169e-05   0.0   -5.88219340406737e-05
-2.804759507274169e-05   0.0   -5.88219340406737e-05
-2.804759507274169e-05   0.0   -5.88219340406737e-05
4.500907538902278e-06   1.032025384829614e-06   -3.955214457035974e-06
4.500907538902278e-06   1.032025384829614e-06   -3.955214457035974e-06
4.500907538902278e-06   1.032025384829614e-06   -3.955214457035974e-06
4.500907538902278e-06   1.032025384829614e-06   -3.955214457035974e-06
5.060864738227186e-06   0.0   -5.811956234458945e-05
5.060864738227186e-06   0.0   -5.811956234458945e-05
5.060864738227186e-06   0.0   -5.811956234458945e-05
5.060864738227186e-06   0.0   -5.811956234458945e-05
-2.7423130635194646e-05   2.401742326214786e-06   -5.4206154512818626e-06
-2.7423130635194646e-05   2.401742326214786e-06   -5.4206154512818626e-06
-2.7423130635194646e-05   2.401742326214786e-06   -5.4206154512818626e-06
-2.7423130635194646e-05   2.401742326214786e-06   -5.4206154512818626e-06
-1.1493365167257226e-05   5.85309746736793e-07   -3.088036501682415e-05
-1.1493365167257226e-05   5.85309746736793e-07   -3.088036501682415e-05
-1.1493365167257226e-05   5.85309746736793e-07   -3.088036501682415e-05
-1.1493365167257226e-05   5.85309746736793e-07   -3.088036501682415e-05
-2.742313063519474e-05   0.0   -5.956060774031843e-05
-2.742313063519474e-05   0.0   -5.956060774031843e-05
-2.742313063519474e-05   0.0   -5.956060774031843e-05
-2.742313063519474e-05   0.0   -5.956060774031843e-05
5.060864738227195e-06   2.4017423262147998e-06   -3.979570055552999e-06
5.060864738227195e-06   2.4017423262147998e-06   -3.979570055552999e-06
5.060864738227195e-06   2.4017423262147998e-06   -3.979570055552999e-06
5.060864738227195e-06   2.4017423262147998e-06   -3.979570055552999e-06
5.814770956454674e-06   0.0   -5.685931613002863e-05
5.814770956454674e-06   0.0   -5.685931613002863e-05
5.814770956454674e-06   0.0   -5.685931613002863e-05
5.814770956454674e-06   0.0   -5.685931613002863e-05
-2.6854746281386617e-05   3.988309806553258e-06   -4.8031066175584314e-06
-2.6854746281386617e-05   3.988309806553258e-06   -4.8031066175584314e-06
-2.6854746281386617e-05   3.988309806553258e-06   -4.8031066175584314e-06
-2.6854746281386617e-05   3.988309806553258e-06   -4.8031066175584314e-06
-1.080417983937001e-05   2.2510763419080854e-06   -3.0511710608798983e-05
-1.080417983937001e-05   2.2510763419080854e-06   -3.0511710608798983e-05
-1.080417983937001e-05   2.2510763419080854e-06   -3.0511710608798983e-05
-1.080417983937001e-05   2.2510763419080854e-06   -3.0511710608798983e-05
3.7911967136102483e-06   0.0   -5.7198026040284665e-05
3.7911967136102483e-06   0.0   -5.7198026040284665e-05
3.7911967136102483e-06   0.0   -5.7198026040284665e-05
3.7911967136102483e-06   0.0   -5.7198026040284665e-05
3.955856125894986e-05   -4.639807544520112e-06   -3.6963632476400834e-07
3.955856125894986e-05   -4.639807544520112e-06   -3.6963632476400834e-07
3.955856125894986e-05   -4.639807544520112e-06   -3.6963632476400834e-07
3.955856125894986e-05   -4.639807544520112e-06   -3.6963632476400834e-07
3.962647778344959e-05   0.0   -6.0301644468490256e-05
3.962647778344959e-05   0.0   -6.0301644468490256e-05
3.962647778344959e-05   0.0   -6.0301644468490256e-05
3.962647778344959e-05   0.0   -6.0301644468490256e-05
4.500907538902285e-06   -3.4982094311905424e-06   3.3989826446956497e-07
4.500907538902285e-06   -3.4982094311905424e-06   3.3989826446956497e-07
4.500907538902285e-06   -3.4982094311905424e-06   3.3989826446956497e-07
4.500907538902285e-06   -3.4982094311905424e-06   3.3989826446956497e-07
2.1708837248529918e-05   -2.5863486901713263e-06   -2.8887101029521327e-05
2.1708837248529918e-05   -2.5863486901713263e-06   -2.8887101029521327e-05
2.1708837248529918e-05   -2.5863486901713263e-06   -2.8887101029521327e-05
2.1708837248529918e-05   -2.5863486901713263e-06   -2.8887101029521327e-05
4.500907538902285e-06   0.0   -5.820271880977593e-05
4.500907538902285e-06   0.0   -5.820271880977593e-05
4.500907538902285e-06   0.0   -5.820271880977593e-05
4.500907538902285e-06   0.0   -5.820271880977593e-05
3.962647778344959e-05   -3.4982094311905424e-06   -1.7590273942447583e-06
3.962647778344959e-05   -3.4982094311905424e-06   -1.7590273942447583e-06
3.962647778344959e-05   -3.4982094311905424e-06   -1.7590273942447583e-06
3.962647778344959e-05   -3.4982094311905424e-06   -1.7590273942447583e-06
3.945467328914728e-05   0.0   -5.94405423785252e-05
3.945467328914728e-05   0.0   -5.94405423785252e-05
3.945467328914728e-05   0.0   -5.94405423785252e-05
3.945467328914728e-05   0.0   -5.94405423785252e-05
5.060864738227195e-06   -2.201633389892755e-06   -7.965480930560911e-07
5.060864738227195e-06   -2.201633389892755e-06   -7.965480930560911e-07
5.060864738227195e-06   -2.201633389892755e-06   -7.965480930560911e-07
5.060864738227195e-06   -2.201633389892755e-06   -7.965480930560911e-07
2.1977790414024783e-05   -1.0315196406243915e-06   -2.9693492468946392e-05
2.1977790414024783e-05   -1.0315196406243915e-06   -2.9693492468946392e-05
2.1977790414024783e-05   -1.0315196406243915e-06   -2.9693492468946392e-05
2.1977790414024783e-05   -1.0315196406243915e-06   -2.9693492468946392e-05
5.060864738227191e-06   0.0   -5.8119562344589504e-05
5.060864738227191e-06   0.0   -5.8119562344589504e-05
5.060864738227191e-06   0.0   -5.8119562344589504e-05
5.060864738227191e-06   0.0   -5.8119562344589504e-05
3.945467328914728e-05   -2.201633389892755e-06   -2.1175281269917445e-06
3.945467328914728e-05   -2.201633389892755e-06   -2.1175281269917445e-06
3.945467328914728e-05   -2.201633389892755e-06   -2.1175281269917445e-06
3.945467328914728e-05   -2.201633389892755e-06   -2.1175281269917445e-06
4.021678334215772e-05   0.0   -5.7134834526799795e-05
4.021678334215772e-05   0.0   -5.7134834526799795e-05
4.021678334215772e-05   0.0   -5.7134834526799795e-05
4.021678334215772e-05   0.0   -5.7134834526799795e-05
5.814770956454683e-06   -4.591973279517795e-07   4.77371179476321e-07
5.814770956454683e-06   -4.591973279517795e-07   4.77371179476321e-07
5.814770956454683e-06   -4.591973279517795e-07   4.77371179476321e-07
5.814770956454683e-06   -4.591973279517795e-07   4.77371179476321e-07
2.2638824040192438e-05   8.206065148247957e-07   -2.833059959908586e-05
2.2638824040192438e-05   8.206065148247957e-07   -2.833059959908586e-05
2.2638824040192438e-05   8.206065148247957e-07   -2.833059959908586e-05
2.2638824040192438e-05   8.206065148247957e-07   -2.833059959908586e-05
3.955856125894986e-05   0.0   -5.9981910566996736e-05
3.955856125894986e-05   0.0   -5.9981910566996736e-05
3.955856125894986e-05   0.0   -5.9981910566996736e-05
3.955856125894986e-05   0.0   -5.9981910566996736e-05
8.929627765712489e-05   -1.1760259147572334e-05   1.585812794141874e-05
8.929627765712489e-05   -1.1760259147572334e-05   1.585812794141874e-05
8.929627765712489e-05   -1.1760259147572334e-05   1.585812794141874e-05
8.929627765712489e-05   -1.1760259147572334e-05   1.585812794141874e-05
8.386046499695041e-05   0.0   -6.63060785384185e-05
8.386046499695041e-05   0.0   -6.63060785384185e-05
8.386046499695041e-05   0.0   -6.63060785384185e-05
8.386046499695041e-05   0.0   -6.63060785384185e-05
3.962647778344959e-05   -1.0007390116547059e-05   1.3421667554011098e-05
3.962647778344959e-05   -1.0007390116547059e-05   1.3421667554011098e-05
3.962647778344959e-05   -1.0007390116547059e-05   1.3421667554011098e-05
3.962647778344959e-05   -1.0007390116547059e-05   1.3421667554011098e-05
6.170951312795014e-05   -5.270139976184806e-06   -2.622574143770713e-05
6.170951312795014e-05   -5.270139976184806e-06   -2.622574143770713e-05
6.170951312795014e-05   -5.270139976184806e-06   -2.622574143770713e-05
6.170951312795014e-05   -5.270139976184806e-06   -2.622574143770713e-05
3.962647778344955e-05   0.0   -6.03016444684902e-05
3.962647778344955e-05   0.0   -6.03016444684902e-05
3.962647778344955e-05   0.0   -6.03016444684902e-05
3.962647778344955e-05   0.0   -6.03016444684902e-05
8.386046499695012e-05   -1.0007390116547018e-05   7.41723348408283e-06
8.386046499695012e-05   -1.0007390116547018e-05   7.41723348408283e-06
8.386046499695012e-05   -1.0007390116547018e-05   7.41723348408283e-06
8.386046499695012e-05   -1.0007390116547018e-05   7.41723348408283e-06
8.135285038237247e-05   0.0   -6.492751596793207e-05
8.135285038237247e-05   0.0   -6.492751596793207e-05
8.135285038237247e-05   0.0   -6.492751596793207e-05
8.135285038237247e-05   0.0   -6.492751596793207e-05
3.945467328914728e-05   -9.144955982344778e-06   1.0389752776850103e-05
3.945467328914728e-05   -9.144955982344778e-06   1.0389752776850103e-05
3.945467328914728e-05   -9.144955982344778e-06   1.0389752776850103e-05
3.945467328914728e-05   -9.144955982344778e-06   1.0389752776850103e-05
6.0489664082910986e-05   -3.854892916201516e-06   -2.7842603052442044e-05
6.0489664082910986e-05   -3.854892916201516e-06   -2.7842603052442044e-05
6.0489664082910986e-05   -3.854892916201516e-06   -2.7842603052442044e-05
6.0489664082910986e-05   -3.854892916201516e-06   -2.7842603052442044e-05
3.945467328914728e-05   0.0   -5.94405423785252e-05
3.945467328914728e-05   0.0   -5.94405423785252e-05
3.945467328914728e-05   0.0   -5.94405423785252e-05
3.945467328914728e-05   0.0   -5.94405423785252e-05
8.135285038237219e-05   -9.144955982344751e-06   4.9027791874432065e-06
8.135285038237219e-05   -9.144955982344751e-06   4.9027791874432065e-06
8.135285038237219e-05   -9.144955982344751e-06   4.9027791874432065e-06
8.135285038237219e-05   -9.144955982344751e-06   4.9027791874432065e-06
7.76211783815963e-05   0.0   -6.140034601265222e-05
7.76211783815963e-05   0.0   -6.140034601265222e-05
7.76211783815963e-05   0.0   -6.140034601265222e-05
7.76211783815963e-05   0.0   -6.140034601265222e-05
4.021678334215765e-05   -7.109185809754033e-06   5.205823872264507e-06
4.021678334215765e-05   -7.109185809754033e-06   5.205823872264507e-06
4.021678334215765e-05   -7.109185809754033e-06   5.205823872264507e-06
4.021678334215765e-05   -7.109185809754033e-06   5.205823872264507e-06
5.8537925835371786e-05   -1.63316969510585e-06   -2.86150232852145e-05
5.8537925835371786e-05   -1.63316969510585e-06   -2.86150232852145e-05
5.8537925835371786e-05   -1.63316969510585e-06   -2.86150232852145e-05
5.8537925835371786e-05   -1.63316969510585e-06   -2.86150232852145e-05
-8.732498610903989e-05   1.1150327294092504e-05   -5.7285230754085264e-05
-8.732498610903989e-05   1.1150327294092504e-05   -5.7285230754085264e-05
-8.732498610903989e-05   1.1150327294092504e-05   -5.7285230754085264e-05
-8.732498610903989e-05   1.1150327294092504e-05   -5.7285230754085264e-05
-5.5929815838521075e-05   1.002805566860317e-05   -5.633309945180827e-06
-5.5929815838521075e-05   1.002805566860317e-05   -5.633309945180827e-06
-5.5929815838521075e-05   1.002805566860317e-05   -5.633309945180827e-06
-5.5929815838521075e-05   1.002805566860317e-05   -5.633309945180827e-06
-5.7338021571939844e-05   1.3379890609270667e-05   -4.8109325993729254e-05
-5.7338021571939844e-05   1.3379890609270667e-05   -4.8109325993729254e-05
-5.7338021571939844e-05   1.3379890609270667e-05   -4.8109325993729254e-05
-5.7338021571939844e-05   1.3379890609270667e-05   -4.8109325993729254e-05
-8.827235720686189e-05   1.2035256989492542e-05   4.2546802363410815e-06
-8.827235720686189e-05   1.2035256989492542e-05   4.2546802363410815e-06
-8.827235720686189e-05   1.2035256989492542e-05   4.2546802363410815e-06
-8.827235720686189e-05   1.2035256989492542e-05   4.2546802363410815e-06
-6.935606293817739e-05   1.1646582634443272e-05   -2.703927226510377e-05
-6.935606293817739e-05   1.1646582634443272e-05   -2.703927226510377e-05
-6.935606293817739e-05   1.1646582634443272e-05   -2.703927226510377e-05
-6.935606293817739e-05   1.1646582634443272e-05   -2.703927226510377e-05
-8.827235720686189e-05   1.3379890609270667e-05   -4.730254582186236e-05
-8.827235720686189e-05   1.3379890609270667e-05   -4.730254582186236e-05
-8.827235720686189e-05   1.3379890609270667e-05   -4.730254582186236e-05
-8.827235720686189e-05   1.3379890609270667e-05   -4.730254582186236e-05
-5.733802157194005e-05   1.203525698949265e-05   3.4479000644743773e-06
-5.733802157194005e-05   1.203525698949265e-05   3.4479000644743773e-06
-5.733802157194005e-05   1.203525698949265e-05   3.4479000644743773e-06
-5.733802157194005e-05   1.203525698949265e-05   3.4479000644743773e-06
-5.76340852689309e-05   1.433424419916389e-05   -4.325226655998055e-05
-5.76340852689309e-05   1.433424419916389e-05   -4.325226655998055e-05
-5.76340852689309e-05   1.433424419916389e-05   -4.325226655998055e-05
-5.76340852689309e-05   1.433424419916389e-05   -4.325226655998055e-05
-8.889537337015785e-05   1.2941135353879672e-05   9.685745582568232e-06
-8.889537337015785e-05   1.2941135353879672e-05   9.685745582568232e-06
-8.889537337015785e-05   1.2941135353879672e-05   9.685745582568232e-06
-8.889537337015785e-05   1.2941135353879672e-05   9.685745582568232e-06
-7.139672849426932e-05   1.2908709167932148e-05   -1.945920683234432e-05
-7.139672849426932e-05   1.2908709167932148e-05   -1.945920683234432e-05
-7.139672849426932e-05   1.2908709167932148e-05   -1.945920683234432e-05
-7.139672849426932e-05   1.2908709167932148e-05   -1.945920683234432e-05
-8.889537337015785e-05   1.433424419916389e-05   -4.241640125281004e-05
-8.889537337015785e-05   1.433424419916389e-05   -4.241640125281004e-05
-8.889537337015785e-05   1.433424419916389e-05   -4.241640125281004e-05
-8.889537337015785e-05   1.433424419916389e-05   -4.241640125281004e-05
-5.7634085268931006e-05   1.2941135353879672e-05   8.849880275397587e-06
-5.7634085268931006e-05   1.2941135353879672e-05   8.849880275397587e-06
-5.7634085268931006e-05   1.2941135353879672e-05   8.849880275397587e-06
-5.7634085268931006e-05   1.2941135353879672e-05   8.849880275397587e-06
-5.730784574370173e-05   1.632873015299206e-05   -3.195599738067378e-05
-5.730784574370173e-05   1.632873015299206e-05   -3.195599738067378e-05
-5.730784574370173e-05   1.632873015299206e-05   -3.195599738067378e-05
-5.730784574370173e-05   1.632873015299206e-05   -3.195599738067378e-05
-8.643291993210186e-05   1.366109370186169e-05   1.818637480400446e-05
-8.643291993210186e-05   1.366109370186169e-05   1.818637480400446e-05
-8.643291993210186e-05   1.366109370186169e-05   1.818637480400446e-05
-8.643291993210186e-05   1.366109370186169e-05   1.818637480400446e-05
-6.954124708250065e-05   1.4158594640554769e-05   -1.0264913841880052e-05
-6.954124708250065e-05   1.4158594640554769e-05   -1.0264913841880052e-05
-6.954124708250065e-05   1.4158594640554769e-05   -1.0264913841880052e-05
-6.954124708250065e-05   1.4158594640554769e-05   -1.0264913841880052e-05
-5.5929815838521075e-05   4.0899343375233875e-06   -6.08269743260729e-05
-5.5929815838521075e-05   4.0899343375233875e-06   -6.08269743260729e-05
-5.5929815838521075e-05   4.0899343375233875e-06   -6.08269743260729e-05
-5.5929815838521075e-05   4.0899343375233875e-06   -6.08269743260729e-05
-2.6500709736983567e-05   4.666184983907111e-06   -1.1432713769013466e-05
-2.6500709736983567e-05   4.666184983907111e-06   -1.1432713769013466e-05
-2.6500709736983567e-05   4.666184983907111e-06   -1.1432713769013466e-05
-2.6500709736983567e-05   4.666184983907111e-06   -1.1432713769013466e-05
-2.7134914587117884e-05   5.822060736336709e-06   -6.0735484894287476e-05
-2.7134914587117884e-05   5.822060736336709e-06   -6.0735484894287476e-05
-2.7134914587117884e-05   5.822060736336709e-06   -6.0735484894287476e-05
-2.7134914587117884e-05   5.822060736336709e-06   -6.0735484894287476e-05
-5.7338021571939844e-05   6.511953172149451e-06   -1.081090871440498e-05
-5.7338021571939844e-05   6.511953172149451e-06   -1.081090871440498e-05
-5.7338021571939844e-05   6.511953172149451e-06   -1.081090871440498e-05
-5.7338021571939844e-05   6.511953172149451e-06   -1.081090871440498e-05
-4.1608438440112455e-05   5.243553250342773e-06   -3.6265840647700166e-05
-4.1608438440112455e-05   5.243553250342773e-06   -3.6265840647700166e-05
-4.1608438440112455e-05   5.243553250342773e-06   -3.6265840647700166e-05
-4.1608438440112455e-05   5.243553250342773e-06   -3.6265840647700166e-05
-5.733802157193979e-05   5.822060736336695e-06   -6.11494203557749e-05
-5.733802157193979e-05   5.822060736336695e-06   -6.11494203557749e-05
-5.733802157193979e-05   5.822060736336695e-06   -6.11494203557749e-05
-5.733802157193979e-05   5.822060736336695e-06   -6.11494203557749e-05
-2.7134914587117836e-05   6.511953172149397e-06   -1.0396973252917223e-05
-2.7134914587117836e-05   6.511953172149397e-06   -1.0396973252917223e-05
-2.7134914587117836e-05   6.511953172149397e-06   -1.0396973252917223e-05
-2.7134914587117836e-05   6.511953172149397e-06   -1.0396973252917223e-05
-2.7335316248527093e-05   7.133682132772306e-06   -5.959885241004653e-05
-2.7335316248527093e-05   7.133682132772306e-06   -5.959885241004653e-05
-2.7335316248527093e-05   7.133682132772306e-06   -5.959885241004653e-05
-2.7335316248527093e-05   7.133682132772306e-06   -5.959885241004653e-05
-5.76340852689309e-05   8.039661354547348e-06   -9.644491575771657e-06
-5.76340852689309e-05   8.039661354547348e-06   -9.644491575771657e-06
-5.76340852689309e-05   8.039661354547348e-06   -9.644491575771657e-06
-5.76340852689309e-05   8.039661354547348e-06   -9.644491575771657e-06
-4.193519987293181e-05   6.654819619045899e-06   -3.497839552780264e-05
-4.193519987293181e-05   6.654819619045899e-06   -3.497839552780264e-05
-4.193519987293181e-05   6.654819619045899e-06   -3.497839552780264e-05
-4.193519987293181e-05   6.654819619045899e-06   -3.497839552780264e-05
-5.76340852689309e-05   7.133682132772292e-06   -6.0142439943111436e-05
-5.76340852689309e-05   7.133682132772292e-06   -6.0142439943111436e-05
-5.76340852689309e-05   7.133682132772292e-06   -6.0142439943111436e-05
-5.76340852689309e-05   7.133682132772292e-06   -6.0142439943111436e-05
-2.733531624852714e-05   8.039661354547402e-06   -9.100904042706734e-06
-2.733531624852714e-05   8.039661354547402e-06   -9.100904042706734e-06
-2.733531624852714e-05   8.039661354547402e-06   -9.100904042706734e-06
-2.733531624852714e-05   8.039661354547402e-06   -9.100904042706734e-06
-2.7270181249154914e-05   8.300527944879381e-06   -5.898947838045988e-05
-2.7270181249154914e-05   8.300527944879381e-06   -5.898947838045988e-05
-2.7270181249154914e-05   8.300527944879381e-06   -5.898947838045988e-05
-2.7270181249154914e-05   8.300527944879381e-06   -5.898947838045988e-05
-5.730784574370178e-05   9.683332390792538e-06   -9.75638689042972e-06
-5.730784574370178e-05   9.683332390792538e-06   -9.75638689042972e-06
-5.730784574370178e-05   9.683332390792538e-06   -9.75638689042972e-06
-5.730784574370178e-05   9.683332390792538e-06   -9.75638689042972e-06
-4.218366786987464e-05   7.932169148901338e-06   -3.39126520683402e-05
-4.218366786987464e-05   7.932169148901338e-06   -3.39126520683402e-05
-4.218366786987464e-05   7.932169148901338e-06   -3.39126520683402e-05
-4.218366786987464e-05   7.932169148901338e-06   -3.39126520683402e-05
-2.6500709736983567e-05   -5.23654987328177e-07   -6.368696929945678e-05
-2.6500709736983567e-05   -5.23654987328177e-07   -6.368696929945678e-05
-2.6500709736983567e-05   -5.23654987328177e-07   -6.368696929945678e-05
-2.6500709736983567e-05   -5.23654987328177e-07   -6.368696929945678e-05
2.557349156721087e-06   -1.3878206930889462e-07   -1.5025947392470734e-05
2.557349156721087e-06   -1.3878206930889462e-07   -1.5025947392470734e-05
2.557349156721087e-06   -1.3878206930889462e-07   -1.5025947392470734e-05
2.557349156721087e-06   -1.3878206930889462e-07   -1.5025947392470734e-05
2.436318835630448e-06   1.032025384829614e-06   -6.404183181571598e-05
2.436318835630448e-06   1.032025384829614e-06   -6.404183181571598e-05
2.436318835630448e-06   1.032025384829614e-06   -6.404183181571598e-05
2.436318835630448e-06   1.032025384829614e-06   -6.404183181571598e-05
-2.7134914587117836e-05   1.5617860466267354e-06   -1.5074299174880397e-05
-2.7134914587117836e-05   1.5617860466267354e-06   -1.5074299174880397e-05
-2.7134914587117836e-05   1.5617860466267354e-06   -1.5074299174880397e-05
-2.7134914587117836e-05   1.5617860466267354e-06   -1.5074299174880397e-05
-1.223380606515731e-05   5.184959198701353e-07   -3.928350596876067e-05
-1.223380606515731e-05   5.184959198701353e-07   -3.928350596876067e-05
-1.223380606515731e-05   5.184959198701353e-07   -3.928350596876067e-05
-1.223380606515731e-05   5.184959198701353e-07   -3.928350596876067e-05
-2.7134914587117836e-05   1.032025384829614e-06   -6.435968821279423e-05
-2.7134914587117836e-05   1.032025384829614e-06   -6.435968821279423e-05
-2.7134914587117836e-05   1.032025384829614e-06   -6.435968821279423e-05
-2.7134914587117836e-05   1.032025384829614e-06   -6.435968821279423e-05
2.4363188356304522e-06   1.5617860466267354e-06   -1.475644277780206e-05
2.4363188356304522e-06   1.5617860466267354e-06   -1.475644277780206e-05
2.4363188356304522e-06   1.5617860466267354e-06   -1.475644277780206e-05
2.4363188356304522e-06   1.5617860466267354e-06   -1.475644277780206e-05
2.271987046394671e-06   2.401742326214786e-06   -6.417584279454973e-05
2.271987046394671e-06   2.401742326214786e-06   -6.417584279454973e-05
2.271987046394671e-06   2.401742326214786e-06   -6.417584279454973e-05
2.271987046394671e-06   2.401742326214786e-06   -6.417584279454973e-05
-2.7335316248527045e-05   3.2233341962912524e-06   -1.5323292425059416e-05
-2.7335316248527045e-05   3.2233341962912524e-06   -1.5323292425059416e-05
-2.7335316248527045e-05   3.2233341962912524e-06   -1.5323292425059416e-05
-2.7335316248527045e-05   3.2233341962912524e-06   -1.5323292425059416e-05
-1.2463717389472602e-05   1.9596817571454744e-06   -3.935109905999597e-05
-1.2463717389472602e-05   1.9596817571454744e-06   -3.935109905999597e-05
-1.2463717389472602e-05   1.9596817571454744e-06   -3.935109905999597e-05
-1.2463717389472602e-05   1.9596817571454744e-06   -3.935109905999597e-05
-2.7335316248527045e-05   2.401742326214786e-06   -6.46687979165956e-05
-2.7335316248527045e-05   2.401742326214786e-06   -6.46687979165956e-05
-2.7335316248527045e-05   2.401742326214786e-06   -6.46687979165956e-05
-2.7335316248527045e-05   2.401742326214786e-06   -6.46687979165956e-05
2.2719870463946752e-06   3.2233341962913066e-06   -1.4830337303013637e-05
2.2719870463946752e-06   3.2233341962913066e-06   -1.4830337303013637e-05
2.2719870463946752e-06   3.2233341962913066e-06   -1.4830337303013637e-05
2.2719870463946752e-06   3.2233341962913066e-06   -1.4830337303013637e-05
1.9426383424024374e-06   3.9883098065532444e-06   -6.406536440568426e-05
1.9426383424024374e-06   3.9883098065532444e-06   -6.406536440568426e-05
1.9426383424024374e-06   3.9883098065532444e-06   -6.406536440568426e-05
1.9426383424024374e-06   3.9883098065532444e-06   -6.406536440568426e-05
-2.727018124915489e-05   4.954544814086796e-06   -1.5957072757608935e-05
-2.727018124915489e-05   4.954544814086796e-06   -1.5957072757608935e-05
-2.727018124915489e-05   4.954544814086796e-06   -1.5957072757608935e-05
-2.727018124915489e-05   4.954544814086796e-06   -1.5957072757608935e-05
-1.26035780208526e-05   3.4402180693387716e-06   -3.949281542459718e-05
-1.26035780208526e-05   3.4402180693387716e-06   -3.949281542459718e-05
-1.26035780208526e-05   3.4402180693387716e-06   -3.949281542459718e-05
-1.26035780208526e-05   3.4402180693387716e-06   -3.949281542459718e-05
2.557349156721087e-06   -4.639807544520099e-06   -5.876331104075499e-05
2.557349156721087e-06   -4.639807544520099e-06   -5.876331104075499e-05
2.557349156721087e-06   -4.639807544520099e-06   -5.876331104075499e-05
2.557349156721087e-06   -4.639807544520099e-06   -5.876331104075499e-05
3.2502174088872524e-05   -4.770261890123001e-06   -8.93354209453097e-06
3.2502174088872524e-05   -4.770261890123001e-06   -8.93354209453097e-06
3.2502174088872524e-05   -4.770261890123001e-06   -8.93354209453097e-06
3.2502174088872524e-05   -4.770261890123001e-06   -8.93354209453097e-06
3.2766813972553094e-05   -3.498209431190529e-06   -5.958293807848132e-05
3.2766813972553094e-05   -3.498209431190529e-06   -5.958293807848132e-05
3.2766813972553094e-05   -3.498209431190529e-06   -5.958293807848132e-05
3.2766813972553094e-05   -3.498209431190529e-06   -5.958293807848132e-05
2.4363188356304522e-06   -3.22524107164207e-06   -9.195893866005982e-06
2.4363188356304522e-06   -3.22524107164207e-06   -9.195893866005982e-06
2.4363188356304522e-06   -3.22524107164207e-06   -9.195893866005982e-06
2.4363188356304522e-06   -3.22524107164207e-06   -9.195893866005982e-06
1.7341184414240936e-05   -3.860650045971268e-06   -3.3656091112425924e-05
1.7341184414240936e-05   -3.860650045971268e-06   -3.3656091112425924e-05
1.7341184414240936e-05   -3.860650045971268e-06   -3.3656091112425924e-05
1.7341184414240936e-05   -3.860650045971268e-06   -3.3656091112425924e-05
2.436318835630448e-06   -3.498209431190529e-06   -5.974671909421044e-05
2.436318835630448e-06   -3.498209431190529e-06   -5.974671909421044e-05
2.436318835630448e-06   -3.498209431190529e-06   -5.974671909421044e-05
2.436318835630448e-06   -3.498209431190529e-06   -5.974671909421044e-05
3.2766813972553094e-05   -3.225241071642016e-06   -9.032112850276749e-06
3.2766813972553094e-05   -3.225241071642016e-06   -9.032112850276749e-06
3.2766813972553094e-05   -3.225241071642016e-06   -9.032112850276749e-06
3.2766813972553094e-05   -3.225241071642016e-06   -9.032112850276749e-06
3.260296748787189e-05   -2.201633389892755e-06   -6.069888834411182e-05
3.260296748787189e-05   -2.201633389892755e-06   -6.069888834411182e-05
3.260296748787189e-05   -2.201633389892755e-06   -6.069888834411182e-05
3.260296748787189e-05   -2.201633389892755e-06   -6.069888834411182e-05
2.271987046394671e-06   -1.7117459099908893e-06   -1.0441186762924201e-05
2.271987046394671e-06   -1.7117459099908893e-06   -1.0441186762924201e-05
2.271987046394671e-06   -1.7117459099908893e-06   -1.0441186762924201e-05
2.271987046394671e-06   -1.7117459099908893e-06   -1.0441186762924201e-05
1.715376231493756e-05   -2.627060099865975e-06   -3.4694957029903964e-05
1.715376231493756e-05   -2.627060099865975e-06   -3.4694957029903964e-05
1.715376231493756e-05   -2.627060099865975e-06   -3.4694957029903964e-05
1.715376231493756e-05   -2.627060099865975e-06   -3.4694957029903964e-05
2.2719870463946693e-06   -2.2016333898927415e-06   -6.099282083205275e-05
2.2719870463946693e-06   -2.2016333898927415e-06   -6.099282083205275e-05
2.2719870463946693e-06   -2.2016333898927415e-06   -6.099282083205275e-05
2.2719870463946693e-06   -2.2016333898927415e-06   -6.099282083205275e-05
3.260296748787184e-05   -1.7117459099908893e-06   -1.0147254274983213e-05
3.260296748787184e-05   -1.7117459099908893e-06   -1.0147254274983213e-05
3.260296748787184e-05   -1.7117459099908893e-06   -1.0147254274983213e-05
3.260296748787184e-05   -1.7117459099908893e-06   -1.0147254274983213e-05
3.1648101360516544e-05   -4.591973279517795e-07   -6.080614418271114e-05
3.1648101360516544e-05   -4.591973279517795e-07   -6.080614418271114e-05
3.1648101360516544e-05   -4.591973279517795e-07   -6.080614418271114e-05
3.1648101360516544e-05   -4.591973279517795e-07   -6.080614418271114e-05
1.9426383424024374e-06   1.6034985516542562e-07   -1.166876746239132e-05
1.9426383424024374e-06   1.6034985516542562e-07   -1.166876746239132e-05
1.9426383424024374e-06   1.6034985516542562e-07   -1.166876746239132e-05
1.9426383424024374e-06   1.6034985516542562e-07   -1.166876746239132e-05
1.6964146120847083e-05   -1.1862456994471686e-06   -3.589665642703144e-05
1.6964146120847083e-05   -1.1862456994471686e-06   -3.589665642703144e-05
1.6964146120847083e-05   -1.1862456994471686e-06   -3.589665642703144e-05
1.6964146120847083e-05   -1.1862456994471686e-06   -3.589665642703144e-05
3.2502174088872524e-05   -1.1760259147572334e-05   -3.5557663893390565e-05
3.2502174088872524e-05   -1.1760259147572334e-05   -3.5557663893390565e-05
3.2502174088872524e-05   -1.1760259147572334e-05   -3.5557663893390565e-05
3.2502174088872524e-05   -1.1760259147572334e-05   -3.5557663893390565e-05
6.205889136144247e-05   -8.867058020845691e-06   1.5439452236928582e-05
6.205889136144247e-05   -8.867058020845691e-06   1.5439452236928582e-05
6.205889136144247e-05   -8.867058020845691e-06   1.5439452236928582e-05
6.205889136144247e-05   -8.867058020845691e-06   1.5439452236928582e-05
6.441408385189099e-05   -1.0007390116547045e-05   -4.32247765772588e-05
6.441408385189099e-05   -1.0007390116547045e-05   -4.32247765772588e-05
6.441408385189099e-05   -1.0007390116547045e-05   -4.32247765772588e-05
6.441408385189099e-05   -1.0007390116547045e-05   -4.32247765772588e-05
3.276681397255315e-05   -8.044945861602386e-06   8.343206668670876e-06
3.276681397255315e-05   -8.044945861602386e-06   8.343206668670876e-06
3.276681397255315e-05   -8.044945861602386e-06   8.343206668670876e-06
3.276681397255315e-05   -8.044945861602386e-06   8.343206668670876e-06
4.5706264378044534e-05   -9.629016889901924e-06   -1.2272101390168444e-05
4.5706264378044534e-05   -9.629016889901924e-06   -1.2272101390168444e-05
4.5706264378044534e-05   -9.629016889901924e-06   -1.2272101390168444e-05
4.5706264378044534e-05   -9.629016889901924e-06   -1.2272101390168444e-05
3.276681397255306e-05   -1.0007390116547032e-05   -4.4402243130225445e-05
3.276681397255306e-05   -1.0007390116547032e-05   -4.4402243130225445e-05
3.276681397255306e-05   -1.0007390116547032e-05   -4.4402243130225445e-05
3.276681397255306e-05   -1.0007390116547032e-05   -4.4402243130225445e-05
6.441408385189099e-05   -8.04494586160244e-06   9.520673221637783e-06
6.441408385189099e-05   -8.04494586160244e-06   9.520673221637783e-06
6.441408385189099e-05   -8.04494586160244e-06   9.520673221637783e-06
6.441408385189099e-05   -8.04494586160244e-06   9.520673221637783e-06
6.416871754747071e-05   -9.144955982344765e-06   -4.700900214337384e-05
6.416871754747071e-05   -9.144955982344765e-06   -4.700900214337384e-05
6.416871754747071e-05   -9.144955982344765e-06   -4.700900214337384e-05
6.416871754747071e-05   -9.144955982344765e-06   -4.700900214337384e-05
3.260296748787189e-05   -7.173947154184585e-06   4.417975992394767e-06
3.260296748787189e-05   -7.173947154184585e-06   4.417975992394767e-06
3.260296748787189e-05   -7.173947154184585e-06   4.417975992394767e-06
3.260296748787189e-05   -7.173947154184585e-06   4.417975992394767e-06
4.7299860699874046e-05   -8.504291504464391e-06   -1.9278639417440993e-05
4.7299860699874046e-05   -8.504291504464391e-06   -1.9278639417440993e-05
4.7299860699874046e-05   -8.504291504464391e-06   -1.9278639417440993e-05
4.7299860699874046e-05   -8.504291504464391e-06   -1.9278639417440993e-05
3.260296748787184e-05   -9.144955982344751e-06   -4.819160744026994e-05
3.260296748787184e-05   -9.144955982344751e-06   -4.819160744026994e-05
3.260296748787184e-05   -9.144955982344751e-06   -4.819160744026994e-05
3.260296748787184e-05   -9.144955982344751e-06   -4.819160744026994e-05
6.416871754747071e-05   -7.173947154184531e-06   5.600581289290818e-06
6.416871754747071e-05   -7.173947154184531e-06   5.600581289290818e-06
6.416871754747071e-05   -7.173947154184531e-06   5.600581289290818e-06
6.416871754747071e-05   -7.173947154184531e-06   5.600581289290818e-06
6.377572157766983e-05   -7.109185809754033e-06   -5.4716374620660606e-05
6.377572157766983e-05   -7.109185809754033e-06   -5.4716374620660606e-05
6.377572157766983e-05   -7.109185809754033e-06   -5.4716374620660606e-05
6.377572157766983e-05   -7.109185809754033e-06   -5.4716374620660606e-05
3.164810136051659e-05   -5.299521688935111e-06   -2.256139397896641e-06
3.164810136051659e-05   -5.299521688935111e-06   -2.256139397896641e-06
3.164810136051659e-05   -5.299521688935111e-06   -2.256139397896641e-06
3.164810136051659e-05   -5.299521688935111e-06   -2.256139397896641e-06
4.594245350587756e-05   -7.3230129161157656e-06   -2.486596490385644e-05
4.594245350587756e-05   -7.3230129161157656e-06   -2.486596490385644e-05
4.594245350587756e-05   -7.3230129161157656e-06   -2.486596490385644e-05
4.594245350587756e-05   -7.3230129161157656e-06   -2.486596490385644e-05
-6.957255501999752e-05   1.0028055668603224e-05   -4.8013786074844556e-05
-6.957255501999752e-05   1.0028055668603224e-05   -4.8013786074844556e-05
-6.957255501999752e-05   1.0028055668603224e-05   -4.8013786074844556e-05
-6.957255501999752e-05   1.0028055668603224e-05   -4.8013786074844556e-05
-4.560868121606891e-05   7.663326988746285e-06   -9.492833609544291e-06
-4.560868121606891e-05   7.663326988746285e-06   -9.492833609544291e-06
-4.560868121606891e-05   7.663326988746285e-06   -9.492833609544291e-06
-4.560868121606891e-05   7.663326988746285e-06   -9.492833609544291e-06
-4.5829964119082066e-05   1.2035256989492596e-05   -3.9865509207330746e-05
-4.5829964119082066e-05   1.2035256989492596e-05   -3.9865509207330746e-05
-4.5829964119082066e-05   1.2035256989492596e-05   -3.9865509207330746e-05
-4.5829964119082066e-05   1.2035256989492596e-05   -3.9865509207330746e-05
-6.85206686465494e-05   9.26995263466528e-06   -3.884857153221128e-07
-6.85206686465494e-05   9.26995263466528e-06   -3.884857153221128e-07
-6.85206686465494e-05   9.26995263466528e-06   -3.884857153221128e-07
-6.85206686465494e-05   9.26995263466528e-06   -3.884857153221128e-07
-5.4956235985025676e-05   1.0196821539436491e-05   -2.3551994827391383e-05
-5.4956235985025676e-05   1.0196821539436491e-05   -2.3551994827391383e-05
-5.4956235985025676e-05   1.0196821539436491e-05   -2.3551994827391383e-05
-5.4956235985025676e-05   1.0196821539436491e-05   -2.3551994827391383e-05
-6.85206686465494e-05   1.2035256989492596e-05   -3.820632659443435e-05
-6.85206686465494e-05   1.2035256989492596e-05   -3.820632659443435e-05
-6.85206686465494e-05   1.2035256989492596e-05   -3.820632659443435e-05
-6.85206686465494e-05   1.2035256989492596e-05   -3.820632659443435e-05
-4.5829964119082066e-05   9.26995263466528e-06   -2.047668328218562e-06
-4.5829964119082066e-05   9.26995263466528e-06   -2.047668328218562e-06
-4.5829964119082066e-05   9.26995263466528e-06   -2.047668328218562e-06
-4.5829964119082066e-05   9.26995263466528e-06   -2.047668328218562e-06
-4.5784380406465274e-05   1.2941135353879672e-05   -3.410509023492705e-05
-4.5784380406465274e-05   1.2941135353879672e-05   -3.410509023492705e-05
-4.5784380406465274e-05   1.2941135353879672e-05   -3.410509023492705e-05
-4.5784380406465274e-05   1.2941135353879672e-05   -3.410509023492705e-05
-6.749492512308667e-05   9.97575785912242e-06   3.858377456296338e-06
-6.749492512308667e-05   9.97575785912242e-06   3.858377456296338e-06
-6.749492512308667e-05   9.97575785912242e-06   3.858377456296338e-06
-6.749492512308667e-05   9.97575785912242e-06   3.858377456296338e-06
-5.543255554972769e-05   1.1128201535776571e-05   -1.6937038038627712e-05
-5.543255554972769e-05   1.1128201535776571e-05   -1.6937038038627712e-05
-5.543255554972769e-05   1.1128201535776571e-05   -1.6937038038627712e-05
-5.543255554972769e-05   1.1128201535776571e-05   -1.6937038038627712e-05
-6.749492512308667e-05   1.2941135353879672e-05   -3.232586373807272e-05
-6.749492512308667e-05   1.2941135353879672e-05   -3.232586373807272e-05
-6.749492512308667e-05   1.2941135353879672e-05   -3.232586373807272e-05
-6.749492512308667e-05   1.2941135353879672e-05   -3.232586373807272e-05
-4.578438040646534e-05   9.97575785912253e-06   2.0791509594421495e-06
-4.578438040646534e-05   9.97575785912253e-06   2.0791509594421495e-06
-4.578438040646534e-05   9.97575785912253e-06   2.0791509594421495e-06
-4.578438040646534e-05   9.97575785912253e-06   2.0791509594421495e-06
-4.5831665550788894e-05   1.366109370186169e-05   -2.603795588434132e-05
-4.5831665550788894e-05   1.366109370186169e-05   -2.603795588434132e-05
-4.5831665550788894e-05   1.366109370186169e-05   -2.603795588434132e-05
-4.5831665550788894e-05   1.366109370186169e-05   -2.603795588434132e-05
-6.615489951096635e-05   1.0670227518785012e-05   9.628620425800223e-06
-6.615489951096635e-05   1.0670227518785012e-05   9.628620425800223e-06
-6.615489951096635e-05   1.0670227518785012e-05   9.628620425800223e-06
-6.615489951096635e-05   1.0670227518785012e-05   9.628620425800223e-06
-5.4171039818922e-05   1.1618105744825408e-05   -1.0913205996564027e-05
-5.4171039818922e-05   1.1618105744825408e-05   -1.0913205996564027e-05
-5.4171039818922e-05   1.1618105744825408e-05   -1.0913205996564027e-05
-5.4171039818922e-05   1.1618105744825408e-05   -1.0913205996564027e-05
-4.560868121606891e-05   4.666184983907111e-06   -5.557777749442156e-05
-4.560868121606891e-05   4.666184983907111e-06   -5.557777749442156e-05
-4.560868121606891e-05   4.666184983907111e-06   -5.557777749442156e-05
-4.560868121606891e-05   4.666184983907111e-06   -5.557777749442156e-05
-2.3210481427372702e-05   3.820840633134365e-06   -1.8754651123724874e-05
-2.3210481427372702e-05   3.820840633134365e-06   -1.8754651123724874e-05
-2.3210481427372702e-05   3.820840633134365e-06   -1.8754651123724874e-05
-2.3210481427372702e-05   3.820840633134365e-06   -1.8754651123724874e-05
-2.349310253494176e-05   6.511953172149397e-06   -5.479096552123955e-05
-2.349310253494176e-05   6.511953172149397e-06   -5.479096552123955e-05
-2.349310253494176e-05   6.511953172149397e-06   -5.479096552123955e-05
-2.349310253494176e-05   6.511953172149397e-06   -5.479096552123955e-05
-4.5829964119082066e-05   5.40087394710015e-06   -1.6896215345976154e-05
-4.5829964119082066e-05   5.40087394710015e-06   -1.6896215345976154e-05
-4.5829964119082066e-05   5.40087394710015e-06   -1.6896215345976154e-05
-4.5829964119082066e-05   5.40087394710015e-06   -1.6896215345976154e-05
-3.4239964661156004e-05   5.381059015820762e-06   -3.620099215041858e-05
-3.4239964661156004e-05   5.381059015820762e-06   -3.620099215041858e-05
-3.4239964661156004e-05   5.381059015820762e-06   -3.620099215041858e-05
-3.4239964661156004e-05   5.381059015820762e-06   -3.620099215041858e-05
-4.582996411908201e-05   6.511953172149397e-06   -5.4124317986209886e-05
-4.582996411908201e-05   6.511953172149397e-06   -5.4124317986209886e-05
-4.582996411908201e-05   6.511953172149397e-06   -5.4124317986209886e-05
-4.582996411908201e-05   6.511953172149397e-06   -5.4124317986209886e-05
-2.34931025349418e-05   5.40087394710015e-06   -1.756286288100579e-05
-2.34931025349418e-05   5.40087394710015e-06   -1.756286288100579e-05
-2.34931025349418e-05   5.40087394710015e-06   -1.756286288100579e-05
-2.34931025349418e-05   5.40087394710015e-06   -1.756286288100579e-05
-2.367662244132838e-05   8.039661354547348e-06   -5.334055572959616e-05
-2.367662244132838e-05   8.039661354547348e-06   -5.334055572959616e-05
-2.367662244132838e-05   8.039661354547348e-06   -5.334055572959616e-05
-2.367662244132838e-05   8.039661354547348e-06   -5.334055572959616e-05
-4.5784380406465274e-05   6.804505282047768e-06   -1.5753198810868182e-05
-4.5784380406465274e-05   6.804505282047768e-06   -1.5753198810868182e-05
-4.5784380406465274e-05   6.804505282047768e-06   -1.5753198810868182e-05
-4.5784380406465274e-05   6.804505282047768e-06   -1.5753198810868182e-05
-3.4303993225112575e-05   6.680886768602623e-06   -3.481300633838879e-05
-3.4303993225112575e-05   6.680886768602623e-06   -3.481300633838879e-05
-3.4303993225112575e-05   6.680886768602623e-06   -3.481300633838879e-05
-3.4303993225112575e-05   6.680886768602623e-06   -3.481300633838879e-05
-4.5784380406465274e-05   8.039661354547348e-06   -5.259946208609632e-05
-4.5784380406465274e-05   8.039661354547348e-06   -5.259946208609632e-05
-4.5784380406465274e-05   8.039661354547348e-06   -5.259946208609632e-05
-4.5784380406465274e-05   8.039661354547348e-06   -5.259946208609632e-05
-2.367662244132842e-05   6.804505282047768e-06   -1.649429245436794e-05
-2.367662244132842e-05   6.804505282047768e-06   -1.649429245436794e-05
-2.367662244132842e-05   6.804505282047768e-06   -1.649429245436794e-05
-2.367662244132842e-05   6.804505282047768e-06   -1.649429245436794e-05
-2.391383070270584e-05   9.683332390792538e-06   -5.3211625124181426e-05
-2.391383070270584e-05   9.683332390792538e-06   -5.3211625124181426e-05
-2.391383070270584e-05   9.683332390792538e-06   -5.3211625124181426e-05
-2.391383070270584e-05   9.683332390792538e-06   -5.3211625124181426e-05
-4.583166555078884e-05   8.297516697318929e-06   -1.5850410961292427e-05
-4.583166555078884e-05   8.297516697318929e-06   -1.5850410961292427e-05
-4.583166555078884e-05   8.297516697318929e-06   -1.5850410961292427e-05
-4.583166555078884e-05   8.297516697318929e-06   -1.5850410961292427e-05
-3.4711192428345726e-05   7.968268990266546e-06   -3.418698420779904e-05
-3.4711192428345726e-05   7.968268990266546e-06   -3.418698420779904e-05
-3.4711192428345726e-05   7.968268990266546e-06   -3.418698420779904e-05
-3.4711192428345726e-05   7.968268990266546e-06   -3.418698420779904e-05
-2.321048142737266e-05   -1.3878206930889462e-07   -5.990914147915413e-05
-2.321048142737266e-05   -1.3878206930889462e-07   -5.990914147915413e-05
-2.321048142737266e-05   -1.3878206930889462e-07   -5.990914147915413e-05
-2.321048142737266e-05   -1.3878206930889462e-07   -5.990914147915413e-05
-1.0636091957100888e-06   2.0335722828389823e-07   -2.2792404181160865e-05
-1.0636091957100888e-06   2.0335722828389823e-07   -2.2792404181160865e-05
-1.0636091957100888e-06   2.0335722828389823e-07   -2.2792404181160865e-05
-1.0636091957100888e-06   2.0335722828389823e-07   -2.2792404181160865e-05
-1.2904650669427348e-06   1.5617860466267354e-06   -5.9350212828033686e-05
-1.2904650669427348e-06   1.5617860466267354e-06   -5.9350212828033686e-05
-1.2904650669427348e-06   1.5617860466267354e-06   -5.9350212828033686e-05
-1.2904650669427348e-06   1.5617860466267354e-06   -5.9350212828033686e-05
-2.349310253494172e-05   1.7585837385748716e-06   -2.2463895663204266e-05
-2.349310253494172e-05   1.7585837385748716e-06   -2.2463895663204266e-05
-2.349310253494172e-05   1.7585837385748716e-06   -2.2463895663204266e-05
-2.349310253494172e-05   1.7585837385748716e-06   -2.2463895663204266e-05
-1.2195496597116636e-05   1.0245629478119241e-06   -4.085282641845496e-05
-1.2195496597116636e-05   1.0245629478119241e-06   -4.085282641845496e-05
-1.2195496597116636e-05   1.0245629478119241e-06   -4.085282641845496e-05
-1.2195496597116636e-05   1.0245629478119241e-06   -4.085282641845496e-05
-2.349310253494176e-05   1.5617860466267354e-06   -5.9468291443202654e-05
-2.349310253494176e-05   1.5617860466267354e-06   -5.9468291443202654e-05
-2.349310253494176e-05   1.5617860466267354e-06   -5.9468291443202654e-05
-2.349310253494176e-05   1.5617860466267354e-06   -5.9468291443202654e-05
-1.2904650669427348e-06   1.7585837385748716e-06   -2.2345817048035352e-05
-1.2904650669427348e-06   1.7585837385748716e-06   -2.2345817048035352e-05
-1.2904650669427348e-06   1.7585837385748716e-06   -2.2345817048035352e-05
-1.2904650669427348e-06   1.7585837385748716e-06   -2.2345817048035352e-05
-1.4546357141516741e-06   3.2233341962913066e-06   -5.951144473554374e-05
-1.4546357141516741e-06   3.2233341962913066e-06   -5.951144473554374e-05
-1.4546357141516741e-06   3.2233341962913066e-06   -5.951144473554374e-05
-1.4546357141516741e-06   3.2233341962913066e-06   -5.951144473554374e-05
-2.367662244132838e-05   3.309166490300013e-06   -2.252629956665445e-05
-2.367662244132838e-05   3.309166490300013e-06   -2.252629956665445e-05
-2.367662244132838e-05   3.309166490300013e-06   -2.252629956665445e-05
-2.367662244132838e-05   3.309166490300013e-06   -2.252629956665445e-05
-1.248808780757102e-05   2.396095386242303e-06   -4.062601462714875e-05
-1.248808780757102e-05   2.396095386242303e-06   -4.062601462714875e-05
-1.248808780757102e-05   2.396095386242303e-06   -4.062601462714875e-05
-1.248808780757102e-05   2.396095386242303e-06   -4.062601462714875e-05
-2.367662244132838e-05   3.2233341962913066e-06   -5.956294411194892e-05
-2.367662244132838e-05   3.2233341962913066e-06   -5.956294411194892e-05
-2.367662244132838e-05   3.2233341962913066e-06   -5.956294411194892e-05
-2.367662244132838e-05   3.2233341962913066e-06   -5.956294411194892e-05
-1.4546357141516741e-06   3.3091664902999045e-06   -2.2474800190249106e-05
-1.4546357141516741e-06   3.3091664902999045e-06   -2.2474800190249106e-05
-1.4546357141516741e-06   3.3091664902999045e-06   -2.2474800190249106e-05
-1.4546357141516741e-06   3.3091664902999045e-06   -2.2474800190249106e-05
-1.7121746819525295e-06   4.95454481408685e-06   -6.027723770991953e-05
-1.7121746819525295e-06   4.95454481408685e-06   -6.027723770991953e-05
-1.7121746819525295e-06   4.95454481408685e-06   -6.027723770991953e-05
-1.7121746819525295e-06   4.95454481408685e-06   -6.027723770991953e-05
-2.391383070270586e-05   4.895804729068741e-06   -2.323923362431988e-05
-2.391383070270586e-05   4.895804729068741e-06   -2.323923362431988e-05
-2.391383070270586e-05   4.895804729068741e-06   -2.323923362431988e-05
-2.391383070270586e-05   4.895804729068741e-06   -2.323923362431988e-05
-1.2798879481112945e-05   3.7839196165263085e-06   -4.109702125944897e-05
-1.2798879481112945e-05   3.7839196165263085e-06   -4.109702125944897e-05
-1.2798879481112945e-05   3.7839196165263085e-06   -4.109702125944897e-05
-1.2798879481112945e-05   3.7839196165263085e-06   -4.109702125944897e-05
-1.0636091957100905e-06   -4.770261890123056e-06   -5.353317999529691e-05
-1.0636091957100905e-06   -4.770261890123056e-06   -5.353317999529691e-05
-1.0636091957100905e-06   -4.770261890123056e-06   -5.353317999529691e-05
-1.0636091957100905e-06   -4.770261890123056e-06   -5.353317999529691e-05
2.0972370589494776e-05   -3.199112201533825e-06   -1.586385720680209e-05
2.0972370589494776e-05   -3.199112201533825e-06   -1.586385720680209e-05
2.0972370589494776e-05   -3.199112201533825e-06   -1.586385720680209e-05
2.0972370589494776e-05   -3.199112201533825e-06   -1.586385720680209e-05
2.0955569561374794e-05   -3.225241071642016e-06   -5.291871564963737e-05
2.0955569561374794e-05   -3.225241071642016e-06   -5.291871564963737e-05
2.0955569561374794e-05   -3.225241071642016e-06   -5.291871564963737e-05
2.0955569561374794e-05   -3.225241071642016e-06   -5.291871564963737e-05
-1.2904650669427348e-06   -1.7736606273083353e-06   -1.671293953570836e-05
-1.2904650669427348e-06   -1.7736606273083353e-06   -1.671293953570836e-05
-1.2904650669427348e-06   -1.7736606273083353e-06   -1.671293953570836e-05
-1.2904650669427348e-06   -1.7736606273083353e-06   -1.671293953570836e-05
9.817918134821801e-06   -3.1299699483591423e-06   -3.441312594601881e-05
9.817918134821801e-06   -3.1299699483591423e-06   -3.441312594601881e-05
9.817918134821801e-06   -3.1299699483591423e-06   -3.441312594601881e-05
9.817918134821801e-06   -3.1299699483591423e-06   -3.441312594601881e-05
-1.2904650669427348e-06   -3.225241071642016e-06   -5.3789663916237575e-05
-1.2904650669427348e-06   -3.225241071642016e-06   -5.3789663916237575e-05
-1.2904650669427348e-06   -3.225241071642016e-06   -5.3789663916237575e-05
-1.2904650669427348e-06   -3.225241071642016e-06   -5.3789663916237575e-05
2.095556956137482e-05   -1.7736606273084437e-06   -1.5841991269108246e-05
2.095556956137482e-05   -1.7736606273084437e-06   -1.5841991269108246e-05
2.095556956137482e-05   -1.7736606273084437e-06   -1.5841991269108246e-05
2.095556956137482e-05   -1.7736606273084437e-06   -1.5841991269108246e-05
2.1053668194729775e-05   -1.7117459099909435e-06   -5.43189741176572e-05
2.1053668194729775e-05   -1.7117459099909435e-06   -5.43189741176572e-05
2.1053668194729775e-05   -1.7117459099909435e-06   -5.43189741176572e-05
2.1053668194729775e-05   -1.7117459099909435e-06   -5.43189741176572e-05
-1.4546357141516775e-06   -3.72879113662186e-07   -1.760845434731867e-05
-1.4546357141516775e-06   -3.72879113662186e-07   -1.760845434731867e-05
-1.4546357141516775e-06   -3.72879113662186e-07   -1.760845434731867e-05
-1.4546357141516775e-06   -3.72879113662186e-07   -1.760845434731867e-05
9.515963369357169e-06   -1.8939236738429142e-06   -3.498015941705825e-05
9.515963369357169e-06   -1.8939236738429142e-06   -3.498015941705825e-05
9.515963369357169e-06   -1.8939236738429142e-06   -3.498015941705825e-05
9.515963369357169e-06   -1.8939236738429142e-06   -3.498015941705825e-05
-1.4546357141516733e-06   -1.7117459099909435e-06   -5.512229419545427e-05
-1.4546357141516733e-06   -1.7117459099909435e-06   -5.512229419545427e-05
-1.4546357141516733e-06   -1.7117459099909435e-06   -5.512229419545427e-05
-1.4546357141516733e-06   -1.7117459099909435e-06   -5.512229419545427e-05
2.1053668194729816e-05   -3.72879113662186e-07   -1.680513426952139e-05
2.1053668194729816e-05   -3.72879113662186e-07   -1.680513426952139e-05
2.1053668194729816e-05   -3.72879113662186e-07   -1.680513426952139e-05
2.1053668194729816e-05   -3.72879113662186e-07   -1.680513426952139e-05
2.089122435604641e-05   1.6034985516542562e-07   -5.590585380525637e-05
2.089122435604641e-05   1.6034985516542562e-07   -5.590585380525637e-05
2.089122435604641e-05   1.6034985516542562e-07   -5.590585380525637e-05
2.089122435604641e-05   1.6034985516542562e-07   -5.590585380525637e-05
-1.7121746819525329e-06   1.2650492117751398e-06   -1.889634168922407e-05
-1.7121746819525329e-06   1.2650492117751398e-06   -1.889634168922407e-05
-1.7121746819525329e-06   1.2650492117751398e-06   -1.889634168922407e-05
-1.7121746819525329e-06   1.2650492117751398e-06   -1.889634168922407e-05
9.409637526657277e-06   -5.712843847749437e-07   -3.6330895212310076e-05
9.409637526657277e-06   -5.712843847749437e-07   -3.6330895212310076e-05
9.409637526657277e-06   -5.712843847749437e-07   -3.6330895212310076e-05
9.409637526657277e-06   -5.712843847749437e-07   -3.6330895212310076e-05
2.0972370589494735e-05   -8.867058020845637e-06   -2.9953416526719924e-05
2.0972370589494735e-05   -8.867058020845637e-06   -2.9953416526719924e-05
2.0972370589494735e-05   -8.867058020845637e-06   -2.9953416526719924e-05
2.0972370589494735e-05   -8.867058020845637e-06   -2.9953416526719924e-05
4.160938303183917e-05   -5.8027864535087174e-06   6.280167150923095e-06
4.160938303183917e-05   -5.8027864535087174e-06   6.280167150923095e-06
4.160938303183917e-05   -5.8027864535087174e-06   6.280167150923095e-06
4.160938303183917e-05   -5.8027864535087174e-06   6.280167150923095e-06
4.301035302191808e-05   -8.044945861602386e-06   -3.3705340242905576e-05
4.301035302191808e-05   -8.044945861602386e-06   -3.3705340242905576e-05
4.301035302191808e-05   -8.044945861602386e-06   -3.3705340242905576e-05
4.301035302191808e-05   -8.044945861602386e-06   -3.3705340242905576e-05
2.0955569561374794e-05   -4.981519381962391e-06   1.2145763035493757e-06
2.0955569561374794e-05   -4.981519381962391e-06   1.2145763035493757e-06
2.0955569561374794e-05   -4.981519381962391e-06   1.2145763035493757e-06
2.0955569561374794e-05   -4.981519381962391e-06   1.2145763035493757e-06
3.0284773516753122e-05   -6.842082013175182e-06   -1.3217759376686904e-05
3.0284773516753122e-05   -6.842082013175182e-06   -1.3217759376686904e-05
3.0284773516753122e-05   -6.842082013175182e-06   -1.3217759376686904e-05
3.0284773516753122e-05   -6.842082013175182e-06   -1.3217759376686904e-05
2.0955569561374767e-05   -8.044945861602386e-06   -3.5543396130689444e-05
2.0955569561374767e-05   -8.044945861602386e-06   -3.5543396130689444e-05
2.0955569561374767e-05   -8.044945861602386e-06   -3.5543396130689444e-05
2.0955569561374767e-05   -8.044945861602386e-06   -3.5543396130689444e-05
4.301035302191808e-05   -4.981519381962391e-06   3.0526321913333784e-06
4.301035302191808e-05   -4.981519381962391e-06   3.0526321913333784e-06
4.301035302191808e-05   -4.981519381962391e-06   3.0526321913333784e-06
4.301035302191808e-05   -4.981519381962391e-06   3.0526321913333784e-06
4.408683225681255e-05   -7.173947154184531e-06   -3.801557145637863e-05
4.408683225681255e-05   -7.173947154184531e-06   -3.801557145637863e-05
4.408683225681255e-05   -7.173947154184531e-06   -3.801557145637863e-05
4.408683225681255e-05   -7.173947154184531e-06   -3.801557145637863e-05
2.1053668194729734e-05   -4.276993164349912e-06   -1.3651370801413983e-06
2.1053668194729734e-05   -4.276993164349912e-06   -1.3651370801413983e-06
2.1053668194729734e-05   -4.276993164349912e-06   -1.3651370801413983e-06
2.1053668194729734e-05   -4.276993164349912e-06   -1.3651370801413983e-06
3.131253593908626e-05   -6.312189918169478e-06   -1.7242131935110483e-05
3.131253593908626e-05   -6.312189918169478e-06   -1.7242131935110483e-05
3.131253593908626e-05   -6.312189918169478e-06   -1.7242131935110483e-05
3.131253593908626e-05   -6.312189918169478e-06   -1.7242131935110483e-05
2.1053668194729775e-05   -7.173947154184531e-06   -3.975374385027934e-05
2.1053668194729775e-05   -7.173947154184531e-06   -3.975374385027934e-05
2.1053668194729775e-05   -7.173947154184531e-06   -3.975374385027934e-05
2.1053668194729775e-05   -7.173947154184531e-06   -3.975374385027934e-05
4.408683225681247e-05   -4.27699316435002e-06   3.7303531375942195e-07
4.408683225681247e-05   -4.27699316435002e-06   3.7303531375942195e-07
4.408683225681247e-05   -4.27699316435002e-06   3.7303531375942195e-07
4.408683225681247e-05   -4.27699316435002e-06   3.7303531375942195e-07
4.52336917339808e-05   -5.299521688935111e-06   -4.534837139988783e-05
4.52336917339808e-05   -5.299521688935111e-06   -4.534837139988783e-05
4.52336917339808e-05   -5.299521688935111e-06   -4.534837139988783e-05
4.52336917339808e-05   -5.299521688935111e-06   -4.534837139988783e-05
2.0891224356046382e-05   -2.771883937695112e-06   -6.29417508740801e-06
2.0891224356046382e-05   -2.771883937695112e-06   -6.29417508740801e-06
2.0891224356046382e-05   -2.771883937695112e-06   -6.29417508740801e-06
2.0891224356046382e-05   -2.771883937695112e-06   -6.29417508740801e-06
3.11777240162392e-05   -5.437935301466439e-06   -2.1838710369466392e-05
3.11777240162392e-05   -5.437935301466439e-06   -2.1838710369466392e-05
3.11777240162392e-05   -5.437935301466439e-06   -2.1838710369466392e-05
3.11777240162392e-05   -5.437935301466439e-06   -2.1838710369466392e-05
-5.000310829407332e-05   7.663326988746285e-06   -3.8037485224993474e-05
-5.000310829407332e-05   7.663326988746285e-06   -3.8037485224993474e-05
-5.000310829407332e-05   7.663326988746285e-06   -3.8037485224993474e-05
-5.000310829407332e-05   7.663326988746285e-06   -3.8037485224993474e-05
-3.4044445628069115e-05   4.875606638450733e-06   -1.3112346325163879e-05
-3.4044445628069115e-05   4.875606638450733e-06   -1.3112346325163879e-05
-3.4044445628069115e-05   4.875606638450733e-06   -1.3112346325163879e-05
-3.4044445628069115e-05   4.875606638450733e-06   -1.3112346325163879e-05
-3.3920571732698755e-05   9.26995263466528e-06   -3.23142862009067e-05
-3.3920571732698755e-05   9.26995263466528e-06   -3.23142862009067e-05
-3.3920571732698755e-05   9.26995263466528e-06   -3.23142862009067e-05
-3.3920571732698755e-05   9.26995263466528e-06   -3.23142862009067e-05
-4.850812711295905e-05   6.2056196800937095e-06   -6.163094127730026e-06
-4.850812711295905e-05   6.2056196800937095e-06   -6.163094127730026e-06
-4.850812711295905e-05   6.2056196800937095e-06   -6.163094127730026e-06
-4.850812711295905e-05   6.2056196800937095e-06   -6.163094127730026e-06
-3.985340106710245e-05   7.379197480990394e-06   -2.1291784218028945e-05
-3.985340106710245e-05   7.379197480990394e-06   -2.1291784218028945e-05
-3.985340106710245e-05   7.379197480990394e-06   -2.1291784218028945e-05
-3.985340106710245e-05   7.379197480990394e-06   -2.1291784218028945e-05
-4.850812711295905e-05   9.26995263466528e-06   -3.047568642816379e-05
-4.850812711295905e-05   9.26995263466528e-06   -3.047568642816379e-05
-4.850812711295905e-05   9.26995263466528e-06   -3.047568642816379e-05
-4.850812711295905e-05   9.26995263466528e-06   -3.047568642816379e-05
-3.3920571732698837e-05   6.2056196800937095e-06   -8.001693900472828e-06
-3.3920571732698837e-05   6.2056196800937095e-06   -8.001693900472828e-06
-3.3920571732698837e-05   6.2056196800937095e-06   -8.001693900472828e-06
-3.3920571732698837e-05   6.2056196800937095e-06   -8.001693900472828e-06
-3.3663359543725975e-05   9.97575785912242e-06   -2.8177886939685865e-05
-3.3663359543725975e-05   9.97575785912242e-06   -2.8177886939685865e-05
-3.3663359543725975e-05   9.97575785912242e-06   -2.8177886939685865e-05
-3.3663359543725975e-05   9.97575785912242e-06   -2.8177886939685865e-05
-4.7390491452326065e-05   6.825249197700035e-06   -3.4090285618322688e-06
-4.7390491452326065e-05   6.825249197700035e-06   -3.4090285618322688e-06
-4.7390491452326065e-05   6.825249197700035e-06   -3.4090285618322688e-06
-4.7390491452326065e-05   6.825249197700035e-06   -3.4090285618322688e-06
-3.98558542569859e-05   8.121329622412738e-06   -1.674440547555999e-05
-3.98558542569859e-05   8.121329622412738e-06   -1.674440547555999e-05
-3.98558542569859e-05   8.121329622412738e-06   -1.674440547555999e-05
-3.98558542569859e-05   8.121329622412738e-06   -1.674440547555999e-05
-4.7390491452326065e-05   9.97575785912242e-06   -2.6287581742832347e-05
-4.7390491452326065e-05   9.97575785912242e-06   -2.6287581742832347e-05
-4.7390491452326065e-05   9.97575785912242e-06   -2.6287581742832347e-05
-4.7390491452326065e-05   9.97575785912242e-06   -2.6287581742832347e-05
-3.3663359543726056e-05   6.825249197699927e-06   -5.299333758685678e-06
-3.3663359543726056e-05   6.825249197699927e-06   -5.299333758685678e-06
-3.3663359543726056e-05   6.825249197699927e-06   -5.299333758685678e-06
-3.3663359543726056e-05   6.825249197699927e-06   -5.299333758685678e-06
-3.356033334256026e-05   1.0670227518784904e-05   -2.2451821010443596e-05
-3.356033334256026e-05   1.0670227518784904e-05   -2.2451821010443596e-05
-3.356033334256026e-05   1.0670227518784904e-05   -2.2451821010443596e-05
-3.356033334256026e-05   1.0670227518784904e-05   -2.2451821010443596e-05
-4.592804519958511e-05   7.6043337663220115e-06   5.683360757924652e-10
-4.592804519958511e-05   7.6043337663220115e-06   5.683360757924652e-10
-4.592804519958511e-05   7.6043337663220115e-06   5.683360757924652e-10
-4.592804519958511e-05   7.6043337663220115e-06   5.683360757924652e-10
-3.8676812257649345e-05   8.523348466517116e-06   -1.2636228720601058e-05
-3.8676812257649345e-05   8.523348466517116e-06   -1.2636228720601058e-05
-3.8676812257649345e-05   8.523348466517116e-06   -1.2636228720601058e-05
-3.8676812257649345e-05   8.523348466517116e-06   -1.2636228720601058e-05
-3.404444562806906e-05   3.820840633134257e-06   -4.8464728338887644e-05
-3.404444562806906e-05   3.820840633134257e-06   -4.8464728338887644e-05
-3.404444562806906e-05   3.820840633134257e-06   -4.8464728338887644e-05
-3.404444562806906e-05   3.820840633134257e-06   -4.8464728338887644e-05
-1.9580171995607412e-05   2.520315878799676e-06   -2.5137920470718933e-05
-1.9580171995607412e-05   2.520315878799676e-06   -2.5137920470718933e-05
-1.9580171995607412e-05   2.520315878799676e-06   -2.5137920470718933e-05
-1.9580171995607412e-05   2.520315878799676e-06   -2.5137920470718933e-05
-1.958965909603497e-05   5.40087394710015e-06   -4.8048712404372335e-05
-1.958965909603497e-05   5.40087394710015e-06   -4.8048712404372335e-05
-1.958965909603497e-05   5.40087394710015e-06   -4.8048712404372335e-05
-1.958965909603497e-05   5.40087394710015e-06   -4.8048712404372335e-05
-3.3920571732698755e-05   3.924408637586969e-06   -2.3277978824224623e-05
-3.3920571732698755e-05   3.924408637586969e-06   -2.3277978824224623e-05
-3.3920571732698755e-05   3.924408637586969e-06   -2.3277978824224623e-05
-3.3920571732698755e-05   3.924408637586969e-06   -2.3277978824224623e-05
-2.6536794249980697e-05   4.1790424797930005e-06   -3.5737054934078486e-05
-2.6536794249980697e-05   4.1790424797930005e-06   -3.5737054934078486e-05
-2.6536794249980697e-05   4.1790424797930005e-06   -3.5737054934078486e-05
-2.6536794249980697e-05   4.1790424797930005e-06   -3.5737054934078486e-05
-3.3920571732698755e-05   5.40087394710015e-06   -4.71628332186641e-05
-3.3920571732698755e-05   5.40087394710015e-06   -4.71628332186641e-05
-3.3920571732698755e-05   5.40087394710015e-06   -4.71628332186641e-05
-3.3920571732698755e-05   5.40087394710015e-06   -4.71628332186641e-05
-1.958965909603497e-05   3.924408637586969e-06   -2.4163858009932396e-05
-1.958965909603497e-05   3.924408637586969e-06   -2.4163858009932396e-05
-1.958965909603497e-05   3.924408637586969e-06   -2.4163858009932396e-05
-1.958965909603497e-05   3.924408637586969e-06   -2.4163858009932396e-05
-1.9575119208025017e-05   6.804505282047768e-06   -4.697175126804011e-05
-1.9575119208025017e-05   6.804505282047768e-06   -4.697175126804011e-05
-1.9575119208025017e-05   6.804505282047768e-06   -4.697175126804011e-05
-1.9575119208025017e-05   6.804505282047768e-06   -4.697175126804011e-05
-3.3663359543725975e-05   5.20198101864103e-06   -2.252983615049452e-05
-3.3663359543725975e-05   5.20198101864103e-06   -2.252983615049452e-05
-3.3663359543725975e-05   5.20198101864103e-06   -2.252983615049452e-05
-3.3663359543725975e-05   5.20198101864103e-06   -2.252983615049452e-05
-2.6413097224770938e-05   5.3320683356752625e-06   -3.469165907230614e-05
-2.6413097224770938e-05   5.3320683356752625e-06   -3.469165907230614e-05
-2.6413097224770938e-05   5.3320683356752625e-06   -3.469165907230614e-05
-2.6413097224770938e-05   5.3320683356752625e-06   -3.469165907230614e-05
-3.3663359543725975e-05   6.804505282047768e-06   -4.601023670999614e-05
-3.3663359543725975e-05   6.804505282047768e-06   -4.601023670999614e-05
-3.3663359543725975e-05   6.804505282047768e-06   -4.601023670999614e-05
-3.3663359543725975e-05   6.804505282047768e-06   -4.601023670999614e-05
-1.9575119208025058e-05   5.20198101864103e-06   -2.349135070853846e-05
-1.9575119208025058e-05   5.20198101864103e-06   -2.349135070853846e-05
-1.9575119208025058e-05   5.20198101864103e-06   -2.349135070853846e-05
-1.9575119208025058e-05   5.20198101864103e-06   -2.349135070853846e-05
-1.9590696602430572e-05   8.297516697319037e-06   -4.716105921252008e-05
-1.9590696602430572e-05   8.297516697319037e-06   -4.716105921252008e-05
-1.9590696602430572e-05   8.297516697319037e-06   -4.716105921252008e-05
-1.9590696602430572e-05   8.297516697319037e-06   -4.716105921252008e-05
-3.356033334256023e-05   6.589639155935739e-06   -2.2853604787473987e-05
-3.356033334256023e-05   6.589639155935739e-06   -2.2853604787473987e-05
-3.356033334256023e-05   6.589639155935739e-06   -2.2853604787473987e-05
-3.356033334256023e-05   6.589639155935739e-06   -2.2853604787473987e-05
-2.6584076505365385e-05   6.472682327266291e-06   -3.4410525418930577e-05
-2.6584076505365385e-05   6.472682327266291e-06   -3.4410525418930577e-05
-2.6584076505365385e-05   6.472682327266291e-06   -3.4410525418930577e-05
-2.6584076505365385e-05   6.472682327266291e-06   -3.4410525418930577e-05
-1.958017199560737e-05   2.0335722828389823e-07   -5.34880798274801e-05
-1.958017199560737e-05   2.0335722828389823e-07   -5.34880798274801e-05
-1.958017199560737e-05   2.0335722828389823e-07   -5.34880798274801e-05
-1.958017199560737e-05   2.0335722828389823e-07   -5.34880798274801e-05
-5.317235840506322e-06   4.336682157951837e-07   -2.9578332976471584e-05
-5.317235840506322e-06   4.336682157951837e-07   -2.9578332976471584e-05
-5.317235840506322e-06   4.336682157951837e-07   -2.9578332976471584e-05
-5.317235840506322e-06   4.336682157951837e-07   -2.9578332976471584e-05
-5.327290054605676e-06   1.7585837385748716e-06   -5.289770394133295e-05
-5.327290054605676e-06   1.7585837385748716e-06   -5.289770394133295e-05
-5.327290054605676e-06   1.7585837385748716e-06   -5.289770394133295e-05
-5.327290054605676e-06   1.7585837385748716e-06   -5.289770394133295e-05
-1.9589659096034943e-05   1.8453191473047142e-06   -2.917913011752201e-05
-1.9589659096034943e-05   1.8453191473047142e-06   -2.917913011752201e-05
-1.9589659096034943e-05   1.8453191473047142e-06   -2.917913011752201e-05
-1.9589659096034943e-05   1.8453191473047142e-06   -2.917913011752201e-05
-1.2370871756897235e-05   1.2427857546372855e-06   -4.0848922313817767e-05
-1.2370871756897235e-05   1.2427857546372855e-06   -4.0848922313817767e-05
-1.2370871756897235e-05   1.2427857546372855e-06   -4.0848922313817767e-05
-1.2370871756897235e-05   1.2427857546372855e-06   -4.0848922313817767e-05
-1.9589659096034943e-05   1.7585837385748716e-06   -5.294974518657081e-05
-1.9589659096034943e-05   1.7585837385748716e-06   -5.294974518657081e-05
-1.9589659096034943e-05   1.7585837385748716e-06   -5.294974518657081e-05
-1.9589659096034943e-05   1.7585837385748716e-06   -5.294974518657081e-05
-5.327290054605676e-06   1.8453191473047142e-06   -2.9127088872284038e-05
-5.327290054605676e-06   1.8453191473047142e-06   -2.9127088872284038e-05
-5.327290054605676e-06   1.8453191473047142e-06   -2.9127088872284038e-05
-5.327290054605676e-06   1.8453191473047142e-06   -2.9127088872284038e-05
-5.3084712444258504e-06   3.309166490300013e-06   -5.303236908739856e-05
-5.3084712444258504e-06   3.309166490300013e-06   -5.303236908739856e-05
-5.3084712444258504e-06   3.309166490300013e-06   -5.303236908739856e-05
-5.3084712444258504e-06   3.309166490300013e-06   -5.303236908739856e-05
-1.9575119208025017e-05   3.2614819785133694e-06   -2.9226011774327913e-05
-1.9575119208025017e-05   3.2614819785133694e-06   -2.9226011774327913e-05
-1.9575119208025017e-05   3.2614819785133694e-06   -2.9226011774327913e-05
-1.9575119208025017e-05   3.2614819785133694e-06   -2.9226011774327913e-05
-1.245360922366586e-05   2.477644234401906e-06   -4.0624892435126215e-05
-1.245360922366586e-05   2.477644234401906e-06   -4.0624892435126215e-05
-1.245360922366586e-05   2.477644234401906e-06   -4.0624892435126215e-05
-1.245360922366586e-05   2.477644234401906e-06   -4.0624892435126215e-05
-1.9575119208025017e-05   3.309166490300013e-06   -5.300375838032651e-05
-1.9575119208025017e-05   3.309166490300013e-06   -5.300375838032651e-05
-1.9575119208025017e-05   3.309166490300013e-06   -5.300375838032651e-05
-1.9575119208025017e-05   3.309166490300013e-06   -5.300375838032651e-05
-5.3084712444258504e-06   3.2614819785133694e-06   -2.9254622481399855e-05
-5.3084712444258504e-06   3.2614819785133694e-06   -2.9254622481399855e-05
-5.3084712444258504e-06   3.2614819785133694e-06   -2.9254622481399855e-05
-5.3084712444258504e-06   3.2614819785133694e-06   -2.9254622481399855e-05
-5.31678358362181e-06   4.895804729068633e-06   -5.383443227104448e-05
-5.31678358362181e-06   4.895804729068633e-06   -5.383443227104448e-05
-5.31678358362181e-06   4.895804729068633e-06   -5.383443227104448e-05
-5.31678358362181e-06   4.895804729068633e-06   -5.383443227104448e-05
-1.95906966024306e-05   4.7024050431003885e-06   -2.992853742811544e-05
-1.95906966024306e-05   4.7024050431003885e-06   -2.992853742811544e-05
-1.95906966024306e-05   4.7024050431003885e-06   -2.992853742811544e-05
-1.95906966024306e-05   4.7024050431003885e-06   -2.992853742811544e-05
-1.256059766850759e-05   3.7287192359866748e-06   -4.106115750038549e-05
-1.256059766850759e-05   3.7287192359866748e-06   -4.106115750038549e-05
-1.256059766850759e-05   3.7287192359866748e-06   -4.106115750038549e-05
-1.256059766850759e-05   3.7287192359866748e-06   -4.106115750038549e-05
-5.317235840506312e-06   -3.199112201533825e-06   -4.7364036073768094e-05
-5.317235840506312e-06   -3.199112201533825e-06   -4.7364036073768094e-05
-5.317235840506312e-06   -3.199112201533825e-06   -4.7364036073768094e-05
-5.317235840506312e-06   -3.199112201533825e-06   -4.7364036073768094e-05
8.738622512054081e-06   -1.4747326976138507e-06   -2.2902977783815495e-05
8.738622512054081e-06   -1.4747326976138507e-06   -2.2902977783815495e-05
8.738622512054081e-06   -1.4747326976138507e-06   -2.2902977783815495e-05
8.738622512054081e-06   -1.4747326976138507e-06   -2.2902977783815495e-05
8.853405500238901e-06   -1.7736606273083353e-06   -4.628772722571671e-05
8.853405500238901e-06   -1.7736606273083353e-06   -4.628772722571671e-05
8.853405500238901e-06   -1.7736606273083353e-06   -4.628772722571671e-05
8.853405500238901e-06   -1.7736606273083353e-06   -4.628772722571671e-05
-5.327290054605667e-06   -1.4516195515990125e-07   -2.363033383759821e-05
-5.327290054605667e-06   -1.4516195515990125e-07   -2.363033383759821e-05
-5.327290054605667e-06   -1.4516195515990125e-07   -2.363033383759821e-05
-5.327290054605667e-06   -1.4516195515990125e-07   -2.363033383759821e-05
1.7450502034120954e-06   -1.5254773008944967e-06   -3.458937839352046e-05
1.7450502034120954e-06   -1.5254773008944967e-06   -3.458937839352046e-05
1.7450502034120954e-06   -1.5254773008944967e-06   -3.458937839352046e-05
1.7450502034120954e-06   -1.5254773008944967e-06   -3.458937839352046e-05
-5.327290054605676e-06   -1.7736606273083353e-06   -4.7264826429005945e-05
-5.327290054605676e-06   -1.7736606273083353e-06   -4.7264826429005945e-05
-5.327290054605676e-06   -1.7736606273083353e-06   -4.7264826429005945e-05
-5.327290054605676e-06   -1.7736606273083353e-06   -4.7264826429005945e-05
8.853405500238901e-06   -1.4516195515979283e-07   -2.2653234634309027e-05
8.853405500238901e-06   -1.4516195515979283e-07   -2.2653234634309027e-05
8.853405500238901e-06   -1.4516195515979283e-07   -2.2653234634309027e-05
8.853405500238901e-06   -1.4516195515979283e-07   -2.2653234634309027e-05
9.123814965517163e-06   -3.72879113662186e-07   -4.726190142730535e-05
9.123814965517163e-06   -3.72879113662186e-07   -4.726190142730535e-05
9.123814965517163e-06   -3.72879113662186e-07   -4.726190142730535e-05
9.123814965517163e-06   -3.72879113662186e-07   -4.726190142730535e-05
-5.30847124442584e-06   1.1339905816087686e-06   -2.4112212894562946e-05
-5.30847124442584e-06   1.1339905816087686e-06   -2.4112212894562946e-05
-5.30847124442584e-06   1.1339905816087686e-06   -2.4112212894562946e-05
-5.30847124442584e-06   1.1339905816087686e-06   -2.4112212894562946e-05
1.6637589012013524e-06   -4.1943360725024085e-07   -3.480054195729281e-05
1.6637589012013524e-06   -4.1943360725024085e-07   -3.480054195729281e-05
1.6637589012013524e-06   -4.1943360725024085e-07   -3.480054195729281e-05
1.6637589012013524e-06   -4.1943360725024085e-07   -3.480054195729281e-05
-5.308471244425846e-06   -3.72879113662186e-07   -4.816602324446775e-05
-5.308471244425846e-06   -3.72879113662186e-07   -4.816602324446775e-05
-5.308471244425846e-06   -3.72879113662186e-07   -4.816602324446775e-05
-5.308471244425846e-06   -3.72879113662186e-07   -4.816602324446775e-05
9.12381496551719e-06   1.1339905816087686e-06   -2.320809107740022e-05
9.12381496551719e-06   1.1339905816087686e-06   -2.320809107740022e-05
9.12381496551719e-06   1.1339905816087686e-06   -2.320809107740022e-05
9.12381496551719e-06   1.1339905816087686e-06   -2.320809107740022e-05
9.256128898372262e-06   1.2650492117751398e-06   -4.865523921030959e-05
9.256128898372262e-06   1.2650492117751398e-06   -4.865523921030959e-05
9.256128898372262e-06   1.2650492117751398e-06   -4.865523921030959e-05
9.256128898372262e-06   1.2650492117751398e-06   -4.865523921030959e-05
-5.31678358362181e-06   2.600144336155504e-06   -2.5168108814947525e-05
-5.31678358362181e-06   2.600144336155504e-06   -2.5168108814947525e-05
-5.31678358362181e-06   2.600144336155504e-06   -2.5168108814947525e-05
-5.31678358362181e-06   2.600144336155504e-06   -2.5168108814947525e-05
1.7127195972418418e-06   7.637084934422785e-07   -3.5782085944092165e-05
1.7127195972418418e-06   7.637084934422785e-07   -3.5782085944092165e-05
1.7127195972418418e-06   7.637084934422785e-07   -3.5782085944092165e-05
1.7127195972418418e-06   7.637084934422785e-07   -3.5782085944092165e-05
8.738622512054068e-06   -5.8027864535087174e-06   -2.602394695409312e-05
8.738622512054068e-06   -5.8027864535087174e-06   -2.602394695409312e-05
8.738622512054068e-06   -5.8027864535087174e-06   -2.602394695409312e-05
8.738622512054068e-06   -5.8027864535087174e-06   -2.602394695409312e-05
2.1223911099119554e-05   -2.7102839316822626e-06   -3.3596311292213464e-06
2.1223911099119554e-05   -2.7102839316822626e-06   -3.3596311292213464e-06
2.1223911099119554e-05   -2.7102839316822626e-06   -3.3596311292213464e-06
2.1223911099119554e-05   -2.7102839316822626e-06   -3.3596311292213464e-06
2.2706257286826632e-05   -4.981519381962391e-06   -2.7328139828665946e-05
2.2706257286826632e-05   -4.981519381962391e-06   -2.7328139828665946e-05
2.2706257286826632e-05   -4.981519381962391e-06   -2.7328139828665946e-05
2.2706257286826632e-05   -4.981519381962391e-06   -2.7328139828665946e-05
8.853405500238901e-06   -1.8098196746401968e-06   -6.143073342079709e-06
8.853405500238901e-06   -1.8098196746401968e-06   -6.143073342079709e-06
8.853405500238901e-06   -1.8098196746401968e-06   -6.143073342079709e-06
8.853405500238901e-06   -1.8098196746401968e-06   -6.143073342079709e-06
1.472473711958651e-05   -3.7075837025076983e-06   -1.4789967624271802e-05
1.472473711958651e-05   -3.7075837025076983e-06   -1.4789967624271802e-05
1.472473711958651e-05   -3.7075837025076983e-06   -1.4789967624271802e-05
1.472473711958651e-05   -3.7075837025076983e-06   -1.4789967624271802e-05
8.853405500238888e-06   -4.981519381962391e-06   -2.9231159653059062e-05
8.853405500238888e-06   -4.981519381962391e-06   -2.9231159653059062e-05
8.853405500238888e-06   -4.981519381962391e-06   -2.9231159653059062e-05
8.853405500238888e-06   -4.981519381962391e-06   -2.9231159653059062e-05
2.2706257286826632e-05   -1.8098196746401968e-06   -4.240053517686241e-06
2.2706257286826632e-05   -1.8098196746401968e-06   -4.240053517686241e-06
2.2706257286826632e-05   -1.8098196746401968e-06   -4.240053517686241e-06
2.2706257286826632e-05   -1.8098196746401968e-06   -4.240053517686241e-06
2.3847193683159236e-05   -4.27699316435002e-06   -2.9968564780899764e-05
2.3847193683159236e-05   -4.27699316435002e-06   -2.9968564780899764e-05
2.3847193683159236e-05   -4.27699316435002e-06   -2.9968564780899764e-05
2.3847193683159236e-05   -4.27699316435002e-06   -2.9968564780899764e-05
9.12381496551719e-06   -1.1880940693074138e-06   -7.2829397085219635e-06
9.12381496551719e-06   -1.1880940693074138e-06   -7.2829397085219635e-06
9.12381496551719e-06   -1.1880940693074138e-06   -7.2829397085219635e-06
9.12381496551719e-06   -1.1880940693074138e-06   -7.2829397085219635e-06
1.5630824922461338e-05   -3.2452197984741537e-06   -1.689368086592869e-05
1.5630824922461338e-05   -3.2452197984741537e-06   -1.689368086592869e-05
1.5630824922461338e-05   -3.2452197984741537e-06   -1.689368086592869e-05
1.5630824922461338e-05   -3.2452197984741537e-06   -1.689368086592869e-05
9.123814965517163e-06   -4.27699316435002e-06   -3.182190423792533e-05
9.123814965517163e-06   -4.27699316435002e-06   -3.182190423792533e-05
9.123814965517163e-06   -4.27699316435002e-06   -3.182190423792533e-05
9.123814965517163e-06   -4.27699316435002e-06   -3.182190423792533e-05
2.3847193683159236e-05   -1.1880940693074138e-06   -5.429600251496123e-06
2.3847193683159236e-05   -1.1880940693074138e-06   -5.429600251496123e-06
2.3847193683159236e-05   -1.1880940693074138e-06   -5.429600251496123e-06
2.3847193683159236e-05   -1.1880940693074138e-06   -5.429600251496123e-06
2.5363367568858767e-05   -2.7718839376950034e-06   -3.503220251930143e-05
2.5363367568858767e-05   -2.7718839376950034e-06   -3.503220251930143e-05
2.5363367568858767e-05   -2.7718839376950034e-06   -3.503220251930143e-05
2.5363367568858767e-05   -2.7718839376950034e-06   -3.503220251930143e-05
9.25612889837229e-06   3.4265567568254884e-08   -9.870494438315173e-06
9.25612889837229e-06   3.4265567568254884e-08   -9.870494438315173e-06
9.25612889837229e-06   3.4265567568254884e-08   -9.870494438315173e-06
9.25612889837229e-06   3.4265567568254884e-08   -9.870494438315173e-06
1.593228697699771e-05   -2.5571752016405585e-06   -1.944256010783226e-05
1.593228697699771e-05   -2.5571752016405585e-06   -1.944256010783226e-05
1.593228697699771e-05   -2.5571752016405585e-06   -1.944256010783226e-05
1.593228697699771e-05   -2.5571752016405585e-06   -1.944256010783226e-05
-3.0272910760697895e-05   4.875606638450733e-06   -2.8367707718516882e-05
-3.0272910760697895e-05   4.875606638450733e-06   -2.8367707718516882e-05
-3.0272910760697895e-05   4.875606638450733e-06   -2.8367707718516882e-05
-3.0272910760697895e-05   4.875606638450733e-06   -2.8367707718516882e-05
-2.2351634859487046e-05   1.986691727201388e-06   -1.6898930163248454e-05
-2.2351634859487046e-05   1.986691727201388e-06   -1.6898930163248454e-05
-2.2351634859487046e-05   1.986691727201388e-06   -1.6898930163248454e-05
-2.2351634859487046e-05   1.986691727201388e-06   -1.6898930163248454e-05
-2.2022819296993652e-05   6.2056196800937095e-06   -2.5025437375370864e-05
-2.2022819296993652e-05   6.2056196800937095e-06   -2.5025437375370864e-05
-2.2022819296993652e-05   6.2056196800937095e-06   -2.5025437375370864e-05
-2.2022819296993652e-05   6.2056196800937095e-06   -2.5025437375370864e-05
-2.8628121829198908e-05   3.093444733940449e-06   -1.214929485400312e-05
-2.8628121829198908e-05   3.093444733940449e-06   -1.214929485400312e-05
-2.8628121829198908e-05   3.093444733940449e-06   -1.214929485400312e-05
-2.8628121829198908e-05   3.093444733940449e-06   -1.214929485400312e-05
-2.472497972543422e-05   4.37337926908316e-06   -1.942249241469789e-05
-2.472497972543422e-05   4.37337926908316e-06   -1.942249241469789e-05
-2.472497972543422e-05   4.37337926908316e-06   -1.942249241469789e-05
-2.472497972543422e-05   4.37337926908316e-06   -1.942249241469789e-05
-2.8628121829198908e-05   6.2056196800937095e-06   -2.3158132407679016e-05
-2.8628121829198908e-05   6.2056196800937095e-06   -2.3158132407679016e-05
-2.8628121829198908e-05   6.2056196800937095e-06   -2.3158132407679016e-05
-2.8628121829198908e-05   6.2056196800937095e-06   -2.3158132407679016e-05
-2.2022819296993706e-05   3.093444733940449e-06   -1.4016599821695239e-05
-2.2022819296993706e-05   3.093444733940449e-06   -1.4016599821695239e-05
-2.2022819296993706e-05   3.093444733940449e-06   -1.4016599821695239e-05
-2.2022819296993706e-05   3.093444733940449e-06   -1.4016599821695239e-05
-2.155354328052788e-05   6.825249197699927e-06   -2.2346387622828494e-05
-2.155354328052788e-05   6.825249197699927e-06   -2.2346387622828494e-05
-2.155354328052788e-05   6.825249197699927e-06   -2.2346387622828494e-05
-2.155354328052788e-05   6.825249197699927e-06   -2.2346387622828494e-05
-2.7316073713850827e-05   3.652604498214111e-06   -1.0838583414265242e-05
-2.7316073713850827e-05   3.652604498214111e-06   -1.0838583414265242e-05
-2.7316073713850827e-05   3.652604498214111e-06   -1.0838583414265242e-05
-2.7316073713850827e-05   3.652604498214111e-06   -1.0838583414265242e-05
-2.4291155219336856e-05   4.970562494254057e-06   -1.6670889036079226e-05
-2.4291155219336856e-05   4.970562494254057e-06   -1.6670889036079226e-05
-2.4291155219336856e-05   4.970562494254057e-06   -1.6670889036079226e-05
-2.4291155219336856e-05   4.970562494254057e-06   -1.6670889036079226e-05
-2.7316073713850827e-05   6.825249197699927e-06   -2.0442800803136874e-05
-2.7316073713850827e-05   6.825249197699927e-06   -2.0442800803136874e-05
-2.7316073713850827e-05   6.825249197699927e-06   -2.0442800803136874e-05
-2.7316073713850827e-05   6.825249197699927e-06   -2.0442800803136874e-05
-2.1553543280527907e-05   3.652604498214111e-06   -1.2742170233956808e-05
-2.1553543280527907e-05   3.652604498214111e-06   -1.2742170233956808e-05
-2.1553543280527907e-05   3.652604498214111e-06   -1.2742170233956808e-05
-2.1553543280527907e-05   3.652604498214111e-06   -1.2742170233956808e-05
-2.123377905895166e-05   7.60433376632212e-06   -1.8909467442171455e-05
-2.123377905895166e-05   7.60433376632212e-06   -1.8909467442171455e-05
-2.123377905895166e-05   7.60433376632212e-06   -1.8909467442171455e-05
-2.123377905895166e-05   7.60433376632212e-06   -1.8909467442171455e-05
-2.564535437383044e-05   4.53832548708618e-06   -9.717236949831625e-06
-2.564535437383044e-05   4.53832548708618e-06   -9.717236949831625e-06
-2.564535437383044e-05   4.53832548708618e-06   -9.717236949831625e-06
-2.564535437383044e-05   4.53832548708618e-06   -9.717236949831625e-06
-2.315603627239506e-05   5.384541188353667e-06   -1.4373829872985034e-05
-2.315603627239506e-05   5.384541188353667e-06   -1.4373829872985034e-05
-2.315603627239506e-05   5.384541188353667e-06   -1.4373829872985034e-05
-2.315603627239506e-05   5.384541188353667e-06   -1.4373829872985034e-05
-2.2351634859487046e-05   2.520315878799676e-06   -4.1346315958221006e-05
-2.2351634859487046e-05   2.520315878799676e-06   -4.1346315958221006e-05
-2.2351634859487046e-05   2.520315878799676e-06   -4.1346315958221006e-05
-2.2351634859487046e-05   2.520315878799676e-06   -4.1346315958221006e-05
-1.5915618072553342e-05   1.1404452929554554e-06   -3.144754366483812e-05
-1.5915618072553342e-05   1.1404452929554554e-06   -3.144754366483812e-05
-1.5915618072553342e-05   1.1404452929554554e-06   -3.144754366483812e-05
-1.5915618072553342e-05   1.1404452929554554e-06   -3.144754366483812e-05
-1.5700279605704992e-05   3.924408637587078e-06   -4.121067065291934e-05
-1.5700279605704992e-05   3.924408637587078e-06   -4.121067065291934e-05
-1.5700279605704992e-05   3.924408637587078e-06   -4.121067065291934e-05
-1.5700279605704992e-05   3.924408637587078e-06   -4.121067065291934e-05
-2.2022819296993733e-05   2.409494714592517e-06   -2.976415614697447e-05
-2.2022819296993733e-05   2.409494714592517e-06   -2.976415614697447e-05
-2.2022819296993733e-05   2.409494714592517e-06   -2.976415614697447e-05
-2.2022819296993733e-05   2.409494714592517e-06   -2.976415614697447e-05
-1.8812379618423626e-05   2.742128862131708e-06   -3.5314469433115746e-05
-1.8812379618423626e-05   2.742128862131708e-06   -3.5314469433115746e-05
-1.8812379618423626e-05   2.742128862131708e-06   -3.5314469433115746e-05
-1.8812379618423626e-05   2.742128862131708e-06   -3.5314469433115746e-05
-2.2022819296993625e-05   3.924408637586969e-06   -4.030172229912217e-05
-2.2022819296993625e-05   3.924408637586969e-06   -4.030172229912217e-05
-2.2022819296993625e-05   3.924408637586969e-06   -4.030172229912217e-05
-2.2022819296993625e-05   3.924408637586969e-06   -4.030172229912217e-05
-1.570027960570502e-05   2.4094947145923e-06   -3.067310450077142e-05
-1.570027960570502e-05   2.4094947145923e-06   -3.067310450077142e-05
-1.570027960570502e-05   2.4094947145923e-06   -3.067310450077142e-05
-1.570027960570502e-05   2.4094947145923e-06   -3.067310450077142e-05
-1.5462463670069904e-05   5.20198101864103e-06   -4.054438573681445e-05
-1.5462463670069904e-05   5.20198101864103e-06   -4.054438573681445e-05
-1.5462463670069904e-05   5.20198101864103e-06   -4.054438573681445e-05
-1.5462463670069904e-05   5.20198101864103e-06   -4.054438573681445e-05
-2.1553543280527934e-05   3.5894881483459866e-06   -2.9425090663873785e-05
-2.1553543280527934e-05   3.5894881483459866e-06   -2.9425090663873785e-05
-2.1553543280527934e-05   3.5894881483459866e-06   -2.9425090663873785e-05
-2.1553543280527934e-05   3.5894881483459866e-06   -2.9425090663873785e-05
-1.8529229388422297e-05   3.768163921400239e-06   -3.457281928121543e-05
-1.8529229388422297e-05   3.768163921400239e-06   -3.457281928121543e-05
-1.8529229388422297e-05   3.768163921400239e-06   -3.457281928121543e-05
-1.8529229388422297e-05   3.768163921400239e-06   -3.457281928121543e-05
-2.155354328052788e-05   5.20198101864103e-06   -3.957689001463723e-05
-2.155354328052788e-05   5.20198101864103e-06   -3.957689001463723e-05
-2.155354328052788e-05   5.20198101864103e-06   -3.957689001463723e-05
-2.155354328052788e-05   5.20198101864103e-06   -3.957689001463723e-05
-1.5462463670069877e-05   3.5894881483459866e-06   -3.0392586386050844e-05
-1.5462463670069877e-05   3.5894881483459866e-06   -3.0392586386050844e-05
-1.5462463670069877e-05   3.5894881483459866e-06   -3.0392586386050844e-05
-1.5462463670069877e-05   3.5894881483459866e-06   -3.0392586386050844e-05
-1.5250953546555116e-05   6.589639155935739e-06   -4.093750321792404e-05
-1.5250953546555116e-05   6.589639155935739e-06   -4.093750321792404e-05
-1.5250953546555116e-05   6.589639155935739e-06   -4.093750321792404e-05
-1.5250953546555116e-05   6.589639155935739e-06   -4.093750321792404e-05
-2.1233779058951713e-05   4.900640983134582e-06   -2.9952728460248693e-05
-2.1233779058951713e-05   4.900640983134582e-06   -2.9952728460248693e-05
-2.1233779058951713e-05   4.900640983134582e-06   -2.9952728460248693e-05
-2.1233779058951713e-05   4.900640983134582e-06   -2.9952728460248693e-05
-1.841859864361424e-05   4.807383056973412e-06   -3.4588741063448184e-05
-1.841859864361424e-05   4.807383056973412e-06   -3.4588741063448184e-05
-1.841859864361424e-05   4.807383056973412e-06   -3.4588741063448184e-05
-1.841859864361424e-05   4.807383056973412e-06   -3.4588741063448184e-05
-1.5915618072553288e-05   4.336682157950753e-07   -4.675283740798687e-05
-1.5915618072553288e-05   4.336682157950753e-07   -4.675283740798687e-05
-1.5915618072553288e-05   4.336682157950753e-07   -4.675283740798687e-05
-1.5915618072553288e-05   4.336682157950753e-07   -4.675283740798687e-05
-9.644128233341624e-06   6.535145442010653e-07   -3.61684465455907e-05
-9.644128233341624e-06   6.535145442010653e-07   -3.61684465455907e-05
-9.644128233341624e-06   6.535145442010653e-07   -3.61684465455907e-05
-9.644128233341624e-06   6.535145442010653e-07   -3.61684465455907e-05
-9.434255931018941e-06   1.8453191473047142e-06   -4.616551115625754e-05
-9.434255931018941e-06   1.8453191473047142e-06   -4.616551115625754e-05
-9.434255931018941e-06   1.8453191473047142e-06   -4.616551115625754e-05
-9.434255931018941e-06   1.8453191473047142e-06   -4.616551115625754e-05
-1.5700279605704992e-05   1.9460384877234907e-06   -3.578256996936499e-05
-1.5700279605704992e-05   1.9460384877234907e-06   -3.578256996936499e-05
-1.5700279605704992e-05   1.9460384877234907e-06   -3.578256996936499e-05
-1.5700279605704992e-05   1.9460384877234907e-06   -3.578256996936499e-05
-1.2592361290412756e-05   1.399555248619887e-06   -4.06345438847241e-05
-1.2592361290412756e-05   1.399555248619887e-06   -4.06345438847241e-05
-1.2592361290412756e-05   1.399555248619887e-06   -4.06345438847241e-05
-1.2592361290412756e-05   1.399555248619887e-06   -4.06345438847241e-05
-1.5700279605704965e-05   1.8453191473047142e-06   -4.6225942760508656e-05
-1.5700279605704965e-05   1.8453191473047142e-06   -4.6225942760508656e-05
-1.5700279605704965e-05   1.8453191473047142e-06   -4.6225942760508656e-05
-1.5700279605704965e-05   1.8453191473047142e-06   -4.6225942760508656e-05
-9.434255931018941e-06   1.9460384877237075e-06   -3.572213836511393e-05
-9.434255931018941e-06   1.9460384877237075e-06   -3.572213836511393e-05
-9.434255931018941e-06   1.9460384877237075e-06   -3.572213836511393e-05
-9.434255931018941e-06   1.9460384877237075e-06   -3.572213836511393e-05
-9.198144525268005e-06   3.261481978513261e-06   -4.6286003948549695e-05
-9.198144525268005e-06   3.261481978513261e-06   -4.6286003948549695e-05
-9.198144525268005e-06   3.261481978513261e-06   -4.6286003948549695e-05
-9.198144525268005e-06   3.261481978513261e-06   -4.6286003948549695e-05
-1.5462463670069904e-05   3.2498867352701542e-06   -3.583851489460057e-05
-1.5462463670069904e-05   3.2498867352701542e-06   -3.583851489460057e-05
-1.5462463670069904e-05   3.2498867352701542e-06   -3.583851489460057e-05
-1.5462463670069904e-05   3.2498867352701542e-06   -3.583851489460057e-05
-1.2451616657837003e-05   2.510028996070791e-06   -4.0412678604802456e-05
-1.2451616657837003e-05   2.510028996070791e-06   -4.0412678604802456e-05
-1.2451616657837003e-05   2.510028996070791e-06   -4.0412678604802456e-05
-1.2451616657837003e-05   2.510028996070791e-06   -4.0412678604802456e-05
-1.546246367006985e-05   3.2614819785133694e-06   -4.627904680260366e-05
-1.546246367006985e-05   3.2614819785133694e-06   -4.627904680260366e-05
-1.546246367006985e-05   3.2614819785133694e-06   -4.627904680260366e-05
-1.546246367006985e-05   3.2614819785133694e-06   -4.627904680260366e-05
-9.198144525268005e-06   3.2498867352701542e-06   -3.584547204054636e-05
-9.198144525268005e-06   3.2498867352701542e-06   -3.584547204054636e-05
-9.198144525268005e-06   3.2498867352701542e-06   -3.584547204054636e-05
-9.198144525268005e-06   3.2498867352701542e-06   -3.584547204054636e-05
-8.986013351680311e-06   4.7024050431003885e-06   -4.7065105914613774e-05
-8.986013351680311e-06   4.7024050431003885e-06   -4.7065105914613774e-05
-8.986013351680311e-06   4.7024050431003885e-06   -4.7065105914613774e-05
-8.986013351680311e-06   4.7024050431003885e-06   -4.7065105914613774e-05
-1.525095354655513e-05   4.57341074163657e-06   -3.654614234227719e-05
-1.525095354655513e-05   4.57341074163657e-06   -3.654614234227719e-05
-1.525095354655513e-05   4.57341074163657e-06   -3.654614234227719e-05
-1.525095354655513e-05   4.57341074163657e-06   -3.654614234227719e-05
-1.233525225595446e-05   3.6352657649075734e-06   -4.084275750724126e-05
-1.233525225595446e-05   3.6352657649075734e-06   -4.084275750724126e-05
-1.233525225595446e-05   3.6352657649075734e-06   -4.084275750724126e-05
-1.233525225595446e-05   3.6352657649075734e-06   -4.084275750724126e-05
-9.64412823334159e-06   -1.4747326976137422e-06   -4.098020212063927e-05
-9.64412823334159e-06   -1.4747326976137422e-06   -4.098020212063927e-05
-9.64412823334159e-06   -1.4747326976137422e-06   -4.098020212063927e-05
-9.64412823334159e-06   -1.4747326976137422e-06   -4.098020212063927e-05
-3.5618548764746382e-06   2.7917324859640623e-07   -2.979073629146825e-05
-3.5618548764746382e-06   2.7917324859640623e-07   -2.979073629146825e-05
-3.5618548764746382e-06   2.7917324859640623e-07   -2.979073629146825e-05
-3.5618548764746382e-06   2.7917324859640623e-07   -2.979073629146825e-05
-3.248300456808745e-06   -1.4516195515979283e-07   -3.966295470275889e-05
-3.248300456808745e-06   -1.4516195515979283e-07   -3.966295470275889e-05
-3.248300456808745e-06   -1.4516195515979283e-07   -3.966295470275889e-05
-3.248300456808745e-06   -1.4516195515979283e-07   -3.966295470275889e-05
-9.434255931018926e-06   1.5311737428618227e-06   -3.0358830331221026e-05
-9.434255931018926e-06   1.5311737428618227e-06   -3.0358830331221026e-05
-9.434255931018926e-06   1.5311737428618227e-06   -3.0358830331221026e-05
-9.434255931018926e-06   1.5311737428618227e-06   -3.0358830331221026e-05
-6.406830370387276e-06   1.783589254908749e-07   -3.459285070851857e-05
-6.406830370387276e-06   1.783589254908749e-07   -3.459285070851857e-05
-6.406830370387276e-06   1.783589254908749e-07   -3.459285070851857e-05
-6.406830370387276e-06   1.783589254908749e-07   -3.459285070851857e-05
-9.434255931018909e-06   -1.4516195515979283e-07   -4.06687561215716e-05
-9.434255931018909e-06   -1.4516195515979283e-07   -4.06687561215716e-05
-9.434255931018909e-06   -1.4516195515979283e-07   -4.06687561215716e-05
-9.434255931018909e-06   -1.4516195515979283e-07   -4.06687561215716e-05
-3.248300456808745e-06   1.5311737428616058e-06   -2.9353028912408358e-05
-3.248300456808745e-06   1.5311737428616058e-06   -2.9353028912408358e-05
-3.248300456808745e-06   1.5311737428616058e-06   -2.9353028912408358e-05
-3.248300456808745e-06   1.5311737428616058e-06   -2.9353028912408358e-05
-2.782799556601891e-06   1.1339905816087686e-06   -4.0197377882226766e-05
-2.782799556601891e-06   1.1339905816087686e-06   -4.0197377882226766e-05
-2.782799556601891e-06   1.1339905816087686e-06   -4.0197377882226766e-05
-2.782799556601891e-06   1.1339905816087686e-06   -4.0197377882226766e-05
-9.19814452526799e-06   2.7110180474186705e-06   -3.0451352747268956e-05
-9.19814452526799e-06   2.7110180474186705e-06   -3.0451352747268956e-05
-9.19814452526799e-06   2.7110180474186705e-06   -3.0451352747268956e-05
-9.19814452526799e-06   2.7110180474186705e-06   -3.0451352747268956e-05
-6.2172359705155815e-06   1.1891968090817998e-06   -3.4506440928854366e-05
-6.2172359705155815e-06   1.1891968090817998e-06   -3.4506440928854366e-05
-6.2172359705155815e-06   1.1891968090817998e-06   -3.4506440928854366e-05
-6.2172359705155815e-06   1.1891968090817998e-06   -3.4506440928854366e-05
-9.198144525267966e-06   1.1339905816087686e-06   -4.1143594361712403e-05
-9.198144525267966e-06   1.1339905816087686e-06   -4.1143594361712403e-05
-9.198144525267966e-06   1.1339905816087686e-06   -4.1143594361712403e-05
-9.198144525267966e-06   1.1339905816087686e-06   -4.1143594361712403e-05
-2.7827995566019045e-06   2.7110180474186705e-06   -2.9505136267783173e-05
-2.7827995566019045e-06   2.7110180474186705e-06   -2.9505136267783173e-05
-2.7827995566019045e-06   2.7110180474186705e-06   -2.9505136267783173e-05
-2.7827995566019045e-06   2.7110180474186705e-06   -2.9505136267783173e-05
-2.4577811078584007e-06   2.6001443361553956e-06   -4.1321642472993405e-05
-2.4577811078584007e-06   2.6001443361553956e-06   -4.1321642472993405e-05
-2.4577811078584007e-06   2.6001443361553956e-06   -4.1321642472993405e-05
-2.4577811078584007e-06   2.6001443361553956e-06   -4.1321642472993405e-05
-8.986013351680327e-06   4.045136030941332e-06   -3.1308250416828135e-05
-8.986013351680327e-06   4.045136030941332e-06   -3.1308250416828135e-05
-8.986013351680327e-06   4.045136030941332e-06   -3.1308250416828135e-05
-8.986013351680327e-06   4.045136030941332e-06   -3.1308250416828135e-05
-6.0187589102690305e-06   2.2486831819973525e-06   -3.5175802776480614e-05
-6.0187589102690305e-06   2.2486831819973525e-06   -3.5175802776480614e-05
-6.0187589102690305e-06   2.2486831819973525e-06   -3.5175802776480614e-05
-6.0187589102690305e-06   2.2486831819973525e-06   -3.5175802776480614e-05
-3.5618548764746247e-06   -2.710283931682371e-06   -2.224001341141486e-05
-3.5618548764746247e-06   -2.710283931682371e-06   -2.224001341141486e-05
-3.5618548764746247e-06   -2.710283931682371e-06   -2.224001341141486e-05
-3.5618548764746247e-06   -2.710283931682371e-06   -2.224001341141486e-05
9.375208205578318e-07   3.869382411011372e-07   -1.2882720612690697e-05
9.375208205578318e-07   3.869382411011372e-07   -1.2882720612690697e-05
9.375208205578318e-07   3.869382411011372e-07   -1.2882720612690697e-05
9.375208205578318e-07   3.869382411011372e-07   -1.2882720612690697e-05
2.591746639790904e-06   -1.8098196746400884e-06   -2.1241015561648292e-05
2.591746639790904e-06   -1.8098196746400884e-06   -2.1241015561648292e-05
2.591746639790904e-06   -1.8098196746400884e-06   -2.1241015561648292e-05
2.591746639790904e-06   -1.8098196746400884e-06   -2.1241015561648292e-05
-3.248300456808745e-06   1.3764767401614354e-06   -1.3419381582862965e-05
-3.248300456808745e-06   1.3764767401614354e-06   -1.3419381582862965e-05
-3.248300456808745e-06   1.3764767401614354e-06   -1.3419381582862965e-05
-3.248300456808745e-06   1.3764767401614354e-06   -1.3419381582862965e-05
-7.989752984345782e-07   -5.555503169881165e-07   -1.6342373945863993e-05
-7.989752984345782e-07   -5.555503169881165e-07   -1.6342373945863993e-05
-7.989752984345782e-07   -5.555503169881165e-07   -1.6342373945863993e-05
-7.989752984345782e-07   -5.555503169881165e-07   -1.6342373945863993e-05
-3.2483004568087317e-06   -1.8098196746400884e-06   -2.3152793410529033e-05
-3.2483004568087317e-06   -1.8098196746400884e-06   -2.3152793410529033e-05
-3.2483004568087317e-06   -1.8098196746400884e-06   -2.3152793410529033e-05
-3.2483004568087317e-06   -1.8098196746400884e-06   -2.3152793410529033e-05
2.591746639790904e-06   1.3764767401614354e-06   -1.1507603733982197e-05
2.591746639790904e-06   1.3764767401614354e-06   -1.1507603733982197e-05
2.591746639790904e-06   1.3764767401614354e-06   -1.1507603733982197e-05
2.591746639790904e-06   1.3764767401614354e-06   -1.1507603733982197e-05
3.897912041211129e-06   -1.1880940693074138e-06   -2.239956284193277e-05
3.897912041211129e-06   -1.1880940693074138e-06   -2.239956284193277e-05
3.897912041211129e-06   -1.1880940693074138e-06   -2.239956284193277e-05
3.897912041211129e-06   -1.1880940693074138e-06   -2.239956284193277e-05
-2.782799556601891e-06   1.9330120497186142e-06   -1.3137707183659864e-05
-2.782799556601891e-06   1.9330120497186142e-06   -1.3137707183659864e-05
-2.782799556601891e-06   1.9330120497186142e-06   -1.3137707183659864e-05
-2.782799556601891e-06   1.9330120497186142e-06   -1.3137707183659864e-05
4.0594588490632335e-08   -8.178916561423291e-08   -1.6634483362947558e-05
4.0594588490632335e-08   -8.178916561423291e-08   -1.6634483362947558e-05
4.0594588490632335e-08   -8.178916561423291e-08   -1.6634483362947558e-05
4.0594588490632335e-08   -8.178916561423291e-08   -1.6634483362947558e-05
-2.7827995566018774e-06   -1.1880940693074138e-06   -2.427222651334832e-05
-2.7827995566018774e-06   -1.1880940693074138e-06   -2.427222651334832e-05
-2.7827995566018774e-06   -1.1880940693074138e-06   -2.427222651334832e-05
-2.7827995566018774e-06   -1.1880940693074138e-06   -2.427222651334832e-05
3.897912041211129e-06   1.9330120497186142e-06   -1.126504351224415e-05
3.897912041211129e-06   1.9330120497186142e-06   -1.126504351224415e-05
3.897912041211129e-06   1.9330120497186142e-06   -1.126504351224415e-05
3.897912041211129e-06   1.9330120497186142e-06   -1.126504351224415e-05
5.545989978990659e-06   3.4265567568254884e-08   -2.5093612049277916e-05
5.545989978990659e-06   3.4265567568254884e-08   -2.5093612049277916e-05
5.545989978990659e-06   3.4265567568254884e-08   -2.5093612049277916e-05
5.545989978990659e-06   3.4265567568254884e-08   -2.5093612049277916e-05
-2.4577811078584007e-06   2.920054103754035e-06   -1.3485466692907095e-05
-2.4577811078584007e-06   2.920054103754035e-06   -1.3485466692907095e-05
-2.4577811078584007e-06   2.920054103754035e-06   -1.3485466692907095e-05
-2.4577811078584007e-06   2.920054103754035e-06   -1.3485466692907095e-05
7.62220897426304e-07   4.5908200743335903e-07   -1.7375553443923044e-05
7.62220897426304e-07   4.5908200743335903e-07   -1.7375553443923044e-05
7.62220897426304e-07   4.5908200743335903e-07   -1.7375553443923044e-05
7.62220897426304e-07   4.5908200743335903e-07   -1.7375553443923044e-05
-1.0549584455376996e-05   1.986691727201388e-06   -1.8911035349764927e-05
-1.0549584455376996e-05   1.986691727201388e-06   -1.8911035349764927e-05
-1.0549584455376996e-05   1.986691727201388e-06   -1.8911035349764927e-05
-1.0549584455376996e-05   1.986691727201388e-06   -1.8911035349764927e-05
-1.0688393983474605e-05   -9.23542529956186e-07   -2.0888525117555498e-05
-1.0688393983474605e-05   -9.23542529956186e-07   -2.0888525117555498e-05
-1.0688393983474605e-05   -9.23542529956186e-07   -2.0888525117555498e-05
-1.0688393983474605e-05   -9.23542529956186e-07   -2.0888525117555498e-05
-1.015285591632716e-05   3.093444733940449e-06   -1.7768221639484147e-05
-1.015285591632716e-05   3.093444733940449e-06   -1.7768221639484147e-05
-1.015285591632716e-05   3.093444733940449e-06   -1.7768221639484147e-05
-1.015285591632716e-05   3.093444733940449e-06   -1.7768221639484147e-05
-8.707134280447543e-06   -2.816394830524281e-08   -1.8304792489935674e-05
-8.707134280447543e-06   -2.816394830524281e-08   -1.8304792489935674e-05
-8.707134280447543e-06   -2.816394830524281e-08   -1.8304792489935674e-05
-8.707134280447543e-06   -2.816394830524281e-08   -1.8304792489935674e-05
-9.586321566943266e-06   1.3676946032802235e-06   -1.7676995476728066e-05
-9.586321566943266e-06   1.3676946032802235e-06   -1.7676995476728066e-05
-9.586321566943266e-06   1.3676946032802235e-06   -1.7676995476728066e-05
-9.586321566943266e-06   1.3676946032802235e-06   -1.7676995476728066e-05
-8.707134280447543e-06   3.093444733940449e-06   -1.5895256430136385e-05
-8.707134280447543e-06   3.093444733940449e-06   -1.5895256430136385e-05
-8.707134280447543e-06   3.093444733940449e-06   -1.5895256430136385e-05
-8.707134280447543e-06   3.093444733940449e-06   -1.5895256430136385e-05
-1.015285591632716e-05   -2.816394830524281e-08   -2.0177757699283328e-05
-1.015285591632716e-05   -2.816394830524281e-08   -2.0177757699283328e-05
-1.015285591632716e-05   -2.816394830524281e-08   -2.0177757699283328e-05
-1.015285591632716e-05   -2.816394830524281e-08   -2.0177757699283328e-05
-9.477341264680175e-06   3.652604498213894e-06   -1.6489067764298903e-05
-9.477341264680175e-06   3.652604498213894e-06   -1.6489067764298903e-05
-9.477341264680175e-06   3.652604498213894e-06   -1.6489067764298903e-05
-9.477341264680175e-06   3.652604498213894e-06   -1.6489067764298903e-05
-7.183424152317993e-06   4.783077856662481e-07   -1.840768492404046e-05
-7.183424152317993e-06   4.783077856662481e-07   -1.840768492404046e-05
-7.183424152317993e-06   4.783077856662481e-07   -1.840768492404046e-05
-7.183424152317993e-06   4.783077856662481e-07   -1.840768492404046e-05
-8.713946486478463e-06   1.8273727095928245e-06   -1.6666253321463015e-05
-8.713946486478463e-06   1.8273727095928245e-06   -1.6666253321463015e-05
-8.713946486478463e-06   1.8273727095928245e-06   -1.6666253321463015e-05
-8.713946486478463e-06   1.8273727095928245e-06   -1.6666253321463015e-05
-7.183424152317939e-06   3.652604498213894e-06   -1.4584489736770229e-05
-7.183424152317939e-06   3.652604498213894e-06   -1.4584489736770229e-05
-7.183424152317939e-06   3.652604498213894e-06   -1.4584489736770229e-05
-7.183424152317939e-06   3.652604498213894e-06   -1.4584489736770229e-05
-9.477341264680202e-06   4.783077856662481e-07   -2.031226295156897e-05
-9.477341264680202e-06   4.783077856662481e-07   -2.031226295156897e-05
-9.477341264680202e-06   4.783077856662481e-07   -2.031226295156897e-05
-9.477341264680202e-06   4.783077856662481e-07   -2.031226295156897e-05
-8.950381999185783e-06   4.53832548708618e-06   -1.529958276418335e-05
-8.950381999185783e-06   4.53832548708618e-06   -1.529958276418335e-05
-8.950381999185783e-06   4.53832548708618e-06   -1.529958276418335e-05
-8.950381999185783e-06   4.53832548708618e-06   -1.529958276418335e-05
-5.302131651314739e-06   1.4884435130995202e-06   -1.9550070826243105e-05
-5.302131651314739e-06   1.4884435130995202e-06   -1.9550070826243105e-05
-5.302131651314739e-06   1.4884435130995202e-06   -1.9550070826243105e-05
-5.302131651314739e-06   1.4884435130995202e-06   -1.9550070826243105e-05
-7.623490520967775e-06   2.2678525954053248e-06   -1.6148784826204847e-05
-7.623490520967775e-06   2.2678525954053248e-06   -1.6148784826204847e-05
-7.623490520967775e-06   2.2678525954053248e-06   -1.6148784826204847e-05
-7.623490520967775e-06   2.2678525954053248e-06   -1.6148784826204847e-05
-1.0688393983474551e-05   1.1404452929554554e-06   -3.437786705414228e-05
-1.0688393983474551e-05   1.1404452929554554e-06   -3.437786705414228e-05
-1.0688393983474551e-05   1.1404452929554554e-06   -3.437786705414228e-05
-1.0688393983474551e-05   1.1404452929554554e-06   -3.437786705414228e-05
-1.2312892007423465e-05   -2.001669779296434e-07   -3.788973112325486e-05
-1.2312892007423465e-05   -2.001669779296434e-07   -3.788973112325486e-05
-1.2312892007423465e-05   -2.001669779296434e-07   -3.788973112325486e-05
-1.2312892007423465e-05   -2.001669779296434e-07   -3.788973112325486e-05
-1.1880134216623819e-05   2.4094947145923e-06   -3.4403743143386796e-05
-1.1880134216623819e-05   2.4094947145923e-06   -3.4403743143386796e-05
-1.1880134216623819e-05   2.4094947145923e-06   -3.4403743143386796e-05
-1.1880134216623819e-05   2.4094947145923e-06   -3.4403743143386796e-05
-1.015285591632716e-05   9.295527502201518e-07   -3.639457513192427e-05
-1.015285591632716e-05   9.295527502201518e-07   -3.639457513192427e-05
-1.015285591632716e-05   9.295527502201518e-07   -3.639457513192427e-05
-1.015285591632716e-05   9.295527502201518e-07   -3.639457513192427e-05
-1.112742503369932e-05   1.317742522875462e-06   -3.500320713323128e-05
-1.112742503369932e-05   1.317742522875462e-06   -3.500320713323128e-05
-1.112742503369932e-05   1.317742522875462e-06   -3.500320713323128e-05
-1.112742503369932e-05   1.317742522875462e-06   -3.500320713323128e-05
-1.0152855916327133e-05   2.4094947145923e-06   -3.351577796476294e-05
-1.0152855916327133e-05   2.4094947145923e-06   -3.351577796476294e-05
-1.0152855916327133e-05   2.4094947145923e-06   -3.351577796476294e-05
-1.0152855916327133e-05   2.4094947145923e-06   -3.351577796476294e-05
-1.1880134216623792e-05   9.295527502201518e-07   -3.728254031054763e-05
-1.1880134216623792e-05   9.295527502201518e-07   -3.728254031054763e-05
-1.1880134216623792e-05   9.295527502201518e-07   -3.728254031054763e-05
-1.1880134216623792e-05   9.295527502201518e-07   -3.728254031054763e-05
-1.1430051272611635e-05   3.5894881483459866e-06   -3.4115361431759665e-05
-1.1430051272611635e-05   3.5894881483459866e-06   -3.4115361431759665e-05
-1.1430051272611635e-05   3.5894881483459866e-06   -3.4115361431759665e-05
-1.1430051272611635e-05   3.5894881483459866e-06   -3.4115361431759665e-05
-9.477341264680202e-06   2.0171994191062192e-06   -3.642650487410134e-05
-9.477341264680202e-06   2.0171994191062192e-06   -3.642650487410134e-05
-9.477341264680202e-06   2.0171994191062192e-06   -3.642650487410134e-05
-9.477341264680202e-06   2.0171994191062192e-06   -3.642650487410134e-05
-1.0693771539775212e-05   2.228499501487867e-06   -3.452590113170543e-05
-1.0693771539775212e-05   2.228499501487867e-06   -3.452590113170543e-05
-1.0693771539775212e-05   2.228499501487867e-06   -3.452590113170543e-05
-1.0693771539775212e-05   2.228499501487867e-06   -3.452590113170543e-05
-9.477341264680175e-06   3.5894881483459866e-06   -3.317198819421572e-05
-9.477341264680175e-06   3.5894881483459866e-06   -3.317198819421572e-05
-9.477341264680175e-06   3.5894881483459866e-06   -3.317198819421572e-05
-9.477341264680175e-06   3.5894881483459866e-06   -3.317198819421572e-05
-1.1430051272611595e-05   2.0171994191062192e-06   -3.736987811164502e-05
-1.1430051272611595e-05   2.0171994191062192e-06   -3.736987811164502e-05
-1.1430051272611595e-05   2.0171994191062192e-06   -3.736987811164502e-05
-1.1430051272611595e-05   2.0171994191062192e-06   -3.736987811164502e-05
-1.1006135776399112e-05   4.900640983134582e-06   -3.46803622585227e-05
-1.1006135776399112e-05   4.900640983134582e-06   -3.46803622585227e-05
-1.1006135776399112e-05   4.900640983134582e-06   -3.46803622585227e-05
-1.1006135776399112e-05   4.900640983134582e-06   -3.46803622585227e-05
-8.95038199918581e-06   3.2591527306948757e-06   -3.712172560241413e-05
-8.95038199918581e-06   3.2591527306948757e-06   -3.712172560241413e-05
-8.95038199918581e-06   3.2591527306948757e-06   -3.712172560241413e-05
-8.95038199918581e-06   3.2591527306948757e-06   -3.712172560241413e-05
-1.0312215799643128e-05   3.1838563985498673e-06   -3.4806824802364935e-05
-1.0312215799643128e-05   3.1838563985498673e-06   -3.4806824802364935e-05
-1.0312215799643128e-05   3.1838563985498673e-06   -3.4806824802364935e-05
-1.0312215799643128e-05   3.1838563985498673e-06   -3.4806824802364935e-05
-1.2312892007423424e-05   6.535145442010653e-07   -4.00350450944694e-05
-1.2312892007423424e-05   6.535145442010653e-07   -4.00350450944694e-05
-1.2312892007423424e-05   6.535145442010653e-07   -4.00350450944694e-05
-1.2312892007423424e-05   6.535145442010653e-07   -4.00350450944694e-05
-1.4023811289146756e-05   9.367109804613461e-07   -4.271665936891899e-05
-1.4023811289146756e-05   9.367109804613461e-07   -4.271665936891899e-05
-1.4023811289146756e-05   9.367109804613461e-07   -4.271665936891899e-05
-1.4023811289146756e-05   9.367109804613461e-07   -4.271665936891899e-05
-1.3598501268285883e-05   1.9460384877234907e-06   -3.94182263736936e-05
-1.3598501268285883e-05   1.9460384877234907e-06   -3.94182263736936e-05
-1.3598501268285883e-05   1.9460384877234907e-06   -3.94182263736936e-05
-1.3598501268285883e-05   1.9460384877234907e-06   -3.94182263736936e-05
-1.1880134216623819e-05   2.1043422182016446e-06   -4.2377153698083846e-05
-1.1880134216623819e-05   2.1043422182016446e-06   -4.2377153698083846e-05
-1.1880134216623819e-05   2.1043422182016446e-06   -4.2377153698083846e-05
-1.1880134216623819e-05   2.1043422182016446e-06   -4.2377153698083846e-05
-1.2875854008744095e-05   1.59200703574538e-06   -4.041021960174353e-05
-1.2875854008744095e-05   1.59200703574538e-06   -4.041021960174353e-05
-1.2875854008744095e-05   1.59200703574538e-06   -4.041021960174353e-05
-1.2875854008744095e-05   1.59200703574538e-06   -4.041021960174353e-05
-1.1880134216623778e-05   1.9460384877237075e-06   -3.951320861198047e-05
-1.1880134216623778e-05   1.9460384877237075e-06   -3.951320861198047e-05
-1.1880134216623778e-05   1.9460384877237075e-06   -3.951320861198047e-05
-1.1880134216623778e-05   1.9460384877237075e-06   -3.951320861198047e-05
-1.3598501268285909e-05   2.1043422182016446e-06   -4.228217145979725e-05
-1.3598501268285909e-05   2.1043422182016446e-06   -4.228217145979725e-05
-1.3598501268285909e-05   2.1043422182016446e-06   -4.228217145979725e-05
-1.3598501268285909e-05   2.1043422182016446e-06   -4.228217145979725e-05
-1.3151187624613357e-05   3.2498867352701542e-06   -3.953263435262848e-05
-1.3151187624613357e-05   3.2498867352701542e-06   -3.953263435262848e-05
-1.3151187624613357e-05   3.2498867352701542e-06   -3.953263435262848e-05
-1.3151187624613357e-05   3.2498867352701542e-06   -3.953263435262848e-05
-1.1430051272611635e-05   3.297646048071789e-06   -4.2429850526978595e-05
-1.1430051272611635e-05   3.297646048071789e-06   -4.2429850526978595e-05
-1.1430051272611635e-05   3.297646048071789e-06   -4.2429850526978595e-05
-1.1430051272611635e-05   3.297646048071789e-06   -4.2429850526978595e-05
-1.2518917777911182e-05   2.5908213201026545e-06   -4.019097818136504e-05
-1.2518917777911182e-05   2.5908213201026545e-06   -4.019097818136504e-05
-1.2518917777911182e-05   2.5908213201026545e-06   -4.019097818136504e-05
-1.2518917777911182e-05   2.5908213201026545e-06   -4.019097818136504e-05
-1.1430051272611595e-05   3.2498867352701542e-06   -3.956128994030909e-05
-1.1430051272611595e-05   3.2498867352701542e-06   -3.956128994030909e-05
-1.1430051272611595e-05   3.2498867352701542e-06   -3.956128994030909e-05
-1.1430051272611595e-05   3.2498867352701542e-06   -3.956128994030909e-05
-1.3151187624613357e-05   3.297646048071789e-06   -4.240119493929774e-05
-1.3151187624613357e-05   3.297646048071789e-06   -4.240119493929774e-05
-1.3151187624613357e-05   3.297646048071789e-06   -4.240119493929774e-05
-1.3151187624613357e-05   3.297646048071789e-06   -4.240119493929774e-05
-1.2729305893779361e-05   4.573410741636353e-06   -4.029994617289984e-05
-1.2729305893779361e-05   4.573410741636353e-06   -4.029994617289984e-05
-1.2729305893779361e-05   4.573410741636353e-06   -4.029994617289984e-05
-1.2729305893779361e-05   4.573410741636353e-06   -4.029994617289984e-05
-1.1006135776399126e-05   4.507462514921059e-06   -4.313232743250408e-05
-1.1006135776399126e-05   4.507462514921059e-06   -4.313232743250408e-05
-1.1006135776399126e-05   4.507462514921059e-06   -4.313232743250408e-05
-1.1006135776399126e-05   4.507462514921059e-06   -4.313232743250408e-05
-1.2190381803238419e-05   3.603610822524965e-06   -4.061627303900112e-05
-1.2190381803238419e-05   3.603610822524965e-06   -4.061627303900112e-05
-1.2190381803238419e-05   3.603610822524965e-06   -4.061627303900112e-05
-1.2190381803238419e-05   3.603610822524965e-06   -4.061627303900112e-05
-1.4023811289146709e-05   2.7917324859640623e-07   -3.4539760546316994e-05
-1.4023811289146709e-05   2.7917324859640623e-07   -3.4539760546316994e-05
-1.4023811289146709e-05   2.7917324859640623e-07   -3.4539760546316994e-05
-1.4023811289146709e-05   2.7917324859640623e-07   -3.4539760546316994e-05
-1.5830240860860095e-05   2.0820134130959764e-06   -3.646877240047301e-05
-1.5830240860860095e-05   2.0820134130959764e-06   -3.646877240047301e-05
-1.5830240860860095e-05   2.0820134130959764e-06   -3.646877240047301e-05
-1.5830240860860095e-05   2.0820134130959764e-06   -3.646877240047301e-05
-1.5315654752134602e-05   1.5311737428618227e-06   -3.3021479436085824e-05
-1.5315654752134602e-05   1.5311737428618227e-06   -3.3021479436085824e-05
-1.5315654752134602e-05   1.5311737428618227e-06   -3.3021479436085824e-05
-1.5315654752134602e-05   1.5311737428618227e-06   -3.3021479436085824e-05
-1.3598501268285883e-05   3.2535719157204476e-06   -3.69168408128819e-05
-1.3598501268285883e-05   3.2535719157204476e-06   -3.69168408128819e-05
-1.3598501268285883e-05   3.2535719157204476e-06   -3.69168408128819e-05
-1.3598501268285883e-05   3.2535719157204476e-06   -3.69168408128819e-05
-1.4578507987281175e-05   1.9170048838116054e-06   -3.448155606207839e-05
-1.4578507987281175e-05   1.9170048838116054e-06   -3.448155606207839e-05
-1.4578507987281175e-05   1.9170048838116054e-06   -3.448155606207839e-05
-1.4578507987281175e-05   1.9170048838116054e-06   -3.448155606207839e-05
-1.3598501268285858e-05   1.5311737428616058e-06   -3.405491833980085e-05
-1.3598501268285858e-05   1.5311737428616058e-06   -3.405491833980085e-05
-1.3598501268285858e-05   1.5311737428616058e-06   -3.405491833980085e-05
-1.3598501268285858e-05   1.5311737428616058e-06   -3.405491833980085e-05
-1.5315654752134602e-05   3.2535719157204476e-06   -3.588340190916698e-05
-1.5315654752134602e-05   3.2535719157204476e-06   -3.588340190916698e-05
-1.5315654752134602e-05   3.2535719157204476e-06   -3.588340190916698e-05
-1.5315654752134602e-05   3.2535719157204476e-06   -3.588340190916698e-05
-1.465071755988139e-05   2.7110180474186705e-06   -3.316450249069025e-05
-1.465071755988139e-05   2.7110180474186705e-06   -3.316450249069025e-05
-1.465071755988139e-05   2.7110180474186705e-06   -3.316450249069025e-05
-1.465071755988139e-05   2.7110180474186705e-06   -3.316450249069025e-05
-1.3151187624613357e-05   4.33437232851973e-06   -3.663773161813103e-05
-1.3151187624613357e-05   4.33437232851973e-06   -3.663773161813103e-05
-1.3151187624613357e-05   4.33437232851973e-06   -3.663773161813103e-05
-1.3151187624613357e-05   4.33437232851973e-06   -3.663773161813103e-05
-1.4118622893560837e-05   2.8464798790572062e-06   -3.413260403354121e-05
-1.4118622893560837e-05   2.8464798790572062e-06   -3.413260403354121e-05
-1.4118622893560837e-05   2.8464798790572062e-06   -3.413260403354121e-05
-1.4118622893560837e-05   2.8464798790572062e-06   -3.413260403354121e-05
-1.31511876246133e-05   2.7110180474186705e-06   -3.413851505935082e-05
-1.31511876246133e-05   2.7110180474186705e-06   -3.413851505935082e-05
-1.31511876246133e-05   2.7110180474186705e-06   -3.413851505935082e-05
-1.31511876246133e-05   2.7110180474186705e-06   -3.413851505935082e-05
-1.465071755988139e-05   4.33437232851973e-06   -3.5663719049470154e-05
-1.465071755988139e-05   4.33437232851973e-06   -3.5663719049470154e-05
-1.465071755988139e-05   4.33437232851973e-06   -3.5663719049470154e-05
-1.465071755988139e-05   4.33437232851973e-06   -3.5663719049470154e-05
-1.4128330651242603e-05   4.045136030941332e-06   -3.408435036825663e-05
-1.4128330651242603e-05   4.045136030941332e-06   -3.408435036825663e-05
-1.4128330651242603e-05   4.045136030941332e-06   -3.408435036825663e-05
-1.4128330651242603e-05   4.045136030941332e-06   -3.408435036825663e-05
-1.2729305893779361e-05   5.545648194800598e-06   -3.731636559567776e-05
-1.2729305893779361e-05   5.545648194800598e-06   -3.731636559567776e-05
-1.2729305893779361e-05   5.545648194800598e-06   -3.731636559567776e-05
-1.2729305893779361e-05   5.545648194800598e-06   -3.731636559567776e-05
-1.3774111594055891e-05   3.7964155487804196e-06   -3.452548317427095e-05
-1.3774111594055891e-05   3.7964155487804196e-06   -3.452548317427095e-05
-1.3774111594055891e-05   3.7964155487804196e-06   -3.452548317427095e-05
-1.3774111594055891e-05   3.7964155487804196e-06   -3.452548317427095e-05
-1.583024086086004e-05   3.869382411011372e-07   -1.8408374072510195e-05
-1.583024086086004e-05   3.869382411011372e-07   -1.8408374072510195e-05
-1.583024086086004e-05   3.869382411011372e-07   -1.8408374072510195e-05
-1.583024086086004e-05   3.869382411011372e-07   -1.8408374072510195e-05
-1.9170844989433995e-05   3.4985650978324595e-06   -2.2109071506094856e-05
-1.9170844989433995e-05   3.4985650978324595e-06   -2.2109071506094856e-05
-1.9170844989433995e-05   3.4985650978324595e-06   -2.2109071506094856e-05
-1.9170844989433995e-05   3.4985650978324595e-06   -2.2109071506094856e-05
-1.7343589026659736e-05   1.3764767401614354e-06   -1.5177317493125656e-05
-1.7343589026659736e-05   1.3764767401614354e-06   -1.5177317493125656e-05
-1.7343589026659736e-05   1.3764767401614354e-06   -1.5177317493125656e-05
-1.7343589026659736e-05   1.3764767401614354e-06   -1.5177317493125656e-05
-1.531565475213456e-05   4.560667762519566e-06   -2.0467722564082114e-05
-1.531565475213456e-05   4.560667762519566e-06   -2.0467722564082114e-05
-1.531565475213456e-05   4.560667762519566e-06   -2.0467722564082114e-05
-1.531565475213456e-05   4.560667762519566e-06   -2.0467722564082114e-05
-1.623050042406901e-05   2.584214307642949e-06   -1.7757107704599416e-05
-1.623050042406901e-05   2.584214307642949e-06   -1.7757107704599416e-05
-1.623050042406901e-05   2.584214307642949e-06   -1.7757107704599416e-05
-1.623050042406901e-05   2.584214307642949e-06   -1.7757107704599416e-05
-1.5315654752134534e-05   1.3764767401614354e-06   -1.7087832106540187e-05
-1.5315654752134534e-05   1.3764767401614354e-06   -1.7087832106540187e-05
-1.5315654752134534e-05   1.3764767401614354e-06   -1.7087832106540187e-05
-1.5315654752134534e-05   1.3764767401614354e-06   -1.7087832106540187e-05
-1.7343589026659682e-05   4.560667762519566e-06   -1.8557207950667528e-05
-1.7343589026659682e-05   4.560667762519566e-06   -1.8557207950667528e-05
-1.7343589026659682e-05   4.560667762519566e-06   -1.8557207950667528e-05
-1.7343589026659682e-05   4.560667762519566e-06   -1.8557207950667528e-05
-1.585737188755727e-05   1.933012049718831e-06   -1.4928694910684433e-05
-1.585737188755727e-05   1.933012049718831e-06   -1.4928694910684433e-05
-1.585737188755727e-05   1.933012049718831e-06   -1.4928694910684433e-05
-1.585737188755727e-05   1.933012049718831e-06   -1.4928694910684433e-05
-1.4650717559881363e-05   5.0469762095228105e-06   -1.8808163952693178e-05
-1.4650717559881363e-05   5.0469762095228105e-06   -1.8808163952693178e-05
-1.4650717559881363e-05   5.0469762095228105e-06   -1.8808163952693178e-05
-1.4650717559881363e-05   5.0469762095228105e-06   -1.8808163952693178e-05
-1.545039227294979e-05   3.0759113723304206e-06   -1.629273386193029e-05
-1.545039227294979e-05   3.0759113723304206e-06   -1.629273386193029e-05
-1.545039227294979e-05   3.0759113723304206e-06   -1.629273386193029e-05
-1.545039227294979e-05   3.0759113723304206e-06   -1.629273386193029e-05
-1.4650717559881336e-05   1.9330120497186142e-06   -1.6797073406566994e-05
-1.4650717559881336e-05   1.9330120497186142e-06   -1.6797073406566994e-05
-1.4650717559881336e-05   1.9330120497186142e-06   -1.6797073406566994e-05
-1.4650717559881336e-05   1.9330120497186142e-06   -1.6797073406566994e-05
-1.5857371887557242e-05   5.046976209523027e-06   -1.6939785456810807e-05
-1.5857371887557242e-05   5.046976209523027e-06   -1.6939785456810807e-05
-1.5857371887557242e-05   5.046976209523027e-06   -1.6939785456810807e-05
-1.5857371887557242e-05   5.046976209523027e-06   -1.6939785456810807e-05
-1.403971516347261e-05   2.920054103753818e-06   -1.5400236946582738e-05
-1.403971516347261e-05   2.920054103753818e-06   -1.5400236946582738e-05
-1.403971516347261e-05   2.920054103753818e-06   -1.5400236946582738e-05
-1.403971516347261e-05   2.920054103753818e-06   -1.5400236946582738e-05
-1.4128330651242603e-05   5.800595294794611e-06   -1.6980869181590325e-05
-1.4128330651242603e-05   5.800595294794611e-06   -1.6980869181590325e-05
-1.4128330651242603e-05   5.800595294794611e-06   -1.6980869181590325e-05
-1.4128330651242603e-05   5.800595294794611e-06   -1.6980869181590325e-05
-1.4303060930927047e-05   3.4734650413066094e-06   -1.5293373896690184e-05
-1.4303060930927047e-05   3.4734650413066094e-06   -1.5293373896690184e-05
-1.4303060930927047e-05   3.4734650413066094e-06   -1.5293373896690184e-05
-1.4303060930927047e-05   3.4734650413066094e-06   -1.5293373896690184e-05
9.3348451371012e-06   -9.235425299559692e-07   -9.577850979269995e-06
9.3348451371012e-06   -9.235425299559692e-07   -9.577850979269995e-06
9.3348451371012e-06   -9.235425299559692e-07   -9.577850979269995e-06
9.3348451371012e-06   -9.235425299559692e-07   -9.577850979269995e-06
9.572427685994647e-07   -3.885918613761143e-06   -2.5317947243722657e-05
9.572427685994647e-07   -3.885918613761143e-06   -2.5317947243722657e-05
9.572427685994647e-07   -3.885918613761143e-06   -2.5317947243722657e-05
9.572427685994647e-07   -3.885918613761143e-06   -2.5317947243722657e-05
1.6914920459396184e-06   -2.816394830524281e-08   -1.0580860009457146e-05
1.6914920459396184e-06   -2.816394830524281e-08   -1.0580860009457146e-05
1.6914920459396184e-06   -2.816394830524281e-08   -1.0580860009457146e-05
1.6914920459396184e-06   -2.816394830524281e-08   -1.0580860009457146e-05
1.1385474375433127e-05   -3.1933150166241903e-06   -2.4838406584287947e-05
1.1385474375433127e-05   -3.1933150166241903e-06   -2.4838406584287947e-05
1.1385474375433127e-05   -3.1933150166241903e-06   -2.4838406584287947e-05
1.1385474375433127e-05   -3.1933150166241903e-06   -2.4838406584287947e-05
5.624611156538218e-06   -1.6212567782245956e-06   -1.618020282916961e-05
5.624611156538218e-06   -1.6212567782245956e-06   -1.618020282916961e-05
5.624611156538218e-06   -1.6212567782245956e-06   -1.618020282916961e-05
5.624611156538218e-06   -1.6212567782245956e-06   -1.618020282916961e-05
1.1385474375433127e-05   -2.816394830524281e-08   -8.681769368465496e-06
1.1385474375433127e-05   -2.816394830524281e-08   -8.681769368465496e-06
1.1385474375433127e-05   -2.816394830524281e-08   -8.681769368465496e-06
1.1385474375433127e-05   -2.816394830524281e-08   -8.681769368465496e-06
1.6914920459396455e-06   -3.193315016624407e-06   -2.6737497225279598e-05
1.6914920459396455e-06   -3.193315016624407e-06   -2.6737497225279598e-05
1.6914920459396455e-06   -3.193315016624407e-06   -2.6737497225279598e-05
1.6914920459396455e-06   -3.193315016624407e-06   -2.6737497225279598e-05
2.5570215312296896e-06   4.783077856662481e-07   -1.0661725520671019e-05
2.5570215312296896e-06   4.783077856662481e-07   -1.0661725520671019e-05
2.5570215312296896e-06   4.783077856662481e-07   -1.0661725520671019e-05
2.5570215312296896e-06   4.783077856662481e-07   -1.0661725520671019e-05
1.3118881401459202e-05   -2.731614750362118e-06   -2.6338871782769662e-05
1.3118881401459202e-05   -2.731614750362118e-06   -2.6338871782769662e-05
1.3118881401459202e-05   -2.731614750362118e-06   -2.6338871782769662e-05
1.3118881401459202e-05   -2.731614750362118e-06   -2.6338871782769662e-05
6.9254415011755225e-06   -1.2976513966136624e-06   -1.68768499612131e-05
6.9254415011755225e-06   -1.2976513966136624e-06   -1.68768499612131e-05
6.9254415011755225e-06   -1.2976513966136624e-06   -1.68768499612131e-05
6.9254415011755225e-06   -1.2976513966136624e-06   -1.68768499612131e-05
1.3118881401459202e-05   4.783077856662481e-07   -8.735771999053826e-06
1.3118881401459202e-05   4.783077856662481e-07   -8.735771999053826e-06
1.3118881401459202e-05   4.783077856662481e-07   -8.735771999053826e-06
1.3118881401459202e-05   4.783077856662481e-07   -8.735771999053826e-06
2.5570215312296896e-06   -2.731614750362118e-06   -2.826482530438653e-05
2.5570215312296896e-06   -2.731614750362118e-06   -2.826482530438653e-05
2.5570215312296896e-06   -2.731614750362118e-06   -2.826482530438653e-05
2.5570215312296896e-06   -2.731614750362118e-06   -2.826482530438653e-05
3.2695913103153538e-06   1.4884435130995202e-06   -1.1681983077823505e-05
3.2695913103153538e-06   1.4884435130995202e-06   -1.1681983077823505e-05
3.2695913103153538e-06   1.4884435130995202e-06   -1.1681983077823505e-05
3.2695913103153538e-06   1.4884435130995202e-06   -1.1681983077823505e-05
1.5201130966771884e-05   -1.56820013860119e-06   -2.973389631423062e-05
1.5201130966771884e-05   -1.56820013860119e-06   -2.973389631423062e-05
1.5201130966771884e-05   -1.56820013860119e-06   -2.973389631423062e-05
1.5201130966771884e-05   -1.56820013860119e-06   -2.973389631423062e-05
7.96048229291696e-06   -8.2248340800865e-07   -1.8113578562828987e-05
7.96048229291696e-06   -8.2248340800865e-07   -1.8113578562828987e-05
7.96048229291696e-06   -8.2248340800865e-07   -1.8113578562828987e-05
7.96048229291696e-06   -8.2248340800865e-07   -1.8113578562828987e-05
9.572427685994647e-07   -2.001669779296434e-07   -2.7552115272721513e-05
9.572427685994647e-07   -2.001669779296434e-07   -2.7552115272721513e-05
9.572427685994647e-07   -2.001669779296434e-07   -2.7552115272721513e-05
9.572427685994647e-07   -2.001669779296434e-07   -2.7552115272721513e-05
-8.820292969326547e-06   -1.5372647864855121e-06   -4.465026685439831e-05
-8.820292969326547e-06   -1.5372647864855121e-06   -4.465026685439831e-05
-8.820292969326547e-06   -1.5372647864855121e-06   -4.465026685439831e-05
-8.820292969326547e-06   -1.5372647864855121e-06   -4.465026685439831e-05
-8.176180826482e-06   9.295527502201518e-07   -2.770805225225676e-05
-8.176180826482e-06   9.295527502201518e-07   -2.770805225225676e-05
-8.176180826482e-06   9.295527502201518e-07   -2.770805225225676e-05
-8.176180826482e-06   9.295527502201518e-07   -2.770805225225676e-05
1.6914920459396455e-06   -5.877386000446502e-07   -4.324379889613392e-05
1.6914920459396455e-06   -5.877386000446502e-07   -4.324379889613392e-05
1.6914920459396455e-06   -5.877386000446502e-07   -4.324379889613392e-05
1.6914920459396455e-06   -5.877386000446502e-07   -4.324379889613392e-05
-3.5040201007652624e-06   -5.816828617865796e-08   -3.490235417327877e-05
-3.5040201007652624e-06   -5.816828617865796e-08   -3.490235417327877e-05
-3.5040201007652624e-06   -5.816828617865796e-08   -3.490235417327877e-05
-3.5040201007652624e-06   -5.816828617865796e-08   -3.490235417327877e-05
1.6914920459396455e-06   9.295527502201518e-07   -2.6797677442097815e-05
1.6914920459396455e-06   9.295527502201518e-07   -2.6797677442097815e-05
1.6914920459396455e-06   9.295527502201518e-07   -2.6797677442097815e-05
1.6914920459396455e-06   9.295527502201518e-07   -2.6797677442097815e-05
-8.176180826482027e-06   -5.877386000446502e-07   -4.415417370629308e-05
-8.176180826482027e-06   -5.877386000446502e-07   -4.415417370629308e-05
-8.176180826482027e-06   -5.877386000446502e-07   -4.415417370629308e-05
-8.176180826482027e-06   -5.877386000446502e-07   -4.415417370629308e-05
-7.528396965775599e-06   2.0171994191062192e-06   -2.7749841336912554e-05
-7.528396965775599e-06   2.0171994191062192e-06   -2.7749841336912554e-05
-7.528396965775599e-06   2.0171994191062192e-06   -2.7749841336912554e-05
-7.528396965775599e-06   2.0171994191062192e-06   -2.7749841336912554e-05
2.5570215312296896e-06   3.9407626292319205e-07   -4.3584998271545066e-05
2.5570215312296896e-06   3.9407626292319205e-07   -4.3584998271545066e-05
2.5570215312296896e-06   3.9407626292319205e-07   -4.3584998271545066e-05
2.5570215312296896e-06   3.9407626292319205e-07   -4.3584998271545066e-05
-2.933486259041178e-06   7.216667254365469e-07   -3.463070623193525e-05
-2.933486259041178e-06   7.216667254365469e-07   -3.463070623193525e-05
-2.933486259041178e-06   7.216667254365469e-07   -3.463070623193525e-05
-2.933486259041178e-06   7.216667254365469e-07   -3.463070623193525e-05
2.5570215312296896e-06   2.0171994191062192e-06   -2.6775967443203063e-05
2.5570215312296896e-06   2.0171994191062192e-06   -2.6775967443203063e-05
2.5570215312296896e-06   2.0171994191062192e-06   -2.6775967443203063e-05
2.5570215312296896e-06   2.0171994191062192e-06   -2.6775967443203063e-05
-7.528396965775599e-06   3.940762629229752e-07   -4.455887216525494e-05
-7.528396965775599e-06   3.940762629229752e-07   -4.455887216525494e-05
-7.528396965775599e-06   3.940762629229752e-07   -4.455887216525494e-05
-7.528396965775599e-06   3.940762629229752e-07   -4.455887216525494e-05
-6.909439453409979e-06   3.2591527306948757e-06   -2.8445138485206148e-05
-6.909439453409979e-06   3.2591527306948757e-06   -2.8445138485206148e-05
-6.909439453409979e-06   3.2591527306948757e-06   -2.8445138485206148e-05
-6.909439453409979e-06   3.2591527306948757e-06   -2.8445138485206148e-05
3.2695913103153538e-06   1.5567697046895215e-06   -4.4388759942478435e-05
3.2695913103153538e-06   1.5567697046895215e-06   -4.4388759942478435e-05
3.2695913103153538e-06   1.5567697046895215e-06   -4.4388759942478435e-05
3.2695913103153538e-06   1.5567697046895215e-06   -4.4388759942478435e-05
-2.2982081248345567e-06   1.5860867725206278e-06   -3.512668445792785e-05
-2.2982081248345567e-06   1.5860867725206278e-06   -3.512668445792785e-05
-2.2982081248345567e-06   1.5860867725206278e-06   -3.512668445792785e-05
-2.2982081248345567e-06   1.5860867725206278e-06   -3.512668445792785e-05
-8.820292969326574e-06   9.367109804613461e-07   -3.335122006527518e-05
-8.820292969326574e-06   9.367109804613461e-07   -3.335122006527518e-05
-8.820292969326574e-06   9.367109804613461e-07   -3.335122006527518e-05
-8.820292969326574e-06   9.367109804613461e-07   -3.335122006527518e-05
-1.851301208635252e-05   1.1808060545260082e-06   -4.9359294882546454e-05
-1.851301208635252e-05   1.1808060545260082e-06   -4.9359294882546454e-05
-1.851301208635252e-05   1.1808060545260082e-06   -4.9359294882546454e-05
-1.851301208635252e-05   1.1808060545260082e-06   -4.9359294882546454e-05
-1.786431418236027e-05   2.1043422182016446e-06   -3.2754035389345824e-05
-1.786431418236027e-05   2.1043422182016446e-06   -3.2754035389345824e-05
-1.786431418236027e-05   2.1043422182016446e-06   -3.2754035389345824e-05
-1.786431418236027e-05   2.1043422182016446e-06   -3.2754035389345824e-05
-8.176180826482027e-06   2.185392635613943e-06   -4.8949554566256776e-05
-8.176180826482027e-06   2.185392635613943e-06   -4.8949554566256776e-05
-8.176180826482027e-06   2.185392635613943e-06   -4.8949554566256776e-05
-8.176180826482027e-06   2.185392635613943e-06   -4.8949554566256776e-05
-1.3266184831702255e-05   1.8067395399917752e-06   -4.0239022700183115e-05
-1.3266184831702255e-05   1.8067395399917752e-06   -4.0239022700183115e-05
-1.3266184831702255e-05   1.8067395399917752e-06   -4.0239022700183115e-05
-1.3266184831702255e-05   1.8067395399917752e-06   -4.0239022700183115e-05
-8.176180826482027e-06   2.1043422182016446e-06   -3.280266563979314e-05
-8.176180826482027e-06   2.1043422182016446e-06   -3.280266563979314e-05
-8.176180826482027e-06   2.1043422182016446e-06   -3.280266563979314e-05
-8.176180826482027e-06   2.1043422182016446e-06   -3.280266563979314e-05
-1.7864314182360243e-05   2.18539263561416e-06   -4.8900924315809706e-05
-1.7864314182360243e-05   2.18539263561416e-06   -4.8900924315809706e-05
-1.7864314182360243e-05   2.18539263561416e-06   -4.8900924315809706e-05
-1.7864314182360243e-05   2.18539263561416e-06   -4.8900924315809706e-05
-1.720520546891071e-05   3.297646048071789e-06   -3.2839009095138707e-05
-1.720520546891071e-05   3.297646048071789e-06   -3.2839009095138707e-05
-1.720520546891071e-05   3.297646048071789e-06   -3.2839009095138707e-05
-1.720520546891071e-05   3.297646048071789e-06   -3.2839009095138707e-05
-7.528396965775599e-06   3.2489871432516554e-06   -4.893782792413822e-05
-7.528396965775599e-06   3.2489871432516554e-06   -4.893782792413822e-05
-7.528396965775599e-06   3.2489871432516554e-06   -4.893782792413822e-05
-7.528396965775599e-06   3.2489871432516554e-06   -4.893782792413822e-05
-1.269533465515878e-05   2.683600996632521e-06   -3.998703342052875e-05
-1.269533465515878e-05   2.683600996632521e-06   -3.998703342052875e-05
-1.269533465515878e-05   2.683600996632521e-06   -3.998703342052875e-05
-1.269533465515878e-05   2.683600996632521e-06   -3.998703342052875e-05
-7.528396965775599e-06   3.297646048071789e-06   -3.280981375224643e-05
-7.528396965775599e-06   3.297646048071789e-06   -3.280981375224643e-05
-7.528396965775599e-06   3.297646048071789e-06   -3.280981375224643e-05
-7.528396965775599e-06   3.297646048071789e-06   -3.280981375224643e-05
-1.720520546891068e-05   3.2489871432516554e-06   -4.896702326703025e-05
-1.720520546891068e-05   3.2489871432516554e-06   -4.896702326703025e-05
-1.720520546891068e-05   3.2489871432516554e-06   -4.896702326703025e-05
-1.720520546891068e-05   3.2489871432516554e-06   -4.896702326703025e-05
-1.6576703779034753e-05   4.507462514921059e-06   -3.3576746600274664e-05
-1.6576703779034753e-05   4.507462514921059e-06   -3.3576746600274664e-05
-1.6576703779034753e-05   4.507462514921059e-06   -3.3576746600274664e-05
-1.6576703779034753e-05   4.507462514921059e-06   -3.3576746600274664e-05
-6.909439453409979e-06   4.330963787517114e-06   -4.958295457320675e-05
-6.909439453409979e-06   4.330963787517114e-06   -4.958295457320675e-05
-6.909439453409979e-06   4.330963787517114e-06   -4.958295457320675e-05
-6.909439453409979e-06   4.330963787517114e-06   -4.958295457320675e-05
-1.2164270475137353e-05   3.573777193505937e-06   -4.037059091392182e-05
-1.2164270475137353e-05   3.573777193505937e-06   -4.037059091392182e-05
-1.2164270475137353e-05   3.573777193505937e-06   -4.037059091392182e-05
-1.2164270475137353e-05   3.573777193505937e-06   -4.037059091392182e-05
-1.8513012086352553e-05   2.0820134130957596e-06   -2.803858015109034e-05
-1.8513012086352553e-05   2.0820134130957596e-06   -2.803858015109034e-05
-1.8513012086352553e-05   2.0820134130957596e-06   -2.803858015109034e-05
-1.8513012086352553e-05   2.0820134130957596e-06   -2.803858015109034e-05
-2.8090101842367253e-05   3.818858088819235e-06   -4.295828960568064e-05
-2.8090101842367253e-05   3.818858088819235e-06   -4.295828960568064e-05
-2.8090101842367253e-05   3.818858088819235e-06   -4.295828960568064e-05
-2.8090101842367253e-05   3.818858088819235e-06   -4.295828960568064e-05
-2.7348919866388467e-05   3.2535719157204476e-06   -2.6406155364570036e-05
-2.7348919866388467e-05   3.2535719157204476e-06   -2.6406155364570036e-05
-2.7348919866388467e-05   3.2535719157204476e-06   -2.6406155364570036e-05
-2.7348919866388467e-05   3.2535719157204476e-06   -2.6406155364570036e-05
-1.7864314182360243e-05   4.891154212155122e-06   -4.319638088247778e-05
-1.7864314182360243e-05   4.891154212155122e-06   -4.319638088247778e-05
-1.7864314182360243e-05   4.891154212155122e-06   -4.319638088247778e-05
-1.7864314182360243e-05   4.891154212155122e-06   -4.319638088247778e-05
-2.2795102899078663e-05   3.650749216253281e-06   -3.423415669040608e-05
-2.2795102899078663e-05   3.650749216253281e-06   -3.423415669040608e-05
-2.2795102899078663e-05   3.650749216253281e-06   -3.423415669040608e-05
-2.2795102899078663e-05   3.650749216253281e-06   -3.423415669040608e-05
-1.786431418236027e-05   3.2535719157204476e-06   -2.738870474243069e-05
-1.786431418236027e-05   3.2535719157204476e-06   -2.738870474243069e-05
-1.786431418236027e-05   3.2535719157204476e-06   -2.738870474243069e-05
-1.786431418236027e-05   3.2535719157204476e-06   -2.738870474243069e-05
-2.73489198663885e-05   4.891154212154905e-06   -4.221383150461726e-05
-2.73489198663885e-05   4.891154212154905e-06   -4.221383150461726e-05
-2.73489198663885e-05   4.891154212154905e-06   -4.221383150461726e-05
-2.73489198663885e-05   4.891154212154905e-06   -4.221383150461726e-05
-2.6461552202753795e-05   4.33437232851973e-06   -2.616194076597838e-05
-2.6461552202753795e-05   4.33437232851973e-06   -2.616194076597838e-05
-2.6461552202753795e-05   4.33437232851973e-06   -2.616194076597838e-05
-2.6461552202753795e-05   4.33437232851973e-06   -2.616194076597838e-05
-1.720520546891068e-05   5.857047341841556e-06   -4.25027903303767e-05
-1.720520546891068e-05   5.857047341841556e-06   -4.25027903303767e-05
-1.720520546891068e-05   5.857047341841556e-06   -4.25027903303767e-05
-1.720520546891068e-05   5.857047341841556e-06   -4.25027903303767e-05
-2.2048134897743918e-05   4.497391283570873e-06   -3.361544764735932e-05
-2.2048134897743918e-05   4.497391283570873e-06   -3.361544764735932e-05
-2.2048134897743918e-05   4.497391283570873e-06   -3.361544764735932e-05
-2.2048134897743918e-05   4.497391283570873e-06   -3.361544764735932e-05
-1.7205205468910693e-05   4.33437232851973e-06   -2.7075545773971367e-05
-1.7205205468910693e-05   4.33437232851973e-06   -2.7075545773971367e-05
-1.7205205468910693e-05   4.33437232851973e-06   -2.7075545773971367e-05
-1.7205205468910693e-05   4.33437232851973e-06   -2.7075545773971367e-05
-2.6461552202753795e-05   5.857047341841556e-06   -4.158918532238382e-05
-2.6461552202753795e-05   5.857047341841556e-06   -4.158918532238382e-05
-2.6461552202753795e-05   5.857047341841556e-06   -4.158918532238382e-05
-2.6461552202753795e-05   5.857047341841556e-06   -4.158918532238382e-05
-2.572224865329287e-05   5.545648194800815e-06   -2.688594356157017e-05
-2.572224865329287e-05   5.545648194800815e-06   -2.688594356157017e-05
-2.572224865329287e-05   5.545648194800815e-06   -2.688594356157017e-05
-2.572224865329287e-05   5.545648194800815e-06   -2.688594356157017e-05
-1.6576703779034753e-05   6.937768637881687e-06   -4.296379061784913e-05
-1.6576703779034753e-05   6.937768637881687e-06   -4.296379061784913e-05
-1.6576703779034753e-05   6.937768637881687e-06   -4.296379061784913e-05
-1.6576703779034753e-05   6.937768637881687e-06   -4.296379061784913e-05
-2.154782692832731e-05   5.331622847620614e-06   -3.37148978948713e-05
-2.154782692832731e-05   5.331622847620614e-06   -3.37148978948713e-05
-2.154782692832731e-05   5.331622847620614e-06   -3.37148978948713e-05
-2.154782692832731e-05   5.331622847620614e-06   -3.37148978948713e-05
-2.8090101842367253e-05   3.4985650978324595e-06   -1.4503748565316524e-05
-2.8090101842367253e-05   3.4985650978324595e-06   -1.4503748565316524e-05
-2.8090101842367253e-05   3.4985650978324595e-06   -1.4503748565316524e-05
-2.8090101842367253e-05   3.4985650978324595e-06   -1.4503748565316524e-05
-3.900479075555016e-05   6.565499300350457e-06   -3.0854736232444014e-05
-3.900479075555016e-05   6.565499300350457e-06   -3.0854736232444014e-05
-3.900479075555016e-05   6.565499300350457e-06   -3.0854736232444014e-05
-3.900479075555016e-05   6.565499300350457e-06   -3.0854736232444014e-05
-3.6968247117466534e-05   4.560667762519566e-06   -9.119630545586263e-06
-3.6968247117466534e-05   4.560667762519566e-06   -9.119630545586263e-06
-3.6968247117466534e-05   4.560667762519566e-06   -9.119630545586263e-06
-3.6968247117466534e-05   4.560667762519566e-06   -9.119630545586263e-06
-2.7348919866388467e-05   7.678743552351529e-06   -2.7022688104615306e-05
-2.7348919866388467e-05   7.678743552351529e-06   -2.7022688104615306e-05
-2.7348919866388467e-05   7.678743552351529e-06   -2.7022688104615306e-05
-2.7348919866388467e-05   7.678743552351529e-06   -2.7022688104615306e-05
-3.15164250332016e-05   5.7031885390755425e-06   -1.8891513151961156e-05
-3.15164250332016e-05   5.7031885390755425e-06   -1.8891513151961156e-05
-3.15164250332016e-05   5.7031885390755425e-06   -1.8891513151961156e-05
-3.15164250332016e-05   5.7031885390755425e-06   -1.8891513151961156e-05
-2.7348919866388487e-05   4.560667762519566e-06   -1.0990476019485224e-05
-2.7348919866388487e-05   4.560667762519566e-06   -1.0990476019485224e-05
-2.7348919866388487e-05   4.560667762519566e-06   -1.0990476019485224e-05
-2.7348919866388487e-05   4.560667762519566e-06   -1.0990476019485224e-05
-3.69682471174664e-05   7.678743552351529e-06   -2.5151842630716454e-05
-3.69682471174664e-05   7.678743552351529e-06   -2.5151842630716454e-05
-3.69682471174664e-05   7.678743552351529e-06   -2.5151842630716454e-05
-3.69682471174664e-05   7.678743552351529e-06   -2.5151842630716454e-05
-3.528502401112715e-05   5.046976209523027e-06   -7.48799772757843e-06
-3.528502401112715e-05   5.046976209523027e-06   -7.48799772757843e-06
-3.528502401112715e-05   5.046976209523027e-06   -7.48799772757843e-06
-3.528502401112715e-05   5.046976209523027e-06   -7.48799772757843e-06
-2.646155220275374e-05   8.077622778894858e-06   -2.401217201649046e-05
-2.646155220275374e-05   8.077622778894858e-06   -2.401217201649046e-05
-2.646155220275374e-05   8.077622778894858e-06   -2.401217201649046e-05
-2.646155220275374e-05   8.077622778894858e-06   -2.401217201649046e-05
-3.077021091843699e-05   6.203773283940551e-06   -1.5706764460045818e-05
-3.077021091843699e-05   6.203773283940551e-06   -1.5706764460045818e-05
-3.077021091843699e-05   6.203773283940551e-06   -1.5706764460045818e-05
-3.077021091843699e-05   6.203773283940551e-06   -1.5706764460045818e-05
-2.6461552202753795e-05   5.046976209523027e-06   -9.306385669201702e-06
-2.6461552202753795e-05   5.046976209523027e-06   -9.306385669201702e-06
-2.6461552202753795e-05   5.046976209523027e-06   -9.306385669201702e-06
-2.6461552202753795e-05   5.046976209523027e-06   -9.306385669201702e-06
-3.5285024011127015e-05   8.077622778894858e-06   -2.2193784074867528e-05
-3.5285024011127015e-05   8.077622778894858e-06   -2.2193784074867528e-05
-3.5285024011127015e-05   8.077622778894858e-06   -2.2193784074867528e-05
-3.5285024011127015e-05   8.077622778894858e-06   -2.2193784074867528e-05
-3.329451534740774e-05   5.800595294794611e-06   -5.780975566914296e-06
-3.329451534740774e-05   5.800595294794611e-06   -5.780975566914296e-06
-3.329451534740774e-05   5.800595294794611e-06   -5.780975566914296e-06
-3.329451534740774e-05   5.800595294794611e-06   -5.780975566914296e-06
-2.572224865329287e-05   8.58356009293508e-06   -2.0071198935989865e-05
-2.572224865329287e-05   8.58356009293508e-06   -2.0071198935989865e-05
-2.572224865329287e-05   8.58356009293508e-06   -2.0071198935989865e-05
-2.572224865329287e-05   8.58356009293508e-06   -2.0071198935989865e-05
-2.9188243436607853e-05   6.445543230528374e-06   -1.3011730846354655e-05
-2.9188243436607853e-05   6.445543230528374e-06   -1.3011730846354655e-05
-2.9188243436607853e-05   6.445543230528374e-06   -1.3011730846354655e-05
-2.9188243436607853e-05   6.445543230528374e-06   -1.3011730846354655e-05
2.9622150051186735e-05   -3.885918613761143e-06   -2.3000791814914434e-07
2.9622150051186735e-05   -3.885918613761143e-06   -2.3000791814914434e-07
2.9622150051186735e-05   -3.885918613761143e-06   -2.3000791814914434e-07
2.9622150051186735e-05   -3.885918613761143e-06   -2.3000791814914434e-07
1.2625553511138584e-05   -7.010542019944988e-06   -3.0432442861939553e-05
1.2625553511138584e-05   -7.010542019944988e-06   -3.0432442861939553e-05
1.2625553511138584e-05   -7.010542019944988e-06   -3.0432442861939553e-05
1.2625553511138584e-05   -7.010542019944988e-06   -3.0432442861939553e-05
1.352114465612392e-05   -3.193315016624407e-06   -3.34907111190102e-06
1.352114465612392e-05   -3.193315016624407e-06   -3.34907111190102e-06
1.352114465612392e-05   -3.193315016624407e-06   -3.34907111190102e-06
1.352114465612392e-05   -3.193315016624407e-06   -3.34907111190102e-06
3.1864525901999024e-05   -6.519734932959511e-06   -3.192552123855842e-05
3.1864525901999024e-05   -6.519734932959511e-06   -3.192552123855842e-05
3.1864525901999024e-05   -6.519734932959511e-06   -3.192552123855842e-05
3.1864525901999024e-05   -6.519734932959511e-06   -3.192552123855842e-05
2.102489993817721e-05   -4.6200933225466236e-06   -1.4999262931769696e-05
2.102489993817721e-05   -4.6200933225466236e-06   -1.4999262931769696e-05
2.102489993817721e-05   -4.6200933225466236e-06   -1.4999262931769696e-05
2.102489993817721e-05   -4.6200933225466236e-06   -1.4999262931769696e-05
3.186452590199908e-05   -3.193315016624407e-06   -1.3532191621000878e-06
3.186452590199908e-05   -3.193315016624407e-06   -1.3532191621000878e-06
3.186452590199908e-05   -3.193315016624407e-06   -1.3532191621000878e-06
3.186452590199908e-05   -3.193315016624407e-06   -1.3532191621000878e-06
1.3521144656123866e-05   -6.519734932959945e-06   -3.392137318835968e-05
1.3521144656123866e-05   -6.519734932959945e-06   -3.392137318835968e-05
1.3521144656123866e-05   -6.519734932959945e-06   -3.392137318835968e-05
1.3521144656123866e-05   -6.519734932959945e-06   -3.392137318835968e-05
1.4513213728754436e-05   -2.731614750362118e-06   -4.716315888338152e-06
1.4513213728754436e-05   -2.731614750362118e-06   -4.716315888338152e-06
1.4513213728754436e-05   -2.731614750362118e-06   -4.716315888338152e-06
1.4513213728754436e-05   -2.731614750362118e-06   -4.716315888338152e-06
3.374846495250635e-05   -6.098088041418294e-06   -3.475518395329067e-05
3.374846495250635e-05   -6.098088041418294e-06   -3.475518395329067e-05
3.374846495250635e-05   -6.098088041418294e-06   -3.475518395329067e-05
3.374846495250635e-05   -6.098088041418294e-06   -3.475518395329067e-05
2.2709124592852815e-05   -4.432419870569696e-06   -1.73556842563774e-05
2.2709124592852815e-05   -4.432419870569696e-06   -1.73556842563774e-05
2.2709124592852815e-05   -4.432419870569696e-06   -1.73556842563774e-05
2.2709124592852815e-05   -4.432419870569696e-06   -1.73556842563774e-05
3.37484649525064e-05   -2.731614750362118e-06   -2.696431913704186e-06
3.37484649525064e-05   -2.731614750362118e-06   -2.696431913704186e-06
3.37484649525064e-05   -2.731614750362118e-06   -2.696431913704186e-06
3.37484649525064e-05   -2.731614750362118e-06   -2.696431913704186e-06
1.4513213728754409e-05   -6.098088041418294e-06   -3.6775067927924746e-05
1.4513213728754409e-05   -6.098088041418294e-06   -3.6775067927924746e-05
1.4513213728754409e-05   -6.098088041418294e-06   -3.6775067927924746e-05
1.4513213728754409e-05   -6.098088041418294e-06   -3.6775067927924746e-05
1.5333432919471753e-05   -1.56820013860119e-06   -7.872407955149176e-06
1.5333432919471753e-05   -1.56820013860119e-06   -7.872407955149176e-06
1.5333432919471753e-05   -1.56820013860119e-06   -7.872407955149176e-06
1.5333432919471753e-05   -1.56820013860119e-06   -7.872407955149176e-06
3.5935897956751125e-05   -4.764490132023059e-06   -4.0292075687895445e-05
3.5935897956751125e-05   -4.764490132023059e-06   -4.0292075687895445e-05
3.5935897956751125e-05   -4.764490132023059e-06   -4.0292075687895445e-05
3.5935897956751125e-05   -4.764490132023059e-06   -4.0292075687895445e-05
2.362235497990525e-05   -3.911570934343311e-06   -2.028125557842781e-05
2.362235497990525e-05   -3.911570934343311e-06   -2.028125557842781e-05
2.362235497990525e-05   -3.911570934343311e-06   -2.028125557842781e-05
2.362235497990525e-05   -3.911570934343311e-06   -2.028125557842781e-05
1.2625553511138611e-05   -1.5372647864855121e-06   -2.0634842887401646e-05
1.2625553511138611e-05   -1.5372647864855121e-06   -2.0634842887401646e-05
1.2625553511138611e-05   -1.5372647864855121e-06   -2.0634842887401646e-05
1.2625553511138611e-05   -1.5372647864855121e-06   -2.0634842887401646e-05
-5.36742138584491e-06   -3.2839135782371243e-06   -5.167112365742511e-05
-5.36742138584491e-06   -3.2839135782371243e-06   -5.167112365742511e-05
-5.36742138584491e-06   -3.2839135782371243e-06   -5.167112365742511e-05
-5.36742138584491e-06   -3.2839135782371243e-06   -5.167112365742511e-05
-4.534022889617686e-06   -5.877386000446502e-07   -2.106419121614307e-05
-4.534022889617686e-06   -5.877386000446502e-07   -2.106419121614307e-05
-4.534022889617686e-06   -5.877386000446502e-07   -2.106419121614307e-05
-4.534022889617686e-06   -5.877386000446502e-07   -2.106419121614307e-05
1.3521144656123893e-05   -2.602435989023516e-06   -4.994731869232497e-05
1.3521144656123893e-05   -2.602435989023516e-06   -4.994731869232497e-05
1.3521144656123893e-05   -2.602435989023516e-06   -4.994731869232497e-05
1.3521144656123893e-05   -2.602435989023516e-06   -4.994731869232497e-05
4.106145671688651e-06   -1.5880151920167652e-06   -3.4864306196470316e-05
4.106145671688651e-06   -1.5880151920167652e-06   -3.4864306196470316e-05
4.106145671688651e-06   -1.5880151920167652e-06   -3.4864306196470316e-05
4.106145671688651e-06   -1.5880151920167652e-06   -3.4864306196470316e-05
1.3521144656123893e-05   -5.877386000446502e-07   -1.9855372782755665e-05
1.3521144656123893e-05   -5.877386000446502e-07   -1.9855372782755665e-05
1.3521144656123893e-05   -5.877386000446502e-07   -1.9855372782755665e-05
1.3521144656123893e-05   -5.877386000446502e-07   -1.9855372782755665e-05
-4.534022889617659e-06   -2.602435989023516e-06   -5.115613712571216e-05
-4.534022889617659e-06   -2.602435989023516e-06   -5.115613712571216e-05
-4.534022889617659e-06   -2.602435989023516e-06   -5.115613712571216e-05
-4.534022889617659e-06   -2.602435989023516e-06   -5.115613712571216e-05
-3.7382949619314094e-06   3.9407626292319205e-07   -2.1334575461478406e-05
-3.7382949619314094e-06   3.9407626292319205e-07   -2.1334575461478406e-05
-3.7382949619314094e-06   3.9407626292319205e-07   -2.1334575461478406e-05
-3.7382949619314094e-06   3.9407626292319205e-07   -2.1334575461478406e-05
1.4513213728754409e-05   -1.7694014137130225e-06   -5.045567000663961e-05
1.4513213728754409e-05   -1.7694014137130225e-06   -5.045567000663961e-05
1.4513213728754409e-05   -1.7694014137130225e-06   -5.045567000663961e-05
1.4513213728754409e-05   -1.7694014137130225e-06   -5.045567000663961e-05
4.767518235681233e-06   -9.853150357876095e-07   -3.46832960116054e-05
4.767518235681233e-06   -9.853150357876095e-07   -3.46832960116054e-05
4.767518235681233e-06   -9.853150357876095e-07   -3.46832960116054e-05
4.767518235681233e-06   -9.853150357876095e-07   -3.46832960116054e-05
1.4513213728754436e-05   3.9407626292319205e-07   -2.0036488855496417e-05
1.4513213728754436e-05   3.9407626292319205e-07   -2.0036488855496417e-05
1.4513213728754436e-05   3.9407626292319205e-07   -2.0036488855496417e-05
1.4513213728754436e-05   3.9407626292319205e-07   -2.0036488855496417e-05
-3.7382949619314094e-06   -1.7694014137130225e-06   -5.17537566126216e-05
-3.7382949619314094e-06   -1.7694014137130225e-06   -5.17537566126216e-05
-3.7382949619314094e-06   -1.7694014137130225e-06   -5.17537566126216e-05
-3.7382949619314094e-06   -1.7694014137130225e-06   -5.17537566126216e-05
-2.99082206928932e-06   1.5567697046895215e-06   -2.2060128571126146e-05
-2.99082206928932e-06   1.5567697046895215e-06   -2.2060128571126146e-05
-2.99082206928932e-06   1.5567697046895215e-06   -2.2060128571126146e-05
-2.99082206928932e-06   1.5567697046895215e-06   -2.2060128571126146e-05
1.5333432919471753e-05   -7.213022598928642e-07   -5.123371037364535e-05
1.5333432919471753e-05   -7.213022598928642e-07   -5.123371037364535e-05
1.5333432919471753e-05   -7.213022598928642e-07   -5.123371037364535e-05
1.5333432919471753e-05   -7.213022598928642e-07   -5.123371037364535e-05
5.5923905326281105e-06   -2.420398428179711e-07   -3.52861971791513e-05
5.5923905326281105e-06   -2.420398428179711e-07   -3.52861971791513e-05
5.5923905326281105e-06   -2.420398428179711e-07   -3.52861971791513e-05
5.5923905326281105e-06   -2.420398428179711e-07   -3.52861971791513e-05
-5.36742138584491e-06   1.1808060545260082e-06   -2.6538317235039665e-05
-5.36742138584491e-06   1.1808060545260082e-06   -2.6538317235039665e-05
-5.36742138584491e-06   1.1808060545260082e-06   -2.6538317235039665e-05
-5.36742138584491e-06   1.1808060545260082e-06   -2.6538317235039665e-05
-2.3043477899380858e-05   5.960865089864494e-07   -5.63492431515896e-05
-2.3043477899380858e-05   5.960865089864494e-07   -5.63492431515896e-05
-2.3043477899380858e-05   5.960865089864494e-07   -5.63492431515896e-05
-2.3043477899380858e-05   5.960865089864494e-07   -5.63492431515896e-05
-2.2146434201111793e-05   2.185392635613943e-06   -2.6353939478819402e-05
-2.2146434201111793e-05   2.185392635613943e-06   -2.6353939478819402e-05
-2.2146434201111793e-05   2.185392635613943e-06   -2.6353939478819402e-05
-2.2146434201111793e-05   2.185392635613943e-06   -2.6353939478819402e-05
-4.534022889617659e-06   1.3614469644264784e-06   -5.5213590928596964e-05
-4.534022889617659e-06   1.3614469644264784e-06   -5.5213590928596964e-05
-4.534022889617659e-06   1.3614469644264784e-06   -5.5213590928596964e-05
-4.534022889617659e-06   1.3614469644264784e-06   -5.5213590928596964e-05
-1.3678516168763307e-05   1.6189374066003653e-06   -4.01272630619921e-05
-1.3678516168763307e-05   1.6189374066003653e-06   -4.01272630619921e-05
-1.3678516168763307e-05   1.6189374066003653e-06   -4.01272630619921e-05
-1.3678516168763307e-05   1.6189374066003653e-06   -4.01272630619921e-05
-4.534022889617686e-06   2.18539263561416e-06   -2.585957207610701e-05
-4.534022889617686e-06   2.18539263561416e-06   -2.585957207610701e-05
-4.534022889617686e-06   2.18539263561416e-06   -2.585957207610701e-05
-4.534022889617686e-06   2.18539263561416e-06   -2.585957207610701e-05
-2.2146434201111793e-05   1.3614469644264784e-06   -5.57079583313096e-05
-2.2146434201111793e-05   1.3614469644264784e-06   -5.57079583313096e-05
-2.2146434201111793e-05   1.3614469644264784e-06   -5.57079583313096e-05
-2.2146434201111793e-05   1.3614469644264784e-06   -5.57079583313096e-05
-2.1281238322482722e-05   3.2489871432516554e-06   -2.631423685353282e-05
-2.1281238322482722e-05   3.2489871432516554e-06   -2.631423685353282e-05
-2.1281238322482722e-05   3.2489871432516554e-06   -2.631423685353282e-05
-2.1281238322482722e-05   3.2489871432516554e-06   -2.631423685353282e-05
-3.7382949619314094e-06   2.2478110879662477e-06   -5.495177015461358e-05
-3.7382949619314094e-06   2.2478110879662477e-06   -5.495177015461358e-05
-3.7382949619314094e-06   2.2478110879662477e-06   -5.495177015461358e-05
-3.7382949619314094e-06   2.2478110879662477e-06   -5.495177015461358e-05
-1.2906609687141036e-05   2.335466689052431e-06   -3.972383897324935e-05
-1.2906609687141036e-05   2.335466689052431e-06   -3.972383897324935e-05
-1.2906609687141036e-05   2.335466689052431e-06   -3.972383897324935e-05
-1.2906609687141036e-05   2.335466689052431e-06   -3.972383897324935e-05
-3.7382949619314365e-06   3.2489871432516554e-06   -2.5713531220361227e-05
-3.7382949619314365e-06   3.2489871432516554e-06   -2.5713531220361227e-05
-3.7382949619314365e-06   3.2489871432516554e-06   -2.5713531220361227e-05
-3.7382949619314365e-06   3.2489871432516554e-06   -2.5713531220361227e-05
-2.1281238322482722e-05   2.247811087965814e-06   -5.55524757877852e-05
-2.1281238322482722e-05   2.247811087965814e-06   -5.55524757877852e-05
-2.1281238322482722e-05   2.247811087965814e-06   -5.55524757877852e-05
-2.1281238322482722e-05   2.247811087965814e-06   -5.55524757877852e-05
-2.0481747499053584e-05   4.330963787517114e-06   -2.693316126677471e-05
-2.0481747499053584e-05   4.330963787517114e-06   -2.693316126677471e-05
-2.0481747499053584e-05   4.330963787517114e-06   -2.693316126677471e-05
-2.0481747499053584e-05   4.330963787517114e-06   -2.693316126677471e-05
-2.99082206928932e-06   3.1638506533117165e-06   -5.5384435769191846e-05
-2.99082206928932e-06   3.1638506533117165e-06   -5.5384435769191846e-05
-2.99082206928932e-06   3.1638506533117165e-06   -5.5384435769191846e-05
-2.99082206928932e-06   3.1638506533117165e-06   -5.5384435769191846e-05
-1.2216969244469504e-05   3.0706949099750316e-06   -3.995163036455698e-05
-1.2216969244469504e-05   3.0706949099750316e-06   -3.995163036455698e-05
-1.2216969244469504e-05   3.0706949099750316e-06   -3.995163036455698e-05
-1.2216969244469504e-05   3.0706949099750316e-06   -3.995163036455698e-05
-2.3043477899380906e-05   3.818858088819235e-06   -2.1530250490931673e-05
-2.3043477899380906e-05   3.818858088819235e-06   -2.1530250490931673e-05
-2.3043477899380906e-05   3.818858088819235e-06   -2.1530250490931673e-05
-2.3043477899380906e-05   3.818858088819235e-06   -2.1530250490931673e-05
-4.0391240315022154e-05   4.614886854443622e-06   -4.996557059095915e-05
-4.0391240315022154e-05   4.614886854443622e-06   -4.996557059095915e-05
-4.0391240315022154e-05   4.614886854443622e-06   -4.996557059095915e-05
-4.0391240315022154e-05   4.614886854443622e-06   -4.996557059095915e-05
-3.931007537366372e-05   4.891154212154905e-06   -2.0231956668033098e-05
-3.931007537366372e-05   4.891154212154905e-06   -2.0231956668033098e-05
-3.931007537366372e-05   4.891154212154905e-06   -2.0231956668033098e-05
-3.931007537366372e-05   4.891154212154905e-06   -2.0231956668033098e-05
-2.2146434201111834e-05   5.586886507912784e-06   -4.925546466640758e-05
-2.2146434201111834e-05   5.586886507912784e-06   -4.925546466640758e-05
-2.2146434201111834e-05   5.586886507912784e-06   -4.925546466640758e-05
-2.2146434201111834e-05   5.586886507912784e-06   -4.925546466640758e-05
-3.0994671523237246e-05   4.931070132666287e-06   -3.411491263771733e-05
-3.0994671523237246e-05   4.931070132666287e-06   -3.411491263771733e-05
-3.0994671523237246e-05   4.931070132666287e-06   -3.411491263771733e-05
-3.0994671523237246e-05   4.931070132666287e-06   -3.411491263771733e-05
-2.2146434201111834e-05   4.891154212154905e-06   -2.0649396045487826e-05
-2.2146434201111834e-05   4.891154212154905e-06   -2.0649396045487826e-05
-2.2146434201111834e-05   4.891154212154905e-06   -2.0649396045487826e-05
-2.2146434201111834e-05   4.891154212154905e-06   -2.0649396045487826e-05
-3.931007537366372e-05   5.586886507912784e-06   -4.883802528895284e-05
-3.931007537366372e-05   5.586886507912784e-06   -4.883802528895284e-05
-3.931007537366372e-05   5.586886507912784e-06   -4.883802528895284e-05
-3.931007537366372e-05   5.586886507912784e-06   -4.883802528895284e-05
-3.8113833527215e-05   5.857047341841556e-06   -1.9509842386817005e-05
-3.8113833527215e-05   5.857047341841556e-06   -1.9509842386817005e-05
-3.8113833527215e-05   5.857047341841556e-06   -1.9509842386817005e-05
-3.8113833527215e-05   5.857047341841556e-06   -1.9509842386817005e-05
-2.1281238322482763e-05   6.4239832252791645e-06   -4.790432925809955e-05
-2.1281238322482763e-05   6.4239832252791645e-06   -4.790432925809955e-05
-2.1281238322482763e-05   6.4239832252791645e-06   -4.790432925809955e-05
-2.1281238322482763e-05   6.4239832252791645e-06   -4.790432925809955e-05
-2.990120609425773e-05   5.687818353930941e-06   -3.3096017382332135e-05
-2.990120609425773e-05   5.687818353930941e-06   -3.3096017382332135e-05
-2.990120609425773e-05   5.687818353930941e-06   -3.3096017382332135e-05
-2.990120609425773e-05   5.687818353930941e-06   -3.3096017382332135e-05
-2.1281238322482742e-05   5.857047341841556e-06   -1.985000391687905e-05
-2.1281238322482742e-05   5.857047341841556e-06   -1.985000391687905e-05
-2.1281238322482742e-05   5.857047341841556e-06   -1.985000391687905e-05
-2.1281238322482742e-05   5.857047341841556e-06   -1.985000391687905e-05
-3.8113833527215e-05   6.423983225279598e-06   -4.7564167728037345e-05
-3.8113833527215e-05   6.423983225279598e-06   -4.7564167728037345e-05
-3.8113833527215e-05   6.423983225279598e-06   -4.7564167728037345e-05
-3.8113833527215e-05   6.423983225279598e-06   -4.7564167728037345e-05
-3.710298038569412e-05   6.937768637881687e-06   -1.9960694444823767e-05
-3.710298038569412e-05   6.937768637881687e-06   -1.9960694444823767e-05
-3.710298038569412e-05   6.937768637881687e-06   -1.9960694444823767e-05
-3.710298038569412e-05   6.937768637881687e-06   -1.9960694444823767e-05
-2.048174749905361e-05   7.350108021466489e-06   -4.791015288604194e-05
-2.048174749905361e-05   7.350108021466489e-06   -4.791015288604194e-05
-2.048174749905361e-05   7.350108021466489e-06   -4.791015288604194e-05
-2.048174749905361e-05   7.350108021466489e-06   -4.791015288604194e-05
-2.9220808291521498e-05   6.38488515388759e-06   -3.276591784471518e-05
-2.9220808291521498e-05   6.38488515388759e-06   -3.276591784471518e-05
-2.9220808291521498e-05   6.38488515388759e-06   -3.276591784471518e-05
-2.9220808291521498e-05   6.38488515388759e-06   -3.276591784471518e-05
-4.0391240315022154e-05   6.565499300350674e-06   -1.0789240379831255e-05
-4.0391240315022154e-05   6.565499300350674e-06   -1.0789240379831255e-05
-4.0391240315022154e-05   6.565499300350674e-06   -1.0789240379831255e-05
-4.0391240315022154e-05   6.565499300350674e-06   -1.0789240379831255e-05
-5.866276390514441e-05   9.071283455054386e-06   -3.973830920387983e-05
-5.866276390514441e-05   9.071283455054386e-06   -3.973830920387983e-05
-5.866276390514441e-05   9.071283455054386e-06   -3.973830920387983e-05
-5.866276390514441e-05   9.071283455054386e-06   -3.973830920387983e-05
-5.618026485703411e-05   7.678743552351529e-06   -3.4304112839765068e-06
-5.618026485703411e-05   7.678743552351529e-06   -3.4304112839765068e-06
-5.618026485703411e-05   7.678743552351529e-06   -3.4304112839765068e-06
-5.618026485703411e-05   7.678743552351529e-06   -3.4304112839765068e-06
-3.9310075373663645e-05   1.0362746859110018e-05   -3.3157795740316e-05
-3.9310075373663645e-05   1.0362746859110018e-05   -3.3157795740316e-05
-3.9310075373663645e-05   1.0362746859110018e-05   -3.3157795740316e-05
-3.9310075373663645e-05   1.0362746859110018e-05   -3.3157795740316e-05
-4.66253223082603e-05   8.642172679096827e-06   -1.9933373007980406e-05
-4.66253223082603e-05   8.642172679096827e-06   -1.9933373007980406e-05
-4.66253223082603e-05   8.642172679096827e-06   -1.9933373007980406e-05
-4.66253223082603e-05   8.642172679096827e-06   -1.9933373007980406e-05
-3.931007537366368e-05   7.678743552351529e-06   -5.040813268031687e-06
-3.931007537366368e-05   7.678743552351529e-06   -5.040813268031687e-06
-3.931007537366368e-05   7.678743552351529e-06   -5.040813268031687e-06
-3.931007537366368e-05   7.678743552351529e-06   -5.040813268031687e-06
-5.618026485703402e-05   1.0362746859110018e-05   -3.154739375626071e-05
-5.618026485703402e-05   1.0362746859110018e-05   -3.154739375626071e-05
-5.618026485703402e-05   1.0362746859110018e-05   -3.154739375626071e-05
-5.618026485703402e-05   1.0362746859110018e-05   -3.154739375626071e-05
-5.413742188984901e-05   8.077622778895075e-06   -3.579568500593471e-07
-5.413742188984901e-05   8.077622778895075e-06   -3.579568500593471e-07
-5.413742188984901e-05   8.077622778895075e-06   -3.579568500593471e-07
-5.413742188984901e-05   8.077622778895075e-06   -3.579568500593471e-07
-3.8113833527215e-05   1.0702409830335487e-05   -2.863880968531371e-05
-3.8113833527215e-05   1.0702409830335487e-05   -2.863880968531371e-05
-3.8113833527215e-05   1.0702409830335487e-05   -2.863880968531371e-05
-3.8113833527215e-05   1.0702409830335487e-05   -2.863880968531371e-05
-4.577905989008324e-05   9.156428120397388e-06   -1.4935843387903073e-05
-4.577905989008324e-05   9.156428120397388e-06   -1.4935843387903073e-05
-4.577905989008324e-05   9.156428120397388e-06   -1.4935843387903073e-05
-4.577905989008324e-05   9.156428120397388e-06   -1.4935843387903073e-05
-3.8113833527215e-05   8.077622778895075e-06   -1.932829080923768e-06
-3.8113833527215e-05   8.077622778895075e-06   -1.932829080923768e-06
-3.8113833527215e-05   8.077622778895075e-06   -1.932829080923768e-06
-3.8113833527215e-05   8.077622778895075e-06   -1.932829080923768e-06
-5.4137421889848835e-05   1.0702409830335054e-05   -2.7063937454449268e-05
-5.4137421889848835e-05   1.0702409830335054e-05   -2.7063937454449268e-05
-5.4137421889848835e-05   1.0702409830335054e-05   -2.7063937454449268e-05
-5.4137421889848835e-05   1.0702409830335054e-05   -2.7063937454449268e-05
-5.19337303147261e-05   8.583560092935297e-06   3.5435929161748737e-06
-5.19337303147261e-05   8.583560092935297e-06   3.5435929161748737e-06
-5.19337303147261e-05   8.583560092935297e-06   3.5435929161748737e-06
-5.19337303147261e-05   8.583560092935297e-06   3.5435929161748737e-06
-3.710298038569412e-05   1.0995173334582553e-05   -2.2621291577199958e-05
-3.710298038569412e-05   1.0995173334582553e-05   -2.2621291577199958e-05
-3.710298038569412e-05   1.0995173334582553e-05   -2.2621291577199958e-05
-3.710298038569412e-05   1.0995173334582553e-05   -2.2621291577199958e-05
-4.370838902536836e-05   9.240407279045761e-06   -1.0559417544421366e-05
-4.370838902536836e-05   9.240407279045761e-06   -1.0559417544421366e-05
-4.370838902536836e-05   9.240407279045761e-06   -1.0559417544421366e-05
-4.370838902536836e-05   9.240407279045761e-06   -1.0559417544421366e-05
5.027244424807281e-05   -7.010542019944988e-06   9.958861099434394e-06
5.027244424807281e-05   -7.010542019944988e-06   9.958861099434394e-06
5.027244424807281e-05   -7.010542019944988e-06   9.958861099434394e-06
5.027244424807281e-05   -7.010542019944988e-06   9.958861099434394e-06
2.4228834826252614e-05   -1.0381776875554184e-05   -3.546989551696483e-05
2.4228834826252614e-05   -1.0381776875554184e-05   -3.546989551696483e-05
2.4228834826252614e-05   -1.0381776875554184e-05   -3.546989551696483e-05
2.4228834826252614e-05   -1.0381776875554184e-05   -3.546989551696483e-05
2.522142903804467e-05   -6.519734932959511e-06   4.798369344777504e-06
2.522142903804467e-05   -6.519734932959511e-06   4.798369344777504e-06
2.522142903804467e-05   -6.519734932959511e-06   4.798369344777504e-06
2.522142903804467e-05   -6.519734932959511e-06   4.798369344777504e-06
5.257607849332456e-05   -1.0139180530882065e-05   -3.862104572193554e-05
5.257607849332456e-05   -1.0139180530882065e-05   -3.862104572193554e-05
5.257607849332456e-05   -1.0139180530882065e-05   -3.862104572193554e-05
5.257607849332456e-05   -1.0139180530882065e-05   -3.862104572193554e-05
3.6526796874667065e-05   -7.676271137578398e-06   -1.3349988660155219e-05
3.6526796874667065e-05   -7.676271137578398e-06   -1.3349988660155219e-05
3.6526796874667065e-05   -7.676271137578398e-06   -1.3349988660155219e-05
3.6526796874667065e-05   -7.676271137578398e-06   -1.3349988660155219e-05
5.2576078493324666e-05   -6.519734932959511e-06   6.970036703531296e-06
5.2576078493324666e-05   -6.519734932959511e-06   6.970036703531296e-06
5.2576078493324666e-05   -6.519734932959511e-06   6.970036703531296e-06
5.2576078493324666e-05   -6.519734932959511e-06   6.970036703531296e-06
2.5221429038044615e-05   -1.0139180530882065e-05   -4.0792713080688896e-05
2.5221429038044615e-05   -1.0139180530882065e-05   -4.0792713080688896e-05
2.5221429038044615e-05   -1.0139180530882065e-05   -4.0792713080688896e-05
2.5221429038044615e-05   -1.0139180530882065e-05   -4.0792713080688896e-05
2.6208825109160714e-05   -6.098088041418294e-06   2.2739897963803928e-06
2.6208825109160714e-05   -6.098088041418294e-06   2.2739897963803928e-06
2.6208825109160714e-05   -6.098088041418294e-06   2.2739897963803928e-06
2.6208825109160714e-05   -6.098088041418294e-06   2.2739897963803928e-06
5.434440865143095e-05   -9.787225813647545e-06   -4.2405166777399425e-05
5.434440865143095e-05   -9.787225813647545e-06   -4.2405166777399425e-05
5.434440865143095e-05   -9.787225813647545e-06   -4.2405166777399425e-05
5.434440865143095e-05   -9.787225813647545e-06   -4.2405166777399425e-05
3.84667715897803e-05   -7.650949989085765e-06   -1.7224203836051807e-05
3.84667715897803e-05   -7.650949989085765e-06   -1.7224203836051807e-05
3.84667715897803e-05   -7.650949989085765e-06   -1.7224203836051807e-05
3.84667715897803e-05   -7.650949989085765e-06   -1.7224203836051807e-05
5.434440865143095e-05   -6.098088041418294e-06   4.487472459717683e-06
5.434440865143095e-05   -6.098088041418294e-06   4.487472459717683e-06
5.434440865143095e-05   -6.098088041418294e-06   4.487472459717683e-06
5.434440865143095e-05   -6.098088041418294e-06   4.487472459717683e-06
2.6208825109160714e-05   -9.787225813647112e-06   -4.4618649440736824e-05
2.6208825109160714e-05   -9.787225813647112e-06   -4.4618649440736824e-05
2.6208825109160714e-05   -9.787225813647112e-06   -4.4618649440736824e-05
2.6208825109160714e-05   -9.787225813647112e-06   -4.4618649440736824e-05
2.6879596380711116e-05   -4.764490132023059e-06   -2.8112454660196053e-06
2.6879596380711116e-05   -4.764490132023059e-06   -2.8112454660196053e-06
2.6879596380711116e-05   -4.764490132023059e-06   -2.8112454660196053e-06
2.6879596380711116e-05   -4.764490132023059e-06   -2.8112454660196053e-06
5.6214260019753925e-05   -8.41425936941656e-06   -4.951248998865483e-05
5.6214260019753925e-05   -8.41425936941656e-06   -4.951248998865483e-05
5.6214260019753925e-05   -8.41425936941656e-06   -4.951248998865483e-05
5.6214260019753925e-05   -8.41425936941656e-06   -4.951248998865483e-05
3.900980165322353e-05   -7.062996072482262e-06   -2.1649150689265857e-05
3.900980165322353e-05   -7.062996072482262e-06   -2.1649150689265857e-05
3.900980165322353e-05   -7.062996072482262e-06   -2.1649150689265857e-05
3.900980165322353e-05   -7.062996072482262e-06   -2.1649150689265857e-05
2.4228834826252668e-05   -3.283913578237558e-06   -1.225457133436584e-05
2.4228834826252668e-05   -3.283913578237558e-06   -1.225457133436584e-05
2.4228834826252668e-05   -3.283913578237558e-06   -1.225457133436584e-05
2.4228834826252668e-05   -3.283913578237558e-06   -1.225457133436584e-05
-1.4625985591156909e-06   -6.730319769652528e-06   -5.714147069149568e-05
-1.4625985591156909e-06   -6.730319769652528e-06   -5.714147069149568e-05
-1.4625985591156909e-06   -6.730319769652528e-06   -5.714147069149568e-05
-1.4625985591156909e-06   -6.730319769652528e-06   -5.714147069149568e-05
-4.4362300658786977e-07   -2.602435989023516e-06   -1.3511191531010791e-05
-4.4362300658786977e-07   -2.602435989023516e-06   -1.3511191531010791e-05
-4.4362300658786977e-07   -2.602435989023516e-06   -1.3511191531010791e-05
-4.4362300658786977e-07   -2.602435989023516e-06   -1.3511191531010791e-05
2.522142903804467e-05   -6.40846160872852e-06   -5.4002662900242066e-05
2.522142903804467e-05   -6.40846160872852e-06   -5.4002662900242066e-05
2.522142903804467e-05   -6.40846160872852e-06   -5.4002662900242066e-05
2.522142903804467e-05   -6.40846160872852e-06   -5.4002662900242066e-05
1.1921889946381545e-05   -4.07170282680459e-06   -3.323881968329118e-05
1.1921889946381545e-05   -4.07170282680459e-06   -3.323881968329118e-05
1.1921889946381545e-05   -4.07170282680459e-06   -3.323881968329118e-05
1.1921889946381545e-05   -4.07170282680459e-06   -3.323881968329118e-05
2.5221429038044642e-05   -2.602435989023516e-06   -1.122757615918779e-05
2.5221429038044642e-05   -2.602435989023516e-06   -1.122757615918779e-05
2.5221429038044642e-05   -2.602435989023516e-06   -1.122757615918779e-05
2.5221429038044642e-05   -2.602435989023516e-06   -1.122757615918779e-05
-4.4362300658786977e-07   -6.40846160872852e-06   -5.628627827206512e-05
-4.4362300658786977e-07   -6.40846160872852e-06   -5.628627827206512e-05
-4.4362300658786977e-07   -6.40846160872852e-06   -5.628627827206512e-05
-4.4362300658786977e-07   -6.40846160872852e-06   -5.628627827206512e-05
4.541897998079159e-07   -1.7694014137130225e-06   -1.383035656663369e-05
4.541897998079159e-07   -1.7694014137130225e-06   -1.383035656663369e-05
4.541897998079159e-07   -1.7694014137130225e-06   -1.383035656663369e-05
4.541897998079159e-07   -1.7694014137130225e-06   -1.383035656663369e-05
2.6208825109160714e-05   -5.808975220877952e-06   -5.433100446458925e-05
2.6208825109160714e-05   -5.808975220877952e-06   -5.433100446458925e-05
2.6208825109160714e-05   -5.808975220877952e-06   -5.433100446458925e-05
2.6208825109160714e-05   -5.808975220877952e-06   -5.433100446458925e-05
1.2615732235039137e-05   -3.738021307886103e-06   -3.2918422022181035e-05
1.2615732235039137e-05   -3.738021307886103e-06   -3.2918422022181035e-05
1.2615732235039137e-05   -3.738021307886103e-06   -3.2918422022181035e-05
1.2615732235039137e-05   -3.738021307886103e-06   -3.2918422022181035e-05
2.6208825109160714e-05   -1.7694014137130225e-06   -1.1406612282334472e-05
2.6208825109160714e-05   -1.7694014137130225e-06   -1.1406612282334472e-05
2.6208825109160714e-05   -1.7694014137130225e-06   -1.1406612282334472e-05
2.6208825109160714e-05   -1.7694014137130225e-06   -1.1406612282334472e-05
4.541897998079159e-07   -5.808975220877952e-06   -5.675474874888842e-05
4.541897998079159e-07   -5.808975220877952e-06   -5.675474874888842e-05
4.541897998079159e-07   -5.808975220877952e-06   -5.675474874888842e-05
4.541897998079159e-07   -5.808975220877952e-06   -5.675474874888842e-05
1.0935106330976253e-06   -7.213022598928642e-07   -1.4375961845855415e-05
1.0935106330976253e-06   -7.213022598928642e-07   -1.4375961845855415e-05
1.0935106330976253e-06   -7.213022598928642e-07   -1.4375961845855415e-05
1.0935106330976253e-06   -7.213022598928642e-07   -1.4375961845855415e-05
2.6879596380711198e-05   -4.956061743458407e-06   -5.481191573507272e-05
2.6879596380711198e-05   -4.956061743458407e-06   -5.481191573507272e-05
2.6879596380711198e-05   -4.956061743458407e-06   -5.481191573507272e-05
2.6879596380711198e-05   -4.956061743458407e-06   -5.481191573507272e-05
1.3445989424987082e-05   -3.149869678232241e-06   -3.350628604800168e-05
1.3445989424987082e-05   -3.149869678232241e-06   -3.350628604800168e-05
1.3445989424987082e-05   -3.149869678232241e-06   -3.350628604800168e-05
1.3445989424987082e-05   -3.149869678232241e-06   -3.350628604800168e-05
-1.4625985591156909e-06   5.960865089864494e-07   -1.8649702816055927e-05
-1.4625985591156909e-06   5.960865089864494e-07   -1.8649702816055927e-05
-1.4625985591156909e-06   5.960865089864494e-07   -1.8649702816055927e-05
-1.4625985591156909e-06   5.960865089864494e-07   -1.8649702816055927e-05
-2.6774498299740064e-05   -3.5380589461222675e-06   -6.331668965682828e-05
-2.6774498299740064e-05   -3.5380589461222675e-06   -6.331668965682828e-05
-2.6774498299740064e-05   -3.5380589461222675e-06   -6.331668965682828e-05
-2.6774498299740064e-05   -3.5380589461222675e-06   -6.331668965682828e-05
-2.5551951601524535e-05   1.3614469644264784e-06   -2.028087750876673e-05
-2.5551951601524535e-05   1.3614469644264784e-06   -2.028087750876673e-05
-2.5551951601524535e-05   1.3614469644264784e-06   -2.028087750876673e-05
-2.5551951601524535e-05   1.3614469644264784e-06   -2.028087750876673e-05
-4.4362300658786977e-07   -3.158939993692326e-06   -5.9415859658790225e-05
-4.4362300658786977e-07   -3.158939993692326e-06   -5.9415859658790225e-05
-4.4362300658786977e-07   -3.158939993692326e-06   -5.9415859658790225e-05
-4.4362300658786977e-07   -3.158939993692326e-06   -5.9415859658790225e-05
-1.3397040854584161e-05   -6.867516898190727e-07   -3.931014289445335e-05
-1.3397040854584161e-05   -6.867516898190727e-07   -3.931014289445335e-05
-1.3397040854584161e-05   -6.867516898190727e-07   -3.931014289445335e-05
-1.3397040854584161e-05   -6.867516898190727e-07   -3.931014289445335e-05
-4.4362300658786977e-07   1.3614469644264784e-06   -1.7568645333895837e-05
-4.4362300658786977e-07   1.3614469644264784e-06   -1.7568645333895837e-05
-4.4362300658786977e-07   1.3614469644264784e-06   -1.7568645333895837e-05
-4.4362300658786977e-07   1.3614469644264784e-06   -1.7568645333895837e-05
-2.5551951601524535e-05   -3.158939993692326e-06   -6.212809183366117e-05
-2.5551951601524535e-05   -3.158939993692326e-06   -6.212809183366117e-05
-2.5551951601524535e-05   -3.158939993692326e-06   -6.212809183366117e-05
-2.5551951601524535e-05   -3.158939993692326e-06   -6.212809183366117e-05
-2.443032352754212e-05   2.247811087965814e-06   -1.9918079370498517e-05
-2.443032352754212e-05   2.247811087965814e-06   -1.9918079370498517e-05
-2.443032352754212e-05   2.247811087965814e-06   -1.9918079370498517e-05
-2.443032352754212e-05   2.247811087965814e-06   -1.9918079370498517e-05
4.541897998079159e-07   -2.568371015154898e-06   -5.850255898754263e-05
4.541897998079159e-07   -2.568371015154898e-06   -5.850255898754263e-05
4.541897998079159e-07   -2.568371015154898e-06   -5.850255898754263e-05
4.541897998079159e-07   -2.568371015154898e-06   -5.850255898754263e-05
-1.2401218372684429e-05   -2.525518220299755e-07   -3.846637021593047e-05
-1.2401218372684429e-05   -2.525518220299755e-07   -3.846637021593047e-05
-1.2401218372684429e-05   -2.525518220299755e-07   -3.846637021593047e-05
-1.2401218372684429e-05   -2.525518220299755e-07   -3.846637021593047e-05
4.541897998079159e-07   2.247811087965814e-06   -1.7028370108625917e-05
4.541897998079159e-07   2.247811087965814e-06   -1.7028370108625917e-05
4.541897998079159e-07   2.247811087965814e-06   -1.7028370108625917e-05
4.541897998079159e-07   2.247811087965814e-06   -1.7028370108625917e-05
-2.443032352754212e-05   -2.5683710151553317e-06   -6.139226824941526e-05
-2.443032352754212e-05   -2.5683710151553317e-06   -6.139226824941526e-05
-2.443032352754212e-05   -2.5683710151553317e-06   -6.139226824941526e-05
-2.443032352754212e-05   -2.5683710151553317e-06   -6.139226824941526e-05
-2.3674028990360572e-05   3.163850653311283e-06   -2.0263189782193615e-05
-2.3674028990360572e-05   3.163850653311283e-06   -2.0263189782193615e-05
-2.3674028990360572e-05   3.163850653311283e-06   -2.0263189782193615e-05
-2.3674028990360572e-05   3.163850653311283e-06   -2.0263189782193615e-05
1.0935106330975982e-06   -2.0083922125900544e-06   -5.843907676841636e-05
1.0935106330975982e-06   -2.0083922125900544e-06   -5.843907676841636e-05
1.0935106330975982e-06   -2.0083922125900544e-06   -5.843907676841636e-05
1.0935106330975982e-06   -2.0083922125900544e-06   -5.843907676841636e-05
-1.1690858643859811e-05   2.3497849984061361e-07   -3.8477817067613415e-05
-1.1690858643859811e-05   2.3497849984061361e-07   -3.8477817067613415e-05
-1.1690858643859811e-05   2.3497849984061361e-07   -3.8477817067613415e-05
-1.1690858643859811e-05   2.3497849984061361e-07   -3.8477817067613415e-05
-2.6774498299740064e-05   4.614886854443622e-06   -1.5224134787864777e-05
-2.6774498299740064e-05   4.614886854443622e-06   -1.5224134787864777e-05
-2.6774498299740064e-05   4.614886854443622e-06   -1.5224134787864777e-05
-2.6774498299740064e-05   4.614886854443622e-06   -1.5224134787864777e-05
-5.243879551079956e-05   8.894684213984691e-07   -6.0233214532791086e-05
-5.243879551079956e-05   8.894684213984691e-07   -6.0233214532791086e-05
-5.243879551079956e-05   8.894684213984691e-07   -6.0233214532791086e-05
-5.243879551079956e-05   8.894684213984691e-07   -6.0233214532791086e-05
-5.069840472841291e-05   5.58688650791235e-06   -1.622588797052537e-05
-5.069840472841291e-05   5.58688650791235e-06   -1.622588797052537e-05
-5.069840472841291e-05   5.58688650791235e-06   -1.622588797052537e-05
-5.069840472841291e-05   5.58688650791235e-06   -1.622588797052537e-05
-2.5551951601524535e-05   1.5910462968110085e-06   -5.573913905534511e-05
-2.5551951601524535e-05   1.5910462968110085e-06   -5.573913905534511e-05
-2.5551951601524535e-05   1.5910462968110085e-06   -5.573913905534511e-05
-2.5551951601524535e-05   1.5910462968110085e-06   -5.573913905534511e-05
-3.846228577924674e-05   3.504520876656137e-06   -3.537000017371518e-05
-3.846228577924674e-05   3.504520876656137e-06   -3.537000017371518e-05
-3.846228577924674e-05   3.504520876656137e-06   -3.537000017371518e-05
-3.846228577924674e-05   3.504520876656137e-06   -3.537000017371518e-05
-2.5551951601524535e-05   5.58688650791235e-06   -1.3828383843864263e-05
-2.5551951601524535e-05   5.58688650791235e-06   -1.3828383843864263e-05
-2.5551951601524535e-05   5.58688650791235e-06   -1.3828383843864263e-05
-2.5551951601524535e-05   5.58688650791235e-06   -1.3828383843864263e-05
-5.0698404728412996e-05   1.5910462968105749e-06   -5.813664318200622e-05
-5.0698404728412996e-05   1.5910462968105749e-06   -5.813664318200622e-05
-5.0698404728412996e-05   1.5910462968105749e-06   -5.813664318200622e-05
-5.0698404728412996e-05   1.5910462968105749e-06   -5.813664318200622e-05
-4.9016156721528e-05   6.423983225279598e-06   -1.4782151972146315e-05
-4.9016156721528e-05   6.423983225279598e-06   -1.4782151972146315e-05
-4.9016156721528e-05   6.423983225279598e-06   -1.4782151972146315e-05
-4.9016156721528e-05   6.423983225279598e-06   -1.4782151972146315e-05
-2.443032352754216e-05   2.23695133972409e-06   -5.3246321497456734e-05
-2.443032352754216e-05   2.23695133972409e-06   -5.3246321497456734e-05
-2.443032352754216e-05   2.23695133972409e-06   -5.3246321497456734e-05
-2.443032352754216e-05   2.23695133972409e-06   -5.3246321497456734e-05
-3.6889603407710766e-05   4.1149315546515006e-06   -3.3607643159464805e-05
-3.6889603407710766e-05   4.1149315546515006e-06   -3.3607643159464805e-05
-3.6889603407710766e-05   4.1149315546515006e-06   -3.3607643159464805e-05
-3.6889603407710766e-05   4.1149315546515006e-06   -3.3607643159464805e-05
-2.4430323527542093e-05   6.423983225279598e-06   -1.226993284081314e-05
-2.4430323527542093e-05   6.423983225279598e-06   -1.226993284081314e-05
-2.4430323527542093e-05   6.423983225279598e-06   -1.226993284081314e-05
-2.4430323527542093e-05   6.423983225279598e-06   -1.226993284081314e-05
-4.901615672152808e-05   2.23695133972409e-06   -5.57585406287895e-05
-4.901615672152808e-05   2.23695133972409e-06   -5.57585406287895e-05
-4.901615672152808e-05   2.23695133972409e-06   -5.57585406287895e-05
-4.901615672152808e-05   2.23695133972409e-06   -5.57585406287895e-05
-4.7739795671073365e-05   7.350108021466489e-06   -1.4828637484080648e-05
-4.7739795671073365e-05   7.350108021466489e-06   -1.4828637484080648e-05
-4.7739795671073365e-05   7.350108021466489e-06   -1.4828637484080648e-05
-4.7739795671073365e-05   7.350108021466489e-06   -1.4828637484080648e-05
-2.3674028990360613e-05   2.7834439122000933e-06   -5.219825015304226e-05
-2.3674028990360613e-05   2.7834439122000933e-06   -5.219825015304226e-05
-2.3674028990360613e-05   2.7834439122000933e-06   -5.219825015304226e-05
-2.3674028990360613e-05   2.7834439122000933e-06   -5.219825015304226e-05
-3.600807737769491e-05   4.540952249502267e-06   -3.269600784319953e-05
-3.600807737769491e-05   4.540952249502267e-06   -3.269600784319953e-05
-3.600807737769491e-05   4.540952249502267e-06   -3.269600784319953e-05
-3.600807737769491e-05   4.540952249502267e-06   -3.269600784319953e-05
-5.243879551079956e-05   9.071283455053952e-06   -8.735594953434775e-06
-5.243879551079956e-05   9.071283455053952e-06   -8.735594953434775e-06
-5.243879551079956e-05   9.071283455053952e-06   -8.735594953434775e-06
-5.243879551079956e-05   9.071283455053952e-06   -8.735594953434775e-06
-7.925101169813374e-05   8.562355015040522e-06   -5.3727978996333595e-05
-7.925101169813374e-05   8.562355015040522e-06   -5.3727978996333595e-05
-7.925101169813374e-05   8.562355015040522e-06   -5.3727978996333595e-05
-7.925101169813374e-05   8.562355015040522e-06   -5.3727978996333595e-05
-7.581905295166569e-05   1.0362746859110018e-05   -2.584155194059346e-07
-7.581905295166569e-05   1.0362746859110018e-05   -2.584155194059346e-07
-7.581905295166569e-05   1.0362746859110018e-05   -2.584155194059346e-07
-7.581905295166569e-05   1.0362746859110018e-05   -2.584155194059346e-07
-5.069840472841283e-05   1.0841485029914385e-05   -4.241340546064285e-05
-5.069840472841283e-05   1.0841485029914385e-05   -4.241340546064285e-05
-5.069840472841283e-05   1.0841485029914385e-05   -4.241340546064285e-05
-5.069840472841283e-05   1.0841485029914385e-05   -4.241340546064285e-05
-6.17678269000888e-05   1.0222727654484245e-05   -2.3593114082592185e-05
-6.17678269000888e-05   1.0222727654484245e-05   -2.3593114082592185e-05
-6.17678269000888e-05   1.0222727654484245e-05   -2.3593114082592185e-05
-6.17678269000888e-05   1.0222727654484245e-05   -2.3593114082592185e-05
-5.0698404728412956e-05   1.0362746859110452e-05   -5.456584218882076e-07
-5.0698404728412956e-05   1.0362746859110452e-05   -5.456584218882076e-07
-5.0698404728412956e-05   1.0362746859110452e-05   -5.456584218882076e-07
-5.0698404728412956e-05   1.0362746859110452e-05   -5.456584218882076e-07
-7.581905295166557e-05   1.0841485029914385e-05   -4.212616255816026e-05
-7.581905295166557e-05   1.0841485029914385e-05   -4.212616255816026e-05
-7.581905295166557e-05   1.0841485029914385e-05   -4.212616255816026e-05
-7.581905295166557e-05   1.0841485029914385e-05   -4.212616255816026e-05
-7.297239855630187e-05   1.0702409830335054e-05   4.5339193096962174e-06
-7.297239855630187e-05   1.0702409830335054e-05   4.5339193096962174e-06
-7.297239855630187e-05   1.0702409830335054e-05   4.5339193096962174e-06
-7.297239855630187e-05   1.0702409830335054e-05   4.5339193096962174e-06
-4.9016156721528e-05   1.1353598562200643e-05   -3.5783863654045984e-05
-4.9016156721528e-05   1.1353598562200643e-05   -3.5783863654045984e-05
-4.9016156721528e-05   1.1353598562200643e-05   -3.5783863654045984e-05
-4.9016156721528e-05   1.1353598562200643e-05   -3.5783863654045984e-05
-6.046741234031598e-05   1.0965589504261311e-05   -1.6465632187968708e-05
-6.046741234031598e-05   1.0965589504261311e-05   -1.6465632187968708e-05
-6.046741234031598e-05   1.0965589504261311e-05   -1.6465632187968708e-05
-6.046741234031598e-05   1.0965589504261311e-05   -1.6465632187968708e-05
-4.901615672152808e-05   1.0702409830335487e-05   4.143206070577341e-06
-4.901615672152808e-05   1.0702409830335487e-05   4.143206070577341e-06
-4.901615672152808e-05   1.0702409830335487e-05   4.143206070577341e-06
-4.901615672152808e-05   1.0702409830335487e-05   4.143206070577341e-06
-7.2972398556302e-05   1.135359856220021e-05   -3.539315041492736e-05
-7.2972398556302e-05   1.135359856220021e-05   -3.539315041492736e-05
-7.2972398556302e-05   1.135359856220021e-05   -3.539315041492736e-05
-7.2972398556302e-05   1.135359856220021e-05   -3.539315041492736e-05
-6.999542909632142e-05   1.0995173334582553e-05   1.0955974733737077e-05
-6.999542909632142e-05   1.0995173334582553e-05   1.0955974733737077e-05
-6.999542909632142e-05   1.0995173334582553e-05   1.0955974733737077e-05
-6.999542909632142e-05   1.0995173334582553e-05   1.0955974733737077e-05
-4.7739795671073446e-05   1.2233764233126384e-05   -2.6879902180802976e-05
-4.7739795671073446e-05   1.2233764233126384e-05   -2.6879902180802976e-05
-4.7739795671073446e-05   1.2233764233126384e-05   -2.6879902180802976e-05
-4.7739795671073446e-05   1.2233764233126384e-05   -2.6879902180802976e-05
-5.759398079652163e-05   1.1215509600637913e-05   -9.84530752556324e-06
-5.759398079652163e-05   1.1215509600637913e-05   -9.84530752556324e-06
-5.759398079652163e-05   1.1215509600637913e-05   -9.84530752556324e-06
-5.759398079652163e-05   1.1215509600637913e-05   -9.84530752556324e-06
6.911485445611085e-05   -1.0381776875554184e-05   2.3572088423315027e-05
6.911485445611085e-05   -1.0381776875554184e-05   2.3572088423315027e-05
6.911485445611085e-05   -1.0381776875554184e-05   2.3572088423315027e-05
6.911485445611085e-05   -1.0381776875554184e-05   2.3572088423315027e-05
3.474334606167259e-05   -1.3130406431336155e-05   -3.536293663421804e-05
3.474334606167259e-05   -1.3130406431336155e-05   -3.536293663421804e-05
3.474334606167259e-05   -1.3130406431336155e-05   -3.536293663421804e-05
3.474334606167259e-05   -1.3130406431336155e-05   -3.536293663421804e-05
3.559292580579258e-05   -1.0139180530882065e-05   1.690674960951456e-05
3.559292580579258e-05   -1.0139180530882065e-05   1.690674960951456e-05
3.559292580579258e-05   -1.0139180530882065e-05   1.690674960951456e-05
3.559292580579258e-05   -1.0139180530882065e-05   1.690674960951456e-05
7.083801876857089e-05   -1.3458870557783026e-05   -3.9843257978975765e-05
7.083801876857089e-05   -1.3458870557783026e-05   -3.9843257978975765e-05
7.083801876857089e-05   -1.3458870557783026e-05   -3.9843257978975765e-05
7.083801876857089e-05   -1.3458870557783026e-05   -3.9843257978975765e-05
5.047823034583019e-05   -1.0604761644936352e-05   -7.6227426221155375e-06
5.047823034583019e-05   -1.0604761644936352e-05   -7.6227426221155375e-06
5.047823034583019e-05   -1.0604761644936352e-05   -7.6227426221155375e-06
5.047823034583019e-05   -1.0604761644936352e-05   -7.6227426221155375e-06
7.083801876857089e-05   -1.0139180530882065e-05   1.889856362565466e-05
7.083801876857089e-05   -1.0139180530882065e-05   1.889856362565466e-05
7.083801876857089e-05   -1.0139180530882065e-05   1.889856362565466e-05
7.083801876857089e-05   -1.0139180530882065e-05   1.889856362565466e-05
3.559292580579258e-05   -1.3458870557783026e-05   -4.1835071995115864e-05
3.559292580579258e-05   -1.3458870557783026e-05   -4.1835071995115864e-05
3.559292580579258e-05   -1.3458870557783026e-05   -4.1835071995115864e-05
3.559292580579258e-05   -1.3458870557783026e-05   -4.1835071995115864e-05
3.631104659569315e-05   -9.787225813647112e-06   1.3339384067000875e-05
3.631104659569315e-05   -9.787225813647112e-06   1.3339384067000875e-05
3.631104659569315e-05   -9.787225813647112e-06   1.3339384067000875e-05
3.631104659569315e-05   -9.787225813647112e-06   1.3339384067000875e-05
7.191198311337852e-05   -1.333707708705157e-05   -4.3865599365098705e-05
7.191198311337852e-05   -1.333707708705157e-05   -4.3865599365098705e-05
7.191198311337852e-05   -1.333707708705157e-05   -4.3865599365098705e-05
7.191198311337852e-05   -1.333707708705157e-05   -4.3865599365098705e-05
5.225838542717459e-05   -1.093988820737241e-05   -1.2547916549233117e-05
5.225838542717459e-05   -1.093988820737241e-05   -1.2547916549233117e-05
5.225838542717459e-05   -1.093988820737241e-05   -1.2547916549233117e-05
5.225838542717459e-05   -1.093988820737241e-05   -1.2547916549233117e-05
7.191198311337852e-05   -9.787225813647112e-06   1.5469294831043853e-05
7.191198311337852e-05   -9.787225813647112e-06   1.5469294831043853e-05
7.191198311337852e-05   -9.787225813647112e-06   1.5469294831043853e-05
7.191198311337852e-05   -9.787225813647112e-06   1.5469294831043853e-05
3.631104659569315e-05   -1.333707708705157e-05   -4.599551012914125e-05
3.631104659569315e-05   -1.333707708705157e-05   -4.599551012914125e-05
3.631104659569315e-05   -1.333707708705157e-05   -4.599551012914125e-05
3.631104659569315e-05   -1.333707708705157e-05   -4.599551012914125e-05
3.706142011437473e-05   -8.414259369416994e-06   6.416639332617203e-06
3.706142011437473e-05   -8.414259369416994e-06   6.416639332617203e-06
3.706142011437473e-05   -8.414259369416994e-06   6.416639332617203e-06
3.706142011437473e-05   -8.414259369416994e-06   6.416639332617203e-06
7.296946000697179e-05   -1.2595519040152232e-05   -5.092133801927012e-05
7.296946000697179e-05   -1.2595519040152232e-05   -5.092133801927012e-05
7.296946000697179e-05   -1.2595519040152232e-05   -5.092133801927012e-05
7.296946000697179e-05   -1.2595519040152232e-05   -5.092133801927012e-05
5.228496070264277e-05   -1.0528675197904631e-05   -1.7687278817403636e-05
5.228496070264277e-05   -1.0528675197904631e-05   -1.7687278817403636e-05
5.228496070264277e-05   -1.0528675197904631e-05   -1.7687278817403636e-05
5.228496070264277e-05   -1.0528675197904631e-05   -1.7687278817403636e-05
3.474334606167259e-05   -6.730319769652528e-06   2.319179230164106e-06
3.474334606167259e-05   -6.730319769652528e-06   2.319179230164106e-06
3.474334606167259e-05   -6.730319769652528e-06   2.319179230164106e-06
3.474334606167259e-05   -6.730319769652528e-06   2.319179230164106e-06
4.12816489801828e-06   -1.3179457458204879e-05   -5.257560532239097e-05
4.12816489801828e-06   -1.3179457458204879e-05   -5.257560532239097e-05
4.12816489801828e-06   -1.3179457458204879e-05   -5.257560532239097e-05
4.12816489801828e-06   -1.3179457458204879e-05   -5.257560532239097e-05
5.118415518231396e-06   -6.40846160872852e-06   -3.253134649764365e-07
5.118415518231396e-06   -6.40846160872852e-06   -3.253134649764365e-07
5.118415518231396e-06   -6.40846160872852e-06   -3.253134649764365e-07
5.118415518231396e-06   -6.40846160872852e-06   -3.253134649764365e-07
3.559292580579263e-05   -1.3111983700291908e-05   -4.709405068930721e-05
3.559292580579263e-05   -1.3111983700291908e-05   -4.709405068930721e-05
3.559292580579263e-05   -1.3111983700291908e-05   -4.709405068930721e-05
3.559292580579263e-05   -1.3111983700291908e-05   -4.709405068930721e-05
1.997335549686905e-05   -8.891119898799676e-06   -2.3593951788663267e-05
1.997335549686905e-05   -8.891119898799676e-06   -2.3593951788663267e-05
1.997335549686905e-05   -8.891119898799676e-06   -2.3593951788663267e-05
1.997335549686905e-05   -8.891119898799676e-06   -2.3593951788663267e-05
3.559292580579255e-05   -6.40846160872852e-06   3.6967997899617702e-06
3.559292580579255e-05   -6.40846160872852e-06   3.6967997899617702e-06
3.559292580579255e-05   -6.40846160872852e-06   3.6967997899617702e-06
3.559292580579255e-05   -6.40846160872852e-06   3.6967997899617702e-06
5.118415518231396e-06   -1.3111983700291908e-05   -5.1116163944245254e-05
5.118415518231396e-06   -1.3111983700291908e-05   -5.1116163944245254e-05
5.118415518231396e-06   -1.3111983700291908e-05   -5.1116163944245254e-05
5.118415518231396e-06   -1.3111983700291908e-05   -5.1116163944245254e-05
6.01228861044721e-06   -5.808975220877952e-06   -6.492846829778479e-07
6.01228861044721e-06   -5.808975220877952e-06   -6.492846829778479e-07
6.01228861044721e-06   -5.808975220877952e-06   -6.492846829778479e-07
6.01228861044721e-06   -5.808975220877952e-06   -6.492846829778479e-07
3.631104659569315e-05   -1.2936164764421575e-05   -4.687090093226148e-05
3.631104659569315e-05   -1.2936164764421575e-05   -4.687090093226148e-05
3.631104659569315e-05   -1.2936164764421575e-05   -4.687090093226148e-05
3.631104659569315e-05   -1.2936164764421575e-05   -4.687090093226148e-05
2.053573839187265e-05   -8.989153208231737e-06   -2.2946927526273594e-05
2.053573839187265e-05   -8.989153208231737e-06   -2.2946927526273594e-05
2.053573839187265e-05   -8.989153208231737e-06   -2.2946927526273594e-05
2.053573839187265e-05   -8.989153208231737e-06   -2.2946927526273594e-05
3.631104659569315e-05   -5.808975220877952e-06   3.627029043148499e-06
3.631104659569315e-05   -5.808975220877952e-06   3.627029043148499e-06
3.631104659569315e-05   -5.808975220877952e-06   3.627029043148499e-06
3.631104659569315e-05   -5.808975220877952e-06   3.627029043148499e-06
6.0122886104471826e-06   -1.2936164764421575e-05   -5.1147214658387504e-05
6.0122886104471826e-06   -1.2936164764421575e-05   -5.1147214658387504e-05
6.0122886104471826e-06   -1.2936164764421575e-05   -5.1147214658387504e-05
6.0122886104471826e-06   -1.2936164764421575e-05   -5.1147214658387504e-05
7.3463134963024925e-06   -4.9560617434579735e-06   -1.2701596703418826e-06
7.3463134963024925e-06   -4.9560617434579735e-06   -1.2701596703418826e-06
7.3463134963024925e-06   -4.9560617434579735e-06   -1.2701596703418826e-06
7.3463134963024925e-06   -4.9560617434579735e-06   -1.2701596703418826e-06
3.70614201143747e-05   -1.2584786408420534e-05   -4.621810256815107e-05
3.70614201143747e-05   -1.2584786408420534e-05   -4.621810256815107e-05
3.70614201143747e-05   -1.2584786408420534e-05   -4.621810256815107e-05
3.70614201143747e-05   -1.2584786408420534e-05   -4.621810256815107e-05
2.1607776380725346e-05   -8.849887784319593e-06   -2.2702968853196008e-05
2.1607776380725346e-05   -8.849887784319593e-06   -2.2702968853196008e-05
2.1607776380725346e-05   -8.849887784319593e-06   -2.2702968853196008e-05
2.1607776380725346e-05   -8.849887784319593e-06   -2.2702968853196008e-05
4.12816489801828e-06   -3.5380589461222675e-06   -5.2450350752346764e-06
4.12816489801828e-06   -3.5380589461222675e-06   -5.2450350752346764e-06
4.12816489801828e-06   -3.5380589461222675e-06   -5.2450350752346764e-06
4.12816489801828e-06   -3.5380589461222675e-06   -5.2450350752346764e-06
-2.6170703398384286e-05   -1.5906275674192668e-05   -6.316407893941457e-05
-2.6170703398384286e-05   -1.5906275674192668e-05   -6.316407893941457e-05
-2.6170703398384286e-05   -1.5906275674192668e-05   -6.316407893941457e-05
-2.6170703398384286e-05   -1.5906275674192668e-05   -6.316407893941457e-05
-2.4628261156823077e-05   -3.158939993691892e-06   -1.1314532139247062e-05
-2.4628261156823077e-05   -3.158939993691892e-06   -1.1314532139247062e-05
-2.4628261156823077e-05   -3.158939993691892e-06   -1.1314532139247062e-05
-2.4628261156823077e-05   -3.158939993691892e-06   -1.1314532139247062e-05
5.118415518231396e-06   -1.6258335472934052e-05   -5.3032689310125665e-05
5.118415518231396e-06   -1.6258335472934052e-05   -5.3032689310125665e-05
5.118415518231396e-06   -1.6258335472934052e-05   -5.3032689310125665e-05
5.118415518231396e-06   -1.6258335472934052e-05   -5.3032689310125665e-05
-1.0038028330822593e-05   -8.995357574861137e-06   -3.2129736300546185e-05
-1.0038028330822593e-05   -8.995357574861137e-06   -3.2129736300546185e-05
-1.0038028330822593e-05   -8.995357574861137e-06   -3.2129736300546185e-05
-1.0038028330822593e-05   -8.995357574861137e-06   -3.2129736300546185e-05
5.118415518231396e-06   -3.158939993691892e-06   -3.454894851701593e-06
5.118415518231396e-06   -3.158939993691892e-06   -3.454894851701593e-06
5.118415518231396e-06   -3.158939993691892e-06   -3.454894851701593e-06
5.118415518231396e-06   -3.158939993691892e-06   -3.454894851701593e-06
-2.4628261156823118e-05   -1.6258335472934052e-05   -6.0892326597671324e-05
-2.4628261156823118e-05   -1.6258335472934052e-05   -6.0892326597671324e-05
-2.4628261156823118e-05   -1.6258335472934052e-05   -6.0892326597671324e-05
-2.4628261156823118e-05   -1.6258335472934052e-05   -6.0892326597671324e-05
-2.329917584018399e-05   -2.5683710151553317e-06   -1.0565646152729553e-05
-2.329917584018399e-05   -2.5683710151553317e-06   -1.0565646152729553e-05
-2.329917584018399e-05   -2.5683710151553317e-06   -1.0565646152729553e-05
-2.329917584018399e-05   -2.5683710151553317e-06   -1.0565646152729553e-05
6.0122886104471826e-06   -1.6182623066984293e-05   -5.124953567268401e-05
6.0122886104471826e-06   -1.6182623066984293e-05   -5.124953567268401e-05
6.0122886104471826e-06   -1.6182623066984293e-05   -5.124953567268401e-05
6.0122886104471826e-06   -1.6182623066984293e-05   -5.124953567268401e-05
-8.942717632802436e-06   -9.199455277985116e-06   -3.051442594066749e-05
-8.942717632802436e-06   -9.199455277985116e-06   -3.051442594066749e-05
-8.942717632802436e-06   -9.199455277985116e-06   -3.051442594066749e-05
-8.942717632802436e-06   -9.199455277985116e-06   -3.051442594066749e-05
6.0122886104471826e-06   -2.5683710151553317e-06   -2.397094921632089e-06
6.0122886104471826e-06   -2.5683710151553317e-06   -2.397094921632089e-06
6.0122886104471826e-06   -2.5683710151553317e-06   -2.397094921632089e-06
6.0122886104471826e-06   -2.5683710151553317e-06   -2.397094921632089e-06
-2.329917584018407e-05   -1.6182623066984727e-05   -5.941808690378158e-05
-2.329917584018407e-05   -1.6182623066984727e-05   -5.941808690378158e-05
-2.329917584018407e-05   -1.6182623066984727e-05   -5.941808690378158e-05
-2.329917584018407e-05   -1.6182623066984727e-05   -5.941808690378158e-05
-2.1006060821118712e-05   -2.008392212590488e-06   -1.0520778407704153e-05
-2.1006060821118712e-05   -2.008392212590488e-06   -1.0520778407704153e-05
-2.1006060821118712e-05   -2.008392212590488e-06   -1.0520778407704153e-05
-2.1006060821118712e-05   -2.008392212590488e-06   -1.0520778407704153e-05
7.3463134963024925e-06   -1.561558120285328e-05   -4.9610422209248446e-05
7.3463134963024925e-06   -1.561558120285328e-05   -4.9610422209248446e-05
7.3463134963024925e-06   -1.561558120285328e-05   -4.9610422209248446e-05
7.3463134963024925e-06   -1.561558120285328e-05   -4.9610422209248446e-05
-7.5193383019733155e-06   -8.995750639384341e-06   -2.8806234216870272e-05
-7.5193383019733155e-06   -8.995750639384341e-06   -2.8806234216870272e-05
-7.5193383019733155e-06   -8.995750639384341e-06   -2.8806234216870272e-05
-7.5193383019733155e-06   -8.995750639384341e-06   -2.8806234216870272e-05
-2.6170703398384232e-05   8.894684213984691e-07   -7.347238928212497e-06
-2.6170703398384232e-05   8.894684213984691e-07   -7.347238928212497e-06
-2.6170703398384232e-05   8.894684213984691e-07   -7.347238928212497e-06
-2.6170703398384232e-05   8.894684213984691e-07   -7.347238928212497e-06
-5.9977307787330384e-05   -1.983978258540079e-05   -7.612913018053549e-05
-5.9977307787330384e-05   -1.983978258540079e-05   -7.612913018053549e-05
-5.9977307787330384e-05   -1.983978258540079e-05   -7.612913018053549e-05
-5.9977307787330384e-05   -1.983978258540079e-05   -7.612913018053549e-05
-5.8135781285418365e-05   1.5910462968105749e-06   -1.9170340543740554e-05
-5.8135781285418365e-05   1.5910462968105749e-06   -1.9170340543740554e-05
-5.8135781285418365e-05   1.5910462968105749e-06   -1.9170340543740554e-05
-5.8135781285418365e-05   1.5910462968105749e-06   -1.9170340543740554e-05
-2.4628261156823077e-05   -2.2150222341205204e-05   -6.077144624192296e-05
-2.4628261156823077e-05   -2.2150222341205204e-05   -6.077144624192296e-05
-2.4628261156823077e-05   -2.2150222341205204e-05   -6.077144624192296e-05
-2.4628261156823077e-05   -2.2150222341205204e-05   -6.077144624192296e-05
-4.162015456498603e-05   -1.009312670082179e-05   -3.968588127921448e-05
-4.162015456498603e-05   -1.009312670082179e-05   -3.968588127921448e-05
-4.162015456498603e-05   -1.009312670082179e-05   -3.968588127921448e-05
-4.162015456498603e-05   -1.009312670082179e-05   -3.968588127921448e-05
-2.4628261156823077e-05   1.5910462968105749e-06   -4.925579360930783e-06
-2.4628261156823077e-05   1.5910462968105749e-06   -4.925579360930783e-06
-2.4628261156823077e-05   1.5910462968105749e-06   -4.925579360930783e-06
-2.4628261156823077e-05   1.5910462968105749e-06   -4.925579360930783e-06
-5.8135781285418466e-05   -2.2150222341205204e-05   -7.501620742473257e-05
-5.8135781285418466e-05   -2.2150222341205204e-05   -7.501620742473257e-05
-5.8135781285418466e-05   -2.2150222341205204e-05   -7.501620742473257e-05
-5.8135781285418466e-05   -2.2150222341205204e-05   -7.501620742473257e-05
-5.6370449981260495e-05   2.23695133972409e-06   -1.712636755253345e-05
-5.6370449981260495e-05   2.23695133972409e-06   -1.712636755253345e-05
-5.6370449981260495e-05   2.23695133972409e-06   -1.712636755253345e-05
-5.6370449981260495e-05   2.23695133972409e-06   -1.712636755253345e-05
-2.329917584018403e-05   -2.227416224654744e-05   -5.753848963589809e-05
-2.329917584018403e-05   -2.227416224654744e-05   -5.753848963589809e-05
-2.329917584018403e-05   -2.227416224654744e-05   -5.753848963589809e-05
-2.329917584018403e-05   -2.227416224654744e-05   -5.753848963589809e-05
-3.982459484877503e-05   -1.0127660008808857e-05   -3.7284025964222665e-05
-3.982459484877503e-05   -1.0127660008808857e-05   -3.7284025964222665e-05
-3.982459484877503e-05   -1.0127660008808857e-05   -3.7284025964222665e-05
-3.982459484877503e-05   -1.0127660008808857e-05   -3.7284025964222665e-05
-2.3299175840184015e-05   2.23695133972409e-06   -2.419699400770404e-06
-2.3299175840184015e-05   2.23695133972409e-06   -2.419699400770404e-06
-2.3299175840184015e-05   2.23695133972409e-06   -2.419699400770404e-06
-2.3299175840184015e-05   2.23695133972409e-06   -2.419699400770404e-06
-5.63704499812606e-05   -2.2274162246547005e-05   -7.224515778766084e-05
-5.63704499812606e-05   -2.2274162246547005e-05   -7.224515778766084e-05
-5.63704499812606e-05   -2.2274162246547005e-05   -7.224515778766084e-05
-5.63704499812606e-05   -2.2274162246547005e-05   -7.224515778766084e-05
-5.34773090154819e-05   2.783443912200527e-06   -1.5044528465390236e-05
-5.34773090154819e-05   2.783443912200527e-06   -1.5044528465390236e-05
-5.34773090154819e-05   2.783443912200527e-06   -1.5044528465390236e-05
-5.34773090154819e-05   2.783443912200527e-06   -1.5044528465390236e-05
-2.1006060821118753e-05   -2.032976007546863e-05   -5.529535306339432e-05
-2.1006060821118753e-05   -2.032976007546863e-05   -5.529535306339432e-05
-2.1006060821118753e-05   -2.032976007546863e-05   -5.529535306339432e-05
-2.1006060821118753e-05   -2.032976007546863e-05   -5.529535306339432e-05
-3.805122694958356e-05   -8.946647367468787e-06   -3.371661047408517e-05
-3.805122694958356e-05   -8.946647367468787e-06   -3.371661047408517e-05
-3.805122694958356e-05   -8.946647367468787e-06   -3.371661047408517e-05
-3.805122694958356e-05   -8.946647367468787e-06   -3.371661047408517e-05
-5.9977307787330384e-05   8.562355015040522e-06   -1.2974196931826547e-05
-5.9977307787330384e-05   8.562355015040522e-06   -1.2974196931826547e-05
-5.9977307787330384e-05   8.562355015040522e-06   -1.2974196931826547e-05
-5.9977307787330384e-05   8.562355015040522e-06   -1.2974196931826547e-05
-0.000103277283522721   0.0   -9.027823616650243e-05
-0.000103277283522721   0.0   -9.027823616650243e-05
-0.000103277283522721   0.0   -9.027823616650243e-05
-0.000103277283522721   0.0   -9.027823616650243e-05
-0.00010058238159632795   1.0841485029914385e-05   -9.951993840325805e-06
-0.00010058238159632795   1.0841485029914385e-05   -9.951993840325805e-06
-0.00010058238159632795   1.0841485029914385e-05   -9.951993840325805e-06
-0.00010058238159632795   1.0841485029914385e-05   -9.951993840325805e-06
-5.8135781285418365e-05   0.0   -7.419143667389334e-05
-5.8135781285418365e-05   0.0   -7.419143667389334e-05
-5.8135781285418365e-05   0.0   -7.419143667389334e-05
-5.8135781285418365e-05   0.0   -7.419143667389334e-05
-7.707296337864453e-05   3.3124189509929278e-06   -4.461691788911215e-05
-7.707296337864453e-05   3.3124189509929278e-06   -4.461691788911215e-05
-7.707296337864453e-05   3.3124189509929278e-06   -4.461691788911215e-05
-7.707296337864453e-05   3.3124189509929278e-06   -4.461691788911215e-05
-5.813578128541841e-05   1.0841485029914385e-05   -3.447102822377304e-06
-5.813578128541841e-05   1.0841485029914385e-05   -3.447102822377304e-06
-5.813578128541841e-05   1.0841485029914385e-05   -3.447102822377304e-06
-5.813578128541841e-05   1.0841485029914385e-05   -3.447102822377304e-06
-0.00010058238159632777   0.0   -8.069632769184187e-05
-0.00010058238159632777   0.0   -8.069632769184187e-05
-0.00010058238159632777   0.0   -8.069632769184187e-05
-0.00010058238159632777   0.0   -8.069632769184187e-05
-9.830287323206071e-05   1.135359856220021e-05   -3.963849715109963e-06
-9.830287323206071e-05   1.135359856220021e-05   -3.963849715109963e-06
-9.830287323206071e-05   1.135359856220021e-05   -3.963849715109963e-06
-9.830287323206071e-05   1.135359856220021e-05   -3.963849715109963e-06
-5.63704499812606e-05   0.0   -6.703906266245703e-05
-5.63704499812606e-05   0.0   -6.703906266245703e-05
-5.63704499812606e-05   0.0   -6.703906266245703e-05
-5.63704499812606e-05   0.0   -6.703906266245703e-05
-7.626913476245864e-05   5.249718006888459e-06   -3.7024418831259134e-05
-7.626913476245864e-05   5.249718006888459e-06   -3.7024418831259134e-05
-7.626913476245864e-05   5.249718006888459e-06   -3.7024418831259134e-05
-7.626913476245864e-05   5.249718006888459e-06   -3.7024418831259134e-05
-5.63704499812606e-05   1.135359856220021e-05   2.848309422210033e-06
-5.63704499812606e-05   1.135359856220021e-05   2.848309422210033e-06
-5.63704499812606e-05   1.135359856220021e-05   2.848309422210033e-06
-5.63704499812606e-05   1.135359856220021e-05   2.848309422210033e-06
-9.830287323206054e-05   0.0   -7.385122179977711e-05
-9.830287323206054e-05   0.0   -7.385122179977711e-05
-9.830287323206054e-05   0.0   -7.385122179977711e-05
-9.830287323206054e-05   0.0   -7.385122179977711e-05
-9.375503943391734e-05   1.223376423312595e-05   5.673559432532943e-06
-9.375503943391734e-05   1.223376423312595e-05   5.673559432532943e-06
-9.375503943391734e-05   1.223376423312595e-05   5.673559432532943e-06
-9.375503943391734e-05   1.223376423312595e-05   5.673559432532943e-06
-5.3477309015481995e-05   0.0   -5.411573272498372e-05
-5.3477309015481995e-05   0.0   -5.411573272498372e-05
-5.3477309015481995e-05   0.0   -5.411573272498372e-05
-5.3477309015481995e-05   0.0   -5.411573272498372e-05
-7.230062839042293e-05   6.475511080804557e-06   -2.6628840415231252e-05
-7.230062839042293e-05   6.475511080804557e-06   -2.6628840415231252e-05
-7.230062839042293e-05   6.475511080804557e-06   -2.6628840415231252e-05
-7.230062839042293e-05   6.475511080804557e-06   -2.6628840415231252e-05
7.646463340367831e-05   -1.3130406431336155e-05   4.564401507680814e-05
7.646463340367831e-05   -1.3130406431336155e-05   4.564401507680814e-05
7.646463340367831e-05   -1.3130406431336155e-05   4.564401507680814e-05
7.646463340367831e-05   -1.3130406431336155e-05   4.564401507680814e-05
3.967337125170723e-05   -1.0117396433150221e-05   -1.3866949177565504e-05
3.967337125170723e-05   -1.0117396433150221e-05   -1.3866949177565504e-05
3.967337125170723e-05   -1.0117396433150221e-05   -1.3866949177565504e-05
3.967337125170723e-05   -1.0117396433150221e-05   -1.3866949177565504e-05
3.867510036465824e-05   -1.3458870557783026e-05   4.031285490028948e-05
3.867510036465824e-05   -1.3458870557783026e-05   4.031285490028948e-05
3.867510036465824e-05   -1.3458870557783026e-05   4.031285490028948e-05
3.867510036465824e-05   -1.3458870557783026e-05   4.031285490028948e-05
7.564656239660891e-05   -1.1123821331370572e-05   -2.2707278022142158e-05
7.564656239660891e-05   -1.1123821331370572e-05   -2.2707278022142158e-05
7.564656239660891e-05   -1.1123821331370572e-05   -2.2707278022142158e-05
7.564656239660891e-05   -1.1123821331370572e-05   -2.2707278022142158e-05
5.5257414814876726e-05   -1.1313794004737601e-05   1.1388618218098194e-05
5.5257414814876726e-05   -1.1313794004737601e-05   1.1388618218098194e-05
5.5257414814876726e-05   -1.1313794004737601e-05   1.1388618218098194e-05
5.5257414814876726e-05   -1.1313794004737601e-05   1.1388618218098194e-05
7.564656239660891e-05   -1.3458870557783026e-05   3.8911825364442354e-05
7.564656239660891e-05   -1.3458870557783026e-05   3.8911825364442354e-05
7.564656239660891e-05   -1.3458870557783026e-05   3.8911825364442354e-05
7.564656239660891e-05   -1.3458870557783026e-05   3.8911825364442354e-05
3.867510036465824e-05   -1.1123821331370572e-05   -2.130624848629514e-05
3.867510036465824e-05   -1.1123821331370572e-05   -2.130624848629514e-05
3.867510036465824e-05   -1.1123821331370572e-05   -2.130624848629514e-05
3.867510036465824e-05   -1.1123821331370572e-05   -2.130624848629514e-05
3.777205570218648e-05   -1.333707708705157e-05   3.6194505940714914e-05
3.777205570218648e-05   -1.333707708705157e-05   3.6194505940714914e-05
3.777205570218648e-05   -1.333707708705157e-05   3.6194505940714914e-05
3.777205570218648e-05   -1.333707708705157e-05   3.6194505940714914e-05
7.470049839993528e-05   -1.1216454733888655e-05   -2.6625271967430493e-05
7.470049839993528e-05   -1.1216454733888655e-05   -2.6625271967430493e-05
7.470049839993528e-05   -1.1216454733888655e-05   -2.6625271967430493e-05
7.470049839993528e-05   -1.1216454733888655e-05   -2.6625271967430493e-05
5.521524001698674e-05   -1.151221491882664e-05   6.027614781779306e-06
5.521524001698674e-05   -1.151221491882664e-05   6.027614781779306e-06
5.521524001698674e-05   -1.151221491882664e-05   6.027614781779306e-06
5.521524001698674e-05   -1.151221491882664e-05   6.027614781779306e-06
7.47004983999354e-05   -1.3337077087052004e-05   3.492213252881708e-05
7.47004983999354e-05   -1.3337077087052004e-05   3.492213252881708e-05
7.47004983999354e-05   -1.3337077087052004e-05   3.492213252881708e-05
7.47004983999354e-05   -1.3337077087052004e-05   3.492213252881708e-05
3.777205570218648e-05   -1.1216454733888655e-05   -2.53528985555329e-05
3.777205570218648e-05   -1.1216454733888655e-05   -2.53528985555329e-05
3.777205570218648e-05   -1.1216454733888655e-05   -2.53528985555329e-05
3.777205570218648e-05   -1.1216454733888655e-05   -2.53528985555329e-05
3.6670325140904787e-05   -1.2595519040152232e-05   2.9494321613153128e-05
3.6670325140904787e-05   -1.2595519040152232e-05   2.9494321613153128e-05
3.6670325140904787e-05   -1.2595519040152232e-05   2.9494321613153128e-05
3.6670325140904787e-05   -1.2595519040152232e-05   2.9494321613153128e-05
7.321818854353116e-05   -1.0982500509926565e-05   -3.2386595176026164e-05
7.321818854353116e-05   -1.0982500509926565e-05   -3.2386595176026164e-05
7.321818854353116e-05   -1.0982500509926565e-05   -3.2386595176026164e-05
7.321818854353116e-05   -1.0982500509926565e-05   -3.2386595176026164e-05
5.333011917173036e-05   -1.094699438585053e-05   7.388834358630571e-07
5.333011917173036e-05   -1.094699438585053e-05   7.388834358630571e-07
5.333011917173036e-05   -1.094699438585053e-05   7.388834358630571e-07
5.333011917173036e-05   -1.094699438585053e-05   7.388834358630571e-07
3.967337125170723e-05   -1.3179457458204879e-05   3.410863500067783e-05
3.967337125170723e-05   -1.3179457458204879e-05   3.410863500067783e-05
3.967337125170723e-05   -1.3179457458204879e-05   3.410863500067783e-05
3.967337125170723e-05   -1.3179457458204879e-05   3.410863500067783e-05
8.453078254446687e-06   -6.256508088892197e-06   -1.3771417039835487e-05
8.453078254446687e-06   -6.256508088892197e-06   -1.3771417039835487e-05
8.453078254446687e-06   -6.256508088892197e-06   -1.3771417039835487e-05
8.453078254446687e-06   -6.256508088892197e-06   -1.3771417039835487e-05
6.873174973452109e-06   -1.3111983700291908e-05   3.893949521090179e-05
6.873174973452109e-06   -1.3111983700291908e-05   3.893949521090179e-05
6.873174973452109e-06   -1.3111983700291908e-05   3.893949521090179e-05
6.873174973452109e-06   -1.3111983700291908e-05   3.893949521090179e-05
3.867510036465824e-05   -6.6359520256198574e-06   -1.7949332779245092e-05
3.867510036465824e-05   -6.6359520256198574e-06   -1.7949332779245092e-05
3.867510036465824e-05   -6.6359520256198574e-06   -1.7949332779245092e-05
3.867510036465824e-05   -6.6359520256198574e-06   -1.7949332779245092e-05
2.338608325754329e-05   -9.433365251183129e-06   9.210810334617686e-06
2.338608325754329e-05   -9.433365251183129e-06   9.210810334617686e-06
2.338608325754329e-05   -9.433365251183129e-06   9.210810334617686e-06
2.338608325754329e-05   -9.433365251183129e-06   9.210810334617686e-06
3.867510036465821e-05   -1.3111983700291908e-05   3.505387620609851e-05
3.867510036465821e-05   -1.3111983700291908e-05   3.505387620609851e-05
3.867510036465821e-05   -1.3111983700291908e-05   3.505387620609851e-05
3.867510036465821e-05   -1.3111983700291908e-05   3.505387620609851e-05
6.873174973452109e-06   -6.6359520256198574e-06   -1.4063713774441601e-05
6.873174973452109e-06   -6.6359520256198574e-06   -1.4063713774441601e-05
6.873174973452109e-06   -6.6359520256198574e-06   -1.4063713774441601e-05
6.873174973452109e-06   -6.6359520256198574e-06   -1.4063713774441601e-05
5.746553313886512e-06   -1.2936164764421575e-05   3.899799769358208e-05
5.746553313886512e-06   -1.2936164764421575e-05   3.899799769358208e-05
5.746553313886512e-06   -1.2936164764421575e-05   3.899799769358208e-05
5.746553313886512e-06   -1.2936164764421575e-05   3.899799769358208e-05
3.777205570218648e-05   -6.804693837776307e-06   -1.805672217623848e-05
3.777205570218648e-05   -6.804693837776307e-06   -1.805672217623848e-05
3.777205570218648e-05   -6.804693837776307e-06   -1.805672217623848e-05
3.777205570218648e-05   -6.804693837776307e-06   -1.805672217623848e-05
2.203183417418271e-05   -9.240104478649026e-06   9.638226754959066e-06
2.203183417418271e-05   -9.240104478649026e-06   9.638226754959066e-06
2.203183417418271e-05   -9.240104478649026e-06   9.638226754959066e-06
2.203183417418271e-05   -9.240104478649026e-06   9.638226754959066e-06
3.777205570218656e-05   -1.2936164764421141e-05   3.5319115137595006e-05
3.777205570218656e-05   -1.2936164764421141e-05   3.5319115137595006e-05
3.777205570218656e-05   -1.2936164764421141e-05   3.5319115137595006e-05
3.777205570218656e-05   -1.2936164764421141e-05   3.5319115137595006e-05
5.746553313886512e-06   -6.804693837776307e-06   -1.437783962025146e-05
5.746553313886512e-06   -6.804693837776307e-06   -1.437783962025146e-05
5.746553313886512e-06   -6.804693837776307e-06   -1.437783962025146e-05
5.746553313886512e-06   -6.804693837776307e-06   -1.437783962025146e-05
4.4932851072046085e-06   -1.2584786408420534e-05   4.026641362165576e-05
4.4932851072046085e-06   -1.2584786408420534e-05   4.026641362165576e-05
4.4932851072046085e-06   -1.2584786408420534e-05   4.026641362165576e-05
4.4932851072046085e-06   -1.2584786408420534e-05   4.026641362165576e-05
3.6670325140904746e-05   -6.651285150182859e-06   -1.6922087189453707e-05
3.6670325140904746e-05   -6.651285150182859e-06   -1.6922087189453707e-05
3.6670325140904746e-05   -6.651285150182859e-06   -1.6922087189453707e-05
3.6670325140904746e-05   -6.651285150182859e-06   -1.6922087189453707e-05
2.120359242300998e-05   -8.834732456132303e-06   1.0165869057274083e-05
2.120359242300998e-05   -8.834732456132303e-06   1.0165869057274083e-05
2.120359242300998e-05   -8.834732456132303e-06   1.0165869057274083e-05
2.120359242300998e-05   -8.834732456132303e-06   1.0165869057274083e-05
8.453078254446714e-06   -1.5906275674192668e-05   3.509486104208426e-05
8.453078254446714e-06   -1.5906275674192668e-05   3.509486104208426e-05
8.453078254446714e-06   -1.5906275674192668e-05   3.509486104208426e-05
8.453078254446714e-06   -1.5906275674192668e-05   3.509486104208426e-05
-2.1537776925585505e-05   -2.6319434707033733e-06   -6.925298269209535e-06
-2.1537776925585505e-05   -2.6319434707033733e-06   -6.925298269209535e-06
-2.1537776925585505e-05   -2.6319434707033733e-06   -6.925298269209535e-06
-2.1537776925585505e-05   -2.6319434707033733e-06   -6.925298269209535e-06
-2.399551917503199e-05   -1.6258335472934052e-05   4.511043755818793e-05
-2.399551917503199e-05   -1.6258335472934052e-05   4.511043755818793e-05
-2.399551917503199e-05   -1.6258335472934052e-05   4.511043755818793e-05
-2.399551917503199e-05   -1.6258335472934052e-05   4.511043755818793e-05
6.873174973452109e-06   -2.779222617656143e-06   -1.4424853735785486e-05
6.873174973452109e-06   -2.779222617656143e-06   -1.4424853735785486e-05
6.873174973452109e-06   -2.779222617656143e-06   -1.4424853735785486e-05
6.873174973452109e-06   -2.779222617656143e-06   -1.4424853735785486e-05
-7.283104851038806e-06   -9.091868502514831e-06   1.295653350261481e-05
-7.283104851038806e-06   -9.091868502514831e-06   1.295653350261481e-05
-7.283104851038806e-06   -9.091868502514831e-06   1.295653350261481e-05
-7.283104851038806e-06   -9.091868502514831e-06   1.295653350261481e-05
6.873174973452109e-06   -1.6258335472934052e-05   3.70229698450214e-05
6.873174973452109e-06   -1.6258335472934052e-05   3.70229698450214e-05
6.873174973452109e-06   -1.6258335472934052e-05   3.70229698450214e-05
6.873174973452109e-06   -1.6258335472934052e-05   3.70229698450214e-05
-2.3995519175031948e-05   -2.779222617656143e-06   -6.337386022618741e-06
-2.3995519175031948e-05   -2.779222617656143e-06   -6.337386022618741e-06
-2.3995519175031948e-05   -2.779222617656143e-06   -6.337386022618741e-06
-2.3995519175031948e-05   -2.779222617656143e-06   -6.337386022618741e-06
-2.5497670847966848e-05   -1.6182623066984727e-05   4.682948568849677e-05
-2.5497670847966848e-05   -1.6182623066984727e-05   4.682948568849677e-05
-2.5497670847966848e-05   -1.6182623066984727e-05   4.682948568849677e-05
-2.5497670847966848e-05   -1.6182623066984727e-05   4.682948568849677e-05
5.746553313886512e-06   -2.9596080516323432e-06   -1.3178030257136804e-05
5.746553313886512e-06   -2.9596080516323432e-06   -1.3178030257136804e-05
5.746553313886512e-06   -2.9596080516323432e-06   -1.3178030257136804e-05
5.746553313886512e-06   -2.9596080516323432e-06   -1.3178030257136804e-05
-8.946979296871831e-06   -9.06301784591194e-06   1.497323663736142e-05
-8.946979296871831e-06   -9.06301784591194e-06   1.497323663736142e-05
-8.946979296871831e-06   -9.06301784591194e-06   1.497323663736142e-05
-8.946979296871831e-06   -9.06301784591194e-06   1.497323663736142e-05
5.746553313886512e-06   -1.6182623066984293e-05   3.8895676679285684e-05
5.746553313886512e-06   -1.6182623066984293e-05   3.8895676679285684e-05
5.746553313886512e-06   -1.6182623066984293e-05   3.8895676679285684e-05
5.746553313886512e-06   -1.6182623066984293e-05   3.8895676679285684e-05
-2.5497670847966794e-05   -2.9596080516323432e-06   -5.244221247925314e-06
-2.5497670847966794e-05   -2.9596080516323432e-06   -5.244221247925314e-06
-2.5497670847966794e-05   -2.9596080516323432e-06   -5.244221247925314e-06
-2.5497670847966794e-05   -2.9596080516323432e-06   -5.244221247925314e-06
-2.7264454172866133e-05   -1.561558120285328e-05   4.905536896159619e-05
-2.7264454172866133e-05   -1.561558120285328e-05   4.905536896159619e-05
-2.7264454172866133e-05   -1.561558120285328e-05   4.905536896159619e-05
-2.7264454172866133e-05   -1.561558120285328e-05   4.905536896159619e-05
4.4932851072046085e-06   -2.9421808994197114e-06   -1.1478236687248591e-05
4.4932851072046085e-06   -2.9421808994197114e-06   -1.1478236687248591e-05
4.4932851072046085e-06   -2.9421808994197114e-06   -1.1478236687248591e-05
4.4932851072046085e-06   -2.9421808994197114e-06   -1.1478236687248591e-05
-1.0301857559522338e-05   -8.702394316236102e-06   1.6636462474052917e-05
-1.0301857559522338e-05   -8.702394316236102e-06   1.6636462474052917e-05
-1.0301857559522338e-05   -8.702394316236102e-06   1.6636462474052917e-05
-1.0301857559522338e-05   -8.702394316236102e-06   1.6636462474052917e-05
-2.1537776925585546e-05   -1.983978258540079e-05   4.253195972713647e-05
-2.1537776925585546e-05   -1.983978258540079e-05   4.253195972713647e-05
-2.1537776925585546e-05   -1.983978258540079e-05   4.253195972713647e-05
-2.1537776925585546e-05   -1.983978258540079e-05   4.253195972713647e-05
-5.569044483098946e-05   2.827269092582369e-06   -7.889224417467321e-07
-5.569044483098946e-05   2.827269092582369e-06   -7.889224417467321e-07
-5.569044483098946e-05   2.827269092582369e-06   -7.889224417467321e-07
-5.569044483098946e-05   2.827269092582369e-06   -7.889224417467321e-07
-5.864375493204143e-05   -2.2150222341205204e-05   6.011636474528002e-05
-5.864375493204143e-05   -2.2150222341205204e-05   6.011636474528002e-05
-5.864375493204143e-05   -2.2150222341205204e-05   6.011636474528002e-05
-5.864375493204143e-05   -2.2150222341205204e-05   6.011636474528002e-05
-2.3995519175031948e-05   2.658189044367834e-06   -1.2515741681079642e-05
-2.3995519175031948e-05   2.658189044367834e-06   -1.2515741681079642e-05
-2.3995519175031948e-05   2.658189044367834e-06   -1.2515741681079642e-05
-2.3995519175031948e-05   2.658189044367834e-06   -1.2515741681079642e-05
-3.9408136021722836e-05   -8.237525801213248e-06   1.9709381970753608e-05
-3.9408136021722836e-05   -8.237525801213248e-06   1.9709381970753608e-05
-3.9408136021722836e-05   -8.237525801213248e-06   1.9709381970753608e-05
-3.9408136021722836e-05   -8.237525801213248e-06   1.9709381970753608e-05
-2.399551917503199e-05   -2.2150222341205204e-05   4.523131791393624e-05
-2.399551917503199e-05   -2.2150222341205204e-05   4.523131791393624e-05
-2.399551917503199e-05   -2.2150222341205204e-05   4.523131791393624e-05
-2.399551917503199e-05   -2.2150222341205204e-05   4.523131791393624e-05
-5.864375493204132e-05   2.658189044367834e-06   2.3693051502641106e-06
-5.864375493204132e-05   2.658189044367834e-06   2.3693051502641106e-06
-5.864375493204132e-05   2.658189044367834e-06   2.3693051502641106e-06
-5.864375493204132e-05   2.658189044367834e-06   2.3693051502641106e-06
-6.0443854124390725e-05   -2.2274162246547005e-05   6.348160548646413e-05
-6.0443854124390725e-05   -2.2274162246547005e-05   6.348160548646413e-05
-6.0443854124390725e-05   -2.2274162246547005e-05   6.348160548646413e-05
-6.0443854124390725e-05   -2.2274162246547005e-05   6.348160548646413e-05
-2.5497670847966794e-05   2.3467086369259073e-06   -9.534555837659191e-06
-2.5497670847966794e-05   2.3467086369259073e-06   -9.534555837659191e-06
-2.5497670847966794e-05   2.3467086369259073e-06   -9.534555837659191e-06
-2.5497670847966794e-05   2.3467086369259073e-06   -9.534555837659191e-06
-4.132680293568513e-05   -9.483851855731154e-06   2.3945667270798662e-05
-4.132680293568513e-05   -9.483851855731154e-06   2.3945667270798662e-05
-4.132680293568513e-05   -9.483851855731154e-06   2.3945667270798662e-05
-4.132680293568513e-05   -9.483851855731154e-06   2.3945667270798662e-05
-2.549767084796678e-05   -2.227416224654744e-05   4.870908295638034e-05
-2.549767084796678e-05   -2.227416224654744e-05   4.870908295638034e-05
-2.549767084796678e-05   -2.227416224654744e-05   4.870908295638034e-05
-2.549767084796678e-05   -2.227416224654744e-05   4.870908295638034e-05
-6.044385412439063e-05   2.3467086369259073e-06   5.23796669242441e-06
-6.044385412439063e-05   2.3467086369259073e-06   5.23796669242441e-06
-6.044385412439063e-05   2.3467086369259073e-06   5.23796669242441e-06
-6.044385412439063e-05   2.3467086369259073e-06   5.23796669242441e-06
-6.238335169417536e-05   -2.032976007546863e-05   6.492904890146168e-05
-6.238335169417536e-05   -2.032976007546863e-05   6.492904890146168e-05
-6.238335169417536e-05   -2.032976007546863e-05   6.492904890146168e-05
-6.238335169417536e-05   -2.032976007546863e-05   6.492904890146168e-05
-2.7264454172866093e-05   1.9940689242876723e-06   -6.9967443672407504e-06
-2.7264454172866093e-05   1.9940689242876723e-06   -6.9967443672407504e-06
-2.7264454172866093e-05   1.9940689242876723e-06   -6.9967443672407504e-06
-2.7264454172866093e-05   1.9940689242876723e-06   -6.9967443672407504e-06
-4.3303482819464946e-05   -9.554846350122957e-06   2.66643192084048e-05
-4.3303482819464946e-05   -9.554846350122957e-06   2.66643192084048e-05
-4.3303482819464946e-05   -9.554846350122957e-06   2.66643192084048e-05
-4.3303482819464946e-05   -9.554846350122957e-06   2.66643192084048e-05
-5.5690444830989254e-05   0.0   4.712049775698352e-05
-5.5690444830989254e-05   0.0   4.712049775698352e-05
-5.5690444830989254e-05   0.0   4.712049775698352e-05
-5.5690444830989254e-05   0.0   4.712049775698352e-05
-9.808630492296535e-05   1.2860704803445595e-05   -1.582284618090895e-05
-9.808630492296535e-05   1.2860704803445595e-05   -1.582284618090895e-05
-9.808630492296535e-05   1.2860704803445595e-05   -1.582284618090895e-05
-9.808630492296535e-05   1.2860704803445595e-05   -1.582284618090895e-05
-0.0001021594699945534   0.0   6.838857696419946e-05
-0.0001021594699945534   0.0   6.838857696419946e-05
-0.0001021594699945534   0.0   6.838857696419946e-05
-0.0001021594699945534   0.0   6.838857696419946e-05
-5.864375493204132e-05   1.2412402446800551e-05   -1.1585056274734647e-05
-5.864375493204132e-05   1.2412402446800551e-05   -1.1585056274734647e-05
-5.864375493204132e-05   1.2412402446800551e-05   -1.1585056274734647e-05
-5.864375493204132e-05   1.2412402446800551e-05   -1.1585056274734647e-05
-7.529138838734622e-05   7.630152046498879e-06   1.9030349724287926e-05
-7.529138838734622e-05   7.630152046498879e-06   1.9030349724287926e-05
-7.529138838734622e-05   7.630152046498879e-06   1.9030349724287926e-05
-7.529138838734622e-05   7.630152046498879e-06   1.9030349724287926e-05
-5.864375493204129e-05   0.0   6.0941135496119e-05
-5.864375493204129e-05   0.0   6.0941135496119e-05
-5.864375493204129e-05   0.0   6.0941135496119e-05
-5.864375493204129e-05   0.0   6.0941135496119e-05
-0.00010215946999455358   1.2412402446800551e-05   -4.137614806654349e-06
-0.00010215946999455358   1.2412402446800551e-05   -4.137614806654349e-06
-0.00010215946999455358   1.2412402446800551e-05   -4.137614806654349e-06
-0.00010215946999455358   1.2412402446800551e-05   -4.137614806654349e-06
-0.00010421087586172698   0.0   7.594410075121086e-05
-0.00010421087586172698   0.0   7.594410075121086e-05
-0.00010421087586172698   0.0   7.594410075121086e-05
-0.00010421087586172698   0.0   7.594410075121086e-05
-6.044385412439063e-05   1.209400023257116e-05   -4.2573356172263355e-06
-6.044385412439063e-05   1.209400023257116e-05   -4.2573356172263355e-06
-6.044385412439063e-05   1.209400023257116e-05   -4.2573356172263355e-06
-6.044385412439063e-05   1.209400023257116e-05   -4.2573356172263355e-06
-7.92200343705486e-05   6.371134861644229e-06   3.0470017348927333e-05
-7.92200343705486e-05   6.371134861644229e-06   3.0470017348927333e-05
-7.92200343705486e-05   6.371134861644229e-06   3.0470017348927333e-05
-7.92200343705486e-05   6.371134861644229e-06   3.0470017348927333e-05
-6.044385412439063e-05   0.0   6.868770061166786e-05
-6.044385412439063e-05   0.0   6.868770061166786e-05
-6.044385412439063e-05   0.0   6.868770061166786e-05
-6.044385412439063e-05   0.0   6.868770061166786e-05
-0.00010421087586172716   1.209400023257116e-05   2.9990645223163664e-06
-0.00010421087586172716   1.209400023257116e-05   2.9990645223163664e-06
-0.00010421087586172716   1.209400023257116e-05   2.9990645223163664e-06
-0.00010421087586172716   1.209400023257116e-05   2.9990645223163664e-06
-0.00010649535716853302   0.0   8.601932040023011e-05
-0.00010649535716853302   0.0   8.601932040023011e-05
-0.00010649535716853302   0.0   8.601932040023011e-05
-0.00010649535716853302   0.0   8.601932040023011e-05
-6.238335169417536e-05   1.0071214612928075e-05   6.456582508543443e-06
-6.238335169417536e-05   1.0071214612928075e-05   6.456582508543443e-06
-6.238335169417536e-05   1.0071214612928075e-05   6.456582508543443e-06
-6.238335169417536e-05   1.0071214612928075e-05   6.456582508543443e-06
-7.988014291311355e-05   4.472286675611791e-06   3.8977257969163544e-05
-7.988014291311355e-05   4.472286675611791e-06   3.8977257969163544e-05
-7.988014291311355e-05   4.472286675611791e-06   3.8977257969163544e-05
-7.988014291311355e-05   4.472286675611791e-06   3.8977257969163544e-05
6.725199076968814e-05   -1.0117396433150221e-05   4.774843955853434e-05
6.725199076968814e-05   -1.0117396433150221e-05   4.774843955853434e-05
6.725199076968814e-05   -1.0117396433150221e-05   4.774843955853434e-05
6.725199076968814e-05   -1.0117396433150221e-05   4.774843955853434e-05
3.401386607786641e-05   -7.630057605617982e-06   -6.156031631315839e-06
3.401386607786641e-05   -7.630057605617982e-06   -6.156031631315839e-06
3.401386607786641e-05   -7.630057605617982e-06   -6.156031631315839e-06
3.401386607786641e-05   -7.630057605617982e-06   -6.156031631315839e-06
3.311608614837313e-05   -1.1123821331370572e-05   4.16788384169425e-05
3.311608614837313e-05   -1.1123821331370572e-05   4.16788384169425e-05
3.311608614837313e-05   -1.1123821331370572e-05   4.16788384169425e-05
3.311608614837313e-05   -1.1123821331370572e-05   4.16788384169425e-05
6.564905978696941e-05   -8.647924561870721e-06   -1.4028322375751238e-05
6.564905978696941e-05   -8.647924561870721e-06   -1.4028322375751238e-05
6.564905978696941e-05   -8.647924561870721e-06   -1.4028322375751238e-05
6.564905978696941e-05   -8.647924561870721e-06   -1.4028322375751238e-05
4.778148644974932e-05   -9.004854252250057e-06   1.596512433384327e-05
4.778148644974932e-05   -9.004854252250057e-06   1.596512433384327e-05
4.778148644974932e-05   -9.004854252250057e-06   1.596512433384327e-05
4.778148644974932e-05   -9.004854252250057e-06   1.596512433384327e-05
6.56490597869693e-05   -1.1123821331370572e-05   4.019330035524263e-05
6.56490597869693e-05   -1.1123821331370572e-05   4.019330035524263e-05
6.56490597869693e-05   -1.1123821331370572e-05   4.019330035524263e-05
6.56490597869693e-05   -1.1123821331370572e-05   4.019330035524263e-05
3.3116086148373184e-05   -8.647924561870721e-06   -1.254278431405114e-05
3.3116086148373184e-05   -8.647924561870721e-06   -1.254278431405114e-05
3.3116086148373184e-05   -8.647924561870721e-06   -1.254278431405114e-05
3.3116086148373184e-05   -8.647924561870721e-06   -1.254278431405114e-05
3.1959239114959546e-05   -1.1216454733888655e-05   3.741122188799409e-05
3.1959239114959546e-05   -1.1216454733888655e-05   3.741122188799409e-05
3.1959239114959546e-05   -1.1216454733888655e-05   3.741122188799409e-05
3.1959239114959546e-05   -1.1216454733888655e-05   3.741122188799409e-05
6.402794130416642e-05   -8.799262132522159e-06   -1.7486930654837552e-05
6.402794130416642e-05   -8.799262132522159e-06   -1.7486930654837552e-05
6.402794130416642e-05   -8.799262132522159e-06   -1.7486930654837552e-05
6.402794130416642e-05   -8.799262132522159e-06   -1.7486930654837552e-05
4.733159008565438e-05   -9.3980940739204e-06   1.069962054085446e-05
4.733159008565438e-05   -9.3980940739204e-06   1.069962054085446e-05
4.733159008565438e-05   -9.3980940739204e-06   1.069962054085446e-05
4.733159008565438e-05   -9.3980940739204e-06   1.069962054085446e-05
6.402794130416642e-05   -1.1216454733888655e-05   3.596090632717393e-05
6.402794130416642e-05   -1.1216454733888655e-05   3.596090632717393e-05
6.402794130416642e-05   -1.1216454733888655e-05   3.596090632717393e-05
6.402794130416642e-05   -1.1216454733888655e-05   3.596090632717393e-05
3.1959239114959546e-05   -8.799262132522159e-06   -1.6036615094017475e-05
3.1959239114959546e-05   -8.799262132522159e-06   -1.6036615094017475e-05
3.1959239114959546e-05   -8.799262132522159e-06   -1.6036615094017475e-05
3.1959239114959546e-05   -8.799262132522159e-06   -1.6036615094017475e-05
3.074551340882029e-05   -1.0982500509926132e-05   3.108103843294874e-05
3.074551340882029e-05   -1.0982500509926132e-05   3.108103843294874e-05
3.074551340882029e-05   -1.0982500509926132e-05   3.108103843294874e-05
3.074551340882029e-05   -1.0982500509926132e-05   3.108103843294874e-05
6.199865789218626e-05   -8.743790107494046e-06   -2.235076194745381e-05
6.199865789218626e-05   -8.743790107494046e-06   -2.235076194745381e-05
6.199865789218626e-05   -8.743790107494046e-06   -2.235076194745381e-05
6.199865789218626e-05   -8.743790107494046e-06   -2.235076194745381e-05
4.522172440536499e-05   -9.152137113959194e-06   5.855802067795241e-06
4.522172440536499e-05   -9.152137113959194e-06   5.855802067795241e-06
4.522172440536499e-05   -9.152137113959194e-06   5.855802067795241e-06
4.522172440536499e-05   -9.152137113959194e-06   5.855802067795241e-06
3.401386607786641e-05   -6.256508088892197e-06   4.518260537119648e-05
3.401386607786641e-05   -6.256508088892197e-06   4.518260537119648e-05
3.401386607786641e-05   -6.256508088892197e-06   4.518260537119648e-05
3.401386607786641e-05   -6.256508088892197e-06   4.518260537119648e-05
3.730510150572793e-06   -2.6923844291706737e-06   -3.1511803117931225e-06
3.730510150572793e-06   -2.6923844291706737e-06   -3.1511803117931225e-06
3.730510150572793e-06   -2.6923844291706737e-06   -3.1511803117931225e-06
3.730510150572793e-06   -2.6923844291706737e-06   -3.1511803117931225e-06
2.838684690967052e-06   -6.6359520256198574e-06   4.707369344765814e-05
2.838684690967052e-06   -6.6359520256198574e-06   4.707369344765814e-05
2.838684690967052e-06   -6.6359520256198574e-06   4.707369344765814e-05
2.838684690967052e-06   -6.6359520256198574e-06   4.707369344765814e-05
3.3116086148373184e-05   -3.239386486177196e-06   -5.426581638351196e-06
3.3116086148373184e-05   -3.239386486177196e-06   -5.426581638351196e-06
3.3116086148373184e-05   -3.239386486177196e-06   -5.426581638351196e-06
3.3116086148373184e-05   -3.239386486177196e-06   -5.426581638351196e-06
1.8248269332407517e-05   -4.37586207129026e-06   2.0034998405992773e-05
1.8248269332407517e-05   -4.37586207129026e-06   2.0034998405992773e-05
1.8248269332407517e-05   -4.37586207129026e-06   2.0034998405992773e-05
1.8248269332407517e-05   -4.37586207129026e-06   2.0034998405992773e-05
3.311608614837314e-05   -6.6359520256198574e-06   4.503575412399233e-05
3.311608614837314e-05   -6.6359520256198574e-06   4.503575412399233e-05
3.311608614837314e-05   -6.6359520256198574e-06   4.503575412399233e-05
3.311608614837314e-05   -6.6359520256198574e-06   4.503575412399233e-05
2.838684690967052e-06   -3.239386486177196e-06   -3.3886423146855995e-06
2.838684690967052e-06   -3.239386486177196e-06   -3.3886423146855995e-06
2.838684690967052e-06   -3.239386486177196e-06   -3.3886423146855995e-06
2.838684690967052e-06   -3.239386486177196e-06   -3.3886423146855995e-06
1.7002242124045976e-06   -6.804693837776307e-06   4.6631346132881574e-05
1.7002242124045976e-06   -6.804693837776307e-06   4.6631346132881574e-05
1.7002242124045976e-06   -6.804693837776307e-06   4.6631346132881574e-05
1.7002242124045976e-06   -6.804693837776307e-06   4.6631346132881574e-05
3.1959239114959546e-05   -3.5981140617878486e-06   -5.724293236969891e-06
3.1959239114959546e-05   -3.5981140617878486e-06   -5.724293236969891e-06
3.1959239114959546e-05   -3.5981140617878486e-06   -5.724293236969891e-06
3.1959239114959546e-05   -3.5981140617878486e-06   -5.724293236969891e-06
1.7117374016752308e-05   -4.582937469744131e-06   1.9603042638150126e-05
1.7117374016752308e-05   -4.582937469744131e-06   1.9603042638150126e-05
1.7117374016752308e-05   -4.582937469744131e-06   1.9603042638150126e-05
1.7117374016752308e-05   -4.582937469744131e-06   1.9603042638150126e-05
3.195923911495948e-05   -6.804693837776307e-06   4.4707398267288456e-05
3.195923911495948e-05   -6.804693837776307e-06   4.4707398267288456e-05
3.195923911495948e-05   -6.804693837776307e-06   4.4707398267288456e-05
3.195923911495948e-05   -6.804693837776307e-06   4.4707398267288456e-05
1.7002242124045976e-06   -3.5981140617878486e-06   -3.800345371376664e-06
1.7002242124045976e-06   -3.5981140617878486e-06   -3.800345371376664e-06
1.7002242124045976e-06   -3.5981140617878486e-06   -3.800345371376664e-06
1.7002242124045976e-06   -3.5981140617878486e-06   -3.800345371376664e-06
4.425798981171628e-07   -6.651285150183293e-06   4.731739682145618e-05
4.425798981171628e-07   -6.651285150183293e-06   4.731739682145618e-05
4.425798981171628e-07   -6.651285150183293e-06   4.731739682145618e-05
4.425798981171628e-07   -6.651285150183293e-06   4.731739682145618e-05
3.0745513408820263e-05   -3.7518492833990037e-06   -4.927153883119574e-06
3.0745513408820263e-05   -3.7518492833990037e-06   -4.927153883119574e-06
3.0745513408820263e-05   -3.7518492833990037e-06   -4.927153883119574e-06
3.0745513408820263e-05   -3.7518492833990037e-06   -4.927153883119574e-06
1.6196062702152673e-05   -4.539527353322921e-06   1.9794537469948166e-05
1.6196062702152673e-05   -4.539527353322921e-06   1.9794537469948166e-05
1.6196062702152673e-05   -4.539527353322921e-06   1.9794537469948166e-05
1.6196062702152673e-05   -4.539527353322921e-06   1.9794537469948166e-05
3.730510150572793e-06   -2.6319434707033733e-06   4.620259901556216e-05
3.730510150572793e-06   -2.6319434707033733e-06   4.620259901556216e-05
3.730510150572793e-06   -2.6319434707033733e-06   4.620259901556216e-05
3.730510150572793e-06   -2.6319434707033733e-06   4.620259901556216e-05
-2.5607308221600668e-05   2.3925221635510453e-06   3.2091444249248216e-07
-2.5607308221600668e-05   2.3925221635510453e-06   3.2091444249248216e-07
-2.5607308221600668e-05   2.3925221635510453e-06   3.2091444249248216e-07
-2.5607308221600668e-05   2.3925221635510453e-06   3.2091444249248216e-07
-2.661213761444948e-05   -2.779222617656143e-06   4.956440459789576e-05
-2.661213761444948e-05   -2.779222617656143e-06   4.956440459789576e-05
-2.661213761444948e-05   -2.779222617656143e-06   4.956440459789576e-05
-2.661213761444948e-05   -2.779222617656143e-06   4.956440459789576e-05
2.838684690967052e-06   1.9738625683133823e-06   -2.372150356046512e-06
2.838684690967052e-06   1.9738625683133823e-06   -2.372150356046512e-06
2.838684690967052e-06   1.9738625683133823e-06   -2.372150356046512e-06
2.838684690967052e-06   1.9738625683133823e-06   -2.372150356046512e-06
-1.1391617606910451e-05   -4.073429509064003e-08   2.2553778258458057e-05
-1.1391617606910451e-05   -4.073429509064003e-08   2.2553778258458057e-05
-1.1391617606910451e-05   -4.073429509064003e-08   2.2553778258458057e-05
-1.1391617606910451e-05   -4.073429509064003e-08   2.2553778258458057e-05
2.838684690967052e-06   -2.779222617656143e-06   4.671255348631426e-05
2.838684690967052e-06   -2.779222617656143e-06   4.671255348631426e-05
2.838684690967052e-06   -2.779222617656143e-06   4.671255348631426e-05
2.838684690967052e-06   -2.779222617656143e-06   4.671255348631426e-05
-2.661213761444948e-05   1.9738625683133823e-06   4.797007555348235e-07
-2.661213761444948e-05   1.9738625683133823e-06   4.797007555348235e-07
-2.661213761444948e-05   1.9738625683133823e-06   4.797007555348235e-07
-2.661213761444948e-05   1.9738625683133823e-06   4.797007555348235e-07
-2.795928655978692e-05   -2.9596080516323432e-06   5.055740340324279e-05
-2.795928655978692e-05   -2.9596080516323432e-06   5.055740340324279e-05
-2.795928655978692e-05   -2.9596080516323432e-06   5.055740340324279e-05
-2.795928655978692e-05   -2.9596080516323432e-06   5.055740340324279e-05
1.7002242124045976e-06   1.5841384604460204e-06   -1.6013624576563642e-06
1.7002242124045976e-06   1.5841384604460204e-06   -1.6013624576563642e-06
1.7002242124045976e-06   1.5841384604460204e-06   -1.6013624576563642e-06
1.7002242124045976e-06   1.5841384604460204e-06   -1.6013624576563642e-06
-1.2382797300709047e-05   -1.5843938637287447e-07   2.2915886772290777e-05
-1.2382797300709047e-05   -1.5843938637287447e-07   2.2915886772290777e-05
-1.2382797300709047e-05   -1.5843938637287447e-07   2.2915886772290777e-05
-1.2382797300709047e-05   -1.5843938637287447e-07   2.2915886772290777e-05
1.7002242124045976e-06   -2.9596080516323432e-06   4.78311554959962e-05
1.7002242124045976e-06   -2.9596080516323432e-06   4.78311554959962e-05
1.7002242124045976e-06   -2.9596080516323432e-06   4.78311554959962e-05
1.7002242124045976e-06   -2.9596080516323432e-06   4.78311554959962e-05
-2.795928655978692e-05   1.5841384604460204e-06   1.1248854495903016e-06
-2.795928655978692e-05   1.5841384604460204e-06   1.1248854495903016e-06
-2.795928655978692e-05   1.5841384604460204e-06   1.1248854495903016e-06
-2.795928655978692e-05   1.5841384604460204e-06   1.1248854495903016e-06
-2.9394577182824508e-05   -2.9421808994197114e-06   5.174850965081819e-05
-2.9394577182824508e-05   -2.9421808994197114e-06   5.174850965081819e-05
-2.9394577182824508e-05   -2.9421808994197114e-06   5.174850965081819e-05
-2.9394577182824508e-05   -2.9421808994197114e-06   5.174850965081819e-05
4.425798981171628e-07   1.3034242374119348e-06   -5.274485661837668e-07
4.425798981171628e-07   1.3034242374119348e-06   -5.274485661837668e-07
4.425798981171628e-07   1.3034242374119348e-06   -5.274485661837668e-07
4.425798981171628e-07   1.3034242374119348e-06   -5.274485661837668e-07
-1.36468411743512e-05   -2.429196544482051e-07   2.388272622304684e-05
-1.36468411743512e-05   -2.429196544482051e-07   2.388272622304684e-05
-1.36468411743512e-05   -2.429196544482051e-07   2.388272622304684e-05
-1.36468411743512e-05   -2.429196544482051e-07   2.388272622304684e-05
-2.5607308221600587e-05   2.827269092582803e-06   4.1753423216787195e-05
-2.5607308221600587e-05   2.827269092582803e-06   4.1753423216787195e-05
-2.5607308221600587e-05   2.827269092582803e-06   4.1753423216787195e-05
-2.5607308221600587e-05   2.827269092582803e-06   4.1753423216787195e-05
-5.434848059731898e-05   7.794469639073494e-06   -3.168210414848747e-06
-5.434848059731898e-05   7.794469639073494e-06   -3.168210414848747e-06
-5.434848059731898e-05   7.794469639073494e-06   -3.168210414848747e-06
-5.434848059731898e-05   7.794469639073494e-06   -3.168210414848747e-06
-5.581198188205923e-05   2.658189044367834e-06   4.6215991931657964e-05
-5.581198188205923e-05   2.658189044367834e-06   4.6215991931657964e-05
-5.581198188205923e-05   2.658189044367834e-06   4.6215991931657964e-05
-5.581198188205923e-05   2.658189044367834e-06   4.6215991931657964e-05
-2.6612137614449426e-05   7.374760698072771e-06   -5.28035817324809e-06
-2.6612137614449426e-05   7.374760698072771e-06   -5.28035817324809e-06
-2.6612137614449426e-05   7.374760698072771e-06   -5.28035817324809e-06
-2.6612137614449426e-05   7.374760698072771e-06   -5.28035817324809e-06
-4.027479907054201e-05   5.253630827289912e-06   1.876342217604259e-05
-4.027479907054201e-05   5.253630827289912e-06   1.876342217604259e-05
-4.027479907054201e-05   5.253630827289912e-06   1.876342217604259e-05
-4.027479907054201e-05   5.253630827289912e-06   1.876342217604259e-05
-2.661213761444948e-05   2.658189044367834e-06   4.338604893943483e-05
-2.661213761444948e-05   2.658189044367834e-06   4.338604893943483e-05
-2.661213761444948e-05   2.658189044367834e-06   4.338604893943483e-05
-2.661213761444948e-05   2.658189044367834e-06   4.338604893943483e-05
-5.581198188205915e-05   7.374760698072771e-06   -2.4504151810249546e-06
-5.581198188205915e-05   7.374760698072771e-06   -2.4504151810249546e-06
-5.581198188205915e-05   7.374760698072771e-06   -2.4504151810249546e-06
-5.581198188205915e-05   7.374760698072771e-06   -2.4504151810249546e-06
-5.7605497509611214e-05   2.3467086369259073e-06   4.905099810805424e-05
-5.7605497509611214e-05   2.3467086369259073e-06   4.905099810805424e-05
-5.7605497509611214e-05   2.3467086369259073e-06   4.905099810805424e-05
-5.7605497509611214e-05   2.3467086369259073e-06   4.905099810805424e-05
-2.795928655978692e-05   6.986590794501053e-06   -3.1432827695315247e-06
-2.795928655978692e-05   6.986590794501053e-06   -3.1432827695315247e-06
-2.795928655978692e-05   6.986590794501053e-06   -3.1432827695315247e-06
-2.795928655978692e-05   6.986590794501053e-06   -3.1432827695315247e-06
-4.136490760771142e-05   5.156823274721917e-06   2.0297279488877204e-05
-4.136490760771142e-05   5.156823274721917e-06   2.0297279488877204e-05
-4.136490760771142e-05   5.156823274721917e-06   2.0297279488877204e-05
-4.136490760771142e-05   5.156823274721917e-06   2.0297279488877204e-05
-2.7959286559786894e-05   2.3467086369259073e-06   4.626706881350894e-05
-2.7959286559786894e-05   2.3467086369259073e-06   4.626706881350894e-05
-2.7959286559786894e-05   2.3467086369259073e-06   4.626706881350894e-05
-2.7959286559786894e-05   2.3467086369259073e-06   4.626706881350894e-05
-5.7605497509611106e-05   6.986590794501053e-06   -3.593534749861665e-07
-5.7605497509611106e-05   6.986590794501053e-06   -3.593534749861665e-07
-5.7605497509611106e-05   6.986590794501053e-06   -3.593534749861665e-07
-5.7605497509611106e-05   6.986590794501053e-06   -3.593534749861665e-07
-5.950320035268299e-05   1.9940689242876723e-06   5.130838107034641e-05
-5.950320035268299e-05   1.9940689242876723e-06   5.130838107034641e-05
-5.950320035268299e-05   1.9940689242876723e-06   5.130838107034641e-05
-5.950320035268299e-05   1.9940689242876723e-06   5.130838107034641e-05
-2.9394577182824454e-05   6.464767726921394e-06   -1.5550768276647079e-06
-2.9394577182824454e-05   6.464767726921394e-06   -1.5550768276647079e-06
-2.9394577182824454e-05   6.464767726921394e-06   -1.5550768276647079e-06
-2.9394577182824454e-05   6.464767726921394e-06   -1.5550768276647079e-06
-4.318057212707147e-05   4.841839746962725e-06   2.239533820072359e-05
-4.318057212707147e-05   4.841839746962725e-06   2.239533820072359e-05
-4.318057212707147e-05   4.841839746962725e-06   2.239533820072359e-05
-4.318057212707147e-05   4.841839746962725e-06   2.239533820072359e-05
-5.434848059731898e-05   1.2860704803445595e-05   2.1983396923452164e-05
-5.434848059731898e-05   1.2860704803445595e-05   2.1983396923452164e-05
-5.434848059731898e-05   1.2860704803445595e-05   2.1983396923452164e-05
-5.434848059731898e-05   1.2860704803445595e-05   2.1983396923452164e-05
-8.187383879926355e-05   1.2676334538369322e-05   -2.4002822238834926e-05
-8.187383879926355e-05   1.2676334538369322e-05   -2.4002822238834926e-05
-8.187383879926355e-05   1.2676334538369322e-05   -2.4002822238834926e-05
-8.187383879926355e-05   1.2676334538369322e-05   -2.4002822238834926e-05
-8.450096985622899e-05   1.2412402446800551e-05   3.2565901362337875e-05
-8.450096985622899e-05   1.2412402446800551e-05   3.2565901362337875e-05
-8.450096985622899e-05   1.2412402446800551e-05   3.2565901362337875e-05
-8.450096985622899e-05   1.2412402446800551e-05   3.2565901362337875e-05
-5.581198188205915e-05   1.2919520539598963e-05   -1.5553349450290988e-05
-5.581198188205915e-05   1.2919520539598963e-05   -1.5553349450290988e-05
-5.581198188205915e-05   1.2919520539598963e-05   -1.5553349450290988e-05
-5.581198188205915e-05   1.2919520539598963e-05   -1.5553349450290988e-05
-6.635108368661691e-05   1.2917414157091744e-05   2.013084053476455e-06
-6.635108368661691e-05   1.2917414157091744e-05   2.013084053476455e-06
-6.635108368661691e-05   1.2917414157091744e-05   2.013084053476455e-06
-6.635108368661691e-05   1.2917414157091744e-05   2.013084053476455e-06
-5.581198188205907e-05   1.2412402446800551e-05   3.2261630506659044e-05
-5.581198188205907e-05   1.2412402446800551e-05   3.2261630506659044e-05
-5.581198188205907e-05   1.2412402446800551e-05   3.2261630506659044e-05
-5.581198188205907e-05   1.2412402446800551e-05   3.2261630506659044e-05
-8.450096985622899e-05   1.2919520539598963e-05   -1.5249078594611887e-05
-8.450096985622899e-05   1.2919520539598963e-05   -1.5249078594611887e-05
-8.450096985622899e-05   1.2919520539598963e-05   -1.5249078594611887e-05
-8.450096985622899e-05   1.2919520539598963e-05   -1.5249078594611887e-05
-8.707726732349501e-05   1.2094000232571595e-05   3.999516512663559e-05
-8.707726732349501e-05   1.2094000232571595e-05   3.999516512663559e-05
-8.707726732349501e-05   1.2094000232571595e-05   3.999516512663559e-05
-8.707726732349501e-05   1.2094000232571595e-05   3.999516512663559e-05
-5.7605497509611106e-05   1.2826449112958698e-05   -9.563920558069853e-06
-5.7605497509611106e-05   1.2826449112958698e-05   -9.563920558069853e-06
-5.7605497509611106e-05   1.2826449112958698e-05   -9.563920558069853e-06
-5.7605497509611106e-05   1.2826449112958698e-05   -9.563920558069853e-06
-6.936299691385362e-05   1.2915514387101985e-05   9.978472617849375e-06
-6.936299691385362e-05   1.2915514387101985e-05   9.978472617849375e-06
-6.936299691385362e-05   1.2915514387101985e-05   9.978472617849375e-06
-6.936299691385362e-05   1.2915514387101985e-05   9.978472617849375e-06
-5.7605497509611106e-05   1.209400023257116e-05   3.9555695798403415e-05
-5.7605497509611106e-05   1.209400023257116e-05   3.9555695798403415e-05
-5.7605497509611106e-05   1.209400023257116e-05   3.9555695798403415e-05
-5.7605497509611106e-05   1.209400023257116e-05   3.9555695798403415e-05
-8.707726732349517e-05   1.2826449112958698e-05   -9.12445122983746e-06
-8.707726732349517e-05   1.2826449112958698e-05   -9.12445122983746e-06
-8.707726732349517e-05   1.2826449112958698e-05   -9.12445122983746e-06
-8.707726732349517e-05   1.2826449112958698e-05   -9.12445122983746e-06
-9.011563306867437e-05   1.0071214612927641e-05   5.240926192405602e-05
-9.011563306867437e-05   1.0071214612927641e-05   5.240926192405602e-05
-9.011563306867437e-05   1.0071214612927641e-05   5.240926192405602e-05
-9.011563306867437e-05   1.0071214612927641e-05   5.240926192405602e-05
-5.950320035268288e-05   1.1807633575893536e-05   3.4668935295739363e-07
-5.950320035268288e-05   1.1807633575893536e-05   3.4668935295739363e-07
-5.950320035268288e-05   1.1807633575893536e-05   3.4668935295739363e-07
-5.950320035268288e-05   1.1807633575893536e-05   3.4668935295739363e-07
-7.044359442430516e-05   1.230232679180071e-05   1.828386354278406e-05
-7.044359442430516e-05   1.230232679180071e-05   1.828386354278406e-05
-7.044359442430516e-05   1.230232679180071e-05   1.828386354278406e-05
-7.044359442430516e-05   1.230232679180071e-05   1.828386354278406e-05
5.45396972849752e-05   -7.630057605617982e-06   4.208842606184403e-05
5.45396972849752e-05   -7.630057605617982e-06   4.208842606184403e-05
5.45396972849752e-05   -7.630057605617982e-06   4.208842606184403e-05
5.45396972849752e-05   -7.630057605617982e-06   4.208842606184403e-05
2.7002767390650906e-05   -5.593705539798377e-06   -2.5846458558715247e-06
2.7002767390650906e-05   -5.593705539798377e-06   -2.5846458558715247e-06
2.7002767390650906e-05   -5.593705539798377e-06   -2.5846458558715247e-06
2.7002767390650906e-05   -5.593705539798377e-06   -2.5846458558715247e-06
2.5968609423841807e-05   -8.647924561870721e-06   3.660039065241918e-05
2.5968609423841807e-05   -8.647924561870721e-06   3.660039065241918e-05
2.5968609423841807e-05   -8.647924561870721e-06   3.660039065241918e-05
2.5968609423841807e-05   -8.647924561870721e-06   3.660039065241918e-05
5.2637738084206516e-05   -6.490404331577389e-06   -9.142669253031091e-06
5.2637738084206516e-05   -6.490404331577389e-06   -9.142669253031091e-06
5.2637738084206516e-05   -6.490404331577389e-06   -9.142669253031091e-06
5.2637738084206516e-05   -6.490404331577389e-06   -9.142669253031091e-06
3.8204176871739886e-05   -7.01797480640769e-06   1.5229808385978084e-05
3.8204176871739886e-05   -7.01797480640769e-06   1.5229808385978084e-05
3.8204176871739886e-05   -7.01797480640769e-06   1.5229808385978084e-05
3.8204176871739886e-05   -7.01797480640769e-06   1.5229808385978084e-05
5.263773808420642e-05   -8.647924561870721e-06   3.530587851424314e-05
5.263773808420642e-05   -8.647924561870721e-06   3.530587851424314e-05
5.263773808420642e-05   -8.647924561870721e-06   3.530587851424314e-05
5.263773808420642e-05   -8.647924561870721e-06   3.530587851424314e-05
2.5968609423841902e-05   -6.490404331577389e-06   -7.84815711485495e-06
2.5968609423841902e-05   -6.490404331577389e-06   -7.84815711485495e-06
2.5968609423841902e-05   -6.490404331577389e-06   -7.84815711485495e-06
2.5968609423841902e-05   -6.490404331577389e-06   -7.84815711485495e-06
2.4819483292451375e-05   -8.799262132522159e-06   3.280088186007296e-05
2.4819483292451375e-05   -8.799262132522159e-06   3.280088186007296e-05
2.4819483292451375e-05   -8.799262132522159e-06   3.280088186007296e-05
2.4819483292451375e-05   -8.799262132522159e-06   3.280088186007296e-05
5.091549737167148e-05   -6.6705857671781055e-06   -1.1969680757833405e-05
5.091549737167148e-05   -6.6705857671781055e-06   -1.1969680757833405e-05
5.091549737167148e-05   -6.6705857671781055e-06   -1.1969680757833405e-05
5.091549737167148e-05   -6.6705857671781055e-06   -1.1969680757833405e-05
3.748818704771355e-05   -7.365469335073038e-06   1.082609992283343e-05
3.748818704771355e-05   -7.365469335073038e-06   1.082609992283343e-05
3.748818704771355e-05   -7.365469335073038e-06   1.082609992283343e-05
3.748818704771355e-05   -7.365469335073038e-06   1.082609992283343e-05
5.0915497371671304e-05   -8.799262132522159e-06   3.1523676040866614e-05
5.0915497371671304e-05   -8.799262132522159e-06   3.1523676040866614e-05
5.0915497371671304e-05   -8.799262132522159e-06   3.1523676040866614e-05
5.0915497371671304e-05   -8.799262132522159e-06   3.1523676040866614e-05
2.4819483292451422e-05   -6.6705857671781055e-06   -1.0692474938627135e-05
2.4819483292451422e-05   -6.6705857671781055e-06   -1.0692474938627135e-05
2.4819483292451422e-05   -6.6705857671781055e-06   -1.0692474938627135e-05
2.4819483292451422e-05   -6.6705857671781055e-06   -1.0692474938627135e-05
2.3714272992903785e-05   -8.743790107493613e-06   2.7502803438718328e-05
2.3714272992903785e-05   -8.743790107493613e-06   2.7502803438718328e-05
2.3714272992903785e-05   -8.743790107493613e-06   2.7502803438718328e-05
2.3714272992903785e-05   -8.743790107493613e-06   2.7502803438718328e-05
4.896495729940515e-05   -6.743614587078305e-06   -1.5781775717699856e-05
4.896495729940515e-05   -6.743614587078305e-06   -1.5781775717699856e-05
4.896495729940515e-05   -6.743614587078305e-06   -1.5781775717699856e-05
4.896495729940515e-05   -6.743614587078305e-06   -1.5781775717699856e-05
3.555766108407965e-05   -7.2410752378860785e-06   6.862194364994751e-06
3.555766108407965e-05   -7.2410752378860785e-06   6.862194364994751e-06
3.555766108407965e-05   -7.2410752378860785e-06   6.862194364994751e-06
3.555766108407965e-05   -7.2410752378860785e-06   6.862194364994751e-06
2.7002767390650906e-05   -2.6923844291706737e-06   4.417661442502512e-05
2.7002767390650906e-05   -2.6923844291706737e-06   4.417661442502512e-05
2.7002767390650906e-05   -2.6923844291706737e-06   4.417661442502512e-05
2.7002767390650906e-05   -2.6923844291706737e-06   4.417661442502512e-05
1.1552241681125918e-06   -1.0698245899824765e-06   2.070911624307576e-06
1.1552241681125918e-06   -1.0698245899824765e-06   2.070911624307576e-06
1.1552241681125918e-06   -1.0698245899824765e-06   2.070911624307576e-06
1.1552241681125918e-06   -1.0698245899824765e-06   2.070911624307576e-06
1.624844307917617e-07   -3.239386486177196e-06   4.463679757808086e-05
1.624844307917617e-07   -3.239386486177196e-06   4.463679757808086e-05
1.624844307917617e-07   -3.239386486177196e-06   4.463679757808086e-05
1.624844307917617e-07   -3.239386486177196e-06   4.463679757808086e-05
2.5968609423841902e-05   -1.705712736240969e-06   7.063850063690605e-07
2.5968609423841902e-05   -1.705712736240969e-06   7.063850063690605e-07
2.5968609423841902e-05   -1.705712736240969e-06   7.063850063690605e-07
2.5968609423841902e-05   -1.705712736240969e-06   7.063850063690605e-07
1.3407597093655883e-05   -2.0962083382789626e-06   2.1875702917901866e-05
1.3407597093655883e-05   -2.0962083382789626e-06   2.1875702917901866e-05
1.3407597093655883e-05   -2.0962083382789626e-06   2.1875702917901866e-05
1.3407597093655883e-05   -2.0962083382789626e-06   2.1875702917901866e-05
2.5968609423841875e-05   -3.239386486177196e-06   4.3716593328119125e-05
2.5968609423841875e-05   -3.239386486177196e-06   4.3716593328119125e-05
2.5968609423841875e-05   -3.239386486177196e-06   4.3716593328119125e-05
2.5968609423841875e-05   -3.239386486177196e-06   4.3716593328119125e-05
1.624844307917617e-07   -1.705712736240969e-06   1.6265892563305934e-06
1.624844307917617e-07   -1.705712736240969e-06   1.6265892563305934e-06
1.624844307917617e-07   -1.705712736240969e-06   1.6265892563305934e-06
1.624844307917617e-07   -1.705712736240969e-06   1.6265892563305934e-06
-8.694037356559857e-07   -3.5981140617878486e-06   4.396518788892336e-05
-8.694037356559857e-07   -3.5981140617878486e-06   4.396518788892336e-05
-8.694037356559857e-07   -3.5981140617878486e-06   4.396518788892336e-05
-8.694037356559857e-07   -3.5981140617878486e-06   4.396518788892336e-05
2.4819483292451422e-05   -2.1781404421169527e-06   2.9839200360849097e-07
2.4819483292451422e-05   -2.1781404421169527e-06   2.9839200360849097e-07
2.4819483292451422e-05   -2.1781404421169527e-06   2.9839200360849097e-07
2.4819483292451422e-05   -2.1781404421169527e-06   2.9839200360849097e-07
1.2268014957881943e-05   -2.4293995671709895e-06   2.1368261369590484e-05
1.2268014957881943e-05   -2.4293995671709895e-06   2.1368261369590484e-05
1.2268014957881943e-05   -2.4293995671709895e-06   2.1368261369590484e-05
1.2268014957881943e-05   -2.4293995671709895e-06   2.1368261369590484e-05
2.4819483292451375e-05   -3.5981140617878486e-06   4.311320371712065e-05
2.4819483292451375e-05   -3.5981140617878486e-06   4.311320371712065e-05
2.4819483292451375e-05   -3.5981140617878486e-06   4.311320371712065e-05
2.4819483292451375e-05   -3.5981140617878486e-06   4.311320371712065e-05
-8.694037356559857e-07   -2.1781404421169527e-06   1.1503761754110258e-06
-8.694037356559857e-07   -2.1781404421169527e-06   1.1503761754110258e-06
-8.694037356559857e-07   -2.1781404421169527e-06   1.1503761754110258e-06
-8.694037356559857e-07   -2.1781404421169527e-06   1.1503761754110258e-06
-1.943670964669599e-06   -3.7518492833994374e-06   4.4303762304167583e-05
-1.943670964669599e-06   -3.7518492833994374e-06   4.4303762304167583e-05
-1.943670964669599e-06   -3.7518492833994374e-06   4.4303762304167583e-05
-1.943670964669599e-06   -3.7518492833994374e-06   4.4303762304167583e-05
2.3714272992903853e-05   -2.5508875457756243e-06   8.199453323041696e-07
2.3714272992903853e-05   -2.5508875457756243e-06   8.199453323041696e-07
2.3714272992903853e-05   -2.5508875457756243e-06   8.199453323041696e-07
2.3714272992903853e-05   -2.5508875457756243e-06   8.199453323041696e-07
1.1411100055431086e-05   -2.608388104331956e-06   2.135973389655996e-05
1.1411100055431086e-05   -2.608388104331956e-06   2.135973389655996e-05
1.1411100055431086e-05   -2.608388104331956e-06   2.135973389655996e-05
1.1411100055431086e-05   -2.608388104331956e-06   2.135973389655996e-05
1.1552241681125918e-06   2.3925221635510453e-06   4.560756570227108e-05
1.1552241681125918e-06   2.3925221635510453e-06   4.560756570227108e-05
1.1552241681125918e-06   2.3925221635510453e-06   4.560756570227108e-05
1.1552241681125918e-06   2.3925221635510453e-06   4.560756570227108e-05
-2.3937209656559825e-05   3.473271255220907e-06   4.435292116152347e-06
-2.3937209656559825e-05   3.473271255220907e-06   4.435292116152347e-06
-2.3937209656559825e-05   3.473271255220907e-06   4.435292116152347e-06
-2.3937209656559825e-05   3.473271255220907e-06   4.435292116152347e-06
-2.4974456331288087e-05   1.9738625683129486e-06   4.623541173806936e-05
-2.4974456331288087e-05   1.9738625683129486e-06   4.623541173806936e-05
-2.4974456331288087e-05   1.9738625683129486e-06   4.623541173806936e-05
-2.4974456331288087e-05   1.9738625683129486e-06   4.623541173806936e-05
1.624844307917617e-07   2.9440662372291933e-06   3.7583882665867692e-06
1.624844307917617e-07   2.9440662372291933e-06   3.7583882665867692e-06
1.624844307917617e-07   2.9440662372291933e-06   3.7583882665867692e-06
1.624844307917617e-07   2.9440662372291933e-06   3.7583882665867692e-06
-1.1916921923181404e-05   2.72669140019121e-06   2.402115709209849e-05
-1.1916921923181404e-05   2.72669140019121e-06   2.402115709209849e-05
-1.1916921923181404e-05   2.72669140019121e-06   2.402115709209849e-05
-1.1916921923181404e-05   2.72669140019121e-06   2.402115709209849e-05
1.624844307917617e-07   1.9738625683129486e-06   4.5653289536719786e-05
1.624844307917617e-07   1.9738625683129486e-06   4.5653289536719786e-05
1.624844307917617e-07   1.9738625683129486e-06   4.5653289536719786e-05
1.624844307917617e-07   1.9738625683129486e-06   4.5653289536719786e-05
-2.4974456331288087e-05   2.9440662372291933e-06   4.340510467936397e-06
-2.4974456331288087e-05   2.9440662372291933e-06   4.340510467936397e-06
-2.4974456331288087e-05   2.9440662372291933e-06   4.340510467936397e-06
-2.4974456331288087e-05   2.9440662372291933e-06   4.340510467936397e-06
-2.6069777361384584e-05   1.5841384604455867e-06   4.667181107648405e-05
-2.6069777361384584e-05   1.5841384604455867e-06   4.667181107648405e-05
-2.6069777361384584e-05   1.5841384604455867e-06   4.667181107648405e-05
-2.6069777361384584e-05   1.5841384604455867e-06   4.667181107648405e-05
-8.694037356559857e-07   2.430205583512767e-06   4.163548093096063e-06
-8.694037356559857e-07   2.430205583512767e-06   4.163548093096063e-06
-8.694037356559857e-07   2.430205583512767e-06   4.163548093096063e-06
-8.694037356559857e-07   2.430205583512767e-06   4.163548093096063e-06
-1.2880487064983017e-05   2.424547907756494e-06   2.4185414914094808e-05
-1.2880487064983017e-05   2.424547907756494e-06   2.4185414914094808e-05
-1.2880487064983017e-05   2.424547907756494e-06   2.4185414914094808e-05
-1.2880487064983017e-05   2.424547907756494e-06   2.4185414914094808e-05
-8.694037356559857e-07   1.5841384604460204e-06   4.616417080264396e-05
-8.694037356559857e-07   1.5841384604460204e-06   4.616417080264396e-05
-8.694037356559857e-07   1.5841384604460204e-06   4.616417080264396e-05
-8.694037356559857e-07   1.5841384604460204e-06   4.616417080264396e-05
-2.6069777361384584e-05   2.430205583512767e-06   4.671188366936561e-06
-2.6069777361384584e-05   2.430205583512767e-06   4.671188366936561e-06
-2.6069777361384584e-05   2.430205583512767e-06   4.671188366936561e-06
-2.6069777361384584e-05   2.430205583512767e-06   4.671188366936561e-06
-2.72000654575232e-05   1.3034242374123685e-06   4.7365433985757655e-05
-2.72000654575232e-05   1.3034242374123685e-06   4.7365433985757655e-05
-2.72000654575232e-05   1.3034242374123685e-06   4.7365433985757655e-05
-2.72000654575232e-05   1.3034242374123685e-06   4.7365433985757655e-05
-1.943670964669599e-06   1.9728040452867725e-06   4.869815279610055e-06
-1.943670964669599e-06   1.9728040452867725e-06   4.869815279610055e-06
-1.943670964669599e-06   1.9728040452867725e-06   4.869815279610055e-06
-1.943670964669599e-06   1.9728040452867725e-06   4.869815279610055e-06
-1.3923222440105901e-05   2.135078011292202e-06   2.473837002573475e-05
-1.3923222440105901e-05   2.135078011292202e-06   2.473837002573475e-05
-1.3923222440105901e-05   2.135078011292202e-06   2.473837002573475e-05
-1.3923222440105901e-05   2.135078011292202e-06   2.473837002573475e-05
-2.3937209656559906e-05   7.794469639073928e-06   3.978656997203722e-05
-2.3937209656559906e-05   7.794469639073928e-06   3.978656997203722e-05
-2.3937209656559906e-05   7.794469639073928e-06   3.978656997203722e-05
-2.3937209656559906e-05   7.794469639073928e-06   3.978656997203722e-05
-4.823865248202076e-05   7.89310634194797e-06   -6.566527153395972e-07
-4.823865248202076e-05   7.89310634194797e-06   -6.566527153395972e-07
-4.823865248202076e-05   7.89310634194797e-06   -6.566527153395972e-07
-4.823865248202076e-05   7.89310634194797e-06   -6.566527153395972e-07
-4.944283468123818e-05   7.374760698072771e-06   4.048310892482078e-05
-4.944283468123818e-05   7.374760698072771e-06   4.048310892482078e-05
-4.944283468123818e-05   7.374760698072771e-06   4.048310892482078e-05
-4.944283468123818e-05   7.374760698072771e-06   4.048310892482078e-05
-2.497445633128814e-05   7.3876875572964455e-06   -3.0527777396336785e-07
-2.497445633128814e-05   7.3876875572964455e-06   -3.0527777396336785e-07
-2.497445633128814e-05   7.3876875572964455e-06   -3.0527777396336785e-07
-2.497445633128814e-05   7.3876875572964455e-06   -3.0527777396336785e-07
-3.64845121335567e-05   7.594203086608818e-06   1.8754239245563522e-05
-3.64845121335567e-05   7.594203086608818e-06   1.8754239245563522e-05
-3.64845121335567e-05   7.594203086608818e-06   1.8754239245563522e-05
-3.64845121335567e-05   7.594203086608818e-06   1.8754239245563522e-05
-2.497445633128814e-05   7.374760698072771e-06   4.047535280928666e-05
-2.497445633128814e-05   7.374760698072771e-06   4.047535280928666e-05
-2.497445633128814e-05   7.374760698072771e-06   4.047535280928666e-05
-2.497445633128814e-05   7.374760698072771e-06   4.047535280928666e-05
-4.944283468123818e-05   7.3876875572964455e-06   -2.9752165842935815e-07
-4.944283468123818e-05   7.3876875572964455e-06   -2.9752165842935815e-07
-4.944283468123818e-05   7.3876875572964455e-06   -2.9752165842935815e-07
-4.944283468123818e-05   7.3876875572964455e-06   -2.9752165842935815e-07
-5.077748029737333e-05   6.986590794501053e-06   4.2364772476314065e-05
-5.077748029737333e-05   6.986590794501053e-06   4.2364772476314065e-05
-5.077748029737333e-05   6.986590794501053e-06   4.2364772476314065e-05
-5.077748029737333e-05   6.986590794501053e-06   4.2364772476314065e-05
-2.606977736138461e-05   6.921806826087722e-06   1.22413796404782e-06
-2.606977736138461e-05   6.921806826087722e-06   1.22413796404782e-06
-2.606977736138461e-05   6.921806826087722e-06   1.22413796404782e-06
-2.606977736138461e-05   6.921806826087722e-06   1.22413796404782e-06
-3.7355241701118996e-05   7.308729321000001e-06   1.980109169999125e-05
-3.7355241701118996e-05   7.308729321000001e-06   1.980109169999125e-05
-3.7355241701118996e-05   7.308729321000001e-06   1.980109169999125e-05
-3.7355241701118996e-05   7.308729321000001e-06   1.980109169999125e-05
-2.6069777361384584e-05   6.986590794501053e-06   4.240364285736206e-05
-2.6069777361384584e-05   6.986590794501053e-06   4.240364285736206e-05
-2.6069777361384584e-05   6.986590794501053e-06   4.240364285736206e-05
-2.6069777361384584e-05   6.986590794501053e-06   4.240364285736206e-05
-5.077748029737333e-05   6.921806826087722e-06   1.1852675829994962e-06
-5.077748029737333e-05   6.921806826087722e-06   1.1852675829994962e-06
-5.077748029737333e-05   6.921806826087722e-06   1.1852675829994962e-06
-5.077748029737333e-05   6.921806826087722e-06   1.1852675829994962e-06
-5.204947430371978e-05   6.464767726921394e-06   4.372332877967044e-05
-5.204947430371978e-05   6.464767726921394e-06   4.372332877967044e-05
-5.204947430371978e-05   6.464767726921394e-06   4.372332877967044e-05
-5.204947430371978e-05   6.464767726921394e-06   4.372332877967044e-05
-2.72000654575232e-05   6.352911289409652e-06   2.3747612318498817e-06
-2.72000654575232e-05   6.352911289409652e-06   2.3747612318498817e-06
-2.72000654575232e-05   6.352911289409652e-06   2.3747612318498817e-06
-2.72000654575232e-05   6.352911289409652e-06   2.3747612318498817e-06
-3.874016061340585e-05   6.938014142785203e-06   2.1257191446297295e-05
-3.874016061340585e-05   6.938014142785203e-06   2.1257191446297295e-05
-3.874016061340585e-05   6.938014142785203e-06   2.1257191446297295e-05
-3.874016061340585e-05   6.938014142785203e-06   2.1257191446297295e-05
-4.8238652482020624e-05   1.2676334538369322e-05   1.9121762328821795e-05
-4.8238652482020624e-05   1.2676334538369322e-05   1.9121762328821795e-05
-4.8238652482020624e-05   1.2676334538369322e-05   1.9121762328821795e-05
-4.8238652482020624e-05   1.2676334538369322e-05   1.9121762328821795e-05
-7.132865632784055e-05   1.136338765971934e-05   -2.0149345541401495e-05
-7.132865632784055e-05   1.136338765971934e-05   -2.0149345541401495e-05
-7.132865632784055e-05   1.136338765971934e-05   -2.0149345541401495e-05
-7.132865632784055e-05   1.136338765971934e-05   -2.0149345541401495e-05
-7.322495478497086e-05   1.2919520539598963e-05   2.6518647475208112e-05
-7.322495478497086e-05   1.2919520539598963e-05   2.6518647475208112e-05
-7.322495478497086e-05   1.2919520539598963e-05   2.6518647475208112e-05
-7.322495478497086e-05   1.2919520539598963e-05   2.6518647475208112e-05
-4.944283468123818e-05   1.1483641905688392e-05   -1.2256692184000153e-05
-4.944283468123818e-05   1.1483641905688392e-05   -1.2256692184000153e-05
-4.944283468123818e-05   1.1483641905688392e-05   -1.2256692184000153e-05
-4.944283468123818e-05   1.1483641905688392e-05   -1.2256692184000153e-05
-5.82399769794513e-05   1.2040257788627304e-05   2.0712421165921028e-06
-5.82399769794513e-05   1.2040257788627304e-05   2.0712421165921028e-06
-5.82399769794513e-05   1.2040257788627304e-05   2.0712421165921028e-06
-5.82399769794513e-05   1.2040257788627304e-05   2.0712421165921028e-06
-4.944283468123807e-05   1.2919520539598963e-05   2.7380174655554368e-05
-4.944283468123807e-05   1.2919520539598963e-05   2.7380174655554368e-05
-4.944283468123807e-05   1.2919520539598963e-05   2.7380174655554368e-05
-4.944283468123807e-05   1.2919520539598963e-05   2.7380174655554368e-05
-7.322495478497102e-05   1.1483641905688392e-05   -1.3118219364346572e-05
-7.322495478497102e-05   1.1483641905688392e-05   -1.3118219364346572e-05
-7.322495478497102e-05   1.1483641905688392e-05   -1.3118219364346572e-05
-7.322495478497102e-05   1.1483641905688392e-05   -1.3118219364346572e-05
-7.507663855891211e-05   1.2826449112958264e-05   3.227864039105806e-05
-7.507663855891211e-05   1.2826449112958264e-05   3.227864039105806e-05
-7.507663855891211e-05   1.2826449112958264e-05   3.227864039105806e-05
-7.507663855891211e-05   1.2826449112958264e-05   3.227864039105806e-05
-5.077748029737333e-05   1.1357174109338092e-05   -7.338391709334853e-06
-5.077748029737333e-05   1.1357174109338092e-05   -7.338391709334853e-06
-5.077748029737333e-05   1.1357174109338092e-05   -7.338391709334853e-06
-5.077748029737333e-05   1.1357174109338092e-05   -7.338391709334853e-06
-6.056949985100855e-05   1.2259937469569562e-05   8.43998286391976e-06
-6.056949985100855e-05   1.2259937469569562e-05   8.43998286391976e-06
-6.056949985100855e-05   1.2259937469569562e-05   8.43998286391976e-06
-6.056949985100855e-05   1.2259937469569562e-05   8.43998286391976e-06
-5.077748029737333e-05   1.2826449112958698e-05   3.316020539323038e-05
-5.077748029737333e-05   1.2826449112958698e-05   3.316020539323038e-05
-5.077748029737333e-05   1.2826449112958698e-05   3.316020539323038e-05
-5.077748029737333e-05   1.2826449112958698e-05   3.316020539323038e-05
-7.507663855891227e-05   1.1357174109338092e-05   -8.219956711506956e-06
-7.507663855891227e-05   1.1357174109338092e-05   -8.219956711506956e-06
-7.507663855891227e-05   1.1357174109338092e-05   -8.219956711506956e-06
-7.507663855891227e-05   1.1357174109338092e-05   -8.219956711506956e-06
-7.723922847593503e-05   1.1807633575893536e-05   4.2146846104097226e-05
-7.723922847593503e-05   1.1807633575893536e-05   4.2146846104097226e-05
-7.723922847593503e-05   1.1807633575893536e-05   4.2146846104097226e-05
-7.723922847593503e-05   1.1807633575893536e-05   4.2146846104097226e-05
-5.204947430371978e-05   1.0481250951535279e-05   9.597520583531764e-07
-5.204947430371978e-05   1.0481250951535279e-05   9.597520583531764e-07
-5.204947430371978e-05   1.0481250951535279e-05   9.597520583531764e-07
-5.204947430371978e-05   1.0481250951535279e-05   9.597520583531764e-07
-6.116171497287023e-05   1.1898576898527417e-05   1.529642427207617e-05
-6.116171497287023e-05   1.1898576898527417e-05   1.529642427207617e-05
-6.116171497287023e-05   1.1898576898527417e-05   1.529642427207617e-05
-6.116171497287023e-05   1.1898576898527417e-05   1.529642427207617e-05
4.139770900944783e-05   -5.593705539798377e-06   3.513646719389128e-05
4.139770900944783e-05   -5.593705539798377e-06   3.513646719389128e-05
4.139770900944783e-05   -5.593705539798377e-06   3.513646719389128e-05
4.139770900944783e-05   -5.593705539798377e-06   3.513646719389128e-05
1.9489556705882012e-05   -3.696036123353088e-06   -2.385183288510385e-07
1.9489556705882012e-05   -3.696036123353088e-06   -2.385183288510385e-07
1.9489556705882012e-05   -3.696036123353088e-06   -2.385183288510385e-07
1.9489556705882012e-05   -3.696036123353088e-06   -2.385183288510385e-07
1.856597071376126e-05   -6.490404331576955e-06   3.0873695467538214e-05
1.856597071376126e-05   -6.490404331576955e-06   3.0873695467538214e-05
1.856597071376126e-05   -6.490404331576955e-06   3.0873695467538214e-05
1.856597071376126e-05   -6.490404331576955e-06   3.0873695467538214e-05
3.961081788834803e-05   -4.486289501649376e-06   -5.403518721396581e-06
3.961081788834803e-05   -4.486289501649376e-06   -5.403518721396581e-06
3.961081788834803e-05   -4.486289501649376e-06   -5.403518721396581e-06
3.961081788834803e-05   -4.486289501649376e-06   -5.403518721396581e-06
2.8365763995915804e-05   -5.105265080735614e-06   1.3709623113442368e-05
2.8365763995915804e-05   -5.105265080735614e-06   1.3709623113442368e-05
2.8365763995915804e-05   -5.105265080735614e-06   1.3709623113442368e-05
2.8365763995915804e-05   -5.105265080735614e-06   1.3709623113442368e-05
3.961081788834803e-05   -6.490404331577389e-06   2.967122656958145e-05
3.961081788834803e-05   -6.490404331577389e-06   2.967122656958145e-05
3.961081788834803e-05   -6.490404331577389e-06   2.967122656958145e-05
3.961081788834803e-05   -6.490404331577389e-06   2.967122656958145e-05
1.8565970713761288e-05   -4.486289501649376e-06   -4.201049823439763e-06
1.8565970713761288e-05   -4.486289501649376e-06   -4.201049823439763e-06
1.8565970713761288e-05   -4.486289501649376e-06   -4.201049823439763e-06
1.8565970713761288e-05   -4.486289501649376e-06   -4.201049823439763e-06
1.7546621475617324e-05   -6.6705857671781055e-06   2.7877229945419413e-05
1.7546621475617324e-05   -6.6705857671781055e-06   2.7877229945419413e-05
1.7546621475617324e-05   -6.6705857671781055e-06   2.7877229945419413e-05
1.7546621475617324e-05   -6.6705857671781055e-06   2.7877229945419413e-05
3.8044878734275087e-05   -4.697452104295962e-06   -7.470412350072878e-06
3.8044878734275087e-05   -4.697452104295962e-06   -7.470412350072878e-06
3.8044878734275087e-05   -4.697452104295962e-06   -7.470412350072878e-06
3.8044878734275087e-05   -4.697452104295962e-06   -7.470412350072878e-06
2.7624853331939573e-05   -5.425863486058571e-06   1.0333343482877819e-05
2.7624853331939573e-05   -5.425863486058571e-06   1.0333343482877819e-05
2.7624853331939573e-05   -5.425863486058571e-06   1.0333343482877819e-05
2.7624853331939573e-05   -5.425863486058571e-06   1.0333343482877819e-05
3.804487873427502e-05   -6.6705857671781055e-06   2.669334974769017e-05
3.804487873427502e-05   -6.6705857671781055e-06   2.669334974769017e-05
3.804487873427502e-05   -6.6705857671781055e-06   2.669334974769017e-05
3.804487873427502e-05   -6.6705857671781055e-06   2.669334974769017e-05
1.7546621475617358e-05   -4.697452104295962e-06   -6.286532152343554e-06
1.7546621475617358e-05   -4.697452104295962e-06   -6.286532152343554e-06
1.7546621475617358e-05   -4.697452104295962e-06   -6.286532152343554e-06
1.7546621475617358e-05   -4.697452104295962e-06   -6.286532152343554e-06
1.6605426088433296e-05   -6.743614587078305e-06   2.381942423130591e-05
1.6605426088433296e-05   -6.743614587078305e-06   2.381942423130591e-05
1.6605426088433296e-05   -6.743614587078305e-06   2.381942423130591e-05
1.6605426088433296e-05   -6.743614587078305e-06   2.381942423130591e-05
3.629538231775401e-05   -4.8950148941991414e-06   -1.0106329299955943e-05
3.629538231775401e-05   -4.8950148941991414e-06   -1.0106329299955943e-05
3.629538231775401e-05   -4.8950148941991414e-06   -1.0106329299955943e-05
3.629538231775401e-05   -4.8950148941991414e-06   -1.0106329299955943e-05
2.599059319950559e-05   -5.394929185645672e-06   7.3682678053265204e-06
2.599059319950559e-05   -5.394929185645672e-06   7.3682678053265204e-06
2.599059319950559e-05   -5.394929185645672e-06   7.3682678053265204e-06
2.599059319950559e-05   -5.394929185645672e-06   7.3682678053265204e-06
1.9489556705881944e-05   -1.0698245899824765e-06   3.995709042042459e-05
1.9489556705881944e-05   -1.0698245899824765e-06   3.995709042042459e-05
1.9489556705881944e-05   -1.0698245899824765e-06   3.995709042042459e-05
1.9489556705881944e-05   -1.0698245899824765e-06   3.995709042042459e-05
-1.2472289831660433e-06   -1.854581296260177e-08   6.026548204889591e-06
-1.2472289831660433e-06   -1.854581296260177e-08   6.026548204889591e-06
-1.2472289831660433e-06   -1.854581296260177e-08   6.026548204889591e-06
-1.2472289831660433e-06   -1.854581296260177e-08   6.026548204889591e-06
-2.1154923852894855e-06   -1.705712736240969e-06   4.002805517251294e-05
-2.1154923852894855e-06   -1.705712736240969e-06   4.002805517251294e-05
-2.1154923852894855e-06   -1.705712736240969e-06   4.002805517251294e-05
-2.1154923852894855e-06   -1.705712736240969e-06   4.002805517251294e-05
1.8565970713761288e-05   -7.060167633229919e-07   4.959132423677578e-06
1.8565970713761288e-05   -7.060167633229919e-07   4.959132423677578e-06
1.8565970713761288e-05   -7.060167633229919e-07   4.959132423677578e-06
1.8565970713761288e-05   -7.060167633229919e-07   4.959132423677578e-06
8.532712457974902e-06   -8.999655299233265e-07   2.1797598776614982e-05
8.532712457974902e-06   -8.999655299233265e-07   2.1797598776614982e-05
8.532712457974902e-06   -8.999655299233265e-07   2.1797598776614982e-05
8.532712457974902e-06   -8.999655299233265e-07   2.1797598776614982e-05
1.8565970713761206e-05   -1.7057127362405354e-06   3.942823758876202e-05
1.8565970713761206e-05   -1.7057127362405354e-06   3.942823758876202e-05
1.8565970713761206e-05   -1.7057127362405354e-06   3.942823758876202e-05
1.8565970713761206e-05   -1.7057127362405354e-06   3.942823758876202e-05
-2.1154923852894855e-06   -7.060167633229919e-07   5.558950007428318e-06
-2.1154923852894855e-06   -7.060167633229919e-07   5.558950007428318e-06
-2.1154923852894855e-06   -7.060167633229919e-07   5.558950007428318e-06
-2.1154923852894855e-06   -7.060167633229919e-07   5.558950007428318e-06
-3.002214184409191e-06   -2.1781404421169527e-06   3.942617273563695e-05
-3.002214184409191e-06   -2.1781404421169527e-06   3.942617273563695e-05
-3.002214184409191e-06   -2.1781404421169527e-06   3.942617273563695e-05
-3.002214184409191e-06   -2.1781404421169527e-06   3.942617273563695e-05
1.7546621475617358e-05   -1.248014028812968e-06   4.620037454277113e-06
1.7546621475617358e-05   -1.248014028812968e-06   4.620037454277113e-06
1.7546621475617358e-05   -1.248014028812968e-06   4.620037454277113e-06
1.7546621475617358e-05   -1.248014028812968e-06   4.620037454277113e-06
7.55890936093641e-06   -1.3242892341717993e-06   2.131198943529548e-05
7.55890936093641e-06   -1.3242892341717993e-06   2.131198943529548e-05
7.55890936093641e-06   -1.3242892341717993e-06   2.131198943529548e-05
7.55890936093641e-06   -1.3242892341717993e-06   2.131198943529548e-05
1.7546621475617324e-05   -2.178140442116519e-06   3.886809688765486e-05
1.7546621475617324e-05   -2.178140442116519e-06   3.886809688765486e-05
1.7546621475617324e-05   -2.178140442116519e-06   3.886809688765486e-05
1.7546621475617324e-05   -2.178140442116519e-06   3.886809688765486e-05
-3.002214184409191e-06   -1.248014028812968e-06   5.1781133022594985e-06
-3.002214184409191e-06   -1.248014028812968e-06   5.1781133022594985e-06
-3.002214184409191e-06   -1.248014028812968e-06   5.1781133022594985e-06
-3.002214184409191e-06   -1.248014028812968e-06   5.1781133022594985e-06
-3.893737464041153e-06   -2.5508875457756243e-06   3.9701509905963215e-05
-3.893737464041153e-06   -2.5508875457756243e-06   3.9701509905963215e-05
-3.893737464041153e-06   -2.5508875457756243e-06   3.9701509905963215e-05
-3.893737464041153e-06   -2.5508875457756243e-06   3.9701509905963215e-05
1.660542608843331e-05   -1.7501043176040496e-06   5.055767381602759e-06
1.660542608843331e-05   -1.7501043176040496e-06   5.055767381602759e-06
1.660542608843331e-05   -1.7501043176040496e-06   5.055767381602759e-06
1.660542608843331e-05   -1.7501043176040496e-06   5.055767381602759e-06
6.815107432595238e-06   -1.63851821981904e-06   2.1306013482662648e-05
6.815107432595238e-06   -1.63851821981904e-06   2.1306013482662648e-05
6.815107432595238e-06   -1.63851821981904e-06   2.1306013482662648e-05
6.815107432595238e-06   -1.63851821981904e-06   2.1306013482662648e-05
-1.2472289831660433e-06   3.473271255220907e-06   4.230378872347915e-05
-1.2472289831660433e-06   3.473271255220907e-06   4.230378872347915e-05
-1.2472289831660433e-06   3.473271255220907e-06   4.230378872347915e-05
-1.2472289831660433e-06   3.473271255220907e-06   4.230378872347915e-05
-2.154896376608333e-05   3.5748160279536548e-06   8.528490948923493e-06
-2.154896376608333e-05   3.5748160279536548e-06   8.528490948923493e-06
-2.154896376608333e-05   3.5748160279536548e-06   8.528490948923493e-06
-2.154896376608333e-05   3.5748160279536548e-06   8.528490948923493e-06
-2.2421866087232484e-05   2.9440662372291933e-06   4.217579482760519e-05
-2.2421866087232484e-05   2.9440662372291933e-06   4.217579482760519e-05
-2.2421866087232484e-05   2.9440662372291933e-06   4.217579482760519e-05
-2.2421866087232484e-05   2.9440662372291933e-06   4.217579482760519e-05
-2.1154923852894855e-06   2.970633978623214e-06   8.315898012864134e-06
-2.1154923852894855e-06   2.970633978623214e-06   8.315898012864134e-06
-2.1154923852894855e-06   2.970633978623214e-06   8.315898012864134e-06
-2.1154923852894855e-06   2.970633978623214e-06   8.315898012864134e-06
-1.1864106845496623e-05   3.184116361600736e-06   2.4435499350089333e-05
-1.1864106845496623e-05   3.184116361600736e-06   2.4435499350089333e-05
-1.1864106845496623e-05   3.184116361600736e-06   2.4435499350089333e-05
-1.1864106845496623e-05   3.184116361600736e-06   2.4435499350089333e-05
-2.1154923852894855e-06   2.9440662372291933e-06   4.2159854182769385e-05
-2.1154923852894855e-06   2.9440662372291933e-06   4.2159854182769385e-05
-2.1154923852894855e-06   2.9440662372291933e-06   4.2159854182769385e-05
-2.1154923852894855e-06   2.9440662372291933e-06   4.2159854182769385e-05
-2.2421866087232484e-05   2.970633978623214e-06   8.331838657700237e-06
-2.2421866087232484e-05   2.970633978623214e-06   8.331838657700237e-06
-2.2421866087232484e-05   2.970633978623214e-06   8.331838657700237e-06
-2.2421866087232484e-05   2.970633978623214e-06   8.331838657700237e-06
-2.3316585544378126e-05   2.430205583512767e-06   4.240684275779458e-05
-2.3316585544378126e-05   2.430205583512767e-06   4.240684275779458e-05
-2.3316585544378126e-05   2.430205583512767e-06   4.240684275779458e-05
-2.3316585544378126e-05   2.430205583512767e-06   4.240684275779458e-05
-3.002214184409191e-06   2.3760357576335135e-06   8.582059053373906e-06
-3.002214184409191e-06   2.3760357576335135e-06   8.582059053373906e-06
-3.002214184409191e-06   2.3760357576335135e-06   8.582059053373906e-06
-3.002214184409191e-06   2.3760357576335135e-06   8.582059053373906e-06
-1.2674595996344786e-05   2.777840365979743e-06   2.44616126415932e-05
-1.2674595996344786e-05   2.777840365979743e-06   2.44616126415932e-05
-1.2674595996344786e-05   2.777840365979743e-06   2.44616126415932e-05
-1.2674595996344786e-05   2.777840365979743e-06   2.44616126415932e-05
-3.002214184409191e-06   2.430205583512767e-06   4.2439344653322176e-05
-3.002214184409191e-06   2.430205583512767e-06   4.2439344653322176e-05
-3.002214184409191e-06   2.430205583512767e-06   4.2439344653322176e-05
-3.002214184409191e-06   2.430205583512767e-06   4.2439344653322176e-05
-2.3316585544378153e-05   2.3760357576335135e-06   8.549557157846392e-06
-2.3316585544378153e-05   2.3760357576335135e-06   8.549557157846392e-06
-2.3316585544378153e-05   2.3760357576335135e-06   8.549557157846392e-06
-2.3316585544378153e-05   2.3760357576335135e-06   8.549557157846392e-06
-2.421096637894048e-05   1.9728040452867725e-06   4.2934202158052565e-05
-2.421096637894048e-05   1.9728040452867725e-06   4.2934202158052565e-05
-2.421096637894048e-05   1.9728040452867725e-06   4.2934202158052565e-05
-2.421096637894048e-05   1.9728040452867725e-06   4.2934202158052565e-05
-3.893737464041153e-06   1.8118029575489754e-06   9.168754619196196e-06
-3.893737464041153e-06   1.8118029575489754e-06   9.168754619196196e-06
-3.893737464041153e-06   1.8118029575489754e-06   9.168754619196196e-06
-3.893737464041153e-06   1.8118029575489754e-06   9.168754619196196e-06
-1.3523088558753659e-05   2.3819368380056938e-06   2.487559278211023e-05
-1.3523088558753659e-05   2.3819368380056938e-06   2.487559278211023e-05
-1.3523088558753659e-05   2.3819368380056938e-06   2.487559278211023e-05
-1.3523088558753659e-05   2.3819368380056938e-06   2.487559278211023e-05
-2.1548963766083274e-05   7.89310634194797e-06   3.7213588733902474e-05
-2.1548963766083274e-05   7.89310634194797e-06   3.7213588733902474e-05
-2.1548963766083274e-05   7.89310634194797e-06   3.7213588733902474e-05
-2.1548963766083274e-05   7.89310634194797e-06   3.7213588733902474e-05
-4.140128213843018e-05   7.0326564312228786e-06   3.6101215002226714e-06
-4.140128213843018e-05   7.0326564312228786e-06   3.6101215002226714e-06
-4.140128213843018e-05   7.0326564312228786e-06   3.6101215002226714e-06
-4.140128213843018e-05   7.0326564312228786e-06   3.6101215002226714e-06
-4.234051301468578e-05   7.3876875572964455e-06   3.69697500982257e-05
-4.234051301468578e-05   7.3876875572964455e-06   3.69697500982257e-05
-4.234051301468578e-05   7.3876875572964455e-06   3.69697500982257e-05
-4.234051301468578e-05   7.3876875572964455e-06   3.69697500982257e-05
-2.242186608723251e-05   6.453926744830196e-06   4.332261706616785e-06
-2.242186608723251e-05   6.453926744830196e-06   4.332261706616785e-06
-2.242186608723251e-05   6.453926744830196e-06   4.332261706616785e-06
-2.242186608723251e-05   6.453926744830196e-06   4.332261706616785e-06
-3.1822696117286814e-05   7.098191772397962e-06   1.961375274016656e-05
-3.1822696117286814e-05   7.098191772397962e-06   1.961375274016656e-05
-3.1822696117286814e-05   7.098191772397962e-06   1.961375274016656e-05
-3.1822696117286814e-05   7.098191772397962e-06   1.961375274016656e-05
-2.2421866087232484e-05   7.387687557296012e-06   3.753000658570575e-05
-2.2421866087232484e-05   7.387687557296012e-06   3.753000658570575e-05
-2.2421866087232484e-05   7.387687557296012e-06   3.753000658570575e-05
-2.2421866087232484e-05   7.387687557296012e-06   3.753000658570575e-05
-4.234051301468567e-05   6.453926744830196e-06   3.7720052191370567e-06
-4.234051301468567e-05   6.453926744830196e-06   3.7720052191370567e-06
-4.234051301468567e-05   6.453926744830196e-06   3.7720052191370567e-06
-4.234051301468567e-05   6.453926744830196e-06   3.7720052191370567e-06
-4.337451456716513e-05   6.921806826087722e-06   3.835558707616254e-05
-4.337451456716513e-05   6.921806826087722e-06   3.835558707616254e-05
-4.337451456716513e-05   6.921806826087722e-06   3.835558707616254e-05
-4.337451456716513e-05   6.921806826087722e-06   3.835558707616254e-05
-2.3316585544378153e-05   5.91479802818139e-06   5.529910650260868e-06
-2.3316585544378153e-05   5.91479802818139e-06   5.529910650260868e-06
-2.3316585544378153e-05   5.91479802818139e-06   5.529910650260868e-06
-2.3316585544378153e-05   5.91479802818139e-06   5.529910650260868e-06
-3.2497126007006435e-05   6.7286633776506705e-06   2.0342492211627592e-05
-3.2497126007006435e-05   6.7286633776506705e-06   2.0342492211627592e-05
-3.2497126007006435e-05   6.7286633776506705e-06   2.0342492211627592e-05
-3.2497126007006435e-05   6.7286633776506705e-06   2.0342492211627592e-05
-2.3316585544378153e-05   6.921806826087288e-06   3.895979235490595e-05
-2.3316585544378153e-05   6.921806826087288e-06   3.895979235490595e-05
-2.3316585544378153e-05   6.921806826087288e-06   3.895979235490595e-05
-2.3316585544378153e-05   6.921806826087288e-06   3.895979235490595e-05
-4.337451456716508e-05   5.91479802818139e-06   4.925705371517405e-06
-4.337451456716508e-05   5.91479802818139e-06   4.925705371517405e-06
-4.337451456716508e-05   5.91479802818139e-06   4.925705371517405e-06
-4.337451456716508e-05   5.91479802818139e-06   4.925705371517405e-06
-4.43200248086955e-05   6.352911289409652e-06   3.9398017886237363e-05
-4.43200248086955e-05   6.352911289409652e-06   3.9398017886237363e-05
-4.43200248086955e-05   6.352911289409652e-06   3.9398017886237363e-05
-4.43200248086955e-05   6.352911289409652e-06   3.9398017886237363e-05
-2.4210966378940534e-05   5.28707405719319e-06   6.522422842642698e-06
-2.4210966378940534e-05   5.28707405719319e-06   6.522422842642698e-06
-2.4210966378940534e-05   5.28707405719319e-06   6.522422842642698e-06
-2.4210966378940534e-05   5.28707405719319e-06   6.522422842642698e-06
-3.356969291249434e-05   6.3119573781864405e-06   2.1505370405971416e-05
-3.356969291249434e-05   6.3119573781864405e-06   2.1505370405971416e-05
-3.356969291249434e-05   6.3119573781864405e-06   2.1505370405971416e-05
-3.356969291249434e-05   6.3119573781864405e-06   2.1505370405971416e-05
-4.140128213843018e-05   1.136338765971934e-05   1.7992394088595402e-05
-4.140128213843018e-05   1.136338765971934e-05   1.7992394088595402e-05
-4.140128213843018e-05   1.136338765971934e-05   1.7992394088595402e-05
-4.140128213843018e-05   1.136338765971934e-05   1.7992394088595402e-05
-6.0250629685453005e-05   9.690686282891759e-06   -1.4426805982539282e-05
-6.0250629685453005e-05   9.690686282891759e-06   -1.4426805982539282e-05
-6.0250629685453005e-05   9.690686282891759e-06   -1.4426805982539282e-05
-6.0250629685453005e-05   9.690686282891759e-06   -1.4426805982539282e-05
-6.193846453773233e-05   1.1483641905688392e-05   2.390547088275993e-05
-6.193846453773233e-05   1.1483641905688392e-05   2.390547088275993e-05
-6.193846453773233e-05   1.1483641905688392e-05   2.390547088275993e-05
-6.193846453773233e-05   1.1483641905688392e-05   2.390547088275993e-05
-4.234051301468578e-05   9.641794089196645e-06   -7.652672965756282e-06
-4.234051301468578e-05   9.641794089196645e-06   -7.652672965756282e-06
-4.234051301468578e-05   9.641794089196645e-06   -7.652672965756282e-06
-4.234051301468578e-05   9.641794089196645e-06   -7.652672965756282e-06
-4.952410481299328e-05   1.0390610652596076e-05   3.870690093383264e-06
-4.952410481299328e-05   1.0390610652596076e-05   3.870690093383264e-06
-4.952410481299328e-05   1.0390610652596076e-05   3.870690093383264e-06
-4.952410481299328e-05   1.0390610652596076e-05   3.870690093383264e-06
-4.234051301468572e-05   1.1483641905688392e-05   2.5010579572655066e-05
-4.234051301468572e-05   1.1483641905688392e-05   2.5010579572655066e-05
-4.234051301468572e-05   1.1483641905688392e-05   2.5010579572655066e-05
-4.234051301468572e-05   1.1483641905688392e-05   2.5010579572655066e-05
-6.193846453773243e-05   9.641794089196645e-06   -8.757781655651092e-06
-6.193846453773243e-05   9.641794089196645e-06   -8.757781655651092e-06
-6.193846453773243e-05   9.641794089196645e-06   -8.757781655651092e-06
-6.193846453773243e-05   9.641794089196645e-06   -8.757781655651092e-06
-6.344979712761417e-05   1.1357174109338092e-05   2.8684723636513733e-05
-6.344979712761417e-05   1.1357174109338092e-05   2.8684723636513733e-05
-6.344979712761417e-05   1.1357174109338092e-05   2.8684723636513733e-05
-6.344979712761417e-05   1.1357174109338092e-05   2.8684723636513733e-05
-4.337451456716513e-05   9.445167197147906e-06   -3.626876483587161e-06
-4.337451456716513e-05   9.445167197147906e-06   -3.626876483587161e-06
-4.337451456716513e-05   9.445167197147906e-06   -3.626876483587161e-06
-4.337451456716513e-05   9.445167197147906e-06   -3.626876483587161e-06
-5.1463437380986455e-05   1.0505201143609644e-05   9.218641171573156e-06
-5.1463437380986455e-05   1.0505201143609644e-05   9.218641171573156e-06
-5.1463437380986455e-05   1.0505201143609644e-05   9.218641171573156e-06
-5.1463437380986455e-05   1.0505201143609644e-05   9.218641171573156e-06
-4.337451456716513e-05   1.1357174109338525e-05   2.9831927783828408e-05
-4.337451456716513e-05   1.1357174109338525e-05   2.9831927783828408e-05
-4.337451456716513e-05   1.1357174109338525e-05   2.9831927783828408e-05
-4.337451456716513e-05   1.1357174109338525e-05   2.9831927783828408e-05
-6.344979712761422e-05   9.445167197147906e-06   -4.774080630901402e-06
-6.344979712761422e-05   9.445167197147906e-06   -4.774080630901402e-06
-6.344979712761422e-05   9.445167197147906e-06   -4.774080630901402e-06
-6.344979712761422e-05   9.445167197147906e-06   -4.774080630901402e-06
-6.518651443696482e-05   1.0481250951535279e-05   3.6908268098393955e-05
-6.518651443696482e-05   1.0481250951535279e-05   3.6908268098393955e-05
-6.518651443696482e-05   1.0481250951535279e-05   3.6908268098393955e-05
-6.518651443696482e-05   1.0481250951535279e-05   3.6908268098393955e-05
-4.43200248086955e-05   8.578160156778435e-06   3.2726398614651552e-06
-4.43200248086955e-05   8.578160156778435e-06   3.2726398614651552e-06
-4.43200248086955e-05   8.578160156778435e-06   3.2726398614651552e-06
-4.43200248086955e-05   8.578160156778435e-06   3.2726398614651552e-06
-5.1879173043619346e-05   1.014576985244875e-05   1.4930654435603712e-05
-5.1879173043619346e-05   1.014576985244875e-05   1.4930654435603712e-05
-5.1879173043619346e-05   1.014576985244875e-05   1.4930654435603712e-05
-5.1879173043619346e-05   1.014576985244875e-05   1.4930654435603712e-05
2.851601582463334e-05   -3.696036123353088e-06   2.8599720180977383e-05
2.851601582463334e-05   -3.696036123353088e-06   2.8599720180977383e-05
2.851601582463334e-05   -3.696036123353088e-06   2.8599720180977383e-05
2.851601582463334e-05   -3.696036123353088e-06   2.8599720180977383e-05
1.1832043225575993e-05   -1.816022670129416e-06   1.9211072544828532e-06
1.1832043225575993e-05   -1.816022670129416e-06   1.9211072544828532e-06
1.1832043225575993e-05   -1.816022670129416e-06   1.9211072544828532e-06
1.1832043225575993e-05   -1.816022670129416e-06   1.9211072544828532e-06
1.1089302335988505e-05   -4.486289501649376e-06   2.5714378133213358e-05
1.1089302335988505e-05   -4.486289501649376e-06   2.5714378133213358e-05
1.1089302335988505e-05   -4.486289501649376e-06   2.5714378133213358e-05
1.1089302335988505e-05   -4.486289501649376e-06   2.5714378133213358e-05
2.693512871099861e-05   -2.5227267598437395e-06   -1.873470136886697e-06
2.693512871099861e-05   -2.5227267598437395e-06   -1.873470136886697e-06
2.693512871099861e-05   -2.5227267598437395e-06   -1.873470136886697e-06
2.693512871099861e-05   -2.5227267598437395e-06   -1.873470136886697e-06
1.8618235779111723e-05   -3.2055497934165705e-06   1.2397711903069125e-05
1.8618235779111723e-05   -3.2055497934165705e-06   1.2397711903069125e-05
1.8618235779111723e-05   -3.2055497934165705e-06   1.2397711903069125e-05
1.8618235779111723e-05   -3.2055497934165705e-06   1.2397711903069125e-05
2.6935128710998665e-05   -4.486289501649376e-06   2.453624048813041e-05
2.6935128710998665e-05   -4.486289501649376e-06   2.453624048813041e-05
2.6935128710998665e-05   -4.486289501649376e-06   2.453624048813041e-05
2.6935128710998665e-05   -4.486289501649376e-06   2.453624048813041e-05
1.1089302335988464e-05   -2.5227267598437395e-06   -6.953324918033965e-07
1.1089302335988464e-05   -2.5227267598437395e-06   -6.953324918033965e-07
1.1089302335988464e-05   -2.5227267598437395e-06   -6.953324918033965e-07
1.1089302335988464e-05   -2.5227267598437395e-06   -6.953324918033965e-07
1.0255171914442035e-05   -4.697452104295962e-06   2.3571584395646683e-05
1.0255171914442035e-05   -4.697452104295962e-06   2.3571584395646683e-05
1.0255171914442035e-05   -4.697452104295962e-06   2.3571584395646683e-05
1.0255171914442035e-05   -4.697452104295962e-06   2.3571584395646683e-05
2.5578123015492064e-05   -2.7661022186484426e-06   -3.1254773708254673e-06
2.5578123015492064e-05   -2.7661022186484426e-06   -3.1254773708254673e-06
2.5578123015492064e-05   -2.7661022186484426e-06   -3.1254773708254673e-06
2.5578123015492064e-05   -2.7661022186484426e-06   -3.1254773708254673e-06
1.7914578920641783e-05   -3.505274790934366e-06   1.0090599663964027e-05
1.7914578920641783e-05   -3.505274790934366e-06   1.0090599663964027e-05
1.7914578920641783e-05   -3.505274790934366e-06   1.0090599663964027e-05
1.7914578920641783e-05   -3.505274790934366e-06   1.0090599663964027e-05
2.557812301549212e-05   -4.697452104295962e-06   2.2412774464257998e-05
2.557812301549212e-05   -4.697452104295962e-06   2.2412774464257998e-05
2.557812301549212e-05   -4.697452104295962e-06   2.2412774464257998e-05
2.557812301549212e-05   -4.697452104295962e-06   2.2412774464257998e-05
1.0255171914442018e-05   -2.7661022186484426e-06   -1.966667439436782e-06
1.0255171914442018e-05   -2.7661022186484426e-06   -1.966667439436782e-06
1.0255171914442018e-05   -2.7661022186484426e-06   -1.966667439436782e-06
1.0255171914442018e-05   -2.7661022186484426e-06   -1.966667439436782e-06
9.507492425710135e-06   -4.8950148941991414e-06   2.078983261079542e-05
9.507492425710135e-06   -4.8950148941991414e-06   2.078983261079542e-05
9.507492425710135e-06   -4.8950148941991414e-06   2.078983261079542e-05
9.507492425710135e-06   -4.8950148941991414e-06   2.078983261079542e-05
2.4039124350542394e-05   -3.0881253134356756e-06   -4.5136876790498966e-06
2.4039124350542394e-05   -3.0881253134356756e-06   -4.5136876790498966e-06
2.4039124350542394e-05   -3.0881253134356756e-06   -4.5136876790498966e-06
2.4039124350542394e-05   -3.0881253134356756e-06   -4.5136876790498966e-06
1.6612399023421072e-05   -3.5642164405219265e-06   8.149842542404076e-06
1.6612399023421072e-05   -3.5642164405219265e-06   8.149842542404076e-06
1.6612399023421072e-05   -3.5642164405219265e-06   8.149842542404076e-06
1.6612399023421072e-05   -3.5642164405219265e-06   8.149842542404076e-06
1.1832043225576037e-05   -1.854581296260177e-08   3.5362027520440724e-05
1.1832043225576037e-05   -1.854581296260177e-08   3.5362027520440724e-05
1.1832043225576037e-05   -1.854581296260177e-08   3.5362027520440724e-05
1.1832043225576037e-05   -1.854581296260177e-08   3.5362027520440724e-05
-3.824699613337731e-06   9.356405988691745e-07   9.839967969350275e-06
-3.824699613337731e-06   9.356405988691745e-07   9.839967969350275e-06
-3.824699613337731e-06   9.356405988691745e-07   9.839967969350275e-06
-3.824699613337731e-06   9.356405988691745e-07   9.839967969350275e-06
-4.507141798585138e-06   -7.060167633229919e-07   3.543019202098779e-05
-4.507141798585138e-06   -7.060167633229919e-07   3.543019202098779e-05
-4.507141798585138e-06   -7.060167633229919e-07   3.543019202098779e-05
-4.507141798585138e-06   -7.060167633229919e-07   3.543019202098779e-05
1.1089302335988464e-05   2.2003597110521224e-07   8.880486822708396e-06
1.1089302335988464e-05   2.2003597110521224e-07   8.880486822708396e-06
1.1089302335988464e-05   2.2003597110521224e-07   8.880486822708396e-06
1.1089302335988464e-05   2.2003597110521224e-07   8.880486822708396e-06
3.5357923061727345e-06   4.635137154391372e-08   2.1573880965471977e-05
3.5357923061727345e-06   4.635137154391372e-08   2.1573880965471977e-05
3.5357923061727345e-06   4.635137154391372e-08   2.1573880965471977e-05
3.5357923061727345e-06   4.635137154391372e-08   2.1573880965471977e-05
1.1089302335988498e-05   -7.060167633229919e-07   3.487456038033074e-05
1.1089302335988498e-05   -7.060167633229919e-07   3.487456038033074e-05
1.1089302335988498e-05   -7.060167633229919e-07   3.487456038033074e-05
1.1089302335988498e-05   -7.060167633229919e-07   3.487456038033074e-05
-4.507141798585138e-06   2.2003597110542908e-07   9.436118463365456e-06
-4.507141798585138e-06   2.2003597110542908e-07   9.436118463365456e-06
-4.507141798585138e-06   2.2003597110542908e-07   9.436118463365456e-06
-4.507141798585138e-06   2.2003597110542908e-07   9.436118463365456e-06
-5.20487115124546e-06   -1.248014028812968e-06   3.500758250117846e-05
-5.20487115124546e-06   -1.248014028812968e-06   3.500758250117846e-05
-5.20487115124546e-06   -1.248014028812968e-06   3.500758250117846e-05
-5.20487115124546e-06   -1.248014028812968e-06   3.500758250117846e-05
1.0255171914442018e-05   -3.656331972938607e-07   8.711415559455043e-06
1.0255171914442018e-05   -3.656331972938607e-07   8.711415559455043e-06
1.0255171914442018e-05   -3.656331972938607e-07   8.711415559455043e-06
1.0255171914442018e-05   -3.656331972938607e-07   8.711415559455043e-06
2.785560408144001e-06   -4.310103391730498e-07   2.1199994355080166e-05
2.785560408144001e-06   -4.310103391730498e-07   2.1199994355080166e-05
2.785560408144001e-06   -4.310103391730498e-07   2.1199994355080166e-05
2.785560408144001e-06   -4.310103391730498e-07   2.1199994355080166e-05
1.0255171914442052e-05   -1.248014028812968e-06   3.447815400226743e-05
1.0255171914442052e-05   -1.248014028812968e-06   3.447815400226743e-05
1.0255171914442052e-05   -1.248014028812968e-06   3.447815400226743e-05
1.0255171914442052e-05   -1.248014028812968e-06   3.447815400226743e-05
-5.20487115124546e-06   -3.6563319729407753e-07   9.240844058366372e-06
-5.20487115124546e-06   -3.6563319729407753e-07   9.240844058366372e-06
-5.20487115124546e-06   -3.6563319729407753e-07   9.240844058366372e-06
-5.20487115124546e-06   -3.6563319729407753e-07   9.240844058366372e-06
-5.896724619478135e-06   -1.7501043176040496e-06   3.532707569432595e-05
-5.896724619478135e-06   -1.7501043176040496e-06   3.532707569432595e-05
-5.896724619478135e-06   -1.7501043176040496e-06   3.532707569432595e-05
-5.896724619478135e-06   -1.7501043176040496e-06   3.532707569432595e-05
9.507492425710087e-06   -9.42927288105546e-07   9.169074401313194e-06
9.507492425710087e-06   -9.42927288105546e-07   9.169074401313194e-06
9.507492425710087e-06   -9.42927288105546e-07   9.169074401313194e-06
9.507492425710087e-06   -9.42927288105546e-07   9.169074401313194e-06
2.1927251280651308e-06   -8.291285425571747e-07   2.1292073983392558e-05
2.1927251280651308e-06   -8.291285425571747e-07   2.1292073983392558e-05
2.1927251280651308e-06   -8.291285425571747e-07   2.1292073983392558e-05
2.1927251280651308e-06   -8.291285425571747e-07   2.1292073983392558e-05
-3.824699613337731e-06   3.5748160279536548e-06   3.8375555247934e-05
-3.824699613337731e-06   3.5748160279536548e-06   3.8375555247934e-05
-3.824699613337731e-06   3.5748160279536548e-06   3.8375555247934e-05
-3.824699613337731e-06   3.5748160279536548e-06   3.8375555247934e-05
-1.9223806994511297e-05   3.517540992524406e-06   1.2676011258053285e-05
-1.9223806994511297e-05   3.517540992524406e-06   1.2676011258053285e-05
-1.9223806994511297e-05   3.517540992524406e-06   1.2676011258053285e-05
-1.9223806994511297e-05   3.517540992524406e-06   1.2676011258053285e-05
-1.989705153036952e-05   2.970633978623214e-06   3.812504833377293e-05
-1.989705153036952e-05   2.970633978623214e-06   3.812504833377293e-05
-1.989705153036952e-05   2.970633978623214e-06   3.812504833377293e-05
-1.989705153036952e-05   2.970633978623214e-06   3.812504833377293e-05
-4.507141798585111e-06   2.867147824205064e-06   1.2537290473449539e-05
-4.507141798585111e-06   2.867147824205064e-06   1.2537290473449539e-05
-4.507141798585111e-06   2.867147824205064e-06   1.2537290473449539e-05
-4.507141798585111e-06   2.867147824205064e-06   1.2537290473449539e-05
-1.1892754341663855e-05   3.1525213798502903e-06   2.467542057852767e-05
-1.1892754341663855e-05   3.1525213798502903e-06   2.467542057852767e-05
-1.1892754341663855e-05   3.1525213798502903e-06   2.467542057852767e-05
-1.1892754341663855e-05   3.1525213798502903e-06   2.467542057852767e-05
-4.507141798585138e-06   2.970633978623214e-06   3.818714002642369e-05
-4.507141798585138e-06   2.970633978623214e-06   3.818714002642369e-05
-4.507141798585138e-06   2.970633978623214e-06   3.818714002642369e-05
-4.507141798585138e-06   2.970633978623214e-06   3.818714002642369e-05
-1.989705153036952e-05   2.867147824205064e-06   1.2475198780799077e-05
-1.989705153036952e-05   2.867147824205064e-06   1.2475198780799077e-05
-1.989705153036952e-05   2.867147824205064e-06   1.2475198780799077e-05
-1.989705153036952e-05   2.867147824205064e-06   1.2475198780799077e-05
-2.0586506459634494e-05   2.3760357576335135e-06   3.8320433560676184e-05
-2.0586506459634494e-05   2.3760357576335135e-06   3.8320433560676184e-05
-2.0586506459634494e-05   2.3760357576335135e-06   3.8320433560676184e-05
-2.0586506459634494e-05   2.3760357576335135e-06   3.8320433560676184e-05
-5.204871151245433e-06   2.2242112716049176e-06   1.2775469404978048e-05
-5.204871151245433e-06   2.2242112716049176e-06   1.2775469404978048e-05
-5.204871151245433e-06   2.2242112716049176e-06   1.2775469404978048e-05
-5.204871151245433e-06   2.2242112716049176e-06   1.2775469404978048e-05
-1.2509379989633738e-05   2.680401314794894e-06   2.467593677637868e-05
-1.2509379989633738e-05   2.680401314794894e-06   2.467593677637868e-05
-1.2509379989633738e-05   2.680401314794894e-06   2.467593677637868e-05
-1.2509379989633738e-05   2.680401314794894e-06   2.467593677637868e-05
-5.20487115124546e-06   2.3760357576335135e-06   3.841152825229295e-05
-5.20487115124546e-06   2.3760357576335135e-06   3.841152825229295e-05
-5.20487115124546e-06   2.3760357576335135e-06   3.841152825229295e-05
-5.20487115124546e-06   2.3760357576335135e-06   3.841152825229295e-05
-2.0586506459634494e-05   2.2242112716051345e-06   1.2684374713361145e-05
-2.0586506459634494e-05   2.2242112716051345e-06   1.2684374713361145e-05
-2.0586506459634494e-05   2.2242112716051345e-06   1.2684374713361145e-05
-2.0586506459634494e-05   2.2242112716051345e-06   1.2684374713361145e-05
-2.1267953492598135e-05   1.8118029575489754e-06   3.8835641664645114e-05
-2.1267953492598135e-05   1.8118029575489754e-06   3.8835641664645114e-05
-2.1267953492598135e-05   1.8118029575489754e-06   3.8835641664645114e-05
-2.1267953492598135e-05   1.8118029575489754e-06   3.8835641664645114e-05
-5.896724619478135e-06   1.6052174069301414e-06   1.3340878206483071e-05
-5.896724619478135e-06   1.6052174069301414e-06   1.3340878206483071e-05
-5.896724619478135e-06   1.6052174069301414e-06   1.3340878206483071e-05
-5.896724619478135e-06   1.6052174069301414e-06   1.3340878206483071e-05
-1.3154339376465776e-05   2.2193667971734995e-06   2.5068413167316493e-05
-1.3154339376465776e-05   2.2193667971734995e-06   2.5068413167316493e-05
-1.3154339376465776e-05   2.2193667971734995e-06   2.5068413167316493e-05
-1.3154339376465776e-05   2.2193667971734995e-06   2.5068413167316493e-05
-1.9223806994511297e-05   7.0326564312228786e-06   3.393909072440995e-05
-1.9223806994511297e-05   7.0326564312228786e-06   3.393909072440995e-05
-1.9223806994511297e-05   7.0326564312228786e-06   3.393909072440995e-05
-1.9223806994511297e-05   7.0326564312228786e-06   3.393909072440995e-05
-3.436313728804246e-05   6.029208863804784e-06   8.10480502807403e-06
-3.436313728804246e-05   6.029208863804784e-06   8.10480502807403e-06
-3.436313728804246e-05   6.029208863804784e-06   8.10480502807403e-06
-3.436313728804246e-05   6.029208863804784e-06   8.10480502807403e-06
-3.508525667753114e-05   6.453926744830196e-06   3.3489361018629966e-05
-3.508525667753114e-05   6.453926744830196e-06   3.3489361018629966e-05
-3.508525667753114e-05   6.453926744830196e-06   3.3489361018629966e-05
-3.508525667753114e-05   6.453926744830196e-06   3.3489361018629966e-05
-1.9897051530369465e-05   5.3937428047313735e-06   8.811796137420157e-06
-1.9897051530369465e-05   5.3937428047313735e-06   8.811796137420157e-06
-1.9897051530369465e-05   5.3937428047313735e-06   8.811796137420157e-06
-1.9897051530369465e-05   5.3937428047313735e-06   8.811796137420157e-06
-2.70656538404767e-05   6.1216335122539316e-06   2.032273222975266e-05
-2.70656538404767e-05   6.1216335122539316e-06   2.032273222975266e-05
-2.70656538404767e-05   6.1216335122539316e-06   2.032273222975266e-05
-2.70656538404767e-05   6.1216335122539316e-06   2.032273222975266e-05
-1.989705153036952e-05   6.453926744830196e-06   3.4125471382689477e-05
-1.989705153036952e-05   6.453926744830196e-06   3.4125471382689477e-05
-1.989705153036952e-05   6.453926744830196e-06   3.4125471382689477e-05
-1.989705153036952e-05   6.453926744830196e-06   3.4125471382689477e-05
-3.508525667753114e-05   5.393742804731157e-06   8.175685773360755e-06
-3.508525667753114e-05   5.393742804731157e-06   8.175685773360755e-06
-3.508525667753114e-05   5.393742804731157e-06   8.175685773360755e-06
-3.508525667753114e-05   5.393742804731157e-06   8.175685773360755e-06
-3.589800299739999e-05   5.91479802818139e-06   3.463542667311902e-05
-3.589800299739999e-05   5.91479802818139e-06   3.463542667311902e-05
-3.589800299739999e-05   5.91479802818139e-06   3.463542667311902e-05
-3.589800299739999e-05   5.91479802818139e-06   3.463542667311902e-05
-2.0586506459634412e-05   4.805864061562621e-06   9.78162615681503e-06
-2.0586506459634412e-05   4.805864061562621e-06   9.78162615681503e-06
-2.0586506459634412e-05   4.805864061562621e-06   9.78162615681503e-06
-2.0586506459634412e-05   4.805864061562621e-06   9.78162615681503e-06
-2.7566103991359225e-05   5.688704927072231e-06   2.0884584190384637e-05
-2.7566103991359225e-05   5.688704927072231e-06   2.0884584190384637e-05
-2.7566103991359225e-05   5.688704927072231e-06   2.0884584190384637e-05
-2.7566103991359225e-05   5.688704927072231e-06   2.0884584190384637e-05
-2.058650645963444e-05   5.91479802818139e-06   3.53007870530905e-05
-2.058650645963444e-05   5.91479802818139e-06   3.53007870530905e-05
-2.058650645963444e-05   5.91479802818139e-06   3.53007870530905e-05
-2.058650645963444e-05   5.91479802818139e-06   3.53007870530905e-05
-3.589800299739988e-05   4.805864061562621e-06   9.11626577684366e-06
-3.589800299739988e-05   4.805864061562621e-06   9.11626577684366e-06
-3.589800299739988e-05   4.805864061562621e-06   9.11626577684366e-06
-3.589800299739988e-05   4.805864061562621e-06   9.11626577684366e-06
-3.662069327098523e-05   5.28707405719319e-06   3.5602949937260176e-05
-3.662069327098523e-05   5.28707405719319e-06   3.5602949937260176e-05
-3.662069327098523e-05   5.28707405719319e-06   3.5602949937260176e-05
-3.662069327098523e-05   5.28707405719319e-06   3.5602949937260176e-05
-2.1267953492598053e-05   4.148806384736588e-06   1.069801091008925e-05
-2.1267953492598053e-05   4.148806384736588e-06   1.069801091008925e-05
-2.1267953492598053e-05   4.148806384736588e-06   1.069801091008925e-05
-2.1267953492598053e-05   4.148806384736588e-06   1.069801091008925e-05
-2.838055230475134e-05   5.2331618890554335e-06   2.190172896108703e-05
-2.838055230475134e-05   5.2331618890554335e-06   2.190172896108703e-05
-2.838055230475134e-05   5.2331618890554335e-06   2.190172896108703e-05
-2.838055230475134e-05   5.2331618890554335e-06   2.190172896108703e-05
-3.436313728804246e-05   9.690686282891759e-06   1.6303715527293946e-05
-3.436313728804246e-05   9.690686282891759e-06   1.6303715527293946e-05
-3.436313728804246e-05   9.690686282891759e-06   1.6303715527293946e-05
-3.436313728804246e-05   9.690686282891759e-06   1.6303715527293946e-05
-4.8555272384852505e-05   7.906763269430097e-06   -8.420196775466341e-06
-4.8555272384852505e-05   7.906763269430097e-06   -8.420196775466341e-06
-4.8555272384852505e-05   7.906763269430097e-06   -8.420196775466341e-06
-4.8555272384852505e-05   7.906763269430097e-06   -8.420196775466341e-06
-5.006487937473064e-05   9.641794089196645e-06   2.0901153350989495e-05
-5.006487937473064e-05   9.641794089196645e-06   2.0901153350989495e-05
-5.006487937473064e-05   9.641794089196645e-06   2.0901153350989495e-05
-5.006487937473064e-05   9.641794089196645e-06   2.0901153350989495e-05
-3.508525667753103e-05   7.702578284618598e-06   -2.9013549949295347e-06
-3.508525667753103e-05   7.702578284618598e-06   -2.9013549949295347e-06
-3.508525667753103e-05   7.702578284618598e-06   -2.9013549949295347e-06
-3.508525667753103e-05   7.702578284618598e-06   -2.9013549949295347e-06
-4.044254179431052e-05   8.576697991691511e-06   5.502981708793578e-06
-4.044254179431052e-05   8.576697991691511e-06   5.502981708793578e-06
-4.044254179431052e-05   8.576697991691511e-06   5.502981708793578e-06
-4.044254179431052e-05   8.576697991691511e-06   5.502981708793578e-06
-3.508525667753114e-05   9.641794089196645e-06   2.206468283373641e-05
-3.508525667753114e-05   9.641794089196645e-06   2.206468283373641e-05
-3.508525667753114e-05   9.641794089196645e-06   2.206468283373641e-05
-3.508525667753114e-05   9.641794089196645e-06   2.206468283373641e-05
-5.0064879374730694e-05   7.702578284618598e-06   -4.064884477676233e-06
-5.0064879374730694e-05   7.702578284618598e-06   -4.064884477676233e-06
-5.0064879374730694e-05   7.702578284618598e-06   -4.064884477676233e-06
-5.0064879374730694e-05   7.702578284618598e-06   -4.064884477676233e-06
-5.1382148236139174e-05   9.445167197147906e-06   2.4887774765205246e-05
-5.1382148236139174e-05   9.445167197147906e-06   2.4887774765205246e-05
-5.1382148236139174e-05   9.445167197147906e-06   2.4887774765205246e-05
-5.1382148236139174e-05   9.445167197147906e-06   2.4887774765205246e-05
-3.589800299739983e-05   7.453383775798831e-06   2.75936086782517e-07
-3.589800299739983e-05   7.453383775798831e-06   2.75936086782517e-07
-3.589800299739983e-05   7.453383775798831e-06   2.75936086782517e-07
-3.589800299739983e-05   7.453383775798831e-06   2.75936086782517e-07
-4.204065028537288e-05   8.582023443113587e-06   9.83649776635032e-06
-4.204065028537288e-05   8.582023443113587e-06   9.83649776635032e-06
-4.204065028537288e-05   8.582023443113587e-06   9.83649776635032e-06
-4.204065028537288e-05   8.582023443113587e-06   9.83649776635032e-06
-3.589800299739988e-05   9.445167197147906e-06   2.608284481801456e-05
-3.589800299739988e-05   9.445167197147906e-06   2.608284481801456e-05
-3.589800299739988e-05   9.445167197147906e-06   2.608284481801456e-05
-3.589800299739988e-05   9.445167197147906e-06   2.608284481801456e-05
-5.138214823613928e-05   7.453383775798614e-06   -9.191339660270153e-07
-5.138214823613928e-05   7.453383775798614e-06   -9.191339660270153e-07
-5.138214823613928e-05   7.453383775798614e-06   -9.191339660270153e-07
-5.138214823613928e-05   7.453383775798614e-06   -9.191339660270153e-07
-5.2910319795333965e-05   8.578160156778435e-06   3.181624306264081e-05
-5.2910319795333965e-05   8.578160156778435e-06   3.181624306264081e-05
-5.2910319795333965e-05   8.578160156778435e-06   3.181624306264081e-05
-5.2910319795333965e-05   8.578160156778435e-06   3.181624306264081e-05
-3.662069327098512e-05   6.617449768825693e-06   5.843291754831182e-06
-3.662069327098512e-05   6.617449768825693e-06   5.843291754831182e-06
-3.662069327098512e-05   6.617449768825693e-06   5.843291754831182e-06
-3.662069327098512e-05   6.617449768825693e-06   5.843291754831182e-06
-4.239842347183149e-05   8.218001312664544e-06   1.4512511163271812e-05
-4.239842347183149e-05   8.218001312664544e-06   1.4512511163271812e-05
-4.239842347183149e-05   8.218001312664544e-06   1.4512511163271812e-05
-4.239842347183149e-05   8.218001312664544e-06   1.4512511163271812e-05
1.5827533726124057e-05   -1.816022670129416e-06   2.249787265222003e-05
1.5827533726124057e-05   -1.816022670129416e-06   2.249787265222003e-05
1.5827533726124057e-05   -1.816022670129416e-06   2.249787265222003e-05
1.5827533726124057e-05   -1.816022670129416e-06   2.249787265222003e-05
4.135216406075267e-06   4.4204545816091054e-08   4.126813448372376e-06
4.135216406075267e-06   4.4204545816091054e-08   4.126813448372376e-06
4.135216406075267e-06   4.4204545816091054e-08   4.126813448372376e-06
4.135216406075267e-06   4.4204545816091054e-08   4.126813448372376e-06
3.579802453751001e-06   -2.5227267598439563e-06   2.097734312484184e-05
3.579802453751001e-06   -2.5227267598439563e-06   2.097734312484184e-05
3.579802453751001e-06   -2.5227267598439563e-06   2.097734312484184e-05
3.579802453751001e-06   -2.5227267598439563e-06   2.097734312484184e-05
1.44547617299893e-05   -5.889673715779586e-07   1.6921553648190427e-06
1.44547617299893e-05   -5.889673715779586e-07   1.6921553648190427e-06
1.44547617299893e-05   -5.889673715779586e-07   1.6921553648190427e-06
1.44547617299893e-05   -5.889673715779586e-07   1.6921553648190427e-06
8.938317900761923e-06   -1.3105099067568186e-06   1.1319153934639007e-05
8.938317900761923e-06   -1.3105099067568186e-06   1.1319153934639007e-05
8.938317900761923e-06   -1.3105099067568186e-06   1.1319153934639007e-05
8.938317900761923e-06   -1.3105099067568186e-06   1.1319153934639007e-05
1.4454761729989314e-05   -2.5227267598439563e-06   1.9817087491882327e-05
1.4454761729989314e-05   -2.5227267598439563e-06   1.9817087491882327e-05
1.4454761729989314e-05   -2.5227267598439563e-06   1.9817087491882327e-05
1.4454761729989314e-05   -2.5227267598439563e-06   1.9817087491882327e-05
3.579802453750994e-06   -5.889673715779586e-07   2.852410997778365e-06
3.579802453750994e-06   -5.889673715779586e-07   2.852410997778365e-06
3.579802453750994e-06   -5.889673715779586e-07   2.852410997778365e-06
3.579802453750994e-06   -5.889673715779586e-07   2.852410997778365e-06
2.9326200990006936e-06   -2.7661022186486594e-06   1.968901893885421e-05
2.9326200990006936e-06   -2.7661022186486594e-06   1.968901893885421e-05
2.9326200990006936e-06   -2.7661022186486594e-06   1.968901893885421e-05
2.9326200990006936e-06   -2.7661022186486594e-06   1.968901893885421e-05
1.3292577719513593e-05   -8.621093753595922e-07   1.2800271986928029e-06
1.3292577719513593e-05   -8.621093753595922e-07   1.2800271986928029e-06
1.3292577719513593e-05   -8.621093753595922e-07   1.2800271986928029e-06
1.3292577719513593e-05   -8.621093753595922e-07   1.2800271986928029e-06
8.274557159396484e-06   -1.5868778526074816e-06   1.007825588523647e-05
8.274557159396484e-06   -1.5868778526074816e-06   1.007825588523647e-05
8.274557159396484e-06   -1.5868778526074816e-06   1.007825588523647e-05
8.274557159396484e-06   -1.5868778526074816e-06   1.007825588523647e-05
1.3292577719513593e-05   -2.7661022186484426e-06   1.8546623232880812e-05
1.3292577719513593e-05   -2.7661022186484426e-06   1.8546623232880812e-05
1.3292577719513593e-05   -2.7661022186484426e-06   1.8546623232880812e-05
1.3292577719513593e-05   -2.7661022186484426e-06   1.8546623232880812e-05
2.93262009900068e-06   -8.621093753595922e-07   2.4224229046661185e-06
2.93262009900068e-06   -8.621093753595922e-07   2.4224229046661185e-06
2.93262009900068e-06   -8.621093753595922e-07   2.4224229046661185e-06
2.93262009900068e-06   -8.621093753595922e-07   2.4224229046661185e-06
2.3719483399687603e-06   -3.0881253134356756e-06   1.8201006435859682e-05
2.3719483399687603e-06   -3.0881253134356756e-06   1.8201006435859682e-05
2.3719483399687603e-06   -3.0881253134356756e-06   1.8201006435859682e-05
2.3719483399687603e-06   -3.0881253134356756e-06   1.8201006435859682e-05
1.1931842974261214e-05   -1.3173594742819667e-06   1.2053892085468472e-06
1.1931842974261214e-05   -1.3173594742819667e-06   1.2053892085468472e-06
1.1931842974261214e-05   -1.3173594742819667e-06   1.2053892085468472e-06
1.1931842974261214e-05   -1.3173594742819667e-06   1.2053892085468472e-06
7.2975139206700155e-06   -1.7297135716945813e-06   9.176683422980109e-06
7.2975139206700155e-06   -1.7297135716945813e-06   9.176683422980109e-06
7.2975139206700155e-06   -1.7297135716945813e-06   9.176683422980109e-06
7.2975139206700155e-06   -1.7297135716945813e-06   9.176683422980109e-06
4.1352164060752735e-06   9.356405988691745e-07   3.0960357849555776e-05
4.1352164060752735e-06   9.356405988691745e-07   3.0960357849555776e-05
4.1352164060752735e-06   9.356405988691745e-07   3.0960357849555776e-05
4.1352164060752735e-06   9.356405988691745e-07   3.0960357849555776e-05
-6.517574098439922e-06   1.7776562088701268e-06   1.3710916374697589e-05
-6.517574098439922e-06   1.7776562088701268e-06   1.3710916374697589e-05
-6.517574098439922e-06   1.7776562088701268e-06   1.3710916374697589e-05
-6.517574098439922e-06   1.7776562088701268e-06   1.3710916374697589e-05
-7.005428848959956e-06   2.2003597110521224e-07   3.105832703997565e-05
-7.005428848959956e-06   2.2003597110521224e-07   3.105832703997565e-05
-7.005428848959956e-06   2.2003597110521224e-07   3.105832703997565e-05
-7.005428848959956e-06   2.2003597110521224e-07   3.105832703997565e-05
3.579802453750994e-06   1.0619769721417587e-06   1.2911110268168937e-05
3.579802453750994e-06   1.0619769721417587e-06   1.2911110268168937e-05
3.579802453750994e-06   1.0619769721417587e-06   1.2911110268168937e-05
3.579802453750994e-06   1.0619769721417587e-06   1.2911110268168937e-05
-1.531615276594982e-06   9.275599857625806e-07   2.1510790010573997e-05
-1.531615276594982e-06   9.275599857625806e-07   2.1510790010573997e-05
-1.531615276594982e-06   9.275599857625806e-07   2.1510790010573997e-05
-1.531615276594982e-06   9.275599857625806e-07   2.1510790010573997e-05
3.579802453751001e-06   2.2003597110542908e-07   3.055316243935364e-05
3.579802453751001e-06   2.2003597110542908e-07   3.055316243935364e-05
3.579802453751001e-06   2.2003597110542908e-07   3.055316243935364e-05
3.579802453751001e-06   2.2003597110542908e-07   3.055316243935364e-05
-7.005428848959956e-06   1.0619769721417587e-06   1.3416274868790958e-05
-7.005428848959956e-06   1.0619769721417587e-06   1.3416274868790958e-05
-7.005428848959956e-06   1.0619769721417587e-06   1.3416274868790958e-05
-7.005428848959956e-06   1.0619769721417587e-06   1.3416274868790958e-05
-7.507503080011725e-06   -3.656331972938607e-07   3.0859662988822964e-05
-7.507503080011725e-06   -3.656331972938607e-07   3.0859662988822964e-05
-7.507503080011725e-06   -3.656331972938607e-07   3.0859662988822964e-05
-7.507503080011725e-06   -3.656331972938607e-07   3.0859662988822964e-05
2.93262009900068e-06   4.5530188783429217e-07   1.2966896639391997e-05
2.93262009900068e-06   4.5530188783429217e-07   1.2966896639391997e-05
2.93262009900068e-06   4.5530188783429217e-07   1.2966896639391997e-05
2.93262009900068e-06   4.5530188783429217e-07   1.2966896639391997e-05
-2.0523049629147962e-06   4.2832587197568807e-07   2.1291290685433294e-05
-2.0523049629147962e-06   4.2832587197568807e-07   2.1291290685433294e-05
-2.0523049629147962e-06   4.2832587197568807e-07   2.1291290685433294e-05
-2.0523049629147962e-06   4.2832587197568807e-07   2.1291290685433294e-05
2.9326200990006936e-06   -3.656331972938607e-07   3.03671019377459e-05
2.9326200990006936e-06   -3.656331972938607e-07   3.03671019377459e-05
2.9326200990006936e-06   -3.656331972938607e-07   3.03671019377459e-05
2.9326200990006936e-06   -3.656331972938607e-07   3.03671019377459e-05
-7.5075030800117524e-06   4.5530188783429217e-07   1.3459457690469028e-05
-7.5075030800117524e-06   4.5530188783429217e-07   1.3459457690469028e-05
-7.5075030800117524e-06   4.5530188783429217e-07   1.3459457690469028e-05
-7.5075030800117524e-06   4.5530188783429217e-07   1.3459457690469028e-05
-8.002056545118667e-06   -9.42927288105546e-07   3.12664860305698e-05
-8.002056545118667e-06   -9.42927288105546e-07   3.12664860305698e-05
-8.002056545118667e-06   -9.42927288105546e-07   3.12664860305698e-05
-8.002056545118667e-06   -9.42927288105546e-07   3.12664860305698e-05
2.3719483399687535e-06   -1.648418500969917e-07   1.3509626625952416e-05
2.3719483399687535e-06   -1.648418500969917e-07   1.3509626625952416e-05
2.3719483399687535e-06   -1.648418500969917e-07   1.3509626625952416e-05
2.3719483399687535e-06   -1.648418500969917e-07   1.3509626625952416e-05
-2.4933037322261984e-06   -1.9833750992482094e-08   2.1531375220148363e-05
-2.4933037322261984e-06   -1.9833750992482094e-08   2.1531375220148363e-05
-2.4933037322261984e-06   -1.9833750992482094e-08   2.1531375220148363e-05
-2.4933037322261984e-06   -1.9833750992482094e-08   2.1531375220148363e-05
-6.517574098439922e-06   3.517540992524406e-06   3.433597552551706e-05
-6.517574098439922e-06   3.517540992524406e-06   3.433597552551706e-05
-6.517574098439922e-06   3.517540992524406e-06   3.433597552551706e-05
-6.517574098439922e-06   3.517540992524406e-06   3.433597552551706e-05
-1.699041086957893e-05   3.3154487269905063e-06   1.6759992214298767e-05
-1.699041086957893e-05   3.3154487269905063e-06   1.6759992214298767e-05
-1.699041086957893e-05   3.3154487269905063e-06   1.6759992214298767e-05
-1.699041086957893e-05   3.3154487269905063e-06   1.6759992214298767e-05
-1.7458444636923344e-05   2.867147824205281e-06   3.4032511246239166e-05
-1.7458444636923344e-05   2.867147824205281e-06   3.4032511246239166e-05
-1.7458444636923344e-05   2.867147824205281e-06   3.4032511246239166e-05
-1.7458444636923344e-05   2.867147824205281e-06   3.4032511246239166e-05
-7.005428848959956e-06   2.6555014845041584e-06   1.6737806070121308e-05
-7.005428848959956e-06   2.6555014845041584e-06   1.6737806070121308e-05
-7.005428848959956e-06   2.6555014845041584e-06   1.6737806070121308e-05
-7.005428848959956e-06   2.6555014845041584e-06   1.6737806070121308e-05
-1.2015289312797243e-05   3.015235134289085e-06   2.4871733319980138e-05
-1.2015289312797243e-05   3.015235134289085e-06   2.4871733319980138e-05
-1.2015289312797243e-05   3.015235134289085e-06   2.4871733319980138e-05
-1.2015289312797243e-05   3.015235134289085e-06   2.4871733319980138e-05
-7.005428848959956e-06   2.867147824205064e-06   3.415949905006014e-05
-7.005428848959956e-06   2.867147824205064e-06   3.415949905006014e-05
-7.005428848959956e-06   2.867147824205064e-06   3.415949905006014e-05
-7.005428848959956e-06   2.867147824205064e-06   3.415949905006014e-05
-1.745844463692329e-05   2.6555014845041584e-06   1.6610818266300873e-05
-1.745844463692329e-05   2.6555014845041584e-06   1.6610818266300873e-05
-1.745844463692329e-05   2.6555014845041584e-06   1.6610818266300873e-05
-1.745844463692329e-05   2.6555014845041584e-06   1.6610818266300873e-05
-1.7941846429665205e-05   2.2242112716049176e-06   3.425911909742726e-05
-1.7941846429665205e-05   2.2242112716049176e-06   3.425911909742726e-05
-1.7941846429665205e-05   2.2242112716049176e-06   3.425911909742726e-05
-1.7941846429665205e-05   2.2242112716049176e-06   3.425911909742726e-05
-7.507503080011725e-06   1.9989292082591825e-06   1.7003716086012318e-05
-7.507503080011725e-06   1.9989292082591825e-06   1.7003716086012318e-05
-7.507503080011725e-06   1.9989292082591825e-06   1.7003716086012318e-05
-7.507503080011725e-06   1.9989292082591825e-06   1.7003716086012318e-05
-1.2432056288138828e-05   2.5131925007839707e-06   2.4902746790709336e-05
-1.2432056288138828e-05   2.5131925007839707e-06   2.4902746790709336e-05
-1.2432056288138828e-05   2.5131925007839707e-06   2.4902746790709336e-05
-1.2432056288138828e-05   2.5131925007839707e-06   2.4902746790709336e-05
-7.5075030800117524e-06   2.2242112716049176e-06   3.439428833543461e-05
-7.5075030800117524e-06   2.2242112716049176e-06   3.439428833543461e-05
-7.5075030800117524e-06   2.2242112716049176e-06   3.439428833543461e-05
-7.5075030800117524e-06   2.2242112716049176e-06   3.439428833543461e-05
-1.7941846429665178e-05   1.9989292082591825e-06   1.6868546848004882e-05
-1.7941846429665178e-05   1.9989292082591825e-06   1.6868546848004882e-05
-1.7941846429665178e-05   1.9989292082591825e-06   1.6868546848004882e-05
-1.7941846429665178e-05   1.9989292082591825e-06   1.6868546848004882e-05
-1.8417713657163187e-05   1.6052174069303583e-06   3.4812975328180366e-05
-1.8417713657163187e-05   1.6052174069303583e-06   3.4812975328180366e-05
-1.8417713657163187e-05   1.6052174069303583e-06   3.4812975328180366e-05
-1.8417713657163187e-05   1.6052174069303583e-06   3.4812975328180366e-05
-8.002056545118667e-06   1.370203590496128e-06   1.7594555097966922e-05
-8.002056545118667e-06   1.370203590496128e-06   1.7594555097966922e-05
-8.002056545118667e-06   1.370203590496128e-06   1.7594555097966922e-05
-8.002056545118667e-06   1.370203590496128e-06   1.7594555097966922e-05
-1.2875332205496931e-05   2.0211863801938845e-06   2.532609152477907e-05
-1.2875332205496931e-05   2.0211863801938845e-06   2.532609152477907e-05
-1.2875332205496931e-05   2.0211863801938845e-06   2.532609152477907e-05
-1.2875332205496931e-05   2.0211863801938845e-06   2.532609152477907e-05
-1.699041086957893e-05   6.029208863804784e-06   3.0245582476668602e-05
-1.699041086957893e-05   6.029208863804784e-06   3.0245582476668602e-05
-1.699041086957893e-05   6.029208863804784e-06   3.0245582476668602e-05
-1.699041086957893e-05   6.029208863804784e-06   3.0245582476668602e-05
-2.7271891763959975e-05   4.923798490443464e-06   1.2446534762016511e-05
-2.7271891763959975e-05   4.923798490443464e-06   1.2446534762016511e-05
-2.7271891763959975e-05   4.923798490443464e-06   1.2446534762016511e-05
-2.7271891763959975e-05   4.923798490443464e-06   1.2446534762016511e-05
-2.7781970545592133e-05   5.393742804731157e-06   2.9687768914714264e-05
-2.7781970545592133e-05   5.393742804731157e-06   2.9687768914714264e-05
-2.7781970545592133e-05   5.393742804731157e-06   2.9687768914714264e-05
-2.7781970545592133e-05   5.393742804731157e-06   2.9687768914714264e-05
-1.7458444636923263e-05   4.25817665782079e-06   1.3163232088412788e-05
-1.7458444636923263e-05   4.25817665782079e-06   1.3163232088412788e-05
-1.7458444636923263e-05   4.25817665782079e-06   1.3163232088412788e-05
-1.7458444636923263e-05   4.25817665782079e-06   1.3163232088412788e-05
-2.232175013885623e-05   5.067629619504412e-06   2.0783069481292106e-05
-2.232175013885623e-05   5.067629619504412e-06   2.0783069481292106e-05
-2.232175013885623e-05   5.067629619504412e-06   2.0783069481292106e-05
-2.232175013885623e-05   5.067629619504412e-06   2.0783069481292106e-05
-1.7458444636923344e-05   5.3937428047313735e-06   3.036910860286057e-05
-1.7458444636923344e-05   5.3937428047313735e-06   3.036910860286057e-05
-1.7458444636923344e-05   5.3937428047313735e-06   3.036910860286057e-05
-1.7458444636923344e-05   5.3937428047313735e-06   3.036910860286057e-05
-2.778197054559208e-05   4.258176657821007e-06   1.2481892400266427e-05
-2.778197054559208e-05   4.258176657821007e-06   1.2481892400266427e-05
-2.778197054559208e-05   4.258176657821007e-06   1.2481892400266427e-05
-2.778197054559208e-05   4.258176657821007e-06   1.2481892400266427e-05
-2.8386130550955607e-05   4.805864061562838e-06   3.066473731053697e-05
-2.8386130550955607e-05   4.805864061562838e-06   3.066473731053697e-05
-2.8386130550955607e-05   4.805864061562838e-06   3.066473731053697e-05
-2.8386130550955607e-05   4.805864061562838e-06   3.066473731053697e-05
-1.794184642966515e-05   3.653142010988852e-06   1.3949230338730536e-05
-1.794184642966515e-05   3.653142010988852e-06   1.3949230338730536e-05
-1.794184642966515e-05   3.653142010988852e-06   1.3949230338730536e-05
-1.794184642966515e-05   3.653142010988852e-06   1.3949230338730536e-05
-2.2652510016715857e-05   4.596778530589329e-06   2.1234154405387964e-05
-2.2652510016715857e-05   4.596778530589329e-06   2.1234154405387964e-05
-2.2652510016715857e-05   4.596778530589329e-06   2.1234154405387964e-05
-2.2652510016715857e-05   4.596778530589329e-06   2.1234154405387964e-05
-1.7941846429665178e-05   4.805864061562621e-06   3.1356370540880927e-05
-1.7941846429665178e-05   4.805864061562621e-06   3.1356370540880927e-05
-1.7941846429665178e-05   4.805864061562621e-06   3.1356370540880927e-05
-1.7941846429665178e-05   4.805864061562621e-06   3.1356370540880927e-05
-2.8386130550955553e-05   3.653142010988852e-06   1.3257597108386307e-05
-2.8386130550955553e-05   3.653142010988852e-06   1.3257597108386307e-05
-2.8386130550955553e-05   3.653142010988852e-06   1.3257597108386307e-05
-2.8386130550955553e-05   3.653142010988852e-06   1.3257597108386307e-05
-2.8904679543591868e-05   4.148806384736371e-06   3.160879514383123e-05
-2.8904679543591868e-05   4.148806384736371e-06   3.160879514383123e-05
-2.8904679543591868e-05   4.148806384736371e-06   3.160879514383123e-05
-2.8904679543591868e-05   4.148806384736371e-06   3.160879514383123e-05
-1.8417713657163133e-05   3.0066993541928884e-06   1.4815782884776483e-05
-1.8417713657163133e-05   3.0066993541928884e-06   1.4815782884776483e-05
-1.8417713657163133e-05   3.0066993541928884e-06   1.4815782884776483e-05
-1.8417713657163133e-05   3.0066993541928884e-06   1.4815782884776483e-05
-2.322083704638084e-05   4.125394780476761e-06   2.2149771277703387e-05
-2.322083704638084e-05   4.125394780476761e-06   2.2149771277703387e-05
-2.322083704638084e-05   4.125394780476761e-06   2.2149771277703387e-05
-2.322083704638084e-05   4.125394780476761e-06   2.2149771277703387e-05
-2.727189176396003e-05   7.90676326942988e-06   1.4127688257188067e-05
-2.727189176396003e-05   7.90676326942988e-06   1.4127688257188067e-05
-2.727189176396003e-05   7.90676326942988e-06   1.4127688257188067e-05
-2.727189176396003e-05   7.90676326942988e-06   1.4127688257188067e-05
-3.65400618218939e-05   6.0556742579741425e-06   -2.429915246241832e-06
-3.65400618218939e-05   6.0556742579741425e-06   -2.429915246241832e-06
-3.65400618218939e-05   6.0556742579741425e-06   -2.429915246241832e-06
-3.65400618218939e-05   6.0556742579741425e-06   -2.429915246241832e-06
-3.784750993114129e-05   7.702578284618598e-06   1.741772352660282e-05
-3.784750993114129e-05   7.702578284618598e-06   1.741772352660282e-05
-3.784750993114129e-05   7.702578284618598e-06   1.741772352660282e-05
-3.784750993114129e-05   7.702578284618598e-06   1.741772352660282e-05
-2.7781970545592025e-05   5.714237251583159e-06   1.8348291705088749e-06
-2.7781970545592025e-05   5.714237251583159e-06   1.8348291705088749e-06
-2.7781970545592025e-05   5.714237251583159e-06   1.8348291705088749e-06
-2.7781970545592025e-05   5.714237251583159e-06   1.8348291705088749e-06
-3.118197811066939e-05   6.719359232423405e-06   6.898435257134995e-06
-3.118197811066939e-05   6.719359232423405e-06   6.898435257134995e-06
-3.118197811066939e-05   6.719359232423405e-06   6.898435257134995e-06
-3.118197811066939e-05   6.719359232423405e-06   6.898435257134995e-06
-2.7781970545592025e-05   7.702578284618814e-06   1.8610728146423866e-05
-2.7781970545592025e-05   7.702578284618814e-06   1.8610728146423866e-05
-2.7781970545592025e-05   7.702578284618814e-06   1.8610728146423866e-05
-2.7781970545592025e-05   7.702578284618814e-06   1.8610728146423866e-05
-3.78475099311414e-05   5.7142372515829425e-06   6.418245506876119e-07
-3.78475099311414e-05   5.7142372515829425e-06   6.418245506876119e-07
-3.78475099311414e-05   5.7142372515829425e-06   6.418245506876119e-07
-3.78475099311414e-05   5.7142372515829425e-06   6.418245506876119e-07
-3.8973382463159594e-05   7.453383775798614e-06   2.0609916046897834e-05
-3.8973382463159594e-05   7.453383775798614e-06   2.0609916046897834e-05
-3.8973382463159594e-05   7.453383775798614e-06   2.0609916046897834e-05
-3.8973382463159594e-05   7.453383775798614e-06   2.0609916046897834e-05
-2.8386130550955553e-05   5.4292311531692426e-06   4.1789877668022436e-06
-2.8386130550955553e-05   5.4292311531692426e-06   4.1789877668022436e-06
-2.8386130550955553e-05   5.4292311531692426e-06   4.1789877668022436e-06
-2.8386130550955553e-05   5.4292311531692426e-06   4.1789877668022436e-06
-3.243688560368346e-05   6.63066288979176e-06   1.0209387146042502e-05
-3.243688560368346e-05   6.63066288979176e-06   1.0209387146042502e-05
-3.243688560368346e-05   6.63066288979176e-06   1.0209387146042502e-05
-3.243688560368346e-05   6.63066288979176e-06   1.0209387146042502e-05
-2.8386130550955553e-05   7.453383775798831e-06   2.18244076204755e-05
-2.8386130550955553e-05   7.453383775798831e-06   2.18244076204755e-05
-2.8386130550955553e-05   7.453383775798831e-06   2.18244076204755e-05
-2.8386130550955553e-05   7.453383775798831e-06   2.18244076204755e-05
-3.897338246315965e-05   5.4292311531692426e-06   2.9644961932243606e-06
-3.897338246315965e-05   5.4292311531692426e-06   2.9644961932243606e-06
-3.897338246315965e-05   5.4292311531692426e-06   2.9644961932243606e-06
-3.897338246315965e-05   5.4292311531692426e-06   2.9644961932243606e-06
-4.0321069371466534e-05   6.61744976882591e-06   2.625925880389698e-05
-4.0321069371466534e-05   6.61744976882591e-06   2.625925880389698e-05
-4.0321069371466534e-05   6.61744976882591e-06   2.625925880389698e-05
-4.0321069371466534e-05   6.61744976882591e-06   2.625925880389698e-05
-2.890467954359176e-05   4.6544867885747136e-06   8.409720212256499e-06
-2.890467954359176e-05   4.6544867885747136e-06   8.409720212256499e-06
-2.890467954359176e-05   4.6544867885747136e-06   8.409720212256499e-06
-2.890467954359176e-05   4.6544867885747136e-06   8.409720212256499e-06
-3.275060267948033e-05   6.278355864800921e-06   1.384527065966879e-05
-3.275060267948033e-05   6.278355864800921e-06   1.384527065966879e-05
-3.275060267948033e-05   6.278355864800921e-06   1.384527065966879e-05
-3.275060267948033e-05   6.278355864800921e-06   1.384527065966879e-05
3.148015932017347e-06   4.420454581587421e-08   1.6781568495849138e-05
3.148015932017347e-06   4.420454581587421e-08   1.6781568495849138e-05
3.148015932017347e-06   4.420454581587421e-08   1.6781568495849138e-05
3.148015932017347e-06   4.420454581587421e-08   1.6781568495849138e-05
-3.5354704579387795e-06   1.8296069284162286e-06   6.7136659421490694e-06
-3.5354704579387795e-06   1.8296069284162286e-06   6.7136659421490694e-06
-3.5354704579387795e-06   1.8296069284162286e-06   6.7136659421490694e-06
-3.5354704579387795e-06   1.8296069284162286e-06   6.7136659421490694e-06
-3.92846545611318e-06   -5.889673715779586e-07   1.6555433298903505e-05
-3.92846545611318e-06   -5.889673715779586e-07   1.6555433298903505e-05
-3.92846545611318e-06   -5.889673715779586e-07   1.6555433298903505e-05
-3.92846545611318e-06   -5.889673715779586e-07   1.6555433298903505e-05
1.9516767593049636e-06   1.2389627891881954e-06   5.658438176746886e-06
1.9516767593049636e-06   1.2389627891881954e-06   5.658438176746886e-06
1.9516767593049636e-06   1.2389627891881954e-06   5.658438176746886e-06
1.9516767593049636e-06   1.2389627891881954e-06   5.658438176746886e-06
-7.468959293182874e-07   5.299258320819872e-07   1.0581481498716074e-05
-7.468959293182874e-07   5.299258320819872e-07   1.0581481498716074e-05
-7.468959293182874e-07   5.299258320819872e-07   1.0581481498716074e-05
-7.468959293182874e-07   5.299258320819872e-07   1.0581481498716074e-05
1.9516767593049636e-06   -5.889673715779586e-07   1.545867520244353e-05
1.9516767593049636e-06   -5.889673715779586e-07   1.545867520244353e-05
1.9516767593049636e-06   -5.889673715779586e-07   1.545867520244353e-05
1.9516767593049636e-06   -5.889673715779586e-07   1.545867520244353e-05
-3.92846545611318e-06   1.2389627891881954e-06   6.755196273206562e-06
-3.92846545611318e-06   1.2389627891881954e-06   6.755196273206562e-06
-3.92846545611318e-06   1.2389627891881954e-06   6.755196273206562e-06
-3.92846545611318e-06   1.2389627891881954e-06   6.755196273206562e-06
-4.4138784293526814e-06   -8.621093753595922e-07   1.6124425871585132e-05
-4.4138784293526814e-06   -8.621093753595922e-07   1.6124425871585132e-05
-4.4138784293526814e-06   -8.621093753595922e-07   1.6124425871585132e-05
-4.4138784293526814e-06   -8.621093753595922e-07   1.6124425871585132e-05
9.137205427139238e-07   9.136206553575759e-07   6.179656233043772e-06
9.137205427139238e-07   9.136206553575759e-07   6.179656233043772e-06
9.137205427139238e-07   9.136206553575759e-07   6.179656233043772e-06
9.137205427139238e-07   9.136206553575759e-07   6.179656233043772e-06
-1.3927337622596703e-06   2.7823420424783266e-07   1.0404978611998556e-05
-1.3927337622596703e-06   2.7823420424783266e-07   1.0404978611998556e-05
-1.3927337622596703e-06   2.7823420424783266e-07   1.0404978611998556e-05
-1.3927337622596703e-06   2.7823420424783266e-07   1.0404978611998556e-05
9.137205427139238e-07   -8.621093753595922e-07   1.5058987853154614e-05
9.137205427139238e-07   -8.621093753595922e-07   1.5058987853154614e-05
9.137205427139238e-07   -8.621093753595922e-07   1.5058987853154614e-05
9.137205427139238e-07   -8.621093753595922e-07   1.5058987853154614e-05
-4.413878429352678e-06   9.136206553575759e-07   7.245094251473938e-06
-4.413878429352678e-06   9.136206553575759e-07   7.245094251473938e-06
-4.413878429352678e-06   9.136206553575759e-07   7.245094251473938e-06
-4.413878429352678e-06   9.136206553575759e-07   7.245094251473938e-06
-4.8194632410743984e-06   -1.3173594742819667e-06   1.5974258633026975e-05
-4.8194632410743984e-06   -1.3173594742819667e-06   1.5974258633026975e-05
-4.8194632410743984e-06   -1.3173594742819667e-06   1.5974258633026975e-05
-4.8194632410743984e-06   -1.3173594742819667e-06   1.5974258633026975e-05
-3.88336807108269e-07   2.2337632555311827e-07   7.664606429849316e-06
-3.88336807108269e-07   2.2337632555311827e-07   7.664606429849316e-06
-3.88336807108269e-07   2.2337632555311827e-07   7.664606429849316e-06
-3.88336807108269e-07   2.2337632555311827e-07   7.664606429849316e-06
-2.0875889651411824e-06   4.7206824964687866e-08   1.0602395060257197e-05
-2.0875889651411824e-06   4.7206824964687866e-08   1.0602395060257197e-05
-2.0875889651411824e-06   4.7206824964687866e-08   1.0602395060257197e-05
-2.0875889651411824e-06   4.7206824964687866e-08   1.0602395060257197e-05
-3.5354704579387795e-06   1.7776562088701268e-06   2.6931703485733754e-05
-3.5354704579387795e-06   1.7776562088701268e-06   2.6931703485733754e-05
-3.5354704579387795e-06   1.7776562088701268e-06   2.6931703485733754e-05
-3.5354704579387795e-06   1.7776562088701268e-06   2.6931703485733754e-05
-9.130057487985362e-06   2.1295042133685597e-06   1.781850057168855e-05
-9.130057487985362e-06   2.1295042133685597e-06   1.781850057168855e-05
-9.130057487985362e-06   2.1295042133685597e-06   1.781850057168855e-05
-9.130057487985362e-06   2.1295042133685597e-06   1.781850057168855e-05
-9.42630686736175e-06   1.0619769721417587e-06   2.6858820732776926e-05
-9.42630686736175e-06   1.0619769721417587e-06   2.6858820732776926e-05
-9.42630686736175e-06   1.0619769721417587e-06   2.6858820732776926e-05
-9.42630686736175e-06   1.0619769721417587e-06   2.6858820732776926e-05
-3.92846545611318e-06   1.4697905779462433e-06   1.745106355054656e-05
-3.92846545611318e-06   1.4697905779462433e-06   1.745106355054656e-05
-3.92846545611318e-06   1.4697905779462433e-06   1.745106355054656e-05
-3.92846545611318e-06   1.4697905779462433e-06   1.745106355054656e-05
-6.543618116900759e-06   1.5333294470709288e-06   2.1771527997050966e-05
-6.543618116900759e-06   1.5333294470709288e-06   2.1771527997050966e-05
-6.543618116900759e-06   1.5333294470709288e-06   2.1771527997050966e-05
-6.543618116900759e-06   1.5333294470709288e-06   2.1771527997050966e-05
-3.9284654561131736e-06   1.0619769721415418e-06   2.661413256929365e-05
-3.9284654561131736e-06   1.0619769721415418e-06   2.661413256929365e-05
-3.9284654561131736e-06   1.0619769721415418e-06   2.661413256929365e-05
-3.9284654561131736e-06   1.0619769721415418e-06   2.661413256929365e-05
-9.426306867361695e-06   1.4697905779462433e-06   1.769575171402932e-05
-9.426306867361695e-06   1.4697905779462433e-06   1.769575171402932e-05
-9.426306867361695e-06   1.4697905779462433e-06   1.769575171402932e-05
-9.426306867361695e-06   1.4697905779462433e-06   1.769575171402932e-05
-9.731852711336781e-06   4.5530188783429217e-07   2.6912082479546768e-05
-9.731852711336781e-06   4.5530188783429217e-07   2.6912082479546768e-05
-9.731852711336781e-06   4.5530188783429217e-07   2.6912082479546768e-05
-9.731852711336781e-06   4.5530188783429217e-07   2.6912082479546768e-05
-4.413878429352678e-06   8.606066765604308e-07   1.780560913633737e-05
-4.413878429352678e-06   8.606066765604308e-07   1.780560913633737e-05
-4.413878429352678e-06   8.606066765604308e-07   1.780560913633737e-05
-4.413878429352678e-06   8.606066765604308e-07   1.780560913633737e-05
-6.846059671660129e-06   1.0510993216847342e-06   2.174494895310861e-05
-6.846059671660129e-06   1.0510993216847342e-06   2.174494895310861e-05
-6.846059671660129e-06   1.0510993216847342e-06   2.174494895310861e-05
-6.846059671660129e-06   1.0510993216847342e-06   2.174494895310861e-05
-4.413878429352678e-06   4.5530188783429217e-07   2.666889960631076e-05
-4.413878429352678e-06   4.5530188783429217e-07   2.666889960631076e-05
-4.413878429352678e-06   4.5530188783429217e-07   2.666889960631076e-05
-4.413878429352678e-06   4.5530188783429217e-07   2.666889960631076e-05
-9.731852711336754e-06   8.606066765604308e-07   1.804879200957327e-05
-9.731852711336754e-06   8.606066765604308e-07   1.804879200957327e-05
-9.731852711336754e-06   8.606066765604308e-07   1.804879200957327e-05
-9.731852711336754e-06   8.606066765604308e-07   1.804879200957327e-05
-1.0031527264676066e-05   -1.648418500969917e-07   2.7435186059415946e-05
-1.0031527264676066e-05   -1.648418500969917e-07   2.7435186059415946e-05
-1.0031527264676066e-05   -1.648418500969917e-07   2.7435186059415946e-05
-1.0031527264676066e-05   -1.648418500969917e-07   2.7435186059415946e-05
-4.819463241074385e-06   2.0040733736187075e-07   1.852926317427111e-05
-4.819463241074385e-06   2.0040733736187075e-07   1.852926317427111e-05
-4.819463241074385e-06   2.0040733736187075e-07   1.852926317427111e-05
-4.819463241074385e-06   2.0040733736187075e-07   1.852926317427111e-05
-7.148229209219088e-06   5.769308470248563e-07   2.21846256820478e-05
-7.148229209219088e-06   5.769308470248563e-07   2.21846256820478e-05
-7.148229209219088e-06   5.769308470248563e-07   2.21846256820478e-05
-7.148229209219088e-06   5.769308470248563e-07   2.21846256820478e-05
-9.130057487985335e-06   3.3154487269902895e-06   3.031314348735418e-05
-9.130057487985335e-06   3.3154487269902895e-06   3.031314348735418e-05
-9.130057487985335e-06   3.3154487269902895e-06   3.031314348735418e-05
-9.130057487985335e-06   3.3154487269902895e-06   3.031314348735418e-05
-1.4706627827752966e-05   2.552329235208607e-06   2.056098789267243e-05
-1.4706627827752966e-05   2.552329235208607e-06   2.056098789267243e-05
-1.4706627827752966e-05   2.552329235208607e-06   2.056098789267243e-05
-1.4706627827752966e-05   2.552329235208607e-06   2.056098789267243e-05
-1.4957271722572895e-05   2.655501484504375e-06   2.9751537121862565e-05
-1.4957271722572895e-05   2.655501484504375e-06   2.9751537121862565e-05
-1.4957271722572895e-05   2.655501484504375e-06   2.9751537121862565e-05
-1.4957271722572895e-05   2.655501484504375e-06   2.9751537121862565e-05
-9.426306867361695e-06   1.940810130763009e-06   2.096207717542189e-05
-9.426306867361695e-06   1.940810130763009e-06   2.096207717542189e-05
-9.426306867361695e-06   1.940810130763009e-06   2.096207717542189e-05
-9.426306867361695e-06   1.940810130763009e-06   2.096207717542189e-05
-1.2061034058806968e-05   2.565718283192419e-06   2.4978344269706212e-05
-1.2061034058806968e-05   2.565718283192419e-06   2.4978344269706212e-05
-1.2061034058806968e-05   2.565718283192419e-06   2.4978344269706212e-05
-1.2061034058806968e-05   2.565718283192419e-06   2.4978344269706212e-05
-9.426306867361695e-06   2.6555014845041584e-06   3.018035193410706e-05
-9.426306867361695e-06   2.6555014845041584e-06   3.018035193410706e-05
-9.426306867361695e-06   2.6555014845041584e-06   3.018035193410706e-05
-9.426306867361695e-06   2.6555014845041584e-06   3.018035193410706e-05
-1.4957271722572895e-05   1.940810130763009e-06   2.053326236317718e-05
-1.4957271722572895e-05   1.940810130763009e-06   2.053326236317718e-05
-1.4957271722572895e-05   1.940810130763009e-06   2.053326236317718e-05
-1.4957271722572895e-05   1.940810130763009e-06   2.053326236317718e-05
-1.5225886662019363e-05   1.9989292082591825e-06   3.0048549627382853e-05
-1.5225886662019363e-05   1.9989292082591825e-06   3.0048549627382853e-05
-1.5225886662019363e-05   1.9989292082591825e-06   3.0048549627382853e-05
-1.5225886662019363e-05   1.9989292082591825e-06   3.0048549627382853e-05
-9.731852711336754e-06   1.3192771287470935e-06   2.129961762395243e-05
-9.731852711336754e-06   1.3192771287470935e-06   2.129961762395243e-05
-9.731852711336754e-06   1.3192771287470935e-06   2.129961762395243e-05
-9.731852711336754e-06   1.3192771287470935e-06   2.129961762395243e-05
-1.227517919436185e-05   2.075942395420201e-06   2.508449593565667e-05
-1.227517919436185e-05   2.075942395420201e-06   2.508449593565667e-05
-1.227517919436185e-05   2.075942395420201e-06   2.508449593565667e-05
-1.227517919436185e-05   2.075942395420201e-06   2.508449593565667e-05
-9.731852711336754e-06   1.9989292082593993e-06   3.0456340875089868e-05
-9.731852711336754e-06   1.9989292082593993e-06   3.0456340875089868e-05
-9.731852711336754e-06   1.9989292082593993e-06   3.0456340875089868e-05
-9.731852711336754e-06   1.9989292082593993e-06   3.0456340875089868e-05
-1.5225886662019363e-05   1.3192771287470935e-06   2.0891826376245198e-05
-1.5225886662019363e-05   1.3192771287470935e-06   2.0891826376245198e-05
-1.5225886662019363e-05   1.3192771287470935e-06   2.0891826376245198e-05
-1.5225886662019363e-05   1.3192771287470935e-06   2.0891826376245198e-05
-1.5488953211011667e-05   1.370203590496128e-06   3.0669130459680914e-05
-1.5488953211011667e-05   1.370203590496128e-06   3.0669130459680914e-05
-1.5488953211011667e-05   1.370203590496128e-06   3.0669130459680914e-05
-1.5488953211011667e-05   1.370203590496128e-06   3.0669130459680914e-05
-1.0031527264676038e-05   7.299822422559415e-07   2.195755335806577e-05
-1.0031527264676038e-05   7.299822422559415e-07   2.195755335806577e-05
-1.0031527264676038e-05   7.299822422559415e-07   2.195755335806577e-05
-1.0031527264676038e-05   7.299822422559415e-07   2.195755335806577e-05
-1.2513783679279179e-05   1.593504159050482e-06   2.5576534232327457e-05
-1.2513783679279179e-05   1.593504159050482e-06   2.5576534232327457e-05
-1.2513783679279179e-05   1.593504159050482e-06   2.5576534232327457e-05
-1.2513783679279179e-05   1.593504159050482e-06   2.5576534232327457e-05
-1.4706627827752966e-05   4.923798490443464e-06   2.62050605640199e-05
-1.4706627827752966e-05   4.923798490443464e-06   2.62050605640199e-05
-1.4706627827752966e-05   4.923798490443464e-06   2.62050605640199e-05
-1.4706627827752966e-05   4.923798490443464e-06   2.62050605640199e-05
-2.0190847703618518e-05   3.4496145231554393e-06   1.6180183723871156e-05
-2.0190847703618518e-05   3.4496145231554393e-06   1.6180183723871156e-05
-2.0190847703618518e-05   3.4496145231554393e-06   1.6180183723871156e-05
-2.0190847703618518e-05   3.4496145231554393e-06   1.6180183723871156e-05
-2.04662202523743e-05   4.258176657821007e-06   2.543277986904232e-05
-2.04662202523743e-05   4.258176657821007e-06   2.543277986904232e-05
-2.04662202523743e-05   4.258176657821007e-06   2.543277986904232e-05
-2.04662202523743e-05   4.258176657821007e-06   2.543277986904232e-05
-1.4957271722572895e-05   2.8062248662670455e-06   1.7122370060972266e-05
-1.4957271722572895e-05   2.8062248662670455e-06   1.7122370060972266e-05
-1.4957271722572895e-05   2.8062248662670455e-06   1.7122370060972266e-05
-1.4957271722572895e-05   2.8062248662670455e-06   1.7122370060972266e-05
-1.75430059784782e-05   3.826814601691399e-06   2.0819573312893082e-05
-1.75430059784782e-05   3.826814601691399e-06   2.0819573312893082e-05
-1.75430059784782e-05   3.826814601691399e-06   2.0819573312893082e-05
-1.75430059784782e-05   3.826814601691399e-06   2.0819573312893082e-05
-1.4957271722572895e-05   4.25817665782079e-06   2.630395094397437e-05
-1.4957271722572895e-05   4.25817665782079e-06   2.630395094397437e-05
-1.4957271722572895e-05   4.25817665782079e-06   2.630395094397437e-05
-1.4957271722572895e-05   4.25817665782079e-06   2.630395094397437e-05
-2.0466220252374245e-05   2.8062248662668286e-06   1.6251198986039943e-05
-2.0466220252374245e-05   2.8062248662668286e-06   1.6251198986039943e-05
-2.0466220252374245e-05   2.8062248662668286e-06   1.6251198986039943e-05
-2.0466220252374245e-05   2.8062248662668286e-06   1.6251198986039943e-05
-2.084693860097877e-05   3.653142010988852e-06   2.6277712817138546e-05
-2.084693860097877e-05   3.653142010988852e-06   2.6277712817138546e-05
-2.084693860097877e-05   3.653142010988852e-06   2.6277712817138546e-05
-2.084693860097877e-05   3.653142010988852e-06   2.6277712817138546e-05
-1.5225886662019363e-05   2.233941509372124e-06   1.7760813219842885e-05
-1.5225886662019363e-05   2.233941509372124e-06   1.7760813219842885e-05
-1.5225886662019363e-05   2.233941509372124e-06   1.7760813219842885e-05
-1.5225886662019363e-05   2.233941509372124e-06   1.7760813219842885e-05
-1.7692706690863115e-05   3.3521318095054535e-06   2.1201265754501836e-05
-1.7692706690863115e-05   3.3521318095054535e-06   2.1201265754501836e-05
-1.7692706690863115e-05   3.3521318095054535e-06   2.1201265754501836e-05
-1.7692706690863115e-05   3.3521318095054535e-06   2.1201265754501836e-05
-1.522588666201931e-05   3.653142010988852e-06   2.7129233118108127e-05
-1.522588666201931e-05   3.653142010988852e-06   2.7129233118108127e-05
-1.522588666201931e-05   3.653142010988852e-06   2.7129233118108127e-05
-1.522588666201931e-05   3.653142010988852e-06   2.7129233118108127e-05
-2.084693860097866e-05   2.233941509371907e-06   1.6909292918872816e-05
-2.084693860097866e-05   2.233941509371907e-06   1.6909292918872816e-05
-2.084693860097866e-05   2.233941509371907e-06   1.6909292918872816e-05
-2.084693860097866e-05   2.233941509371907e-06   1.6909292918872816e-05
-2.1152188490931986e-05   3.0066993541928884e-06   2.7217981816456864e-05
-2.1152188490931986e-05   3.0066993541928884e-06   2.7217981816456864e-05
-2.1152188490931986e-05   3.0066993541928884e-06   2.7217981816456864e-05
-2.1152188490931986e-05   3.0066993541928884e-06   2.7217981816456864e-05
-1.5488953211011613e-05   1.6510581543694239e-06   1.8592641069817295e-05
-1.5488953211011613e-05   1.6510581543694239e-06   1.8592641069817295e-05
-1.5488953211011613e-05   1.6510581543694239e-06   1.8592641069817295e-05
-1.5488953211011613e-05   1.6510581543694239e-06   1.8592641069817295e-05
-1.8007952518797133e-05   2.9008638821079007e-06   2.204108981281711e-05
-1.8007952518797133e-05   2.9008638821079007e-06   2.204108981281711e-05
-1.8007952518797133e-05   2.9008638821079007e-06   2.204108981281711e-05
-1.8007952518797133e-05   2.9008638821079007e-06   2.204108981281711e-05
-2.0190847703618518e-05   6.0556742579741425e-06   1.155475358226223e-05
-2.0190847703618518e-05   6.0556742579741425e-06   1.155475358226223e-05
-2.0190847703618518e-05   6.0556742579741425e-06   1.155475358226223e-05
-2.0190847703618518e-05   6.0556742579741425e-06   1.155475358226223e-05
-2.449164444477995e-05   4.074079296322291e-06   3.19780203666888e-06
-2.449164444477995e-05   4.074079296322291e-06   3.19780203666888e-06
-2.449164444477995e-05   4.074079296322291e-06   3.19780203666888e-06
-2.449164444477995e-05   4.074079296322291e-06   3.19780203666888e-06
-2.553715050802321e-05   5.714237251583159e-06   1.3544730065451118e-05
-2.553715050802321e-05   5.714237251583159e-06   1.3544730065451118e-05
-2.553715050802321e-05   5.714237251583159e-06   1.3544730065451118e-05
-2.553715050802321e-05   5.714237251583159e-06   1.3544730065451118e-05
-2.0466220252374245e-05   3.645926295194014e-06   6.334166213203124e-06
-2.0466220252374245e-05   3.645926295194014e-06   6.334166213203124e-06
-2.0466220252374245e-05   3.645926295194014e-06   6.334166213203124e-06
-2.0466220252374245e-05   3.645926295194014e-06   6.334166213203124e-06
-2.1884961032747315e-05   4.823719287787255e-06   7.992058384935518e-06
-2.1884961032747315e-05   4.823719287787255e-06   7.992058384935518e-06
-2.1884961032747315e-05   4.823719287787255e-06   7.992058384935518e-06
-2.1884961032747315e-05   4.823719287787255e-06   7.992058384935518e-06
-2.0466220252374245e-05   5.714237251583159e-06   1.478571663928428e-05
-2.0466220252374245e-05   5.714237251583159e-06   1.478571663928428e-05
-2.0466220252374245e-05   5.714237251583159e-06   1.478571663928428e-05
-2.0466220252374245e-05   5.714237251583159e-06   1.478571663928428e-05
-2.553715050802321e-05   3.645926295194014e-06   5.0931796393695284e-06
-2.553715050802321e-05   3.645926295194014e-06   5.0931796393695284e-06
-2.553715050802321e-05   3.645926295194014e-06   5.0931796393695284e-06
-2.553715050802321e-05   3.645926295194014e-06   5.0931796393695284e-06
-2.6434888154203704e-05   5.4292311531692426e-06   1.5952767955825517e-05
-2.6434888154203704e-05   5.4292311531692426e-06   1.5952767955825517e-05
-2.6434888154203704e-05   5.4292311531692426e-06   1.5952767955825517e-05
-2.6434888154203704e-05   5.4292311531692426e-06   1.5952767955825517e-05
-2.0846938600978715e-05   3.3520052869545538e-06   7.885854220179302e-06
-2.0846938600978715e-05   3.3520052869545538e-06   7.885854220179302e-06
-2.0846938600978715e-05   3.3520052869545538e-06   7.885854220179302e-06
-2.0846938600978715e-05   3.3520052869545538e-06   7.885854220179302e-06
-2.277061956592393e-05   4.655569640146361e-06   1.0309850549839773e-05
-2.277061956592393e-05   4.655569640146361e-06   1.0309850549839773e-05
-2.277061956592393e-05   4.655569640146361e-06   1.0309850549839773e-05
-2.277061956592393e-05   4.655569640146361e-06   1.0309850549839773e-05
-2.0846938600978715e-05   5.429231153169026e-06   1.7199103475554157e-05
-2.0846938600978715e-05   5.429231153169026e-06   1.7199103475554157e-05
-2.0846938600978715e-05   5.429231153169026e-06   1.7199103475554157e-05
-2.0846938600978715e-05   5.429231153169026e-06   1.7199103475554157e-05
-2.6434888154203704e-05   3.3520052869547706e-06   6.639518700450771e-06
-2.6434888154203704e-05   3.3520052869547706e-06   6.639518700450771e-06
-2.6434888154203704e-05   3.3520052869547706e-06   6.639518700450771e-06
-2.6434888154203704e-05   3.3520052869547706e-06   6.639518700450771e-06
-2.7578288084135864e-05   4.65448678857493e-06   2.0311100376012043e-05
-2.7578288084135864e-05   4.65448678857493e-06   2.0311100376012043e-05
-2.7578288084135864e-05   4.65448678857493e-06   2.0311100376012043e-05
-2.7578288084135864e-05   4.65448678857493e-06   2.0311100376012043e-05
-2.1152188490931932e-05   2.6776818114898366e-06   1.078701737358993e-05
-2.1152188490931932e-05   2.6776818114898366e-06   1.078701737358993e-05
-2.1152188490931932e-05   2.6776818114898366e-06   1.078701737358993e-05
-2.1152188490931932e-05   2.6776818114898366e-06   1.078701737358993e-05
-2.3024185018661946e-05   4.333999932655368e-06   1.2913220713773894e-05
-2.3024185018661946e-05   4.333999932655368e-06   1.2913220713773894e-05
-2.3024185018661946e-05   4.333999932655368e-06   1.2913220713773894e-05
-2.3024185018661946e-05   4.333999932655368e-06   1.2913220713773894e-05
-1.0077063995212143e-05   1.8296069284162286e-06   1.1964905305552579e-05
-1.0077063995212143e-05   1.8296069284162286e-06   1.1964905305552579e-05
-1.0077063995212143e-05   1.8296069284162286e-06   1.1964905305552579e-05
-1.0077063995212143e-05   1.8296069284162286e-06   1.1964905305552579e-05
-1.0998038711993706e-05   3.45169264680614e-06   1.140319887528397e-05
-1.0998038711993706e-05   3.45169264680614e-06   1.140319887528397e-05
-1.0998038711993706e-05   3.45169264680614e-06   1.140319887528397e-05
-1.0998038711993706e-05   3.45169264680614e-06   1.140319887528397e-05
-1.127977513974572e-05   1.2389627891881954e-06   1.2859005369721859e-05
-1.127977513974572e-05   1.2389627891881954e-06   1.2859005369721859e-05
-1.127977513974572e-05   1.2389627891881954e-06   1.2859005369721859e-05
-1.127977513974572e-05   1.2389627891881954e-06   1.2859005369721859e-05
-1.1264915828840477e-05   2.6974980023722686e-06   1.1959118723636064e-05
-1.1264915828840477e-05   2.6974980023722686e-06   1.1959118723636064e-05
-1.1264915828840477e-05   2.6974980023722686e-06   1.1959118723636064e-05
-1.1264915828840477e-05   2.6974980023722686e-06   1.1959118723636064e-05
-1.0633418647480311e-05   2.1543656900581843e-06   1.1232502808757538e-05
-1.0633418647480311e-05   2.1543656900581843e-06   1.1232502808757538e-05
-1.0633418647480311e-05   2.1543656900581843e-06   1.1232502808757538e-05
-1.0633418647480311e-05   2.1543656900581843e-06   1.1232502808757538e-05
-1.1264915828840491e-05   1.2389627891881954e-06   1.1983884241811632e-05
-1.1264915828840491e-05   1.2389627891881954e-06   1.1983884241811632e-05
-1.1264915828840491e-05   1.2389627891881954e-06   1.1983884241811632e-05
-1.1264915828840491e-05   1.2389627891881954e-06   1.1983884241811632e-05
-1.127977513974572e-05   2.6974980023722686e-06   1.283423985154648e-05
-1.127977513974572e-05   2.6974980023722686e-06   1.283423985154648e-05
-1.127977513974572e-05   2.6974980023722686e-06   1.283423985154648e-05
-1.127977513974572e-05   2.6974980023722686e-06   1.283423985154648e-05
-1.164548382003599e-05   9.136206553575759e-07   1.326922729109225e-05
-1.164548382003599e-05   9.136206553575759e-07   1.326922729109225e-05
-1.164548382003599e-05   9.136206553575759e-07   1.326922729109225e-05
-1.164548382003599e-05   9.136206553575759e-07   1.326922729109225e-05
-1.241995489565722e-05   2.1758094278659726e-06   1.3802699153622544e-05
-1.241995489565722e-05   2.1758094278659726e-06   1.3802699153622544e-05
-1.241995489565722e-05   2.1758094278659726e-06   1.3802699153622544e-05
-1.241995489565722e-05   2.1758094278659726e-06   1.3802699153622544e-05
-1.1340561129998291e-05   1.828970112117967e-06   1.221181313363983e-05
-1.1340561129998291e-05   1.828970112117967e-06   1.221181313363983e-05
-1.1340561129998291e-05   1.828970112117967e-06   1.221181313363983e-05
-1.1340561129998291e-05   1.828970112117967e-06   1.221181313363983e-05
-1.2419954895657233e-05   9.136206553575759e-07   1.2511914027587114e-05
-1.2419954895657233e-05   9.136206553575759e-07   1.2511914027587114e-05
-1.2419954895657233e-05   9.136206553575759e-07   1.2511914027587114e-05
-1.2419954895657233e-05   9.136206553575759e-07   1.2511914027587114e-05
-1.164548382003599e-05   2.1758094278659726e-06   1.4560012417127706e-05
-1.164548382003599e-05   2.1758094278659726e-06   1.4560012417127706e-05
-1.164548382003599e-05   2.1758094278659726e-06   1.4560012417127706e-05
-1.164548382003599e-05   2.1758094278659726e-06   1.4560012417127706e-05
-1.1877840772271034e-05   2.2337632555311827e-07   1.458984193810492e-05
-1.1877840772271034e-05   2.2337632555311827e-07   1.458984193810492e-05
-1.1877840772271034e-05   2.2337632555311827e-07   1.458984193810492e-05
-1.1877840772271034e-05   2.2337632555311827e-07   1.458984193810492e-05
-1.3649591248331697e-05   8.924943011284076e-07   1.714128861286045e-05
-1.3649591248331697e-05   8.924943011284076e-07   1.714128861286045e-05
-1.3649591248331697e-05   8.924943011284076e-07   1.714128861286045e-05
-1.3649591248331697e-05   8.924943011284076e-07   1.714128861286045e-05
-1.1835379180874827e-05   1.429219935082356e-06   1.3795566453393129e-05
-1.1835379180874827e-05   1.429219935082356e-06   1.3795566453393129e-05
-1.1835379180874827e-05   1.429219935082356e-06   1.3795566453393129e-05
-1.1835379180874827e-05   1.429219935082356e-06   1.3795566453393129e-05
-1.0998038711993706e-05   2.1295042133685597e-06   2.3831882563426945e-05
-1.0998038711993706e-05   2.1295042133685597e-06   2.3831882563426945e-05
-1.0998038711993706e-05   2.1295042133685597e-06   2.3831882563426945e-05
-1.0998038711993706e-05   2.1295042133685597e-06   2.3831882563426945e-05
-1.1134480652121449e-05   8.932313093698444e-07   2.2862715587481264e-05
-1.1134480652121449e-05   8.932313093698444e-07   2.2862715587481264e-05
-1.1134480652121449e-05   8.932313093698444e-07   2.2862715587481264e-05
-1.1134480652121449e-05   8.932313093698444e-07   2.2862715587481264e-05
-1.1220971519883575e-05   1.4697905779462433e-06   2.2930214721392575e-05
-1.1220971519883575e-05   1.4697905779462433e-06   2.2930214721392575e-05
-1.1220971519883575e-05   1.4697905779462433e-06   2.2930214721392575e-05
-1.1220971519883575e-05   1.4697905779462433e-06   2.2930214721392575e-05
-1.127977513974572e-05   4.2869403516410023e-07   2.3652878680165436e-05
-1.127977513974572e-05   4.2869403516410023e-07   2.3652878680165436e-05
-1.127977513974572e-05   4.2869403516410023e-07   2.3652878680165436e-05
-1.127977513974572e-05   4.2869403516410023e-07   2.3652878680165436e-05
-1.1123861760790147e-05   1.0881370963275634e-06   2.299735721187485e-05
-1.1123861760790147e-05   1.0881370963275634e-06   2.299735721187485e-05
-1.1123861760790147e-05   1.0881370963275634e-06   2.299735721187485e-05
-1.1123861760790147e-05   1.0881370963275634e-06   2.299735721187485e-05
-1.1279775139745727e-05   1.4697905779464601e-06   2.3554872647061883e-05
-1.1279775139745727e-05   1.4697905779464601e-06   2.3554872647061883e-05
-1.1279775139745727e-05   1.4697905779464601e-06   2.3554872647061883e-05
-1.1279775139745727e-05   1.4697905779464601e-06   2.3554872647061883e-05
-1.1220971519883575e-05   4.2869403516410023e-07   2.3028220754496087e-05
-1.1220971519883575e-05   4.2869403516410023e-07   2.3028220754496087e-05
-1.1220971519883575e-05   4.2869403516410023e-07   2.3028220754496087e-05
-1.1220971519883575e-05   4.2869403516410023e-07   2.3028220754496087e-05
-1.132825404777076e-05   8.606066765606477e-07   2.3247170584504424e-05
-1.132825404777076e-05   8.606066765606477e-07   2.3247170584504424e-05
-1.132825404777076e-05   8.606066765606477e-07   2.3247170584504424e-05
-1.132825404777076e-05   8.606066765606477e-07   2.3247170584504424e-05
-1.164548382003599e-05   -1.1034597585820281e-07   2.435845846306444e-05
-1.164548382003599e-05   -1.1034597585820281e-07   2.435845846306444e-05
-1.164548382003599e-05   -1.1034597585820281e-07   2.435845846306444e-05
-1.164548382003599e-05   -1.1034597585820281e-07   2.435845846306444e-05
-1.1229981617061182e-05   7.031330842971733e-07   2.3177867355346737e-05
-1.1229981617061182e-05   7.031330842971733e-07   2.3177867355346737e-05
-1.1229981617061182e-05   7.031330842971733e-07   2.3177867355346737e-05
-1.1229981617061182e-05   7.031330842971733e-07   2.3177867355346737e-05
-1.164548382003599e-05   8.606066765606477e-07   2.3829742175955518e-05
-1.164548382003599e-05   8.606066765606477e-07   2.3829742175955518e-05
-1.164548382003599e-05   8.606066765606477e-07   2.3829742175955518e-05
-1.164548382003599e-05   8.606066765606477e-07   2.3829742175955518e-05
-1.132825404777076e-05   -1.1034597585820281e-07   2.3775886871613117e-05
-1.132825404777076e-05   -1.1034597585820281e-07   2.3775886871613117e-05
-1.132825404777076e-05   -1.1034597585820281e-07   2.3775886871613117e-05
-1.132825404777076e-05   -1.1034597585820281e-07   2.3775886871613117e-05
-1.1405959506498401e-05   2.0040733736187075e-07   2.3918460102186436e-05
-1.1405959506498401e-05   2.0040733736187075e-07   2.3918460102186436e-05
-1.1405959506498401e-05   2.0040733736187075e-07   2.3918460102186436e-05
-1.1405959506498401e-05   2.0040733736187075e-07   2.3918460102186436e-05
-1.1877840772271007e-05   -8.189211633697355e-07   2.5316525978913093e-05
-1.1877840772271007e-05   -8.189211633697355e-07   2.5316525978913093e-05
-1.1877840772271007e-05   -8.189211633697355e-07   2.5316525978913093e-05
-1.1877840772271007e-05   -8.189211633697355e-07   2.5316525978913093e-05
-1.139829289628071e-05   2.5046981496799556e-07   2.3875644931925977e-05
-1.139829289628071e-05   2.5046981496799556e-07   2.3875644931925977e-05
-1.139829289628071e-05   2.5046981496799556e-07   2.3875644931925977e-05
-1.139829289628071e-05   2.5046981496799556e-07   2.3875644931925977e-05
-1.1134480652121476e-05   2.5523292352088237e-06   2.6290477837080553e-05
-1.1134480652121476e-05   2.5523292352088237e-06   2.6290477837080553e-05
-1.1134480652121476e-05   2.5523292352088237e-06   2.6290477837080553e-05
-1.1134480652121476e-05   2.5523292352088237e-06   2.6290477837080553e-05
-1.1979988079204246e-05   2.4822680814388237e-07   2.3498837335703755e-05
-1.1979988079204246e-05   2.4822680814388237e-07   2.3498837335703755e-05
-1.1979988079204246e-05   2.4822680814388237e-07   2.3498837335703755e-05
-1.1979988079204246e-05   2.4822680814388237e-07   2.3498837335703755e-05
-1.200839434527235e-05   1.940810130763009e-06   2.4945412079008245e-05
-1.200839434527235e-05   1.940810130763009e-06   2.4945412079008245e-05
-1.200839434527235e-05   1.940810130763009e-06   2.4945412079008245e-05
-1.200839434527235e-05   1.940810130763009e-06   2.4945412079008245e-05
-1.1220971519883575e-05   -1.4440337553186036e-07   2.4884168807137188e-05
-1.1220971519883575e-05   -1.4440337553186036e-07   2.4884168807137188e-05
-1.1220971519883575e-05   -1.4440337553186036e-07   2.4884168807137188e-05
-1.1220971519883575e-05   -1.4440337553186036e-07   2.4884168807137188e-05
-1.156600420994651e-05   1.110589082507947e-06   2.4706227815751605e-05
-1.156600420994651e-05   1.110589082507947e-06   2.4706227815751605e-05
-1.156600420994651e-05   1.110589082507947e-06   2.4706227815751605e-05
-1.156600420994651e-05   1.110589082507947e-06   2.4706227815751605e-05
-1.1220971519883575e-05   1.940810130763009e-06   2.6196540182785036e-05
-1.1220971519883575e-05   1.940810130763009e-06   2.6196540182785036e-05
-1.1220971519883575e-05   1.940810130763009e-06   2.6196540182785036e-05
-1.1220971519883575e-05   1.940810130763009e-06   2.6196540182785036e-05
-1.2008394345272295e-05   -1.4440337553175194e-07   2.3633040703360342e-05
-1.2008394345272295e-05   -1.4440337553175194e-07   2.3633040703360342e-05
-1.2008394345272295e-05   -1.4440337553175194e-07   2.3633040703360342e-05
-1.2008394345272295e-05   -1.4440337553175194e-07   2.3633040703360342e-05
-1.206078564040705e-05   1.3192771287470935e-06   2.5337679910690633e-05
-1.206078564040705e-05   1.3192771287470935e-06   2.5337679910690633e-05
-1.206078564040705e-05   1.3192771287470935e-06   2.5337679910690633e-05
-1.206078564040705e-05   1.3192771287470935e-06   2.5337679910690633e-05
-1.132825404777076e-05   -6.145833515745292e-07   2.527711021115648e-05
-1.132825404777076e-05   -6.145833515745292e-07   2.527711021115648e-05
-1.132825404777076e-05   -6.145833515745292e-07   2.527711021115648e-05
-1.132825404777076e-05   -6.145833515745292e-07   2.527711021115648e-05
-1.1571495557552338e-05   7.215961180292562e-07   2.48808050456969e-05
-1.1571495557552338e-05   7.215961180292562e-07   2.48808050456969e-05
-1.1571495557552338e-05   7.215961180292562e-07   2.48808050456969e-05
-1.1571495557552338e-05   7.215961180292562e-07   2.48808050456969e-05
-1.132825404777076e-05   1.3192771287470935e-06   2.6497996198883477e-05
-1.132825404777076e-05   1.3192771287470935e-06   2.6497996198883477e-05
-1.132825404777076e-05   1.3192771287470935e-06   2.6497996198883477e-05
-1.132825404777076e-05   1.3192771287470935e-06   2.6497996198883477e-05
-1.206078564040705e-05   -6.145833515745292e-07   2.411679392296342e-05
-1.206078564040705e-05   -6.145833515745292e-07   2.411679392296342e-05
-1.206078564040705e-05   -6.145833515745292e-07   2.411679392296342e-05
-1.206078564040705e-05   -6.145833515745292e-07   2.411679392296342e-05
-1.2093933514675359e-05   7.299822422559415e-07   2.603749356888327e-05
-1.2093933514675359e-05   7.299822422559415e-07   2.603749356888327e-05
-1.2093933514675359e-05   7.299822422559415e-07   2.603749356888327e-05
-1.2093933514675359e-05   7.299822422559415e-07   2.603749356888327e-05
-1.1405959506498401e-05   -1.0868630987817584e-06   2.598097742654399e-05
-1.1405959506498401e-05   -1.0868630987817584e-06   2.598097742654399e-05
-1.1405959506498401e-05   -1.0868630987817584e-06   2.598097742654399e-05
-1.1405959506498401e-05   -1.0868630987817584e-06   2.598097742654399e-05
-1.1596170497154537e-05   3.216461491989918e-07   2.5452890195515148e-05
-1.1596170497154537e-05   3.216461491989918e-07   2.5452890195515148e-05
-1.1596170497154537e-05   3.216461491989918e-07   2.5452890195515148e-05
-1.1596170497154537e-05   3.216461491989918e-07   2.5452890195515148e-05
-1.1979988079204246e-05   3.4496145231554393e-06   2.141172259241314e-05
-1.1979988079204246e-05   3.4496145231554393e-06   2.141172259241314e-05
-1.1979988079204246e-05   3.4496145231554393e-06   2.141172259241314e-05
-1.1979988079204246e-05   3.4496145231554393e-06   2.141172259241314e-05
-1.3206410140073957e-05   1.13238123507079e-06   1.7977345851445973e-05
-1.3206410140073957e-05   1.13238123507079e-06   1.7977345851445973e-05
-1.3206410140073957e-05   1.13238123507079e-06   1.7977345851445973e-05
-1.3206410140073957e-05   1.13238123507079e-06   1.7977345851445973e-05
-1.3227127071420701e-05   2.8062248662668286e-06   2.0219892997842045e-05
-1.3227127071420701e-05   2.8062248662668286e-06   2.0219892997842045e-05
-1.3227127071420701e-05   2.8062248662668286e-06   2.0219892997842045e-05
-1.3227127071420701e-05   2.8062248662668286e-06   2.0219892997842045e-05
-1.200839434527235e-05   6.151802346643582e-07   1.950329856655617e-05
-1.200839434527235e-05   6.151802346643582e-07   1.950329856655617e-05
-1.200839434527235e-05   6.151802346643582e-07   1.950329856655617e-05
-1.200839434527235e-05   6.151802346643582e-07   1.950329856655617e-05
-1.2572503840694942e-05   2.0484679919643457e-06   1.9583508404547294e-05
-1.2572503840694942e-05   2.0484679919643457e-06   1.9583508404547294e-05
-1.2572503840694942e-05   2.0484679919643457e-06   1.9583508404547294e-05
-1.2572503840694942e-05   2.0484679919643457e-06   1.9583508404547294e-05
-1.200839434527235e-05   2.8062248662670455e-06   2.1534519776803332e-05
-1.200839434527235e-05   2.8062248662670455e-06   2.1534519776803332e-05
-1.200839434527235e-05   2.8062248662670455e-06   2.1534519776803332e-05
-1.200839434527235e-05   2.8062248662670455e-06   2.1534519776803332e-05
-1.3227127071420647e-05   6.151802346643582e-07   1.818867178759461e-05
-1.3227127071420647e-05   6.151802346643582e-07   1.818867178759461e-05
-1.3227127071420647e-05   6.151802346643582e-07   1.818867178759461e-05
-1.3227127071420647e-05   6.151802346643582e-07   1.818867178759461e-05
-1.3369765340997825e-05   2.233941509371907e-06   2.0969718964691407e-05
-1.3369765340997825e-05   2.233941509371907e-06   2.0969718964691407e-05
-1.3369765340997825e-05   2.233941509371907e-06   2.0969718964691407e-05
-1.3369765340997825e-05   2.233941509371907e-06   2.0969718964691407e-05
-1.206078564040705e-05   1.7236186004377166e-07   2.0025033919970306e-05
-1.206078564040705e-05   1.7236186004377166e-07   2.0025033919970306e-05
-1.206078564040705e-05   1.7236186004377166e-07   2.0025033919970306e-05
-1.206078564040705e-05   1.7236186004377166e-07   2.0025033919970306e-05
-1.2535733076801317e-05   1.6234526045769398e-06   1.9945958533907574e-05
-1.2535733076801317e-05   1.6234526045769398e-06   1.9945958533907574e-05
-1.2535733076801317e-05   1.6234526045769398e-06   1.9945958533907574e-05
-1.2535733076801317e-05   1.6234526045769398e-06   1.9945958533907574e-05
-1.206078564040705e-05   2.233941509372124e-06   2.220666675428794e-05
-1.206078564040705e-05   2.233941509372124e-06   2.220666675428794e-05
-1.206078564040705e-05   2.233941509372124e-06   2.220666675428794e-05
-1.206078564040705e-05   2.233941509372124e-06   2.220666675428794e-05
-1.3369765340997825e-05   1.7236186004388008e-07   1.87880861303735e-05
-1.3369765340997825e-05   1.7236186004388008e-07   1.87880861303735e-05
-1.3369765340997825e-05   1.7236186004388008e-07   1.87880861303735e-05
-1.3369765340997825e-05   1.7236186004388008e-07   1.87880861303735e-05
-1.3454534534329001e-05   1.6510581543694239e-06   2.1901682781811293e-05
-1.3454534534329001e-05   1.6510581543694239e-06   2.1901682781811293e-05
-1.3454534534329001e-05   1.6510581543694239e-06   2.1901682781811293e-05
-1.3454534534329001e-05   1.6510581543694239e-06   2.1901682781811293e-05
-1.2093933514675359e-05   -2.739940252432637e-07   2.0789045723489292e-05
-1.2093933514675359e-05   -2.739940252432637e-07   2.0789045723489292e-05
-1.2093933514675359e-05   -2.739940252432637e-07   2.0789045723489292e-05
-1.2093933514675359e-05   -2.739940252432637e-07   2.0789045723489292e-05
-1.2597666700169967e-05   1.2439204459226616e-06   2.07178523499472e-05
-1.2597666700169967e-05   1.2439204459226616e-06   2.07178523499472e-05
-1.2597666700169967e-05   1.2439204459226616e-06   2.07178523499472e-05
-1.2597666700169967e-05   1.2439204459226616e-06   2.07178523499472e-05
-1.3206410140073957e-05   4.074079296322291e-06   8.227957909351098e-06
-1.3206410140073957e-05   4.074079296322291e-06   8.227957909351098e-06
-1.3206410140073957e-05   4.074079296322291e-06   8.227957909351098e-06
-1.3206410140073957e-05   4.074079296322291e-06   8.227957909351098e-06
-1.3029545845102963e-05   1.8648063990344289e-06   7.197167995930012e-06
-1.3029545845102963e-05   1.8648063990344289e-06   7.197167995930012e-06
-1.3029545845102963e-05   1.8648063990344289e-06   7.197167995930012e-06
-1.3029545845102963e-05   1.8648063990344289e-06   7.197167995930012e-06
-1.3699486131733113e-05   3.645926295194014e-06   9.014693760297805e-06
-1.3699486131733113e-05   3.645926295194014e-06   9.014693760297805e-06
-1.3699486131733113e-05   3.645926295194014e-06   9.014693760297805e-06
-1.3699486131733113e-05   3.645926295194014e-06   9.014693760297805e-06
-1.3227127071420647e-05   1.4989821873488728e-06   9.51559512448396e-06
-1.3227127071420647e-05   1.4989821873488728e-06   9.51559512448396e-06
-1.3227127071420647e-05   1.4989821873488728e-06   9.51559512448396e-06
-1.3227127071420647e-05   1.4989821873488728e-06   9.51559512448396e-06
-1.2858976820073753e-05   2.8656956831309014e-06   8.081983274769934e-06
-1.2858976820073753e-05   2.8656956831309014e-06   8.081983274769934e-06
-1.2858976820073753e-05   2.8656956831309014e-06   8.081983274769934e-06
-1.2858976820073753e-05   2.8656956831309014e-06   8.081983274769934e-06
-1.3227127071420593e-05   3.645926295194014e-06   1.0302860225004846e-05
-1.3227127071420593e-05   3.645926295194014e-06   1.0302860225004846e-05
-1.3227127071420593e-05   3.645926295194014e-06   1.0302860225004846e-05
-1.3227127071420593e-05   3.645926295194014e-06   1.0302860225004846e-05
-1.3699486131733113e-05   1.4989821873488728e-06   8.227428659776919e-06
-1.3699486131733113e-05   1.4989821873488728e-06   8.227428659776919e-06
-1.3699486131733113e-05   1.4989821873488728e-06   8.227428659776919e-06
-1.3699486131733113e-05   1.4989821873488728e-06   8.227428659776919e-06
-1.428785482823975e-05   3.3520052869547706e-06   1.0690914329925406e-05
-1.428785482823975e-05   3.3520052869547706e-06   1.0690914329925406e-05
-1.428785482823975e-05   3.3520052869547706e-06   1.0690914329925406e-05
-1.428785482823975e-05   3.3520052869547706e-06   1.0690914329925406e-05
-1.3369765340997825e-05   1.25972872683385e-06   1.0416131120594596e-05
-1.3369765340997825e-05   1.25972872683385e-06   1.0416131120594596e-05
-1.3369765340997825e-05   1.25972872683385e-06   1.0416131120594596e-05
-1.3369765340997825e-05   1.25972872683385e-06   1.0416131120594596e-05
-1.333606596125322e-05   2.6517192435725765e-06   9.524771177644217e-06
-1.333606596125322e-05   2.6517192435725765e-06   9.524771177644217e-06
-1.333606596125322e-05   2.6517192435725765e-06   9.524771177644217e-06
-1.333606596125322e-05   2.6517192435725765e-06   9.524771177644217e-06
-1.3369765340997825e-05   3.3520052869545538e-06   1.1946280265997785e-05
-1.3369765340997825e-05   3.3520052869545538e-06   1.1946280265997785e-05
-1.3369765340997825e-05   3.3520052869545538e-06   1.1946280265997785e-05
-1.3369765340997825e-05   3.3520052869545538e-06   1.1946280265997785e-05
-1.4287854828239858e-05   1.25972872683385e-06   9.160765184522217e-06
-1.4287854828239858e-05   1.25972872683385e-06   9.160765184522217e-06
-1.4287854828239858e-05   1.25972872683385e-06   9.160765184522217e-06
-1.4287854828239858e-05   1.25972872683385e-06   9.160765184522217e-06
-1.5163507739461481e-05   2.6776818114898366e-06   1.3770294891023247e-05
-1.5163507739461481e-05   2.6776818114898366e-06   1.3770294891023247e-05
-1.5163507739461481e-05   2.6776818114898366e-06   1.3770294891023247e-05
-1.5163507739461481e-05   2.6776818114898366e-06   1.3770294891023247e-05
-1.3454534534328947e-05   7.79100287399059e-07   1.206115513025679e-05
-1.3454534534328947e-05   7.79100287399059e-07   1.206115513025679e-05
-1.3454534534328947e-05   7.79100287399059e-07   1.206115513025679e-05
-1.3454534534328947e-05   7.79100287399059e-07   1.206115513025679e-05
-1.3497283236323728e-05   2.3977632258927618e-06   1.1161205203817355e-05
-1.3497283236323728e-05   2.3977632258927618e-06   1.1161205203817355e-05
-1.3497283236323728e-05   2.3977632258927618e-06   1.1161205203817355e-05
-1.3497283236323728e-05   2.3977632258927618e-06   1.1161205203817355e-05
-2.606918849494344e-05   3.45169264680614e-06   9.999595072097077e-06
-2.606918849494344e-05   3.45169264680614e-06   9.999595072097077e-06
-2.606918849494344e-05   3.45169264680614e-06   9.999595072097077e-06
-2.606918849494344e-05   3.45169264680614e-06   9.999595072097077e-06
-1.7586193046643277e-05   4.781163330091294e-06   2.4935603229235136e-05
-1.7586193046643277e-05   4.781163330091294e-06   2.4935603229235136e-05
-1.7586193046643277e-05   4.781163330091294e-06   2.4935603229235136e-05
-1.7586193046643277e-05   4.781163330091294e-06   2.4935603229235136e-05
-1.7576814324595862e-05   2.69749800237216e-06   1.1372200377507337e-05
-1.7576814324595862e-05   2.69749800237216e-06   1.1372200377507337e-05
-1.7576814324595862e-05   2.69749800237216e-06   1.1372200377507337e-05
-1.7576814324595862e-05   2.69749800237216e-06   1.1372200377507337e-05
-2.8707534521801002e-05   1.9441771723428033e-06   3.0375393204200217e-05
-2.8707534521801002e-05   1.9441771723428033e-06   3.0375393204200217e-05
-2.8707534521801002e-05   1.9441771723428033e-06   3.0375393204200217e-05
-2.8707534521801002e-05   1.9441771723428033e-06   3.0375393204200217e-05
-2.132494278683289e-05   2.8349369042733e-06   1.753661780676169e-05
-2.132494278683289e-05   2.8349369042733e-06   1.753661780676169e-05
-2.132494278683289e-05   2.8349369042733e-06   1.753661780676169e-05
-2.132494278683289e-05   2.8349369042733e-06   1.753661780676169e-05
-2.870753452180105e-05   2.6974980023722686e-06   1.1824192875524756e-05
-2.870753452180105e-05   2.6974980023722686e-06   1.1824192875524756e-05
-2.870753452180105e-05   2.6974980023722686e-06   1.1824192875524756e-05
-2.870753452180105e-05   2.6974980023722686e-06   1.1824192875524756e-05
-1.7576814324595835e-05   1.9441771723428033e-06   2.9923400706182595e-05
-1.7576814324595835e-05   1.9441771723428033e-06   2.9923400706182595e-05
-1.7576814324595835e-05   1.9441771723428033e-06   2.9923400706182595e-05
-1.7576814324595835e-05   1.9441771723428033e-06   2.9923400706182595e-05
-1.781411369820984e-05   2.175809427866081e-06   1.2726440722879754e-05
-1.781411369820984e-05   2.175809427866081e-06   1.2726440722879754e-05
-1.781411369820984e-05   2.175809427866081e-06   1.2726440722879754e-05
-1.781411369820984e-05   2.175809427866081e-06   1.2726440722879754e-05
-2.880632907101372e-05   1.3976918656645725e-06   3.15136702148738e-05
-2.880632907101372e-05   1.3976918656645725e-06   3.15136702148738e-05
-2.880632907101372e-05   1.3976918656645725e-06   3.15136702148738e-05
-2.880632907101372e-05   1.3976918656645725e-06   3.15136702148738e-05
-2.275152022230225e-05   1.7737938998502092e-06   2.119666091317646e-05
-2.275152022230225e-05   1.7737938998502092e-06   2.119666091317646e-05
-2.275152022230225e-05   1.7737938998502092e-06   2.119666091317646e-05
-2.275152022230225e-05   1.7737938998502092e-06   2.119666091317646e-05
-2.880632907101376e-05   2.1758094278659726e-06   1.3193311260200821e-05
-2.880632907101376e-05   2.1758094278659726e-06   1.3193311260200821e-05
-2.880632907101376e-05   2.1758094278659726e-06   1.3193311260200821e-05
-2.880632907101376e-05   2.1758094278659726e-06   1.3193311260200821e-05
-1.7814113698209806e-05   1.3976918656645725e-06   3.104679967755298e-05
-1.7814113698209806e-05   1.3976918656645725e-06   3.104679967755298e-05
-1.7814113698209806e-05   1.3976918656645725e-06   3.104679967755298e-05
-1.7814113698209806e-05   1.3976918656645725e-06   3.104679967755298e-05
-1.762151781271332e-05   8.924943011284076e-07   1.5095616019873584e-05
-1.762151781271332e-05   8.924943011284076e-07   1.5095616019873584e-05
-1.762151781271332e-05   8.924943011284076e-07   1.5095616019873584e-05
-1.762151781271332e-05   8.924943011284076e-07   1.5095616019873584e-05
-2.911422565272668e-05   -9.247742790584237e-07   3.534049023467451e-05
-2.911422565272668e-05   -9.247742790584237e-07   3.534049023467451e-05
-2.911422565272668e-05   -9.247742790584237e-07   3.534049023467451e-05
-2.911422565272668e-05   -9.247742790584237e-07   3.534049023467451e-05
-2.2401765088554524e-05   8.634104050328018e-07   2.3080145150599557e-05
-2.2401765088554524e-05   8.634104050328018e-07   2.3080145150599557e-05
-2.2401765088554524e-05   8.634104050328018e-07   2.3080145150599557e-05
-2.2401765088554524e-05   8.634104050328018e-07   2.3080145150599557e-05
-1.7586193046643304e-05   8.932313093699528e-07   2.29985579366649e-05
-1.7586193046643304e-05   8.932313093699528e-07   2.29985579366649e-05
-1.7586193046643304e-05   8.932313093699528e-07   2.29985579366649e-05
-1.7586193046643304e-05   8.932313093699528e-07   2.29985579366649e-05
-1.0784223132055161e-05   -5.37551033230366e-06   3.057392947597437e-05
-1.0784223132055161e-05   -5.37551033230366e-06   3.057392947597437e-05
-1.0784223132055161e-05   -5.37551033230366e-06   3.057392947597437e-05
-1.0784223132055161e-05   -5.37551033230366e-06   3.057392947597437e-05
-1.0804553010561498e-05   4.2869403516410023e-07   1.9293463888891147e-05
-1.0804553010561498e-05   4.2869403516410023e-07   1.9293463888891147e-05
-1.0804553010561498e-05   4.2869403516410023e-07   1.9293463888891147e-05
-1.0804553010561498e-05   4.2869403516410023e-07   1.9293463888891147e-05
-1.7576814324595835e-05   -4.400264826894516e-06   3.347794139618353e-05
-1.7576814324595835e-05   -4.400264826894516e-06   3.347794139618353e-05
-1.7576814324595835e-05   -4.400264826894516e-06   3.347794139618353e-05
-1.7576814324595835e-05   -4.400264826894516e-06   3.347794139618353e-05
-1.4112106893458931e-05   -2.657910520720763e-06   2.665801642725112e-05
-1.4112106893458931e-05   -2.657910520720763e-06   2.665801642725112e-05
-1.4112106893458931e-05   -2.657910520720763e-06   2.665801642725112e-05
-1.4112106893458931e-05   -2.657910520720763e-06   2.665801642725112e-05
-1.757681432459585e-05   4.286940351639918e-07   2.2190839206125926e-05
-1.757681432459585e-05   4.286940351639918e-07   2.2190839206125926e-05
-1.757681432459585e-05   4.286940351639918e-07   2.2190839206125926e-05
-1.757681432459585e-05   4.286940351639918e-07   2.2190839206125926e-05
-1.080455301056147e-05   -4.400264826894516e-06   3.058056607894836e-05
-1.080455301056147e-05   -4.400264826894516e-06   3.058056607894836e-05
-1.080455301056147e-05   -4.400264826894516e-06   3.058056607894836e-05
-1.080455301056147e-05   -4.400264826894516e-06   3.058056607894836e-05
-1.084485297860556e-05   -1.1034597585820281e-07   1.989079386495289e-05
-1.084485297860556e-05   -1.1034597585820281e-07   1.989079386495289e-05
-1.084485297860556e-05   -1.1034597585820281e-07   1.989079386495289e-05
-1.084485297860556e-05   -1.1034597585820281e-07   1.989079386495289e-05
-1.7814113698209806e-05   -4.500500815630992e-06   3.4140321301490305e-05
-1.7814113698209806e-05   -4.500500815630992e-06   3.4140321301490305e-05
-1.7814113698209806e-05   -4.500500815630992e-06   3.4140321301490305e-05
-1.7814113698209806e-05   -4.500500815630992e-06   3.4140321301490305e-05
-1.4007587598702097e-05   -2.3221027904876245e-06   2.6489072320558108e-05
-1.4007587598702097e-05   -2.3221027904876245e-06   2.6489072320558108e-05
-1.4007587598702097e-05   -2.3221027904876245e-06   2.6489072320558108e-05
-1.4007587598702097e-05   -2.3221027904876245e-06   2.6489072320558108e-05
-1.781411369820984e-05   -1.1034597585820281e-07   2.2524886768816692e-05
-1.781411369820984e-05   -1.1034597585820281e-07   2.2524886768816692e-05
-1.781411369820984e-05   -1.1034597585820281e-07   2.2524886768816692e-05
-1.781411369820984e-05   -1.1034597585820281e-07   2.2524886768816692e-05
-1.0844852978605533e-05   -4.500500815630992e-06   3.150622839762664e-05
-1.0844852978605533e-05   -4.500500815630992e-06   3.150622839762664e-05
-1.0844852978605533e-05   -4.500500815630992e-06   3.150622839762664e-05
-1.0844852978605533e-05   -4.500500815630992e-06   3.150622839762664e-05
-1.0736426471796558e-05   -8.189211633697355e-07   2.0635168679903075e-05
-1.0736426471796558e-05   -8.189211633697355e-07   2.0635168679903075e-05
-1.0736426471796558e-05   -8.189211633697355e-07   2.0635168679903075e-05
-1.0736426471796558e-05   -8.189211633697355e-07   2.0635168679903075e-05
-1.7621517812713273e-05   -4.54261103116616e-06   3.434453483544203e-05
-1.7621517812713273e-05   -4.54261103116616e-06   3.434453483544203e-05
-1.7621517812713273e-05   -4.54261103116616e-06   3.434453483544203e-05
-1.7621517812713273e-05   -4.54261103116616e-06   3.434453483544203e-05
-1.4070515571263005e-05   -2.6081611818758697e-06   2.7265527856784057e-05
-1.4070515571263005e-05   -2.6081611818758697e-06   2.7265527856784057e-05
-1.4070515571263005e-05   -2.6081611818758697e-06   2.7265527856784057e-05
-1.4070515571263005e-05   -2.6081611818758697e-06   2.7265527856784057e-05
-1.0784223132055161e-05   2.4822680814377395e-07   2.1255896156122047e-05
-1.0784223132055161e-05   2.4822680814377395e-07   2.1255896156122047e-05
-1.0784223132055161e-05   2.4822680814377395e-07   2.1255896156122047e-05
-1.0784223132055161e-05   2.4822680814377395e-07   2.1255896156122047e-05
-7.929017542290047e-06   -4.199176875603334e-06   2.3346129928815526e-05
-7.929017542290047e-06   -4.199176875603334e-06   2.3346129928815526e-05
-7.929017542290047e-06   -4.199176875603334e-06   2.3346129928815526e-05
-7.929017542290047e-06   -4.199176875603334e-06   2.3346129928815526e-05
-7.85669097908405e-06   -1.4440337553186036e-07   1.8761608624491034e-05
-7.85669097908405e-06   -1.4440337553186036e-07   1.8761608624491034e-05
-7.85669097908405e-06   -1.4440337553186036e-07   1.8761608624491034e-05
-7.85669097908405e-06   -1.4440337553186036e-07   1.8761608624491034e-05
-1.080455301056147e-05   -4.12407557060044e-06   2.6062515327327884e-05
-1.080455301056147e-05   -4.12407557060044e-06   2.6062515327327884e-05
-1.080455301056147e-05   -4.12407557060044e-06   2.6062515327327884e-05
-1.080455301056147e-05   -4.12407557060044e-06   2.6062515327327884e-05
-9.285981465972205e-06   -2.1224267533793972e-06   2.2330573462679725e-05
-9.285981465972205e-06   -2.1224267533793972e-06   2.2330573462679725e-05
-9.285981465972205e-06   -2.1224267533793972e-06   2.2330573462679725e-05
-9.285981465972205e-06   -2.1224267533793972e-06   2.2330573462679725e-05
-1.080455301056147e-05   -1.4440337553186036e-07   2.1149411941531976e-05
-1.080455301056147e-05   -1.4440337553186036e-07   2.1149411941531976e-05
-1.080455301056147e-05   -1.4440337553186036e-07   2.1149411941531976e-05
-1.080455301056147e-05   -1.4440337553186036e-07   2.1149411941531976e-05
-7.85669097908405e-06   -4.12407557060044e-06   2.3674712010286753e-05
-7.85669097908405e-06   -4.12407557060044e-06   2.3674712010286753e-05
-7.85669097908405e-06   -4.12407557060044e-06   2.3674712010286753e-05
-7.85669097908405e-06   -4.12407557060044e-06   2.3674712010286753e-05
-7.794151123520368e-06   -6.145833515745292e-07   1.921061328689531e-05
-7.794151123520368e-06   -6.145833515745292e-07   1.921061328689531e-05
-7.794151123520368e-06   -6.145833515745292e-07   1.921061328689531e-05
-7.794151123520368e-06   -6.145833515745292e-07   1.921061328689531e-05
-1.0844852978605533e-05   -4.250256547576011e-06   2.6476520296304787e-05
-1.0844852978605533e-05   -4.250256547576011e-06   2.6476520296304787e-05
-1.0844852978605533e-05   -4.250256547576011e-06   2.6476520296304787e-05
-1.0844852978605533e-05   -4.250256547576011e-06   2.6476520296304787e-05
-9.202523428071717e-06   -2.2641273506651466e-06   2.254762686060166e-05
-9.202523428071717e-06   -2.2641273506651466e-06   2.254762686060166e-05
-9.202523428071717e-06   -2.2641273506651466e-06   2.254762686060166e-05
-9.202523428071717e-06   -2.2641273506651466e-06   2.254762686060166e-05
-1.0844852978605533e-05   -6.145833515746376e-07   2.1392017204496414e-05
-1.0844852978605533e-05   -6.145833515746376e-07   2.1392017204496414e-05
-1.0844852978605533e-05   -6.145833515746376e-07   2.1392017204496414e-05
-1.0844852978605533e-05   -6.145833515746376e-07   2.1392017204496414e-05
-7.794151123520368e-06   -4.250256547576011e-06   2.429511637870398e-05
-7.794151123520368e-06   -4.250256547576011e-06   2.429511637870398e-05
-7.794151123520368e-06   -4.250256547576011e-06   2.429511637870398e-05
-7.794151123520368e-06   -4.250256547576011e-06   2.429511637870398e-05
-7.639245249043661e-06   -1.08686309878165e-06   1.9905678571169273e-05
-7.639245249043661e-06   -1.08686309878165e-06   1.9905678571169273e-05
-7.639245249043661e-06   -1.08686309878165e-06   1.9905678571169273e-05
-7.639245249043661e-06   -1.08686309878165e-06   1.9905678571169273e-05
-1.0736426471796558e-05   -4.4294275267880816e-06   2.707318593256103e-05
-1.0736426471796558e-05   -4.4294275267880816e-06   2.707318593256103e-05
-1.0736426471796558e-05   -4.4294275267880816e-06   2.707318593256103e-05
-1.0736426471796558e-05   -4.4294275267880816e-06   2.707318593256103e-05
-9.104847037526422e-06   -2.4704556315567573e-06   2.3178503738305518e-05
-9.104847037526422e-06   -2.4704556315567573e-06   2.3178503738305518e-05
-9.104847037526422e-06   -2.4704556315567573e-06   2.3178503738305518e-05
-9.104847037526422e-06   -2.4704556315567573e-06   2.3178503738305518e-05
-7.929017542290047e-06   1.13238123507079e-06   1.4456302434466886e-05
-7.929017542290047e-06   1.13238123507079e-06   1.4456302434466886e-05
-7.929017542290047e-06   1.13238123507079e-06   1.4456302434466886e-05
-7.929017542290047e-06   1.13238123507079e-06   1.4456302434466886e-05
-6.6050315088104486e-06   -1.7225713314603943e-06   1.4949974283680963e-05
-6.6050315088104486e-06   -1.7225713314603943e-06   1.4949974283680963e-05
-6.6050315088104486e-06   -1.7225713314603943e-06   1.4949974283680963e-05
-6.6050315088104486e-06   -1.7225713314603943e-06   1.4949974283680963e-05
-6.4614560198357485e-06   6.151802346643582e-07   1.3052621101001518e-05
-6.4614560198357485e-06   6.151802346643582e-07   1.3052621101001518e-05
-6.4614560198357485e-06   6.151802346643582e-07   1.3052621101001518e-05
-6.4614560198357485e-06   6.151802346643582e-07   1.3052621101001518e-05
-7.85669097908405e-06   -2.016895409811051e-06   1.695725808643412e-05
-7.85669097908405e-06   -2.016895409811051e-06   1.695725808643412e-05
-7.85669097908405e-06   -2.016895409811051e-06   1.695725808643412e-05
-7.85669097908405e-06   -2.016895409811051e-06   1.695725808643412e-05
-7.160338379084687e-06   -3.928937151818218e-07   1.4822269402990857e-05
-7.160338379084687e-06   -3.928937151818218e-07   1.4822269402990857e-05
-7.160338379084687e-06   -3.928937151818218e-07   1.4822269402990857e-05
-7.160338379084687e-06   -3.928937151818218e-07   1.4822269402990857e-05
-7.85669097908405e-06   6.151802346643582e-07   1.4631866487686699e-05
-7.85669097908405e-06   6.151802346643582e-07   1.4631866487686699e-05
-7.85669097908405e-06   6.151802346643582e-07   1.4631866487686699e-05
-7.85669097908405e-06   6.151802346643582e-07   1.4631866487686699e-05
-6.4614560198357485e-06   -2.016895409811051e-06   1.537801269974878e-05
-6.4614560198357485e-06   -2.016895409811051e-06   1.537801269974878e-05
-6.4614560198357485e-06   -2.016895409811051e-06   1.537801269974878e-05
-6.4614560198357485e-06   -2.016895409811051e-06   1.537801269974878e-05
-6.395799851964415e-06   1.7236186004377166e-07   1.367021150393364e-05
-6.395799851964415e-06   1.7236186004377166e-07   1.367021150393364e-05
-6.395799851964415e-06   1.7236186004377166e-07   1.367021150393364e-05
-6.395799851964415e-06   1.7236186004377166e-07   1.367021150393364e-05
-7.794151123520368e-06   -2.242041106570523e-06   1.7449438736495595e-05
-7.794151123520368e-06   -2.242041106570523e-06   1.7449438736495595e-05
-7.794151123520368e-06   -2.242041106570523e-06   1.7449438736495595e-05
-7.794151123520368e-06   -2.242041106570523e-06   1.7449438736495595e-05
-7.0180221364117014e-06   -7.082283255307716e-07   1.5235602756023532e-05
-7.0180221364117014e-06   -7.082283255307716e-07   1.5235602756023532e-05
-7.0180221364117014e-06   -7.082283255307716e-07   1.5235602756023532e-05
-7.0180221364117014e-06   -7.082283255307716e-07   1.5235602756023532e-05
-7.794151123520423e-06   1.7236186004377166e-07   1.5118853283902249e-05
-7.794151123520423e-06   1.7236186004377166e-07   1.5118853283902249e-05
-7.794151123520423e-06   1.7236186004377166e-07   1.5118853283902249e-05
-7.794151123520423e-06   1.7236186004377166e-07   1.5118853283902249e-05
-6.395799851964415e-06   -2.2420411065704688e-06   1.6000796956526986e-05
-6.395799851964415e-06   -2.2420411065704688e-06   1.6000796956526986e-05
-6.395799851964415e-06   -2.2420411065704688e-06   1.6000796956526986e-05
-6.395799851964415e-06   -2.2420411065704688e-06   1.6000796956526986e-05
-6.288430913217453e-06   -2.739940252433721e-07   1.4445787263871147e-05
-6.288430913217453e-06   -2.739940252433721e-07   1.4445787263871147e-05
-6.288430913217453e-06   -2.739940252433721e-07   1.4445787263871147e-05
-6.288430913217453e-06   -2.739940252433721e-07   1.4445787263871147e-05
-7.639245249043661e-06   -2.5374387066865855e-06   1.8055211299114005e-05
-7.639245249043661e-06   -2.5374387066865855e-06   1.8055211299114005e-05
-7.639245249043661e-06   -2.5374387066865855e-06   1.8055211299114005e-05
-7.639245249043661e-06   -2.5374387066865855e-06   1.8055211299114005e-05
-6.907108290702286e-06   -9.84434231699415e-07   1.590318035021973e-05
-6.907108290702286e-06   -9.84434231699415e-07   1.590318035021973e-05
-6.907108290702286e-06   -9.84434231699415e-07   1.590318035021973e-05
-6.907108290702286e-06   -9.84434231699415e-07   1.590318035021973e-05
-6.605031508810394e-06   1.8648063990344289e-06   3.2887167774049535e-06
-6.605031508810394e-06   1.8648063990344289e-06   3.2887167774049535e-06
-6.605031508810394e-06   1.8648063990344289e-06   3.2887167774049535e-06
-6.605031508810394e-06   1.8648063990344289e-06   3.2887167774049535e-06
-3.8110477743406304e-06   -1.9358968180436566e-07   6.710318686351392e-06
-3.8110477743406304e-06   -1.9358968180436566e-07   6.710318686351392e-06
-3.8110477743406304e-06   -1.9358968180436566e-07   6.710318686351392e-06
-3.8110477743406304e-06   -1.9358968180436566e-07   6.710318686351392e-06
-4.0261721853792004e-06   1.4989821873487644e-06   3.318416644697026e-06
-4.0261721853792004e-06   1.4989821873487644e-06   3.318416644697026e-06
-4.0261721853792004e-06   1.4989821873487644e-06   3.318416644697026e-06
-4.0261721853792004e-06   1.4989821873487644e-06   3.318416644697026e-06
-6.4614560198357485e-06   -2.695641346412434e-07   8.43835082865198e-06
-6.4614560198357485e-06   -2.695641346412434e-07   8.43835082865198e-06
-6.4614560198357485e-06   -2.695641346412434e-07   8.43835082865198e-06
-6.4614560198357485e-06   -2.695641346412434e-07   8.43835082865198e-06
-5.046242208906772e-06   9.584229654127077e-07   5.342868883738048e-06
-5.046242208906772e-06   9.584229654127077e-07   5.342868883738048e-06
-5.046242208906772e-06   9.584229654127077e-07   5.342868883738048e-06
-5.046242208906772e-06   9.584229654127077e-07   5.342868883738048e-06
-6.461456019835694e-06   1.4989821873488728e-06   4.3795444378907054e-06
-6.461456019835694e-06   1.4989821873488728e-06   4.3795444378907054e-06
-6.461456019835694e-06   1.4989821873488728e-06   4.3795444378907054e-06
-6.461456019835694e-06   1.4989821873488728e-06   4.3795444378907054e-06
-4.0261721853792004e-06   -2.695641346412976e-07   7.3772230354579756e-06
-4.0261721853792004e-06   -2.695641346412976e-07   7.3772230354579756e-06
-4.0261721853792004e-06   -2.695641346412976e-07   7.3772230354579756e-06
-4.0261721853792004e-06   -2.695641346412976e-07   7.3772230354579756e-06
-4.202522553792688e-06   1.25972872683385e-06   4.318901767781224e-06
-4.202522553792688e-06   1.25972872683385e-06   4.318901767781224e-06
-4.202522553792688e-06   1.25972872683385e-06   4.318901767781224e-06
-4.202522553792688e-06   1.25972872683385e-06   4.318901767781224e-06
-6.395799851964415e-06   -3.7252915045582263e-07   8.95371865777437e-06
-6.395799851964415e-06   -3.7252915045582263e-07   8.95371865777437e-06
-6.395799851964415e-06   -3.7252915045582263e-07   8.95371865777437e-06
-6.395799851964415e-06   -3.7252915045582263e-07   8.95371865777437e-06
-5.133429511701968e-06   7.772649677993118e-07   6.159891619717233e-06
-5.133429511701968e-06   7.772649677993118e-07   6.159891619717233e-06
-5.133429511701968e-06   7.772649677993118e-07   6.159891619717233e-06
-5.133429511701968e-06   7.772649677993118e-07   6.159891619717233e-06
-6.395799851964415e-06   1.25972872683385e-06   5.29825649415506e-06
-6.395799851964415e-06   1.25972872683385e-06   5.29825649415506e-06
-6.395799851964415e-06   1.25972872683385e-06   5.29825649415506e-06
-6.395799851964415e-06   1.25972872683385e-06   5.29825649415506e-06
-4.202522553792688e-06   -3.7252915045587684e-07   7.974363931400534e-06
-4.202522553792688e-06   -3.7252915045587684e-07   7.974363931400534e-06
-4.202522553792688e-06   -3.7252915045587684e-07   7.974363931400534e-06
-4.202522553792688e-06   -3.7252915045587684e-07   7.974363931400534e-06
-4.6394030912182485e-06   7.79100287399059e-07   6.107217560083651e-06
-4.6394030912182485e-06   7.79100287399059e-07   6.107217560083651e-06
-4.6394030912182485e-06   7.79100287399059e-07   6.107217560083651e-06
-4.6394030912182485e-06   7.79100287399059e-07   6.107217560083651e-06
-6.288430913217453e-06   -4.970837431387447e-07   9.621307681738182e-06
-6.288430913217453e-06   -4.970837431387447e-07   9.621307681738182e-06
-6.288430913217453e-06   -4.970837431387447e-07   9.621307681738182e-06
-6.288430913217453e-06   -4.970837431387447e-07   9.621307681738182e-06
-5.143690026630657e-06   6.549058260552207e-07   7.022212462577237e-06
-5.143690026630657e-06   6.549058260552207e-07   7.022212462577237e-06
-5.143690026630657e-06   6.549058260552207e-07   7.022212462577237e-06
-5.143690026630657e-06   6.549058260552207e-07   7.022212462577237e-06
-6.098859511401497e-05   4.781163330091348e-06   2.6035824823543956e-05
-6.098859511401497e-05   4.781163330091348e-06   2.6035824823543956e-05
-6.098859511401497e-05   4.781163330091348e-06   2.6035824823543956e-05
-6.098859511401497e-05   4.781163330091348e-06   2.6035824823543956e-05
-1.4349225814241927e-05   -2.9680192924383937e-05   8.309129323714725e-05
-1.4349225814241927e-05   -2.9680192924383937e-05   8.309129323714725e-05
-1.4349225814241927e-05   -2.9680192924383937e-05   8.309129323714725e-05
-1.4349225814241927e-05   -2.9680192924383937e-05   8.309129323714725e-05
-1.683448723898368e-05   1.9441771723428033e-06   1.4301904430373528e-05
-1.683448723898368e-05   1.9441771723428033e-06   1.4301904430373528e-05
-1.683448723898368e-05   1.9441771723428033e-06   1.4301904430373528e-05
-1.683448723898368e-05   1.9441771723428033e-06   1.4301904430373528e-05
-5.562328257362972e-05   -2.305047247147672e-05   9.394668644107518e-05
-5.562328257362972e-05   -2.305047247147672e-05   9.394668644107518e-05
-5.562328257362972e-05   -2.305047247147672e-05   9.394668644107518e-05
-5.562328257362972e-05   -2.305047247147672e-05   9.394668644107518e-05
-3.708962017910999e-05   -1.1476488402506409e-05   5.611285867549342e-05
-3.708962017910999e-05   -1.1476488402506409e-05   5.611285867549342e-05
-3.708962017910999e-05   -1.1476488402506409e-05   5.611285867549342e-05
-3.708962017910999e-05   -1.1476488402506409e-05   5.611285867549342e-05
-5.562328257362963e-05   1.9441771723428033e-06   2.9298694216665222e-05
-5.562328257362963e-05   1.9441771723428033e-06   2.9298694216665222e-05
-5.562328257362963e-05   1.9441771723428033e-06   2.9298694216665222e-05
-5.562328257362963e-05   1.9441771723428033e-06   2.9298694216665222e-05
-1.6834487238983713e-05   -2.305047247147672e-05   7.894989665478348e-05
-1.6834487238983713e-05   -2.305047247147672e-05   7.894989665478348e-05
-1.6834487238983713e-05   -2.305047247147672e-05   7.894989665478348e-05
-1.6834487238983713e-05   -2.305047247147672e-05   7.894989665478348e-05
-1.7211229576906126e-05   1.3976918656645725e-06   1.5715402905920698e-05
-1.7211229576906126e-05   1.3976918656645725e-06   1.5715402905920698e-05
-1.7211229576906126e-05   1.3976918656645725e-06   1.5715402905920698e-05
-1.7211229576906126e-05   1.3976918656645725e-06   1.5715402905920698e-05
-5.248124340835629e-05   -1.9853446787537205e-05   8.724944248359186e-05
-5.248124340835629e-05   -1.9853446787537205e-05   8.724944248359186e-05
-5.248124340835629e-05   -1.9853446787537205e-05   8.724944248359186e-05
-5.248124340835629e-05   -1.9853446787537205e-05   8.724944248359186e-05
-3.5977204599765317e-05   -1.0870840116346129e-05   5.435314713322563e-05
-3.5977204599765317e-05   -1.0870840116346129e-05   5.435314713322563e-05
-3.5977204599765317e-05   -1.0870840116346129e-05   5.435314713322563e-05
-3.5977204599765317e-05   -1.0870840116346129e-05   5.435314713322563e-05
-5.24812434083562e-05   1.3976918656645725e-06   2.8466086097841714e-05
-5.24812434083562e-05   1.3976918656645725e-06   2.8466086097841714e-05
-5.24812434083562e-05   1.3976918656645725e-06   2.8466086097841714e-05
-5.24812434083562e-05   1.3976918656645725e-06   2.8466086097841714e-05
-1.721122957690616e-05   -1.9853446787537205e-05   7.449875929167083e-05
-1.721122957690616e-05   -1.9853446787537205e-05   7.449875929167083e-05
-1.721122957690616e-05   -1.9853446787537205e-05   7.449875929167083e-05
-1.721122957690616e-05   -1.9853446787537205e-05   7.449875929167083e-05
-1.8844991046743312e-05   -9.247742790584237e-07   1.968301189254429e-05
-1.8844991046743312e-05   -9.247742790584237e-07   1.968301189254429e-05
-1.8844991046743312e-05   -9.247742790584237e-07   1.968301189254429e-05
-1.8844991046743312e-05   -9.247742790584237e-07   1.968301189254429e-05
-4.845496655880051e-05   -1.5609395097525354e-05   7.784374357038633e-05
-4.845496655880051e-05   -1.5609395097525354e-05   7.784374357038633e-05
-4.845496655880051e-05   -1.5609395097525354e-05   7.784374357038633e-05
-4.845496655880051e-05   -1.5609395097525354e-05   7.784374357038633e-05
-3.4600712640636e-05   -1.0033893563649672e-05   5.140801945312011e-05
-3.4600712640636e-05   -1.0033893563649672e-05   5.140801945312011e-05
-3.4600712640636e-05   -1.0033893563649672e-05   5.140801945312011e-05
-3.4600712640636e-05   -1.0033893563649672e-05   5.140801945312011e-05
-1.43492258142419e-05   -5.37551033230366e-06   1.475858230260213e-05
-1.43492258142419e-05   -5.37551033230366e-06   1.475858230260213e-05
-1.43492258142419e-05   -5.37551033230366e-06   1.475858230260213e-05
-1.43492258142419e-05   -5.37551033230366e-06   1.475858230260213e-05
-5.001780296773215e-06   -9.167081577047183e-06   2.806271541820378e-05
-5.001780296773215e-06   -9.167081577047183e-06   2.806271541820378e-05
-5.001780296773215e-06   -9.167081577047183e-06   2.806271541820378e-05
-5.001780296773215e-06   -9.167081577047183e-06   2.806271541820378e-05
-5.582892924764851e-06   -4.400264826894516e-06   1.3195764825105888e-05
-5.582892924764851e-06   -4.400264826894516e-06   1.3195764825105888e-05
-5.582892924764851e-06   -4.400264826894516e-06   1.3195764825105888e-05
-5.582892924764851e-06   -4.400264826894516e-06   1.3195764825105888e-05
-1.6834487238983713e-05   -1.2168065319008763e-05   3.660910231073913e-05
-1.6834487238983713e-05   -1.2168065319008763e-05   3.660910231073913e-05
-1.6834487238983713e-05   -1.2168065319008763e-05   3.660910231073913e-05
-1.6834487238983713e-05   -1.2168065319008763e-05   3.660910231073913e-05
-9.897647534636795e-06   -6.380268352142052e-06   2.157502462337419e-05
-9.897647534636795e-06   -6.380268352142052e-06   2.157502462337419e-05
-9.897647534636795e-06   -6.380268352142052e-06   2.157502462337419e-05
-9.897647534636795e-06   -6.380268352142052e-06   2.157502462337419e-05
-1.6834487238983672e-05   -4.400264826894516e-06   1.7856445120374275e-05
-1.6834487238983672e-05   -4.400264826894516e-06   1.7856445120374275e-05
-1.6834487238983672e-05   -4.400264826894516e-06   1.7856445120374275e-05
-1.6834487238983672e-05   -4.400264826894516e-06   1.7856445120374275e-05
-5.582892924764851e-06   -1.2168065319008763e-05   3.19484220154706e-05
-5.582892924764851e-06   -1.2168065319008763e-05   3.19484220154706e-05
-5.582892924764851e-06   -1.2168065319008763e-05   3.19484220154706e-05
-5.582892924764851e-06   -1.2168065319008763e-05   3.19484220154706e-05
-6.080407822084611e-06   -4.500500815630992e-06   1.4836764439596101e-05
-6.080407822084611e-06   -4.500500815630992e-06   1.4836764439596101e-05
-6.080407822084611e-06   -4.500500815630992e-06   1.4836764439596101e-05
-6.080407822084611e-06   -4.500500815630992e-06   1.4836764439596101e-05
-1.721122957690616e-05   -1.1120767632734316e-05   3.736029412122723e-05
-1.721122957690616e-05   -1.1120767632734316e-05   3.736029412122723e-05
-1.721122957690616e-05   -1.1120767632734316e-05   3.736029412122723e-05
-1.721122957690616e-05   -1.1120767632734316e-05   3.736029412122723e-05
-1.1155701774850573e-05   -7.804966043254433e-06   2.527826683078018e-05
-1.1155701774850573e-05   -7.804966043254433e-06   2.527826683078018e-05
-1.1155701774850573e-05   -7.804966043254433e-06   2.527826683078018e-05
-1.1155701774850573e-05   -7.804966043254433e-06   2.527826683078018e-05
-1.721122957690616e-05   -4.500500815630992e-06   1.880892452985812e-05
-1.721122957690616e-05   -4.500500815630992e-06   1.880892452985812e-05
-1.721122957690616e-05   -4.500500815630992e-06   1.880892452985812e-05
-1.721122957690616e-05   -4.500500815630992e-06   1.880892452985812e-05
-6.080407822084611e-06   -1.1120767632734316e-05   3.33881340309652e-05
-6.080407822084611e-06   -1.1120767632734316e-05   3.33881340309652e-05
-6.080407822084611e-06   -1.1120767632734316e-05   3.33881340309652e-05
-6.080407822084611e-06   -1.1120767632734316e-05   3.33881340309652e-05
-6.8889299656872e-06   -4.542611031166106e-06   1.6226365226339017e-05
-6.8889299656872e-06   -4.542611031166106e-06   1.6226365226339017e-05
-6.8889299656872e-06   -4.542611031166106e-06   1.6226365226339017e-05
-6.8889299656872e-06   -4.542611031166106e-06   1.6226365226339017e-05
-1.8844991046743326e-05   -1.0461031722974383e-05   3.9704186109850714e-05
-1.8844991046743326e-05   -1.0461031722974383e-05   3.9704186109850714e-05
-1.8844991046743326e-05   -1.0461031722974383e-05   3.9704186109850714e-05
-1.8844991046743326e-05   -1.0461031722974383e-05   3.9704186109850714e-05
-1.1887409946900234e-05   -7.125549299654533e-06   2.6106928156120345e-05
-1.1887409946900234e-05   -7.125549299654533e-06   2.6106928156120345e-05
-1.1887409946900234e-05   -7.125549299654533e-06   2.6106928156120345e-05
-1.1887409946900234e-05   -7.125549299654533e-06   2.6106928156120345e-05
-5.001780296773215e-06   -4.199176875603334e-06   7.924282218845435e-06
-5.001780296773215e-06   -4.199176875603334e-06   7.924282218845435e-06
-5.001780296773215e-06   -4.199176875603334e-06   7.924282218845435e-06
-5.001780296773215e-06   -4.199176875603334e-06   7.924282218845435e-06
-2.788544879916998e-06   -2.542048160534924e-06   1.2607285142646999e-05
-2.788544879916998e-06   -2.542048160534924e-06   1.2607285142646999e-05
-2.788544879916998e-06   -2.542048160534924e-06   1.2607285142646999e-05
-2.788544879916998e-06   -2.542048160534924e-06   1.2607285142646999e-05
-2.6779958905899666e-06   -4.12407557060044e-06   9.15194046746822e-06
-2.6779958905899666e-06   -4.12407557060044e-06   9.15194046746822e-06
-2.6779958905899666e-06   -4.12407557060044e-06   9.15194046746822e-06
-2.6779958905899666e-06   -4.12407557060044e-06   9.15194046746822e-06
-5.582892924764851e-06   -3.3336982472959915e-06   1.351920913044357e-05
-5.582892924764851e-06   -3.3336982472959915e-06   1.351920913044357e-05
-5.582892924764851e-06   -3.3336982472959915e-06   1.351920913044357e-05
-5.582892924764851e-06   -3.3336982472959915e-06   1.351920913044357e-05
-3.759084283228023e-06   -3.363032711620889e-06   1.0497128739810145e-05
-3.759084283228023e-06   -3.363032711620889e-06   1.0497128739810145e-05
-3.759084283228023e-06   -3.363032711620889e-06   1.0497128739810145e-05
-3.759084283228023e-06   -3.363032711620889e-06   1.0497128739810145e-05
-5.582892924764851e-06   -4.12407557060044e-06   8.677714073485494e-06
-5.582892924764851e-06   -4.12407557060044e-06   8.677714073485494e-06
-5.582892924764851e-06   -4.12407557060044e-06   8.677714073485494e-06
-5.582892924764851e-06   -4.12407557060044e-06   8.677714073485494e-06
-2.6779958905899666e-06   -3.3336982472959847e-06   1.3993435524426161e-05
-2.6779958905899666e-06   -3.3336982472959847e-06   1.3993435524426161e-05
-2.6779958905899666e-06   -3.3336982472959847e-06   1.3993435524426161e-05
-2.6779958905899666e-06   -3.3336982472959847e-06   1.3993435524426161e-05
-2.6805063541268355e-06   -4.250256547576011e-06   9.783889768175233e-06
-2.6805063541268355e-06   -4.250256547576011e-06   9.783889768175233e-06
-2.6805063541268355e-06   -4.250256547576011e-06   9.783889768175233e-06
-2.6805063541268355e-06   -4.250256547576011e-06   9.783889768175233e-06
-6.080407822084611e-06   -4.288867497741261e-06   1.5473558784870486e-05
-6.080407822084611e-06   -4.288867497741261e-06   1.5473558784870486e-05
-6.080407822084611e-06   -4.288867497741261e-06   1.5473558784870486e-05
-6.080407822084611e-06   -4.288867497741261e-06   1.5473558784870486e-05
-3.983451088672728e-06   -3.6771545101054468e-06   1.1611603103269224e-05
-3.983451088672728e-06   -3.6771545101054468e-06   1.1611603103269224e-05
-3.983451088672728e-06   -3.6771545101054468e-06   1.1611603103269224e-05
-3.983451088672728e-06   -3.6771545101054468e-06   1.1611603103269224e-05
-6.080407822084611e-06   -4.250256547576011e-06   9.807056338274184e-06
-6.080407822084611e-06   -4.250256547576011e-06   9.807056338274184e-06
-6.080407822084611e-06   -4.250256547576011e-06   9.807056338274184e-06
-6.080407822084611e-06   -4.250256547576011e-06   9.807056338274184e-06
-2.6805063541268355e-06   -4.288867497741261e-06   1.5450392214771318e-05
-2.6805063541268355e-06   -4.288867497741261e-06   1.5450392214771318e-05
-2.6805063541268355e-06   -4.288867497741261e-06   1.5450392214771318e-05
-2.6805063541268355e-06   -4.288867497741261e-06   1.5450392214771318e-05
-2.7176399650331233e-06   -4.429427526788136e-06   1.0728727171958928e-05
-2.7176399650331233e-06   -4.429427526788136e-06   1.0728727171958928e-05
-2.7176399650331233e-06   -4.429427526788136e-06   1.0728727171958928e-05
-2.7176399650331233e-06   -4.429427526788136e-06   1.0728727171958928e-05
-6.8889299656872e-06   -5.19693264708305e-06   1.8141380245225824e-05
-6.8889299656872e-06   -5.19693264708305e-06   1.8141380245225824e-05
-6.8889299656872e-06   -5.19693264708305e-06   1.8141380245225824e-05
-6.8889299656872e-06   -5.19693264708305e-06   1.8141380245225824e-05
-4.2385821334268265e-06   -4.017454565033874e-06   1.3016447008895799e-05
-4.2385821334268265e-06   -4.017454565033874e-06   1.3016447008895799e-05
-4.2385821334268265e-06   -4.017454565033874e-06   1.3016447008895799e-05
-4.2385821334268265e-06   -4.017454565033874e-06   1.3016447008895799e-05
-2.788544879916998e-06   -1.7225713314603943e-06   2.2353753426706624e-06
-2.788544879916998e-06   -1.7225713314603943e-06   2.2353753426706624e-06
-2.788544879916998e-06   -1.7225713314603943e-06   2.2353753426706624e-06
-2.788544879916998e-06   -1.7225713314603943e-06   2.2353753426706624e-06
-2.0668766648917797e-06   4.591959372170977e-07   4.747216062252495e-06
-2.0668766648917797e-06   4.591959372170977e-07   4.747216062252495e-06
-2.0668766648917797e-06   4.591959372170977e-07   4.747216062252495e-06
-2.0668766648917797e-06   4.591959372170977e-07   4.747216062252495e-06
-1.6709559376991184e-06   -2.016895409811051e-06   3.750884608745694e-06
-1.6709559376991184e-06   -2.016895409811051e-06   3.750884608745694e-06
-1.6709559376991184e-06   -2.016895409811051e-06   3.750884608745694e-06
-1.6709559376991184e-06   -2.016895409811051e-06   3.750884608745694e-06
-2.6779958905899666e-06   1.771013654059119e-07   4.112886465100019e-06
-2.6779958905899666e-06   1.771013654059119e-07   4.112886465100019e-06
-2.6779958905899666e-06   1.771013654059119e-07   4.112886465100019e-06
-2.6779958905899666e-06   1.771013654059119e-07   4.112886465100019e-06
-2.1592275439454955e-06   -8.027058290804552e-07   3.836156870717596e-06
-2.1592275439454955e-06   -8.027058290804552e-07   3.836156870717596e-06
-2.1592275439454955e-06   -8.027058290804552e-07   3.836156870717596e-06
-2.1592275439454955e-06   -8.027058290804552e-07   3.836156870717596e-06
-2.6779958905899666e-06   -2.016895409811051e-06   2.434486543615507e-06
-2.6779958905899666e-06   -2.016895409811051e-06   2.434486543615507e-06
-2.6779958905899666e-06   -2.016895409811051e-06   2.434486543615507e-06
-2.6779958905899666e-06   -2.016895409811051e-06   2.434486543615507e-06
-1.6709559376991184e-06   1.771013654059119e-07   5.429284530230206e-06
-1.6709559376991184e-06   1.771013654059119e-07   5.429284530230206e-06
-1.6709559376991184e-06   1.771013654059119e-07   5.429284530230206e-06
-1.6709559376991184e-06   1.771013654059119e-07   5.429284530230206e-06
-1.453099203572387e-06   -2.242041106570523e-06   4.120364308643509e-06
-1.453099203572387e-06   -2.242041106570523e-06   4.120364308643509e-06
-1.453099203572387e-06   -2.242041106570523e-06   4.120364308643509e-06
-1.453099203572387e-06   -2.242041106570523e-06   4.120364308643509e-06
-2.6805063541268355e-06   -2.717874687756437e-07   4.983890710223856e-06
-2.6805063541268355e-06   -2.717874687756437e-07   4.983890710223856e-06
-2.6805063541268355e-06   -2.717874687756437e-07   4.983890710223856e-06
-2.6805063541268355e-06   -2.717874687756437e-07   4.983890710223856e-06
-1.95576611181482e-06   -1.0295185519627827e-06   4.2306289562830295e-06
-1.95576611181482e-06   -1.0295185519627827e-06   4.2306289562830295e-06
-1.95576611181482e-06   -1.0295185519627827e-06   4.2306289562830295e-06
-1.95576611181482e-06   -1.0295185519627827e-06   4.2306289562830295e-06
-2.6805063541267813e-06   -2.242041106570523e-06   2.93821212596655e-06
-2.6805063541267813e-06   -2.242041106570523e-06   2.93821212596655e-06
-2.6805063541267813e-06   -2.242041106570523e-06   2.93821212596655e-06
-2.6805063541267813e-06   -2.242041106570523e-06   2.93821212596655e-06
-1.453099203572387e-06   -2.717874687756437e-07   6.1660428929008145e-06
-1.453099203572387e-06   -2.717874687756437e-07   6.1660428929008145e-06
-1.453099203572387e-06   -2.717874687756437e-07   6.1660428929008145e-06
-1.453099203572387e-06   -2.717874687756437e-07   6.1660428929008145e-06
-1.1188457767568835e-06   -2.5374387066865855e-06   4.521230939398633e-06
-1.1188457767568835e-06   -2.5374387066865855e-06   4.521230939398633e-06
-1.1188457767568835e-06   -2.5374387066865855e-06   4.521230939398633e-06
-1.1188457767568835e-06   -2.5374387066865855e-06   4.521230939398633e-06
-2.7176399650331233e-06   -1.1958724665483256e-06   6.380948175775908e-06
-2.7176399650331233e-06   -1.1958724665483256e-06   6.380948175775908e-06
-2.7176399650331233e-06   -1.1958724665483256e-06   6.380948175775908e-06
-2.7176399650331233e-06   -1.1958724665483256e-06   6.380948175775908e-06
-1.789261805640053e-06   -1.3772638393285558e-06   4.9424860671227165e-06
-1.789261805640053e-06   -1.3772638393285558e-06   4.9424860671227165e-06
-1.789261805640053e-06   -1.3772638393285558e-06   4.9424860671227165e-06
-1.789261805640053e-06   -1.3772638393285558e-06   4.9424860671227165e-06
-2.0668766648917797e-06   -1.9358968180436566e-07   -3.4601822449493536e-06
-2.0668766648917797e-06   -1.9358968180436566e-07   -3.4601822449493536e-06
-2.0668766648917797e-06   -1.9358968180436566e-07   -3.4601822449493536e-06
-2.0668766648917797e-06   -1.9358968180436566e-07   -3.4601822449493536e-06
-3.803452612754273e-07   2.976064703394369e-07   -3.545788809691374e-07
-3.803452612754273e-07   2.976064703394369e-07   -3.545788809691374e-07
-3.803452612754273e-07   2.976064703394369e-07   -3.545788809691374e-07
-3.803452612754273e-07   2.976064703394369e-07   -3.545788809691374e-07
8.5909024200026e-09   -2.695641346412434e-07   -2.7177247961268245e-06
8.5909024200026e-09   -2.695641346412434e-07   -2.7177247961268245e-06
8.5909024200026e-09   -2.695641346412434e-07   -2.7177247961268245e-06
8.5909024200026e-09   -2.695641346412434e-07   -2.7177247961268245e-06
-1.6709559376991184e-06   5.155233090659866e-07   -3.8953252881938037e-07
-1.6709559376991184e-06   5.155233090659866e-07   -3.8953252881938037e-07
-1.6709559376991184e-06   5.155233090659866e-07   -3.8953252881938037e-07
-1.6709559376991184e-06   5.155233090659866e-07   -3.8953252881938037e-07
-9.391331930544986e-07   1.371107208473284e-07   -1.3821895502963248e-06
-9.391331930544986e-07   1.371107208473284e-07   -1.3821895502963248e-06
-9.391331930544986e-07   1.371107208473284e-07   -1.3821895502963248e-06
-9.391331930544986e-07   1.371107208473284e-07   -1.3821895502963248e-06
-1.6709559376991727e-06   -2.695641346412976e-07   -3.1887772623513753e-06
-1.6709559376991727e-06   -2.695641346412976e-07   -3.1887772623513753e-06
-1.6709559376991727e-06   -2.695641346412976e-07   -3.1887772623513753e-06
-1.6709559376991727e-06   -2.695641346412976e-07   -3.1887772623513753e-06
8.5909024200026e-09   5.155233090659866e-07   8.151993740495352e-08
8.5909024200026e-09   5.155233090659866e-07   8.151993740495352e-08
8.5909024200026e-09   5.155233090659866e-07   8.151993740495352e-08
8.5909024200026e-09   5.155233090659866e-07   8.151993740495352e-08
2.1295177070671228e-07   -3.7252915045582263e-07   -2.437385520820336e-06
2.1295177070671228e-07   -3.7252915045582263e-07   -2.437385520820336e-06
2.1295177070671228e-07   -3.7252915045582263e-07   -2.437385520820336e-06
2.1295177070671228e-07   -3.7252915045582263e-07   -2.437385520820336e-06
-1.453099203572387e-06   4.4301829835854473e-07   -1.4996236631084278e-07
-1.453099203572387e-06   4.4301829835854473e-07   -1.4996236631084278e-07
-1.453099203572387e-06   4.4301829835854473e-07   -1.4996236631084278e-07
-1.453099203572387e-06   4.4301829835854473e-07   -1.4996236631084278e-07
-6.514455765264178e-07   8.967840047814646e-08   -1.2740478059920226e-06
-6.514455765264178e-07   8.967840047814646e-08   -1.2740478059920226e-06
-6.514455765264178e-07   8.967840047814646e-08   -1.2740478059920226e-06
-6.514455765264178e-07   8.967840047814646e-08   -1.2740478059920226e-06
-1.453099203572387e-06   -3.7252915045587684e-07   -2.9267139901091067e-06
-1.453099203572387e-06   -3.7252915045587684e-07   -2.9267139901091067e-06
-1.453099203572387e-06   -3.7252915045587684e-07   -2.9267139901091067e-06
-1.453099203572387e-06   -3.7252915045587684e-07   -2.9267139901091067e-06
2.1295177070671228e-07   4.4301829835854473e-07   3.3936610297792807e-07
2.1295177070671228e-07   4.4301829835854473e-07   3.3936610297792807e-07
2.1295177070671228e-07   4.4301829835854473e-07   3.3936610297792807e-07
2.1295177070671228e-07   4.4301829835854473e-07   3.3936610297792807e-07
4.6766721401264415e-07   -4.970837431387447e-07   -2.0265530920696726e-06
4.6766721401264415e-07   -4.970837431387447e-07   -2.0265530920696726e-06
4.6766721401264415e-07   -4.970837431387447e-07   -2.0265530920696726e-06
4.6766721401264415e-07   -4.970837431387447e-07   -2.0265530920696726e-06
-1.1188457767568835e-06   3.830042185971034e-07   8.958244883774166e-08
-1.1188457767568835e-06   3.830042185971034e-07   8.958244883774166e-08
-1.1188457767568835e-06   3.830042185971034e-07   8.958244883774166e-08
-1.1188457767568835e-06   3.830042185971034e-07   8.958244883774166e-08
-3.9092928790545787e-07   3.258678247315856e-08   -9.133612375734467e-07
-3.9092928790545787e-07   3.258678247315856e-08   -9.133612375734467e-07
-3.9092928790545787e-07   3.258678247315856e-08   -9.133612375734467e-07
-3.9092928790545787e-07   3.258678247315856e-08   -9.133612375734467e-07
              </DataArray>   
             <DataArray type="Float64" NumberOfComponents="3" Name="Stress" format="ascii">   
-3.1643141134121455   -0.7910785283530364   -0.7910785283530364
-3.1643141134121455   -0.7910785283530364   -0.7910785283530364
-3.1643141134121455   -0.7910785283530364   -0.7910785283530364
-3.1643141134121455   -0.7910785283530364   -0.7910785283530364
-1.831157483063227   -0.058020382197117804   -0.03671574003645332
-1.831157483063227   -0.058020382197117804   -0.03671574003645332
-1.831157483063227   -0.058020382197117804   -0.03671574003645332
-1.831157483063227   -0.058020382197117804   -0.03671574003645332
-1.9737872631292896   -0.4934468157823224   -0.4934468157823224
-1.9737872631292896   -0.4934468157823224   -0.4934468157823224
-1.9737872631292896   -0.4934468157823224   -0.4934468157823224
-1.9737872631292896   -0.4934468157823224   -0.4934468157823224
-3.049737971837801   -0.2504531055177796   -0.09578207696289902
-3.049737971837801   -0.2504531055177796   -0.09578207696289902
-3.049737971837801   -0.2504531055177796   -0.09578207696289902
-3.049737971837801   -0.2504531055177796   -0.09578207696289902
-2.3918944722416553   -0.39213923860389893   -0.006605025386168185
-2.3918944722416553   -0.39213923860389893   -0.006605025386168185
-2.3918944722416553   -0.39213923860389893   -0.006605025386168185
-2.3918944722416553   -0.39213923860389893   -0.006605025386168185
-3.3116565948240777   -0.8279141487060194   -0.8279141487060194
-3.3116565948240777   -0.8279141487060194   -0.8279141487060194
-3.3116565948240777   -0.8279141487060194   -0.8279141487060194
-3.3116565948240777   -0.8279141487060194   -0.8279141487060194
-1.7739835440865785   0.021899323462356235   -0.009774359813445418
-1.7739835440865785   0.021899323462356235   -0.009774359813445418
-1.7739835440865785   0.021899323462356235   -0.009774359813445418
-1.7739835440865785   0.021899323462356235   -0.009774359813445418
-1.979399267494509   -0.4948498168736272   -0.4948498168736272
-1.979399267494509   -0.4948498168736272   -0.4948498168736272
-1.979399267494509   -0.4948498168736272   -0.4948498168736272
-1.979399267494509   -0.4948498168736272   -0.4948498168736272
-3.1522850192601406   -0.2528697364301399   -0.14035921707224921
-3.1522850192601406   -0.2528697364301399   -0.14035921707224921
-3.1522850192601406   -0.2528697364301399   -0.14035921707224921
-3.1522850192601406   -0.2528697364301399   -0.14035921707224921
-2.481155567002938   -0.3692216009015312   -0.1316805438963605
-2.481155567002938   -0.3692216009015312   -0.1316805438963605
-2.481155567002938   -0.3692216009015312   -0.1316805438963605
-2.481155567002938   -0.3692216009015312   -0.1316805438963605
-3.415154698399631   -0.8537886745999077   -0.8537886745999077
-3.415154698399631   -0.8537886745999077   -0.8537886745999077
-3.415154698399631   -0.8537886745999077   -0.8537886745999077
-3.415154698399631   -0.8537886745999077   -0.8537886745999077
-1.7688699787369666   0.05372873091419439   0.00921807912624803
-1.7688699787369666   0.05372873091419439   0.00921807912624803
-1.7688699787369666   0.05372873091419439   0.00921807912624803
-1.7688699787369666   0.05372873091419439   0.00921807912624803
-1.9784102272880164   -0.4946025568220041   -0.4946025568220041
-1.9784102272880164   -0.4946025568220041   -0.4946025568220041
-1.9784102272880164   -0.4946025568220041   -0.4946025568220041
-1.9784102272880164   -0.4946025568220041   -0.4946025568220041
-3.3354683117049517   -0.2218277519081252   -0.08418576448405468
-3.3354683117049517   -0.2218277519081252   -0.08418576448405468
-3.3354683117049517   -0.2218277519081252   -0.08418576448405468
-3.3354683117049517   -0.2218277519081252   -0.08418576448405468
-2.54740142093072   -0.36348993722275214   -0.23799608463366304
-2.54740142093072   -0.36348993722275214   -0.23799608463366304
-2.54740142093072   -0.36348993722275214   -0.23799608463366304
-2.54740142093072   -0.36348993722275214   -0.23799608463366304
-2.013566954018351   -0.5033917385045877   -0.5033917385045877
-2.013566954018351   -0.5033917385045877   -0.5033917385045877
-2.013566954018351   -0.5033917385045877   -0.5033917385045877
-2.013566954018351   -0.5033917385045877   -0.5033917385045877
-0.840056115015845   -0.055899398810948436   -0.018166587798458513
-0.840056115015845   -0.055899398810948436   -0.018166587798458513
-0.840056115015845   -0.055899398810948436   -0.018166587798458513
-0.840056115015845   -0.055899398810948436   -0.018166587798458513
-0.8819410450650983   -0.22048526126627457   -0.22048526126627457
-0.8819410450650983   -0.22048526126627457   -0.22048526126627457
-0.8819410450650983   -0.22048526126627457   -0.22048526126627457
-0.8819410450650983   -0.22048526126627457   -0.22048526126627457
-1.8332638876143048   -0.21561984123539657   -0.06865691275432427
-1.8332638876143048   -0.21561984123539657   -0.06865691275432427
-1.8332638876143048   -0.21561984123539657   -0.06865691275432427
-1.8332638876143048   -0.21561984123539657   -0.06865691275432427
-1.35209163660494   -0.25613806267413036   0.010572877587183099
-1.35209163660494   -0.25613806267413036   0.010572877587183099
-1.35209163660494   -0.25613806267413036   0.010572877587183099
-1.35209163660494   -0.25613806267413036   0.010572877587183099
-1.973787263129288   -0.493446815782322   -0.493446815782322
-1.973787263129288   -0.493446815782322   -0.493446815782322
-1.973787263129288   -0.493446815782322   -0.493446815782322
-1.973787263129288   -0.493446815782322   -0.493446815782322
-0.7926083832728295   0.006150999557935022   -0.00045821312913972567
-0.7926083832728295   0.006150999557935022   -0.00045821312913972567
-0.7926083832728295   0.006150999557935022   -0.00045821312913972567
-0.7926083832728295   0.006150999557935022   -0.00045821312913972567
-0.862305107751122   -0.2155762769377805   -0.2155762769377805
-0.862305107751122   -0.2155762769377805   -0.2155762769377805
-0.862305107751122   -0.2155762769377805   -0.2155762769377805
-0.862305107751122   -0.2155762769377805   -0.2155762769377805
-1.8286976873087157   -0.17591223305662013   -0.06027949976166812
-1.8286976873087157   -0.17591223305662013   -0.06027949976166812
-1.8286976873087157   -0.17591223305662013   -0.06027949976166812
-1.8286976873087157   -0.17591223305662013   -0.06027949976166812
-1.3333136009740971   -0.21564415244738047   -0.06971601794218657
-1.3333136009740971   -0.21564415244738047   -0.06971601794218657
-1.3333136009740971   -0.21564415244738047   -0.06971601794218657
-1.3333136009740971   -0.21564415244738047   -0.06971601794218657
-1.979399267494509   -0.4948498168736272   -0.4948498168736272
-1.979399267494509   -0.4948498168736272   -0.4948498168736272
-1.979399267494509   -0.4948498168736272   -0.4948498168736272
-1.979399267494509   -0.4948498168736272   -0.4948498168736272
-0.7611843435870647   0.05378049085749187   0.020670776087240814
-0.7611843435870647   0.05378049085749187   0.020670776087240814
-0.7611843435870647   0.05378049085749187   0.020670776087240814
-0.7611843435870647   0.05378049085749187   0.020670776087240814
-0.8444325775147131   -0.21110814437867828   -0.21110814437867828
-0.8444325775147131   -0.21110814437867828   -0.21110814437867828
-0.8444325775147131   -0.21110814437867828   -0.21110814437867828
-0.8444325775147131   -0.21110814437867828   -0.21110814437867828
-1.815312652418323   -0.1357508645855729   -0.037966374709975964
-1.815312652418323   -0.1357508645855729   -0.037966374709975964
-1.815312652418323   -0.1357508645855729   -0.037966374709975964
-1.815312652418323   -0.1357508645855729   -0.037966374709975964
-1.3399596606171142   -0.1908456529953243   -0.15533099881949994
-1.3399596606171142   -0.1908456529953243   -0.15533099881949994
-1.3399596606171142   -0.1908456529953243   -0.15533099881949994
-1.3399596606171142   -0.1908456529953243   -0.15533099881949994
-0.9169365752155167   -0.2292341438038792   -0.2292341438038792
-0.9169365752155167   -0.2292341438038792   -0.2292341438038792
-0.9169365752155167   -0.2292341438038792   -0.2292341438038792
-0.9169365752155167   -0.2292341438038792   -0.2292341438038792
0.1088965819620815   0.007137996014950458   0.0008905788196078273
0.1088965819620815   0.007137996014950458   0.0008905788196078273
0.1088965819620815   0.007137996014950458   0.0008905788196078273
0.1088965819620815   0.007137996014950458   0.0008905788196078273
0.1415285370565936   0.0353821342641484   0.0353821342641484
0.1415285370565936   0.0353821342641484   0.0353821342641484
0.1415285370565936   0.0353821342641484   0.0353821342641484
0.1415285370565936   0.0353821342641484   0.0353821342641484
-0.8290991469102152   -0.14330476445249318   -0.033456267305640955
-0.8290991469102152   -0.14330476445249318   -0.033456267305640955
-0.8290991469102152   -0.14330476445249318   -0.033456267305640955
-0.8290991469102152   -0.14330476445249318   -0.033456267305640955
-0.3548870021706208   -0.09002875665368874   0.06026183165815742
-0.3548870021706208   -0.09002875665368874   0.06026183165815742
-0.3548870021706208   -0.09002875665368874   0.06026183165815742
-0.3548870021706208   -0.09002875665368874   0.06026183165815742
-0.8819410450650998   -0.22048526126627496   -0.22048526126627496
-0.8819410450650998   -0.22048526126627496   -0.22048526126627496
-0.8819410450650998   -0.22048526126627496   -0.22048526126627496
-0.8819410450650998   -0.22048526126627496   -0.22048526126627496
0.14404521494130698   0.06223741080775998   0.021110247144102538
0.14404521494130698   0.06223741080775998   0.021110247144102538
0.14404521494130698   0.06223741080775998   0.021110247144102538
0.14404521494130698   0.06223741080775998   0.021110247144102538
0.15913608010203262   0.039784020025508154   0.039784020025508154
0.15913608010203262   0.039784020025508154   0.039784020025508154
0.15913608010203262   0.039784020025508154   0.039784020025508154
0.15913608010203262   0.039784020025508154   0.039784020025508154
-0.7998599490161991   -0.09649002834295994   -0.022436731857992852
-0.7998599490161991   -0.09649002834295994   -0.022436731857992852
-0.7998599490161991   -0.09649002834295994   -0.022436731857992852
-0.7998599490161991   -0.09649002834295994   -0.022436731857992852
-0.34050696782337586   -0.05565155110168361   -0.020572116848298377
-0.34050696782337586   -0.05565155110168361   -0.020572116848298377
-0.34050696782337586   -0.05565155110168361   -0.020572116848298377
-0.34050696782337586   -0.05565155110168361   -0.020572116848298377
-0.8623051077511236   -0.2155762769377809   -0.2155762769377809
-0.8623051077511236   -0.2155762769377809   -0.2155762769377809
-0.8623051077511236   -0.2155762769377809   -0.2155762769377809
-0.8623051077511236   -0.2155762769377809   -0.2155762769377809
0.17226882377981406   0.1095578535631884   0.03567390487673372
0.17226882377981406   0.1095578535631884   0.03567390487673372
0.17226882377981406   0.1095578535631884   0.03567390487673372
0.17226882377981406   0.1095578535631884   0.03567390487673372
0.1828422422974081   0.04571056057435202   0.04571056057435202
0.1828422422974081   0.04571056057435202   0.04571056057435202
0.1828422422974081   0.04571056057435202   0.04571056057435202
0.1828422422974081   0.04571056057435202   0.04571056057435202
-0.7680379346928757   -0.04065586195229365   0.0004127873041214966
-0.7680379346928757   -0.04065586195229365   0.0004127873041214966
-0.7680379346928757   -0.04065586195229365   0.0004127873041214966
-0.7680379346928757   -0.04065586195229365   0.0004127873041214966
-0.3303973493074516   -0.022510891032309868   -0.10068440823409182
-0.3303973493074516   -0.022510891032309868   -0.10068440823409182
-0.3303973493074516   -0.022510891032309868   -0.10068440823409182
-0.3303973493074516   -0.022510891032309868   -0.10068440823409182
0.11921207443907782   0.029803018609769454   0.029803018609769454
0.11921207443907782   0.029803018609769454   0.029803018609769454
0.11921207443907782   0.029803018609769454   0.029803018609769454
0.11921207443907782   0.029803018609769454   0.029803018609769454
1.1476365923466882   0.10529172806485457   0.03535481552718051
1.1476365923466882   0.10529172806485457   0.03535481552718051
1.1476365923466882   0.10529172806485457   0.03535481552718051
1.1476365923466882   0.10529172806485457   0.03535481552718051
1.2460325791906925   0.31150814479767314   0.31150814479767314
1.2460325791906925   0.31150814479767314   0.31150814479767314
1.2460325791906925   0.31150814479767314   0.31150814479767314
1.2460325791906925   0.31150814479767314   0.31150814479767314
0.10782974159034663   -0.08081610028767591   -0.01691360851526442
0.10782974159034663   -0.08081610028767591   -0.01691360851526442
0.10782974159034663   -0.08081610028767591   -0.01691360851526442
0.10782974159034663   -0.08081610028767591   -0.01691360851526442
0.654434940494306   0.08147347210660161   0.11890075969794475
0.654434940494306   0.08147347210660161   0.11890075969794475
0.654434940494306   0.08147347210660161   0.11890075969794475
0.654434940494306   0.08147347210660161   0.11890075969794475
0.1415285370565941   0.035382134264148525   0.035382134264148525
0.1415285370565941   0.035382134264148525   0.035382134264148525
0.1415285370565941   0.035382134264148525   0.035382134264148525
0.1415285370565941   0.035382134264148525   0.035382134264148525
1.1611809986454908   0.14415712516689433   0.05460126170244263
1.1611809986454908   0.14415712516689433   0.05460126170244263
1.1611809986454908   0.14415712516689433   0.05460126170244263
1.1611809986454908   0.14415712516689433   0.05460126170244263
1.2406302823142978   0.31015757057857446   0.31015757057857446
1.2406302823142978   0.31015757057857446   0.31015757057857446
1.2406302823142978   0.31015757057857446   0.31015757057857446
1.2406302823142978   0.31015757057857446   0.31015757057857446
0.1362326070632341   -0.03504130712492809   9.198198195034882e-05
0.1362326070632341   -0.03504130712492809   9.198198195034882e-05
0.1362326070632341   -0.03504130712492809   9.198198195034882e-05
0.1362326070632341   -0.03504130712492809   9.198198195034882e-05
0.6495383147426613   0.10690208595385149   0.03093214417494768
0.6495383147426613   0.10690208595385149   0.03093214417494768
0.6495383147426613   0.10690208595385149   0.03093214417494768
0.6495383147426613   0.10690208595385149   0.03093214417494768
0.15913608010203278   0.039784020025508196   0.039784020025508196
0.15913608010203278   0.039784020025508196   0.039784020025508196
0.15913608010203278   0.039784020025508196   0.039784020025508196
0.15913608010203278   0.039784020025508196   0.039784020025508196
1.167065246676537   0.18467068082917615   0.06781928213916855
1.167065246676537   0.18467068082917615   0.06781928213916855
1.167065246676537   0.18467068082917615   0.06781928213916855
1.167065246676537   0.18467068082917615   0.06781928213916855
1.2645944095367372   0.3161486023841843   0.3161486023841843
1.2645944095367372   0.3161486023841843   0.3161486023841843
1.2645944095367372   0.3161486023841843   0.3161486023841843
1.2645944095367372   0.3161486023841843   0.3161486023841843
0.17348482147160224   0.025523736097683145   0.019110280921990307
0.17348482147160224   0.025523736097683145   0.019110280921990307
0.17348482147160224   0.025523736097683145   0.019110280921990307
0.17348482147160224   0.025523736097683145   0.019110280921990307
0.6595531380768999   0.14500684143697953   -0.050634752739710694
0.6595531380768999   0.14500684143697953   -0.050634752739710694
0.6595531380768999   0.14500684143697953   -0.050634752739710694
0.6595531380768999   0.14500684143697953   -0.050634752739710694
1.2438969818092012   0.3109742454523003   0.3109742454523003
1.2438969818092012   0.3109742454523003   0.3109742454523003
1.2438969818092012   0.3109742454523003   0.3109742454523003
1.2438969818092012   0.3109742454523003   0.3109742454523003
2.579883825628526   0.1966338326510828   0.06736200700837358
2.579883825628526   0.1966338326510828   0.06736200700837358
2.579883825628526   0.1966338326510828   0.06736200700837358
2.579883825628526   0.1966338326510828   0.06736200700837358
2.6369457326818853   0.6592364331704713   0.6592364331704713
2.6369457326818853   0.6592364331704713   0.6592364331704713
2.6369457326818853   0.6592364331704713   0.6592364331704713
2.6369457326818853   0.6592364331704713   0.6592364331704713
1.107577026731412   -0.06295502457684221   -0.006306448124214228
1.107577026731412   -0.06295502457684221   -0.006306448124214228
1.107577026731412   -0.06295502457684221   -0.006306448124214228
1.107577026731412   -0.06295502457684221   -0.006306448124214228
1.8400060884519485   0.2604026027460994   0.20773173190869865
1.8400060884519485   0.2604026027460994   0.20773173190869865
1.8400060884519485   0.2604026027460994   0.20773173190869865
1.8400060884519485   0.2604026027460994   0.20773173190869865
1.2460325791906914   0.31150814479767286   0.31150814479767286
1.2460325791906914   0.31150814479767286   0.31150814479767286
1.2460325791906914   0.31150814479767286   0.31150814479767286
1.2460325791906914   0.31150814479767286   0.31150814479767286
2.4436625335466764   0.22994561712003536   0.12211125354490354
2.4436625335466764   0.22994561712003536   0.12211125354490354
2.4436625335466764   0.22994561712003536   0.12211125354490354
2.4436625335466764   0.22994561712003536   0.12211125354490354
2.5580951842457123   0.6395237960614281   0.6395237960614281
2.5580951842457123   0.6395237960614281   0.6395237960614281
2.5580951842457123   0.6395237960614281   0.6395237960614281
2.5580951842457123   0.6395237960614281   0.6395237960614281
1.1113889997141888   -0.03475225727183212   0.008860985428436594
1.1113889997141888   -0.03475225727183212   0.008860985428436594
1.1113889997141888   -0.03475225727183212   0.008860985428436594
1.1113889997141888   -0.03475225727183212   0.008860985428436594
1.7853602039748482   0.26790106807911174   0.09961248406322493
1.7853602039748482   0.26790106807911174   0.09961248406322493
1.7853602039748482   0.26790106807911174   0.09961248406322493
1.7853602039748482   0.26790106807911174   0.09961248406322493
1.2406302823142978   0.31015757057857446   0.31015757057857446
1.2406302823142978   0.31015757057857446   0.31015757057857446
1.2406302823142978   0.31015757057857446   0.31015757057857446
1.2406302823142978   0.31015757057857446   0.31015757057857446
2.364923228419054   0.23068329498447965   0.08250451800512625
2.364923228419054   0.23068329498447965   0.08250451800512625
2.364923228419054   0.23068329498447965   0.08250451800512625
2.364923228419054   0.23068329498447965   0.08250451800512625
2.440754831332417   0.6101887078331043   0.6101887078331043
2.440754831332417   0.6101887078331043   0.6101887078331043
2.440754831332417   0.6101887078331043   0.6101887078331043
2.440754831332417   0.6101887078331043   0.6101887078331043
1.1524505590428424   0.03634645321025862   0.03523149908864633
1.1524505590428424   0.03634645321025862   0.03523149908864633
1.1524505590428424   0.03634645321025862   0.03523149908864633
1.1524505590428424   0.03634645321025862   0.03523149908864633
1.709488755565903   0.29045375263880524   -0.02612648051439908
1.709488755565903   0.29045375263880524   -0.02612648051439908
1.709488755565903   0.29045375263880524   -0.02612648051439908
1.709488755565903   0.29045375263880524   -0.02612648051439908
-2.5014938962811897   -0.17911775519065037   0.028133808213848324
-2.5014938962811897   -0.17911775519065037   0.028133808213848324
-2.5014938962811897   -0.17911775519065037   0.028133808213848324
-2.5014938962811897   -0.17911775519065037   0.028133808213848324
-1.5922125482063663   -0.03670607849668611   -0.01028772138441296
-1.5922125482063663   -0.03670607849668611   -0.01028772138441296
-1.5922125482063663   -0.03670607849668611   -0.01028772138441296
-1.5922125482063663   -0.03670607849668611   -0.01028772138441296
-1.6030259179682267   0.06473817763865464   0.03346228494970041
-1.6030259179682267   0.06473817763865464   0.03346228494970041
-1.6030259179682267   0.06473817763865464   0.03346228494970041
-1.6030259179682267   0.06473817763865464   0.03346228494970041
-2.5387501400741685   -0.17316223861014274   -0.030049916989740147
-2.5387501400741685   -0.17316223861014274   -0.030049916989740147
-2.5387501400741685   -0.17316223861014274   -0.030049916989740147
-2.5387501400741685   -0.17316223861014274   -0.030049916989740147
-1.9778492878656653   -0.06753689644469435   -0.007826637131529673
-1.9778492878656653   -0.06753689644469435   -0.007826637131529673
-1.9778492878656653   -0.06753689644469435   -0.007826637131529673
-1.9778492878656653   -0.06753689644469435   -0.007826637131529673
-2.520307832641278   -0.12300898831081841   0.01200836987538631
-2.520307832641278   -0.12300898831081841   0.01200836987538631
-2.520307832641278   -0.12300898831081841   0.01200836987538631
-2.520307832641278   -0.12300898831081841   0.01200836987538631
-1.6241333498938977   0.011919802846557026   -0.01925649988652739
-1.6241333498938977   0.011919802846557026   -0.01925649988652739
-1.6241333498938977   0.011919802846557026   -0.01925649988652739
-1.6241333498938977   0.011919802846557026   -0.01925649988652739
-1.6049657936931228   0.09228730959611281   0.03810678749199628
-1.6049657936931228   0.09228730959611281   0.03810678749199628
-1.6049657936931228   0.09228730959611281   0.03810678749199628
-1.6049657936931228   0.09228730959611281   0.03810678749199628
-2.554180757754268   -0.15253642701238262   -0.039672029881618845
-2.554180757754268   -0.15253642701238262   -0.039672029881618845
-2.554180757754268   -0.15253642701238262   -0.039672029881618845
-2.554180757754268   -0.15253642701238262   -0.039672029881618845
-2.0334277279042388   -0.04522448970398779   -0.01927706787809877
-2.0334277279042388   -0.04522448970398779   -0.01927706787809877
-2.0334277279042388   -0.04522448970398779   -0.01927706787809877
-2.0334277279042388   -0.04522448970398779   -0.01927706787809877
-2.5083399184519366   -0.0738414374420987   0.11083717705975246
-2.5083399184519366   -0.0738414374420987   0.11083717705975246
-2.5083399184519366   -0.0738414374420987   0.11083717705975246
-2.5083399184519366   -0.0738414374420987   0.11083717705975246
-1.6317067327545722   0.032692220266712924   -0.03600281848583682
-1.6317067327545722   0.032692220266712924   -0.03600281848583682
-1.6317067327545722   0.032692220266712924   -0.03600281848583682
-1.6317067327545722   0.032692220266712924   -0.03600281848583682
-1.5758052072684883   0.1607907076285402   0.06924342876281261
-1.5758052072684883   0.1607907076285402   0.06924342876281261
-1.5758052072684883   0.1607907076285402   0.06924342876281261
-1.5758052072684883   0.1607907076285402   0.06924342876281261
-2.4836537109341768   -0.12310322273320307   -0.06490716154526754
-2.4836537109341768   -0.12310322273320307   -0.06490716154526754
-2.4836537109341768   -0.12310322273320307   -0.06490716154526754
-2.4836537109341768   -0.12310322273320307   -0.06490716154526754
-1.9557077070372875   0.018213560264769668   0.04333436672263573
-1.9557077070372875   0.018213560264769668   0.04333436672263573
-1.9557077070372875   0.018213560264769668   0.04333436672263573
-1.9557077070372875   0.018213560264769668   0.04333436672263573
-1.6317750494869607   -0.21630927450191226   -0.028497031782159794
-1.6317750494869607   -0.21630927450191226   -0.028497031782159794
-1.6317750494869607   -0.21630927450191226   -0.028497031782159794
-1.6317750494869607   -0.21630927450191226   -0.028497031782159794
-0.7517120161777635   -0.016692749010091518   0.007983095904449566
-0.7517120161777635   -0.016692749010091518   0.007983095904449566
-0.7517120161777635   -0.016692749010091518   0.007983095904449566
-0.7517120161777635   -0.016692749010091518   0.007983095904449566
-0.762745415960143   0.014489918751327796   0.011373415525137695
-0.762745415960143   0.014489918751327796   0.011373415525137695
-0.762745415960143   0.014489918751327796   0.011373415525137695
-0.762745415960143   0.014489918751327796   0.011373415525137695
-1.6641332675598788   -0.1583380298451062   -0.0489982555247995
-1.6641332675598788   -0.1583380298451062   -0.0489982555247995
-1.6641332675598788   -0.1583380298451062   -0.0489982555247995
-1.6641332675598788   -0.1583380298451062   -0.0489982555247995
-1.202556757828177   -0.09763062046160773   -0.027559129403364142
-1.202556757828177   -0.09763062046160773   -0.027559129403364142
-1.202556757828177   -0.09763062046160773   -0.027559129403364142
-1.202556757828177   -0.09763062046160773   -0.027559129403364142
-1.662571455220516   -0.1730461807836622   -0.026481042889437402
-1.662571455220516   -0.1730461807836622   -0.026481042889437402
-1.662571455220516   -0.1730461807836622   -0.026481042889437402
-1.662571455220516   -0.1730461807836622   -0.026481042889437402
-0.761341021653589   0.03216427633579669   0.0007210294734326314
-0.761341021653589   0.03216427633579669   0.0007210294734326314
-0.761341021653589   0.03216427633579669   0.0007210294734326314
-0.761341021653589   0.03216427633579669   0.0007210294734326314
-0.7599003698227699   0.052993508669541   0.015451891383193576
-0.7599003698227699   0.052993508669541   0.015451891383193576
-0.7599003698227699   0.052993508669541   0.015451891383193576
-0.7599003698227699   0.052993508669541   0.015451891383193576
-1.664852729607319   -0.11604687173695682   -0.05299371074591516
-1.664852729607319   -0.11604687173695682   -0.05299371074591516
-1.664852729607319   -0.11604687173695682   -0.05299371074591516
-1.664852729607319   -0.11604687173695682   -0.05299371074591516
-1.2002543644943455   -0.05433973814187126   -0.013101302310005489
-1.2002543644943455   -0.05433973814187126   -0.013101302310005489
-1.2002543644943455   -0.05433973814187126   -0.013101302310005489
-1.2002543644943455   -0.05433973814187126   -0.013101302310005489
-1.6583469220540887   -0.13090707416392183   -0.005604470552799862
-1.6583469220540887   -0.13090707416392183   -0.005604470552799862
-1.6583469220540887   -0.13090707416392183   -0.005604470552799862
-1.6583469220540887   -0.13090707416392183   -0.005604470552799862
-0.7608986568707781   0.07336123160172991   -0.009907266789029909
-0.7608986568707781   0.07336123160172991   -0.009907266789029909
-0.7608986568707781   0.07336123160172991   -0.009907266789029909
-0.7608986568707781   0.07336123160172991   -0.009907266789029909
-0.7472022305364151   0.09167366128956034   0.03104583278378442
-0.7472022305364151   0.09167366128956034   0.03104583278378442
-0.7472022305364151   0.09167366128956034   0.03104583278378442
-0.7472022305364151   0.09167366128956034   0.03104583278378442
-1.6470582631988548   -0.06718297886036373   -0.05904816440010793
-1.6470582631988548   -0.06718297886036373   -0.05904816440010793
-1.6470582631988548   -0.06718297886036373   -0.05904816440010793
-1.6470582631988548   -0.06718297886036373   -0.05904816440010793
-1.195272155785906   -0.013373666093105946   0.0060018907508368954
-1.195272155785906   -0.013373666093105946   0.0060018907508368954
-1.195272155785906   -0.013373666093105946   0.0060018907508368954
-1.195272155785906   -0.013373666093105946   0.0060018907508368954
-0.7926875731669519   -0.18006203198757897   -0.03352540606400582
-0.7926875731669519   -0.18006203198757897   -0.03352540606400582
-0.7926875731669519   -0.18006203198757897   -0.03352540606400582
-0.7926875731669519   -0.18006203198757897   -0.03352540606400582
0.08229046270553357   0.01870670129165983   0.030880706559974186
0.08229046270553357   0.01870670129165983   0.030880706559974186
0.08229046270553357   0.01870670129165983   0.030880706559974186
0.08229046270553357   0.01870670129165983   0.030880706559974186
0.07852257605784622   0.045404655509793224   0.0024691095377295177
0.07852257605784622   0.045404655509793224   0.0024691095377295177
0.07852257605784622   0.045404655509793224   0.0024691095377295177
0.07852257605784622   0.045404655509793224   0.0024691095377295177
-0.7960582603333839   -0.1192944037209076   -0.021406483868837332
-0.7960582603333839   -0.1192944037209076   -0.021406483868837332
-0.7960582603333839   -0.1192944037209076   -0.021406483868837332
-0.7960582603333839   -0.1192944037209076   -0.021406483868837332
-0.36043517608180337   -0.05969338760157282   -0.011398934587684817
-0.36043517608180337   -0.05969338760157282   -0.011398934587684817
-0.36043517608180337   -0.05969338760157282   -0.011398934587684817
-0.36043517608180337   -0.05969338760157282   -0.011398934587684817
-0.8015646525714506   -0.13729431823302324   -0.03093853054705582
-0.8015646525714506   -0.13729431823302324   -0.03093853054705582
-0.8015646525714506   -0.13729431823302324   -0.03093853054705582
-0.8015646525714506   -0.13729431823302324   -0.03093853054705582
0.08708990795405375   0.06646550968004943   0.02424491484851031
0.08708990795405375   0.06646550968004943   0.02424491484851031
0.08708990795405375   0.06646550968004943   0.02424491484851031
0.08708990795405375   0.06646550968004943   0.02424491484851031
0.08472554541056782   0.08778560742632555   0.01435595256166763
0.08472554541056782   0.08778560742632555   0.01435595256166763
0.08472554541056782   0.08778560742632555   0.01435595256166763
0.08472554541056782   0.08778560742632555   0.01435595256166763
-0.7934947397336745   -0.0728199000767096   -0.02670654942508572
-0.7934947397336745   -0.0728199000767096   -0.02670654942508572
-0.7934947397336745   -0.0728199000767096   -0.02670654942508572
-0.7934947397336745   -0.0728199000767096   -0.02670654942508572
-0.3548048181187328   -0.014652988244323185   0.004244908261032259
-0.3548048181187328   -0.014652988244323185   0.004244908261032259
-0.3548048181187328   -0.014652988244323185   0.004244908261032259
-0.3548048181187328   -0.014652988244323185   0.004244908261032259
-0.7956213735745079   -0.094322408853513   -0.015837209852449373
-0.7956213735745079   -0.094322408853513   -0.015837209852449373
-0.7956213735745079   -0.094322408853513   -0.015837209852449373
-0.7956213735745079   -0.094322408853513   -0.015837209852449373
0.09014566198707899   0.11258159893880788   0.01666054393174053
0.09014566198707899   0.11258159893880788   0.01666054393174053
0.09014566198707899   0.11258159893880788   0.01666054393174053
0.09014566198707899   0.11258159893880788   0.01666054393174053
0.08669011035931833   0.13493386238887486   0.023633363957771873
0.08669011035931833   0.13493386238887486   0.023633363957771873
0.08669011035931833   0.13493386238887486   0.023633363957771873
0.08669011035931833   0.13493386238887486   0.023633363957771873
-0.7831029669169162   -0.02313651059213298   -0.03364767723703047
-0.7831029669169162   -0.02313651059213298   -0.03364767723703047
-0.7831029669169162   -0.02313651059213298   -0.03364767723703047
-0.7831029669169162   -0.02313651059213298   -0.03364767723703047
-0.3459172561501012   0.03244893497691194   0.021371074223224748
-0.3459172561501012   0.03244893497691194   0.021371074223224748
-0.3459172561501012   0.03244893497691194   0.021371074223224748
-0.3459172561501012   0.03244893497691194   0.021371074223224748
0.03774139840419713   -0.1319915471334075   -0.04116636652164064
0.03774139840419713   -0.1319915471334075   -0.04116636652164064
0.03774139840419713   -0.1319915471334075   -0.04116636652164064
0.03774139840419713   -0.1319915471334075   -0.04116636652164064
0.944180334046824   0.06517205220884614   0.05667198444981143
0.944180334046824   0.06517205220884614   0.05667198444981143
0.944180334046824   0.06517205220884614   0.05667198444981143
0.944180334046824   0.06517205220884614   0.05667198444981143
0.9430481017319974   0.08779796646037691   -0.009061634916652954
0.9430481017319974   0.08779796646037691   -0.009061634916652954
0.9430481017319974   0.08779796646037691   -0.009061634916652954
0.9430481017319974   0.08779796646037691   -0.009061634916652954
0.05422173434067559   -0.07929672013916807   0.005666276600837013
0.05422173434067559   -0.07929672013916807   0.005666276600837013
0.05422173434067559   -0.07929672013916807   0.005666276600837013
0.05422173434067559   -0.07929672013916807   0.005666276600837013
0.4887009087109328   -0.011309020642405118   0.0010359695819761351
0.4887009087109328   -0.011309020642405118   0.0010359695819761351
0.4887009087109328   -0.011309020642405118   0.0010359695819761351
0.4887009087109328   -0.011309020642405118   0.0010359695819761351
0.04351269091248992   -0.09644326738003813   -0.030732393299220683
0.04351269091248992   -0.09644326738003813   -0.030732393299220683
0.04351269091248992   -0.09644326738003813   -0.030732393299220683
0.04351269091248992   -0.09644326738003813   -0.030732393299220683
0.9592583299621252   0.11044569850319064   0.04934177419117311
0.9592583299621252   0.11044569850319064   0.04934177419117311
0.9592583299621252   0.11044569850319064   0.04934177419117311
0.9592583299621252   0.11044569850319064   0.04934177419117311
0.9505231476758605   0.1297146436419111   0.009581195203519573
0.9505231476758605   0.1297146436419111   0.009581195203519573
0.9505231476758605   0.1297146436419111   0.009581195203519573
0.9505231476758605   0.1297146436419111   0.009581195203519573
0.05618898770022897   -0.03776071452119717   -0.002780514042503965
0.05618898770022897   -0.03776071452119717   -0.002780514042503965
0.05618898770022897   -0.03776071452119717   -0.002780514042503965
0.05618898770022897   -0.03776071452119717   -0.002780514042503965
0.4952555049545808   0.028757776338797433   0.020262380870441837
0.4952555049545808   0.028757776338797433   0.020262380870441837
0.4952555049545808   0.028757776338797433   0.020262380870441837
0.4952555049545808   0.028757776338797433   0.020262380870441837
0.04838646614612372   -0.05711641580965438   -0.022437420524572704
0.04838646614612372   -0.05711641580965438   -0.022437420524572704
0.04838646614612372   -0.05711641580965438   -0.022437420524572704
0.04838646614612372   -0.05711641580965438   -0.022437420524572704
0.9623065303386964   0.15305120603910033   0.04516154612051605
0.9623065303386964   0.15305120603910033   0.04516154612051605
0.9623065303386964   0.15305120603910033   0.04516154612051605
0.9623065303386964   0.15305120603910033   0.04516154612051605
0.935289412852073   0.1780922854490285   0.020148436298246242
0.935289412852073   0.1780922854490285   0.020148436298246242
0.935289412852073   0.1780922854490285   0.020148436298246242
0.935289412852073   0.1780922854490285   0.020148436298246242
0.05571101472436128   0.013678711233688419   -0.010006963061826907
0.05571101472436128   0.013678711233688419   -0.010006963061826907
0.05571101472436128   0.013678711233688419   -0.010006963061826907
0.05571101472436128   0.013678711233688419   -0.010006963061826907
0.5026099617202828   0.07456322129167678   0.038059911209875445
0.5026099617202828   0.07456322129167678   0.038059911209875445
0.5026099617202828   0.07456322129167678   0.038059911209875445
0.5026099617202828   0.07456322129167678   0.038059911209875445
0.869777756785818   -0.1740779603736732   -0.07609088927269864
0.869777756785818   -0.1740779603736732   -0.07609088927269864
0.869777756785818   -0.1740779603736732   -0.07609088927269864
0.869777756785818   -0.1740779603736732   -0.07609088927269864
1.790966787680397   0.11829648141476778   0.05520432934310712
1.790966787680397   0.11829648141476778   0.05520432934310712
1.790966787680397   0.11829648141476778   0.05520432934310712
1.790966787680397   0.11829648141476778   0.05520432934310712
1.8112565630800637   0.0561501353244   -0.11446018496665654
1.8112565630800637   0.0561501353244   -0.11446018496665654
1.8112565630800637   0.0561501353244   -0.11446018496665654
1.8112565630800637   0.0561501353244   -0.11446018496665654
0.9267591336134295   -0.03571820247540525   0.033009693426281864
0.9267591336134295   -0.03571820247540525   0.033009693426281864
0.9267591336134295   -0.03571820247540525   0.033009693426281864
0.9267591336134295   -0.03571820247540525   0.033009693426281864
1.2825909791339114   -0.022399404101825726   -0.0320821097219179
1.2825909791339114   -0.022399404101825726   -0.0320821097219179
1.2825909791339114   -0.022399404101825726   -0.0320821097219179
1.2825909791339114   -0.022399404101825726   -0.0320821097219179
0.8943132884263031   -0.114445024674974   -0.050492710309768166
0.8943132884263031   -0.114445024674974   -0.050492710309768166
0.8943132884263031   -0.114445024674974   -0.050492710309768166
0.8943132884263031   -0.114445024674974   -0.050492710309768166
1.8601480751844879   0.15132262444126776   0.03482488643859652
1.8601480751844879   0.15132262444126776   0.03482488643859652
1.8601480751844879   0.15132262444126776   0.03482488643859652
1.8601480751844879   0.15132262444126776   0.03482488643859652
1.831246165412469   0.10226536466765385   -0.02590807057241558
1.831246165412469   0.10226536466765385   -0.02590807057241558
1.831246165412469   0.10226536466765385   -0.02590807057241558
1.831246165412469   0.10226536466765385   -0.02590807057241558
0.9230650510171622   -0.015007185958002961   0.017012541509941782
0.9230650510171622   -0.015007185958002961   0.017012541509941782
0.9230650510171622   -0.015007185958002961   0.017012541509941782
0.9230650510171622   -0.015007185958002961   0.017012541509941782
1.3497651548256129   0.03371723200663135   0.022178253089255417
1.3497651548256129   0.03371723200663135   0.022178253089255417
1.3497651548256129   0.03371723200663135   0.022178253089255417
1.3497651548256129   0.03371723200663135   0.022178253089255417
0.8970349338791007   -0.08752026129350732   -0.04062496884485502
0.8970349338791007   -0.08752026129350732   -0.04062496884485502
0.8970349338791007   -0.08752026129350732   -0.04062496884485502
0.8970349338791007   -0.08752026129350732   -0.04062496884485502
1.8550989028552212   0.17260106030785136   0.02301992100114699
1.8550989028552212   0.17260106030785136   0.02301992100114699
1.8550989028552212   0.17260106030785136   0.02301992100114699
1.8550989028552212   0.17260106030785136   0.02301992100114699
1.8282235937501676   0.15652119453008825   -0.03966782901953051
1.8282235937501676   0.15652119453008825   -0.03966782901953051
1.8282235937501676   0.15652119453008825   -0.03966782901953051
1.8282235937501676   0.15652119453008825   -0.03966782901953051
0.9040773914051584   0.032729281155589124   0.009451333357105456
0.9040773914051584   0.032729281155589124   0.009451333357105456
0.9040773914051584   0.032729281155589124   0.009451333357105456
0.9040773914051584   0.032729281155589124   0.009451333357105456
1.3152797121140318   0.05910246232868924   0.016438927159795093
1.3152797121140318   0.05910246232868924   0.016438927159795093
1.3152797121140318   0.05910246232868924   0.016438927159795093
1.3152797121140318   0.05910246232868924   0.016438927159795093
-1.9665240816930907   -0.08927634628692294   0.1011724731511196
-1.9665240816930907   -0.08927634628692294   0.1011724731511196
-1.9665240816930907   -0.08927634628692294   0.1011724731511196
-1.9665240816930907   -0.08927634628692294   0.1011724731511196
-1.3059055857840287   -0.04957405895380368   -0.026325477892589086
-1.3059055857840287   -0.04957405895380368   -0.026325477892589086
-1.3059055857840287   -0.04957405895380368   -0.026325477892589086
-1.3059055857840287   -0.04957405895380368   -0.026325477892589086
-1.258849489311459   0.10580530849909359   0.08488716779372443
-1.258849489311459   0.10580530849909359   0.08488716779372443
-1.258849489311459   0.10580530849909359   0.08488716779372443
-1.258849489311459   0.10580530849909359   0.08488716779372443
-1.9755915474431938   -0.14102939556121447   -0.041253728168015744
-1.9755915474431938   -0.14102939556121447   -0.041253728168015744
-1.9755915474431938   -0.14102939556121447   -0.041253728168015744
-1.9755915474431938   -0.14102939556121447   -0.041253728168015744
-1.5606580147518385   -0.02413174146660585   -0.0028509404114540476
-1.5606580147518385   -0.02413174146660585   -0.0028509404114540476
-1.5606580147518385   -0.02413174146660585   -0.0028509404114540476
-1.5606580147518385   -0.02413174146660585   -0.0028509404114540476
-1.9206306974763998   -0.02085345122640958   0.11337457733114972
-1.9206306974763998   -0.02085345122640958   0.11337457733114972
-1.9206306974763998   -0.02085345122640958   0.11337457733114972
-1.9206306974763998   -0.02085345122640958   0.11337457733114972
-1.3051533820768209   -0.00571367863427924   -0.03511330889971247
-1.3051533820768209   -0.00571367863427924   -0.03511330889971247
-1.3051533820768209   -0.00571367863427924   -0.03511330889971247
-1.3051533820768209   -0.00571367863427924   -0.03511330889971247
-1.253714311659482   0.1312291016886532   0.07868916752877424
-1.253714311659482   0.1312291016886532   0.07868916752877424
-1.253714311659482   0.1312291016886532   0.07868916752877424
-1.253714311659482   0.1312291016886532   0.07868916752877424
-1.9450006477182535   -0.11798370738782271   -0.05648762628668251
-1.9450006477182535   -0.11798370738782271   -0.05648762628668251
-1.9450006477182535   -0.11798370738782271   -0.05648762628668251
-1.9450006477182535   -0.11798370738782271   -0.05648762628668251
-1.5639854586033015   0.005739062663173977   0.018040254606786377
-1.5639854586033015   0.005739062663173977   0.018040254606786377
-1.5639854586033015   0.005739062663173977   0.018040254606786377
-1.5639854586033015   0.005739062663173977   0.018040254606786377
-1.8938186578417802   0.0031317684066761164   0.07830684730118724
-1.8938186578417802   0.0031317684066761164   0.07830684730118724
-1.8938186578417802   0.0031317684066761164   0.07830684730118724
-1.8938186578417802   0.0031317684066761164   0.07830684730118724
-1.3020431377749169   0.012966789655197208   -0.04469265101493519
-1.3020431377749169   0.012966789655197208   -0.04469265101493519
-1.3020431377749169   0.012966789655197208   -0.04469265101493519
-1.3020431377749169   0.012966789655197208   -0.04469265101493519
-1.2549265290485783   0.14811104332643132   0.062436986867305644
-1.2549265290485783   0.14811104332643132   0.062436986867305644
-1.2549265290485783   0.14811104332643132   0.062436986867305644
-1.2549265290485783   0.14811104332643132   0.062436986867305644
-1.9052908045026118   -0.09349822538430874   -0.07203751632701133
-1.9052908045026118   -0.09349822538430874   -0.07203751632701133
-1.9052908045026118   -0.09349822538430874   -0.07203751632701133
-1.9052908045026118   -0.09349822538430874   -0.07203751632701133
-1.5190400239885355   0.032487325556507574   0.03751468887827811
-1.5190400239885355   0.032487325556507574   0.03751468887827811
-1.5190400239885355   0.032487325556507574   0.03751468887827811
-1.5190400239885355   0.032487325556507574   0.03751468887827811
-1.3098204651828422   -0.12417153730007435   0.028697603459614196
-1.3098204651828422   -0.12417153730007435   0.028697603459614196
-1.3098204651828422   -0.12417153730007435   0.028697603459614196
-1.3098204651828422   -0.12417153730007435   0.028697603459614196
-0.6613806050585604   -0.023891926464935542   0.0012720231453701575
-0.6613806050585604   -0.023891926464935542   0.0012720231453701575
-0.6613806050585604   -0.023891926464935542   0.0012720231453701575
-0.6613806050585604   -0.023891926464935542   0.0012720231453701575
-0.6426296897893218   0.06498954063624471   0.046136019111405545
-0.6426296897893218   0.06498954063624471   0.046136019111405545
-0.6426296897893218   0.06498954063624471   0.046136019111405545
-0.6426296897893218   0.06498954063624471   0.046136019111405545
-1.330649098478383   -0.12245516741758561   -0.045850402124216316
-1.330649098478383   -0.12245516741758561   -0.045850402124216316
-1.330649098478383   -0.12245516741758561   -0.045850402124216316
-1.330649098478383   -0.12245516741758561   -0.045850402124216316
-0.9826143182221814   -0.04821850984014586   -0.019898081717185934
-0.9826143182221814   -0.04821850984014586   -0.019898081717185934
-0.9826143182221814   -0.04821850984014586   -0.019898081717185934
-0.9826143182221814   -0.04821850984014586   -0.019898081717185934
-1.3056881816625878   -0.07129129887771365   0.02779031341487969
-1.3056881816625878   -0.07129129887771365   0.02779031341487969
-1.3056881816625878   -0.07129129887771365   0.02779031341487969
-1.3056881816625878   -0.07129129887771365   0.02779031341487969
-0.6625313307046743   0.018884947996815032   -0.0072675928259216815
-0.6625313307046743   0.018884947996815032   -0.0072675928259216815
-0.6625313307046743   0.018884947996815032   -0.0072675928259216815
-0.6625313307046743   0.018884947996815032   -0.0072675928259216815
-0.6405874626354698   0.10738823021726607   0.03991653205335033
-0.6405874626354698   0.10738823021726607   0.03991653205335033
-0.6405874626354698   0.10738823021726607   0.03991653205335033
-0.6405874626354698   0.10738823021726607   0.03991653205335033
-1.3231011831353918   -0.08287996231462572   -0.05413612584749592
-1.3231011831353918   -0.08287996231462572   -0.05413612584749592
-1.3231011831353918   -0.08287996231462572   -0.05413612584749592
-1.3231011831353918   -0.08287996231462572   -0.05413612584749592
-0.9718799325042261   -0.005319845985776034   -6.477518192522097e-05
-0.9718799325042261   -0.005319845985776034   -6.477518192522097e-05
-0.9718799325042261   -0.005319845985776034   -6.477518192522097e-05
-0.9718799325042261   -0.005319845985776034   -6.477518192522097e-05
-1.297630378240679   -0.02828006004346456   0.018617996354906324
-1.297630378240679   -0.02828006004346456   0.018617996354906324
-1.297630378240679   -0.02828006004346456   0.018617996354906324
-1.297630378240679   -0.02828006004346456   0.018617996354906324
-0.6619385697261329   0.05690802575015558   -0.016358798932848327
-0.6619385697261329   0.05690802575015558   -0.016358798932848327
-0.6619385697261329   0.05690802575015558   -0.016358798932848327
-0.6619385697261329   0.05690802575015558   -0.016358798932848327
-0.6403908640616925   0.1519422322266443   0.029910491897769703
-0.6403908640616925   0.1519422322266443   0.029910491897769703
-0.6403908640616925   0.1519422322266443   0.029910491897769703
-0.6403908640616925   0.1519422322266443   0.029910491897769703
-1.3167228331128231   -0.04017628509494808   -0.05825720503254589
-1.3167228331128231   -0.04017628509494808   -0.05825720503254589
-1.3167228331128231   -0.04017628509494808   -0.05825720503254589
-1.3167228331128231   -0.04017628509494808   -0.05825720503254589
-0.9725039816391183   0.03401998348315444   0.01509383693217424
-0.9725039816391183   0.03401998348315444   0.01509383693217424
-0.9725039816391183   0.03401998348315444   0.01509383693217424
-0.9725039816391183   0.03401998348315444   0.01509383693217424
-0.686024994777224   -0.1419174182495534   -0.00392443366333451
-0.686024994777224   -0.1419174182495534   -0.00392443366333451
-0.686024994777224   -0.1419174182495534   -0.00392443366333451
-0.686024994777224   -0.1419174182495534   -0.00392443366333451
-0.02283113562475158   0.007048155874439943   0.029296867194779697
-0.02283113562475158   0.007048155874439943   0.029296867194779697
-0.02283113562475158   0.007048155874439943   0.029296867194779697
-0.02283113562475158   0.007048155874439943   0.029296867194779697
-0.025333562971623737   0.04193202579005627   0.014000966324222014
-0.025333562971623737   0.04193202579005627   0.014000966324222014
-0.025333562971623737   0.04193202579005627   0.014000966324222014
-0.025333562971623737   0.04193202579005627   0.014000966324222014
-0.686479099362129   -0.09096016474502938   -0.017161323371362322
-0.686479099362129   -0.09096016474502938   -0.017161323371362322
-0.686479099362129   -0.09096016474502938   -0.017161323371362322
-0.686479099362129   -0.09096016474502938   -0.017161323371362322
-0.35625619049738755   -0.044483119562822325   -0.011135064432111366
-0.35625619049738755   -0.044483119562822325   -0.011135064432111366
-0.35625619049738755   -0.044483119562822325   -0.011135064432111366
-0.35625619049738755   -0.044483119562822325   -0.011135064432111366
-0.6857400786941332   -0.09486228964547619   -0.009564095130930783
-0.6857400786941332   -0.09486228964547619   -0.009564095130930783
-0.6857400786941332   -0.09486228964547619   -0.009564095130930783
-0.6857400786941332   -0.09486228964547619   -0.009564095130930783
-0.022300907915241773   0.04960582641488178   0.02149044098130634
-0.022300907915241773   0.04960582641488178   0.02149044098130634
-0.022300907915241773   0.04960582641488178   0.02149044098130634
-0.022300907915241773   0.04960582641488178   0.02149044098130634
-0.022197381601454406   0.08812474211982589   0.006719303425363973
-0.022197381601454406   0.08812474211982589   0.006719303425363973
-0.022197381601454406   0.08812474211982589   0.006719303425363973
-0.022197381601454406   0.08812474211982589   0.006719303425363973
-0.6847451569353422   -0.048330301297772646   -0.025153407930972798
-0.6847451569353422   -0.048330301297772646   -0.025153407930972798
-0.6847451569353422   -0.048330301297772646   -0.025153407930972798
-0.6847451569353422   -0.048330301297772646   -0.025153407930972798
-0.3527889518062693   -0.0017702981521717925   0.004889963892124486
-0.3527889518062693   -0.0017702981521717925   0.004889963892124486
-0.3527889518062693   -0.0017702981521717925   0.004889963892124486
-0.3527889518062693   -0.0017702981521717925   0.004889963892124486
-0.683714745649597   -0.049324101612399404   -0.019007551187619928
-0.683714745649597   -0.049324101612399404   -0.019007551187619928
-0.683714745649597   -0.049324101612399404   -0.019007551187619928
-0.683714745649597   -0.049324101612399404   -0.019007551187619928
-0.020113430201677912   0.09223290511997183   0.013030897424100513
-0.020113430201677912   0.09223290511997183   0.013030897424100513
-0.020113430201677912   0.09223290511997183   0.013030897424100513
-0.020113430201677912   0.09223290511997183   0.013030897424100513
-0.02152485111439037   0.13569861700053834   -0.0010501550762072528
-0.02152485111439037   0.13569861700053834   -0.0010501550762072528
-0.02152485111439037   0.13569861700053834   -0.0010501550762072528
-0.02152485111439037   0.13569861700053834   -0.0010501550762072528
-0.6844019588475865   -0.004974723248235363   -0.03322802655681723
-0.6844019588475865   -0.004974723248235363   -0.03322802655681723
-0.6844019588475865   -0.004974723248235363   -0.03322802655681723
-0.6844019588475865   -0.004974723248235363   -0.03322802655681723
-0.35009460149903815   0.04098307722028757   0.01958536186200339
-0.35009460149903815   0.04098307722028757   0.01958536186200339
-0.35009460149903815   0.04098307722028757   0.01958536186200339
-0.35009460149903815   0.04098307722028757   0.01958536186200339
-0.06797713852342478   -0.15539236456666386   -0.03399262685748222
-0.06797713852342478   -0.15539236456666386   -0.03399262685748222
-0.06797713852342478   -0.15539236456666386   -0.03399262685748222
-0.06797713852342478   -0.15539236456666386   -0.03399262685748222
0.6133106911953484   0.04326655537359066   0.055696462189640986
0.6133106911953484   0.04326655537359066   0.055696462189640986
0.6133106911953484   0.04326655537359066   0.055696462189640986
0.6133106911953484   0.04326655537359066   0.055696462189640986
0.5932493497830097   0.022985232354363297   -0.02195157637384798
0.5932493497830097   0.022985232354363297   -0.02195157637384798
0.5932493497830097   0.022985232354363297   -0.02195157637384798
0.5932493497830097   0.022985232354363297   -0.02195157637384798
-0.045506049496083736   -0.05690141146137248   0.011971970953350779
-0.045506049496083736   -0.05690141146137248   0.011971970953350779
-0.045506049496083736   -0.05690141146137248   0.011971970953350779
-0.045506049496083736   -0.05690141146137248   0.011971970953350779
0.269400124951028   -0.03595423567732259   -0.0062805556448222895
0.269400124951028   -0.03595423567732259   -0.0062805556448222895
0.269400124951028   -0.03595423567732259   -0.0062805556448222895
0.269400124951028   -0.03595423567732259   -0.0062805556448222895
-0.06772809349547149   -0.11335656093962952   -0.04268309956533091
-0.06772809349547149   -0.11335656093962952   -0.04268309956533091
-0.06772809349547149   -0.11335656093962952   -0.04268309956533091
-0.06772809349547149   -0.11335656093962952   -0.04268309956533091
0.6197610316875014   0.08373001973772104   0.04986204576524868
0.6197610316875014   0.08373001973772104   0.04986204576524868
0.6197610316875014   0.08373001973772104   0.04986204576524868
0.6197610316875014   0.08373001973772104   0.04986204576524868
0.602842721913549   0.06595837261055215   -0.03083881259706983
0.602842721913549   0.06595837261055215   -0.03083881259706983
0.602842721913549   0.06595837261055215   -0.03083881259706983
0.602842721913549   0.06595837261055215   -0.03083881259706983
-0.04421882902145328   -0.018707402526576104   0.0034442109717720834
-0.04421882902145328   -0.018707402526576104   0.0034442109717720834
-0.04421882902145328   -0.018707402526576104   0.0034442109717720834
-0.04421882902145328   -0.018707402526576104   0.0034442109717720834
0.27176684115863914   0.0026836717231705012   0.00964171730598577
0.27176684115863914   0.0026836717231705012   0.00964171730598577
0.27176684115863914   0.0026836717231705012   0.00964171730598577
0.27176684115863914   0.0026836717231705012   0.00964171730598577
-0.06583113343004154   -0.07189464888191767   -0.05143006471582831
-0.06583113343004154   -0.07189464888191767   -0.05143006471582831
-0.06583113343004154   -0.07189464888191767   -0.05143006471582831
-0.06583113343004154   -0.07189464888191767   -0.05143006471582831
0.6291296616991632   0.1238202543429185   0.042734004598628604
0.6291296616991632   0.1238202543429185   0.042734004598628604
0.6291296616991632   0.1238202543429185   0.042734004598628604
0.6291296616991632   0.1238202543429185   0.042734004598628604
0.6087540269029419   0.11985090325716541   -0.032189015123022593
0.6087540269029419   0.11985090325716541   -0.032189015123022593
0.6087540269029419   0.11985090325716541   -0.032189015123022593
0.6087540269029419   0.11985090325716541   -0.032189015123022593
-0.04428063301759681   0.02593223047614747   -0.005062678067848138
-0.04428063301759681   0.02593223047614747   -0.005062678067848138
-0.04428063301759681   0.02593223047614747   -0.005062678067848138
-0.04428063301759681   0.02593223047614747   -0.005062678067848138
0.28115821620465015   0.04577480779337359   0.028552563207872358
0.28115821620465015   0.04577480779337359   0.028552563207872358
0.28115821620465015   0.04577480779337359   0.028552563207872358
0.28115821620465015   0.04577480779337359   0.028552563207872358
0.5494266988720973   -0.15428649252176324   -0.06617045153125578
0.5494266988720973   -0.15428649252176324   -0.06617045153125578
0.5494266988720973   -0.15428649252176324   -0.06617045153125578
0.5494266988720973   -0.15428649252176324   -0.06617045153125578
1.2078773036458175   0.08974030661636315   0.06191851260748165
1.2078773036458175   0.08974030661636315   0.06191851260748165
1.2078773036458175   0.08974030661636315   0.06191851260748165
1.2078773036458175   0.08974030661636315   0.06191851260748165
1.1984587971449594   -0.0055953348580648765   -0.08807563201854617
1.1984587971449594   -0.0055953348580648765   -0.08807563201854617
1.1984587971449594   -0.0055953348580648765   -0.08807563201854617
1.1984587971449594   -0.0055953348580648765   -0.08807563201854617
0.5987706913094288   -0.01291232293760633   0.04155268655021767
0.5987706913094288   -0.01291232293760633   0.04155268655021767
0.5987706913094288   -0.01291232293760633   0.04155268655021767
0.5987706913094288   -0.01291232293760633   0.04155268655021767
0.8454990114371256   -0.03007599814368367   -0.027724397291255656
0.8454990114371256   -0.03007599814368367   -0.027724397291255656
0.8454990114371256   -0.03007599814368367   -0.027724397291255656
0.8454990114371256   -0.03007599814368367   -0.027724397291255656
0.5499720763784406   -0.13395674568010396   -0.08139596536222275
0.5499720763784406   -0.13395674568010396   -0.08139596536222275
0.5499720763784406   -0.13395674568010396   -0.08139596536222275
0.5499720763784406   -0.13395674568010396   -0.08139596536222275
1.2507637799718394   0.11895545578032496   0.04889849147746364
1.2507637799718394   0.11895545578032496   0.04889849147746364
1.2507637799718394   0.11895545578032496   0.04889849147746364
1.2507637799718394   0.11895545578032496   0.04889849147746364
1.2278159593114457   0.018915911535431013   -0.11812287931717927
1.2278159593114457   0.018915911535431013   -0.11812287931717927
1.2278159593114457   0.018915911535431013   -0.11812287931717927
1.2278159593114457   0.018915911535431013   -0.11812287931717927
0.6031667134923634   0.005785283107401673   0.030954234800157576
0.6031667134923634   0.005785283107401673   0.030954234800157576
0.6031667134923634   0.005785283107401673   0.030954234800157576
0.6031667134923634   0.005785283107401673   0.030954234800157576
0.8837351544119529   -0.0035812970549949363   -0.008466766265946522
0.8837351544119529   -0.0035812970549949363   -0.008466766265946522
0.8837351544119529   -0.0035812970549949363   -0.008466766265946522
0.8837351544119529   -0.0035812970549949363   -0.008466766265946522
0.5562062594513735   -0.10949500252718887   -0.08856774977020673
0.5562062594513735   -0.10949500252718887   -0.08856774977020673
0.5562062594513735   -0.10949500252718887   -0.08856774977020673
0.5562062594513735   -0.10949500252718887   -0.08856774977020673
1.2825210079681093   0.14194079178569372   0.03237748371588733
1.2825210079681093   0.14194079178569372   0.03237748371588733
1.2825210079681093   0.14194079178569372   0.03237748371588733
1.2825210079681093   0.14194079178569372   0.03237748371588733
1.2744326024606378   0.08269098590353738   -0.11109535395863246
1.2744326024606378   0.08269098590353738   -0.11109535395863246
1.2744326024606378   0.08269098590353738   -0.11109535395863246
1.2744326024606378   0.08269098590353738   -0.11109535395863246
0.6051628619605254   0.047107891366455074   0.022598172055608337
0.6051628619605254   0.047107891366455074   0.022598172055608337
0.6051628619605254   0.047107891366455074   0.022598172055608337
0.6051628619605254   0.047107891366455074   0.022598172055608337
0.8902409783826821   0.026721679473457494   0.012835264142106527
0.8902409783826821   0.026721679473457494   0.012835264142106527
0.8902409783826821   0.026721679473457494   0.012835264142106527
0.8902409783826821   0.026721679473457494   0.012835264142106527
-1.405947012409643   -0.04598024698981379   0.09168500855297464
-1.405947012409643   -0.04598024698981379   0.09168500855297464
-1.405947012409643   -0.04598024698981379   0.09168500855297464
-1.405947012409643   -0.04598024698981379   0.09168500855297464
-0.9835159333761762   -0.06565136742408301   -0.034639243085017674
-0.9835159333761762   -0.06565136742408301   -0.034639243085017674
-0.9835159333761762   -0.06565136742408301   -0.034639243085017674
-0.9835159333761762   -0.06565136742408301   -0.034639243085017674
-0.9257496137570819   0.09282691923992009   0.07818591215154504
-0.9257496137570819   0.09282691923992009   0.07818591215154504
-0.9257496137570819   0.09282691923992009   0.07818591215154504
-0.9257496137570819   0.09282691923992009   0.07818591215154504
-1.4060585373800005   -0.11572600884383966   -0.05066669157245757
-1.4060585373800005   -0.11572600884383966   -0.05066669157245757
-1.4060585373800005   -0.11572600884383966   -0.05066669157245757
-1.4060585373800005   -0.11572600884383966   -0.05066669157245757
-1.1319530786172658   -0.018050962858076197   -0.002458179233256065
-1.1319530786172658   -0.018050962858076197   -0.002458179233256065
-1.1319530786172658   -0.018050962858076197   -0.002458179233256065
-1.1319530786172658   -0.018050962858076197   -0.002458179233256065
-1.3535197458031678   0.009079968244972647   0.08722128922289375
-1.3535197458031678   0.009079968244972647   0.08722128922289375
-1.3535197458031678   0.009079968244972647   0.08722128922289375
-1.3535197458031678   0.009079968244972647   0.08722128922289375
-0.9740147703600666   -0.027705422875042324   -0.04260752874840493
-0.9740147703600666   -0.027705422875042324   -0.04260752874840493
-0.9740147703600666   -0.027705422875042324   -0.04260752874840493
-0.9740147703600666   -0.027705422875042324   -0.04260752874840493
-0.9170328471372524   0.11212300494658903   0.06607813480437487
-0.9170328471372524   0.11212300494658903   0.06607813480437487
-0.9170328471372524   0.11212300494658903   0.06607813480437487
-0.9170328471372524   0.11212300494658903   0.06607813480437487
-1.372805911578546   -0.09421802791543032   -0.0640569894731608
-1.372805911578546   -0.09421802791543032   -0.0640569894731608
-1.372805911578546   -0.09421802791543032   -0.0640569894731608
-1.372805911578546   -0.09421802791543032   -0.0640569894731608
-1.1240594171004943   0.007402502721990167   0.01190378913904272
-1.1240594171004943   0.007402502721990167   0.01190378913904272
-1.1240594171004943   0.007402502721990167   0.01190378913904272
-1.1240594171004943   0.007402502721990167   0.01190378913904272
-1.3207137209277149   0.03217365866727867   0.07001227719828552
-1.3207137209277149   0.03217365866727867   0.07001227719828552
-1.3207137209277149   0.03217365866727867   0.07001227719828552
-1.3207137209277149   0.03217365866727867   0.07001227719828552
-0.9652606728996614   -0.010404316747698678   -0.05253367231337163
-0.9652606728996614   -0.010404316747698678   -0.05253367231337163
-0.9652606728996614   -0.010404316747698678   -0.05253367231337163
-0.9652606728996614   -0.010404316747698678   -0.05253367231337163
-0.9122054658297778   0.13089859448361224   0.05686124433977521
-0.9122054658297778   0.13089859448361224   0.05686124433977521
-0.9122054658297778   0.13089859448361224   0.05686124433977521
-0.9122054658297778   0.13089859448361224   0.05686124433977521
-1.3282611253513392   -0.06578918807202966   -0.07669804294337358
-1.3282611253513392   -0.06578918807202966   -0.07669804294337358
-1.3282611253513392   -0.06578918807202966   -0.07669804294337358
-1.3282611253513392   -0.06578918807202966   -0.07669804294337358
-1.081892599208212   0.031244524536713725   0.0320614138796087
-1.081892599208212   0.031244524536713725   0.0320614138796087
-1.081892599208212   0.031244524536713725   0.0320614138796087
-1.081892599208212   0.031244524536713725   0.0320614138796087
-0.9724808344790946   -0.07949116681904975   0.03437605079534852
-0.9724808344790946   -0.07949116681904975   0.03437605079534852
-0.9724808344790946   -0.07949116681904975   0.03437605079534852
-0.9724808344790946   -0.07949116681904975   0.03437605079534852
-0.5637452901139974   -0.04254211774256368   -0.005589995448975055
-0.5637452901139974   -0.04254211774256368   -0.005589995448975055
-0.5637452901139974   -0.04254211774256368   -0.005589995448975055
-0.5637452901139974   -0.04254211774256368   -0.005589995448975055
-0.5351050409772653   0.054255029956671294   0.042156527245950565
-0.5351050409772653   0.054255029956671294   0.042156527245950565
-0.5351050409772653   0.054255029956671294   0.042156527245950565
-0.5351050409772653   0.054255029956671294   0.042156527245950565
-0.9870982607285431   -0.09458747366263794   -0.04114292980320282
-0.9870982607285431   -0.09458747366263794   -0.04114292980320282
-0.9870982607285431   -0.09458747366263794   -0.04114292980320282
-0.9870982607285431   -0.09458747366263794   -0.04114292980320282
-0.7615267294070588   -0.03714491319656241   -0.015532347466462919
-0.7615267294070588   -0.03714491319656241   -0.015532347466462919
-0.7615267294070588   -0.03714491319656241   -0.015532347466462919
-0.7615267294070588   -0.03714491319656241   -0.015532347466462919
-0.9610844122766828   -0.033753651661425105   0.028092490454885988
-0.9610844122766828   -0.033753651661425105   0.028092490454885988
-0.9610844122766828   -0.033753651661425105   0.028092490454885988
-0.9610844122766828   -0.033753651661425105   0.028092490454885988
-0.5577823695542006   -0.0032422721696165474   -0.013732813512438217
-0.5577823695542006   -0.0032422721696165474   -0.013732813512438217
-0.5577823695542006   -0.0032422721696165474   -0.013732813512438217
-0.5577823695542006   -0.0032422721696165474   -0.013732813512438217
-0.5282984197641195   0.09382105779343032   0.03456621132151196
-0.5282984197641195   0.09382105779343032   0.03456621132151196
-0.5282984197641195   0.09382105779343032   0.03456621132151196
-0.5282984197641195   0.09382105779343032   0.03456621132151196
-0.9738165910065621   -0.05724230941074013   -0.048475270184844384
-0.9738165910065621   -0.05724230941074013   -0.048475270184844384
-0.9738165910065621   -0.05724230941074013   -0.048475270184844384
-0.9738165910065621   -0.05724230941074013   -0.048475270184844384
-0.7469048208653706   0.0017520002684855984   0.001177152709748927
-0.7469048208653706   0.0017520002684855984   0.001177152709748927
-0.7469048208653706   0.0017520002684855984   0.001177152709748927
-0.7469048208653706   0.0017520002684855984   0.001177152709748927
-0.945833939516339   0.008533205958158457   0.025662471897372217
-0.945833939516339   0.008533205958158457   0.025662471897372217
-0.945833939516339   0.008533205958158457   0.025662471897372217
-0.945833939516339   0.008533205958158457   0.025662471897372217
-0.5521376642354395   0.03218894944343573   -0.022997902685087633
-0.5521376642354395   0.03218894944343573   -0.022997902685087633
-0.5521376642354395   0.03218894944343573   -0.022997902685087633
-0.5521376642354395   0.03218894944343573   -0.022997902685087633
-0.5217221730551846   0.1359748572639103   0.02749784670409225
-0.5217221730551846   0.1359748572639103   0.02749784670409225
-0.5217221730551846   0.1359748572639103   0.02749784670409225
-0.5217221730551846   0.1359748572639103   0.02749784670409225
-0.9638732279579822   -0.017003043201785695   -0.05357592861585321
-0.9638732279579822   -0.017003043201785695   -0.05357592861585321
-0.9638732279579822   -0.017003043201785695   -0.05357592861585321
-0.9638732279579822   -0.017003043201785695   -0.05357592861585321
-0.7412429725229367   0.03834558994662707   0.017086372947891816
-0.7412429725229367   0.03834558994662707   0.017086372947891816
-0.7412429725229367   0.03834558994662707   0.017086372947891816
-0.7412429725229367   0.03834558994662707   0.017086372947891816
-0.575664980803403   -0.10910341660663389   0.0013728499680619854
-0.575664980803403   -0.10910341660663389   0.0013728499680619854
-0.575664980803403   -0.10910341660663389   0.0013728499680619854
-0.575664980803403   -0.10910341660663389   0.0013728499680619854
-0.14832222574902257   -0.012696738421245404   0.023474481107777043
-0.14832222574902257   -0.012696738421245404   0.023474481107777043
-0.14832222574902257   -0.012696738421245404   0.023474481107777043
-0.14832222574902257   -0.012696738421245404   0.023474481107777043
-0.14467440312079213   0.022434120501715796   0.008005406621026756
-0.14467440312079213   0.022434120501715796   0.008005406621026756
-0.14467440312079213   0.022434120501715796   0.008005406621026756
-0.14467440312079213   0.022434120501715796   0.008005406621026756
-0.5693498310222486   -0.06384159411682168   -0.010970798905476874
-0.5693498310222486   -0.06384159411682168   -0.010970798905476874
-0.5693498310222486   -0.06384159411682168   -0.010970798905476874
-0.5693498310222486   -0.06384159411682168   -0.010970798905476874
-0.3601150282186847   -0.0390596052383289   -0.01103718225413571
-0.3601150282186847   -0.0390596052383289   -0.01103718225413571
-0.3601150282186847   -0.0390596052383289   -0.01103718225413571
-0.3601150282186847   -0.0390596052383289   -0.01103718225413571
-0.5684221683760659   -0.06495944152651767   -0.005214638264866888
-0.5684221683760659   -0.06495944152651767   -0.005214638264866888
-0.5684221683760659   -0.06495944152651767   -0.005214638264866888
-0.5684221683760659   -0.06495944152651767   -0.005214638264866888
-0.14225716872048227   0.026896864957904432   0.01562883416638736
-0.14225716872048227   0.026896864957904432   0.01562883416638736
-0.14225716872048227   0.026896864957904432   0.01562883416638736
-0.14225716872048227   0.026896864957904432   0.01562883416638736
-0.13645557664226043   0.06677704660169118   0.0020937512732644853
-0.13645557664226043   0.06677704660169118   0.0020937512732644853
-0.13645557664226043   0.06677704660169118   0.0020937512732644853
-0.13645557664226043   0.06677704660169118   0.0020937512732644853
-0.5625365109789384   -0.02397333299640815   -0.018829853962744097
-0.5625365109789384   -0.02397333299640815   -0.018829853962744097
-0.5625365109789384   -0.02397333299640815   -0.018829853962744097
-0.5625365109789384   -0.02397333299640815   -0.018829853962744097
-0.351336853656791   0.0007918737293071826   0.0047095631354571905
-0.351336853656791   0.0007918737293071826   0.0047095631354571905
-0.351336853656791   0.0007918737293071826   0.0047095631354571905
-0.351336853656791   0.0007918737293071826   0.0047095631354571905
-0.5604463257807206   -0.02075858806188871   -0.011593672906174742
-0.5604463257807206   -0.02075858806188871   -0.011593672906174742
-0.5604463257807206   -0.02075858806188871   -0.011593672906174742
-0.5604463257807206   -0.02075858806188871   -0.011593672906174742
-0.13545745056439243   0.06665061294325753   0.007210815321038261
-0.13545745056439243   0.06665061294325753   0.007210815321038261
-0.13545745056439243   0.06665061294325753   0.007210815321038261
-0.13545745056439243   0.06665061294325753   0.007210815321038261
-0.12908378483136246   0.1117630895429205   -0.0048571366172466685
-0.12908378483136246   0.1117630895429205   -0.0048571366172466685
-0.12908378483136246   0.1117630895429205   -0.0048571366172466685
-0.12908378483136246   0.1117630895429205   -0.0048571366172466685
-0.5565547090005805   0.016357604806525317   -0.027047580565497907
-0.5565547090005805   0.016357604806525317   -0.027047580565497907
-0.5565547090005805   0.016357604806525317   -0.027047580565497907
-0.5565547090005805   0.016357604806525317   -0.027047580565497907
-0.34332205063298   0.04083433969800972   0.019879977230914107
-0.34332205063298   0.04083433969800972   0.019879977230914107
-0.34332205063298   0.04083433969800972   0.019879977230914107
-0.34332205063298   0.04083433969800972   0.019879977230914107
-0.18333125258441105   -0.1333788367653099   -0.030888554725102168
-0.18333125258441105   -0.1333788367653099   -0.030888554725102168
-0.18333125258441105   -0.1333788367653099   -0.030888554725102168
-0.18333125258441105   -0.1333788367653099   -0.030888554725102168
0.2616393426126381   0.020774382251302723   0.05090724535623537
0.2616393426126381   0.020774382251302723   0.05090724535623537
0.2616393426126381   0.020774382251302723   0.05090724535623537
0.2616393426126381   0.020774382251302723   0.05090724535623537
0.24344219993057528   -0.007179442910747083   -0.02836643572018121
0.24344219993057528   -0.007179442910747083   -0.02836643572018121
0.24344219993057528   -0.007179442910747083   -0.02836643572018121
0.24344219993057528   -0.007179442910747083   -0.02836643572018121
-0.15318862321404358   -0.030976768868780927   0.01884519552526497
-0.15318862321404358   -0.030976768868780927   0.01884519552526497
-0.15318862321404358   -0.030976768868780927   0.01884519552526497
-0.15318862321404358   -0.030976768868780927   0.01884519552526497
0.04048495224028989   -0.03664498806960725   -0.007854854511754826
0.04048495224028989   -0.03664498806960725   -0.007854854511754826
0.04048495224028989   -0.03664498806960725   -0.007854854511754826
0.04048495224028989   -0.03664498806960725   -0.007854854511754826
-0.17700399240355846   -0.09319756507646285   -0.0380108542146263
-0.17700399240355846   -0.09319756507646285   -0.0380108542146263
-0.17700399240355846   -0.09319756507646285   -0.0380108542146263
-0.17700399240355846   -0.09319756507646285   -0.0380108542146263
0.2712384525887585   0.05902223676560598   0.044413147894382075
0.2712384525887585   0.05902223676560598   0.044413147894382075
0.2712384525887585   0.05902223676560598   0.044413147894382075
0.2712384525887585   0.05902223676560598   0.044413147894382075
0.25872978073891867   0.034766078704939016   -0.03213699263102427
0.25872978073891867   0.034766078704939016   -0.03213699263102427
0.25872978073891867   0.034766078704939016   -0.03213699263102427
0.25872978073891867   0.034766078704939016   -0.03213699263102427
-0.14725725458071479   0.004677470149934727   0.010184938032747684
-0.14725725458071479   0.004677470149934727   0.010184938032747684
-0.14725725458071479   0.004677470149934727   0.010184938032747684
-0.14725725458071479   0.004677470149934727   0.010184938032747684
0.048613966507922664   -0.0005146568163940761   0.008162604836016036
0.048613966507922664   -0.0005146568163940761   0.008162604836016036
0.048613966507922664   -0.0005146568163940761   0.008162604836016036
0.048613966507922664   -0.0005146568163940761   0.008162604836016036
-0.17024011704033432   -0.053842402623157995   -0.04620950149225635
-0.17024011704033432   -0.053842402623157995   -0.04620950149225635
-0.17024011704033432   -0.053842402623157995   -0.04620950149225635
-0.17024011704033432   -0.053842402623157995   -0.04620950149225635
0.28516489348829643   0.0967382017677895   0.038066448053010266
0.28516489348829643   0.0967382017677895   0.038066448053010266
0.28516489348829643   0.0967382017677895   0.038066448053010266
0.28516489348829643   0.0967382017677895   0.038066448053010266
0.2710385292719969   0.0825822333297481   -0.037131826089438755
0.2710385292719969   0.0825822333297481   -0.037131826089438755
0.2710385292719969   0.0825822333297481   -0.037131826089438755
0.2710385292719969   0.0825822333297481   -0.037131826089438755
-0.1409176761409788   0.045789873967102865   0.001946622410489287
-0.1409176761409788   0.045789873967102865   0.001946622410489287
-0.1409176761409788   0.045789873967102865   0.001946622410489287
-0.1409176761409788   0.045789873967102865   0.001946622410489287
0.06118044505318526   0.03879959985524556   0.024752802400960137
0.06118044505318526   0.03879959985524556   0.024752802400960137
0.06118044505318526   0.03879959985524556   0.024752802400960137
0.06118044505318526   0.03879959985524556   0.024752802400960137
0.2081595068350214   -0.13477538793616767   -0.0609421633443761
0.2081595068350214   -0.13477538793616767   -0.0609421633443761
0.2081595068350214   -0.13477538793616767   -0.0609421633443761
0.2081595068350214   -0.13477538793616767   -0.0609421633443761
0.626159672727959   0.061711573251549565   0.06590336986282888
0.626159672727959   0.061711573251549565   0.06590336986282888
0.626159672727959   0.061711573251549565   0.06590336986282888
0.626159672727959   0.061711573251549565   0.06590336986282888
0.6199350880317457   -0.03303497840719548   -0.08022498752004481
0.6199350880317457   -0.03303497840719548   -0.08022498752004481
0.6199350880317457   -0.03303497840719548   -0.08022498752004481
0.6199350880317457   -0.03303497840719548   -0.08022498752004481
0.26261447394949256   0.011140080241927183   0.04917541122173116
0.26261447394949256   0.011140080241927183   0.04917541122173116
0.26261447394949256   0.011140080241927183   0.04917541122173116
0.26261447394949256   0.011140080241927183   0.04917541122173116
0.40684621845420677   -0.027849347600181706   -0.02146986255027595
0.40684621845420677   -0.027849347600181706   -0.02146986255027595
0.40684621845420677   -0.027849347600181706   -0.02146986255027595
0.40684621845420677   -0.027849347600181706   -0.02146986255027595
0.2139978721104753   -0.11227577302810487   -0.07049174470332135
0.2139978721104753   -0.11227577302810487   -0.07049174470332135
0.2139978721104753   -0.11227577302810487   -0.07049174470332135
0.2139978721104753   -0.11227577302810487   -0.07049174470332135
0.6726104865626708   0.09443967155474454   0.055677355172639956
0.6726104865626708   0.09443967155474454   0.055677355172639956
0.6726104865626708   0.09443967155474454   0.055677355172639956
0.6726104865626708   0.09443967155474454   0.055677355172639956
0.6537272396415417   -0.009534833512218219   -0.0962068744471049
0.6537272396415417   -0.009534833512218219   -0.0962068744471049
0.6537272396415417   -0.009534833512218219   -0.0962068744471049
0.6537272396415417   -0.009534833512218219   -0.0962068744471049
0.27154272276629315   0.028353534695012908   0.038340261515770385
0.27154272276629315   0.028353534695012908   0.038340261515770385
0.27154272276629315   0.028353534695012908   0.038340261515770385
0.27154272276629315   0.028353534695012908   0.038340261515770385
0.4410017384028218   -0.004158316265906861   -0.002594718248263385
0.4410017384028218   -0.004158316265906861   -0.002594718248263385
0.4410017384028218   -0.004158316265906861   -0.002594718248263385
0.4410017384028218   -0.004158316265906861   -0.002594718248263385
0.22331138025990277   -0.09272434480279833   -0.08173857151836647
0.22331138025990277   -0.09272434480279833   -0.08173857151836647
0.22331138025990277   -0.09272434480279833   -0.08173857151836647
0.22331138025990277   -0.09272434480279833   -0.08173857151836647
0.7061871564988609   0.1157716203365224   0.0407862559907501
0.7061871564988609   0.1157716203365224   0.0407862559907501
0.7061871564988609   0.1157716203365224   0.0407862559907501
0.7061871564988609   0.1157716203365224   0.0407862559907501
0.7056038936453253   0.04208087894909876   -0.10297792171598846
0.7056038936453253   0.04208087894909876   -0.10297792171598846
0.7056038936453253   0.04208087894909876   -0.10297792171598846
0.7056038936453253   0.04208087894909876   -0.10297792171598846
0.28068037107214383   0.0631980941873487   0.030461522053691577
0.28068037107214383   0.0631980941873487   0.030461522053691577
0.28068037107214383   0.0631980941873487   0.030461522053691577
0.28068037107214383   0.0631980941873487   0.030461522053691577
0.45800412742937224   0.021960977716486405   0.013641052185198815
0.45800412742937224   0.021960977716486405   0.013641052185198815
0.45800412742937224   0.021960977716486405   0.013641052185198815
0.45800412742937224   0.021960977716486405   0.013641052185198815
-0.8431176701584823   -0.014198468161893851   0.0822269900082345
-0.8431176701584823   -0.014198468161893851   0.0822269900082345
-0.8431176701584823   -0.014198468161893851   0.0822269900082345
-0.8431176701584823   -0.014198468161893851   0.0822269900082345
-0.6573700034382954   -0.0833911347688931   -0.040702549805166514
-0.6573700034382954   -0.0833911347688931   -0.040702549805166514
-0.6573700034382954   -0.0833911347688931   -0.040702549805166514
-0.6573700034382954   -0.0833911347688931   -0.040702549805166514
-0.5950471917772211   0.07067349409908916   0.07031947753940698
-0.5950471917772211   0.07067349409908916   0.07031947753940698
-0.5950471917772211   0.07067349409908916   0.07031947753940698
-0.5950471917772211   0.07067349409908916   0.07031947753940698
-0.8395427912600032   -0.09144251314596669   -0.055392204322403715
-0.8395427912600032   -0.09144251314596669   -0.055392204322403715
-0.8395427912600032   -0.09144251314596669   -0.055392204322403715
-0.8395427912600032   -0.09144251314596669   -0.055392204322403715
-0.7056729929588568   -0.019436693338155203   -0.010343640307186465
-0.7056729929588568   -0.019436693338155203   -0.010343640307186465
-0.7056729929588568   -0.019436693338155203   -0.010343640307186465
-0.7056729929588568   -0.019436693338155203   -0.010343640307186465
-0.7877045988036194   0.03379113845719811   0.0785651063563502
-0.7877045988036194   0.03379113845719811   0.0785651063563502
-0.7877045988036194   0.03379113845719811   0.0785651063563502
-0.7877045988036194   0.03379113845719811   0.0785651063563502
-0.6432863529613395   -0.050961126231808984   -0.049241708050278915
-0.6432863529613395   -0.050961126231808984   -0.049241708050278915
-0.6432863529613395   -0.050961126231808984   -0.049241708050278915
-0.6432863529613395   -0.050961126231808984   -0.049241708050278915
-0.5802694547672868   0.08899706784425246   0.05948203251400922
-0.5802694547672868   0.08899706784425246   0.05948203251400922
-0.5802694547672868   0.08899706784425246   0.05948203251400922
-0.5802694547672868   0.08899706784425246   0.05948203251400922
-0.8010238928348986   -0.07067923166703387   -0.06921580199756734
-0.8010238928348986   -0.07067923166703387   -0.06921580199756734
-0.8010238928348986   -0.07067923166703387   -0.06921580199756734
-0.8010238928348986   -0.07067923166703387   -0.06921580199756734
-0.6855375830553461   0.0045512596901730595   0.0049592885692621436
-0.6855375830553461   0.0045512596901730595   0.0049592885692621436
-0.6855375830553461   0.0045512596901730595   0.0049592885692621436
-0.6855375830553461   0.0045512596901730595   0.0049592885692621436
-0.7491424923254736   0.056023706338598406   0.06348826254392595
-0.7491424923254736   0.056023706338598406   0.06348826254392595
-0.7491424923254736   0.056023706338598406   0.06348826254392595
-0.7491424923254736   0.056023706338598406   0.06348826254392595
-0.6287431600538449   -0.034298174938512324   -0.05959125113601339
-0.6287431600538449   -0.034298174938512324   -0.05959125113601339
-0.6287431600538449   -0.034298174938512324   -0.05959125113601339
-0.6287431600538449   -0.034298174938512324   -0.05959125113601339
-0.568294949519531   0.1118038779431757   0.05130111130082935
-0.568294949519531   0.1118038779431757   0.05130111130082935
-0.568294949519531   0.1118038779431757   0.05130111130082935
-0.568294949519531   0.1118038779431757   0.05130111130082935
-0.7492726065567162   -0.03744082317009936   -0.08010456571647484
-0.7492726065567162   -0.03744082317009936   -0.08010456571647484
-0.7492726065567162   -0.03744082317009936   -0.08010456571647484
-0.7492726065567162   -0.03744082317009936   -0.08010456571647484
-0.644886218267015   0.02819573351564253   0.023952307693183746
-0.644886218267015   0.02819573351564253   0.023952307693183746
-0.644886218267015   0.02819573351564253   0.023952307693183746
-0.644886218267015   0.02819573351564253   0.023952307693183746
-0.634357197124686   -0.0477936922134241   0.03876403920741135
-0.634357197124686   -0.0477936922134241   0.03876403920741135
-0.634357197124686   -0.0477936922134241   0.03876403920741135
-0.634357197124686   -0.0477936922134241   0.03876403920741135
-0.4654683892918554   -0.06322956158860624   -0.01205242760437272
-0.4654683892918554   -0.06322956158860624   -0.01205242760437272
-0.4654683892918554   -0.06322956158860624   -0.01205242760437272
-0.4654683892918554   -0.06322956158860624   -0.01205242760437272
-0.430706500222154   0.03210906418215065   0.03594799891433573
-0.430706500222154   0.03210906418215065   0.03594799891433573
-0.430706500222154   0.03210906418215065   0.03594799891433573
-0.430706500222154   0.03210906418215065   0.03594799891433573
-0.6437068794890142   -0.06751147404910514   -0.03479399287135268
-0.6437068794890142   -0.06751147404910514   -0.03479399287135268
-0.6437068794890142   -0.06751147404910514   -0.03479399287135268
-0.6437068794890142   -0.06751147404910514   -0.03479399287135268
-0.5420523502693472   -0.03372519193625054   -0.014584843403542276
-0.5420523502693472   -0.03372519193625054   -0.014584843403542276
-0.5420523502693472   -0.03372519193625054   -0.014584843403542276
-0.5420523502693472   -0.03372519193625054   -0.014584843403542276
-0.6178294083548198   -0.005907282897627389   0.03298917164812663
-0.6178294083548198   -0.005907282897627389   0.03298917164812663
-0.6178294083548198   -0.005907282897627389   0.03298917164812663
-0.6178294083548198   -0.005907282897627389   0.03298917164812663
-0.4536811135503758   -0.026592269163364046   -0.020223734381254854
-0.4536811135503758   -0.026592269163364046   -0.020223734381254854
-0.4536811135503758   -0.026592269163364046   -0.020223734381254854
-0.4536811135503758   -0.026592269163364046   -0.020223734381254854
-0.4179618638311241   0.06937462341097543   0.028754666748295472
-0.4179618638311241   0.06937462341097543   0.028754666748295472
-0.4179618638311241   0.06937462341097543   0.028754666748295472
-0.4179618638311241   0.06937462341097543   0.028754666748295472
-0.6246307769358944   -0.03167428573828446   -0.04165322474648499
-0.6246307769358944   -0.03167428573828446   -0.04165322474648499
-0.6246307769358944   -0.03167428573828446   -0.04165322474648499
-0.6246307769358944   -0.03167428573828446   -0.04165322474648499
-0.5236316440848471   0.002215214805134466   0.0015125232323855604
-0.5236316440848471   0.002215214805134466   0.0015125232323855604
-0.5236316440848471   0.002215214805134466   0.0015125232323855604
-0.5236316440848471   0.002215214805134466   0.0015125232323855604
-0.5972349196978096   0.03374952835759057   0.029902247348056597
-0.5972349196978096   0.03374952835759057   0.029902247348056597
-0.5972349196978096   0.03374952835759057   0.029902247348056597
-0.5972349196978096   0.03374952835759057   0.029902247348056597
-0.4420064596286954   0.007302070755612053   -0.029395759584201417
-0.4420064596286954   0.007302070755612053   -0.029395759584201417
-0.4420064596286954   0.007302070755612053   -0.029395759584201417
-0.4420064596286954   0.007302070755612053   -0.029395759584201417
-0.4052581425232624   0.10981583537714694   0.021903378844090035
-0.4052581425232624   0.10981583537714694   0.021903378844090035
-0.4052581425232624   0.10981583537714694   0.021903378844090035
-0.4052581425232624   0.10981583537714694   0.021903378844090035
-0.6088773982744909   0.007459341051377549   -0.04726659558216462
-0.6088773982744909   0.007459341051377549   -0.04726659558216462
-0.6088773982744909   0.007459341051377549   -0.04726659558216462
-0.6088773982744909   0.007459341051377549   -0.04726659558216462
-0.5103078739620935   0.03743819447676523   0.017254143784181865
-0.5103078739620935   0.03743819447676523   0.017254143784181865
-0.5103078739620935   0.03743819447676523   0.017254143784181865
-0.5103078739620935   0.03743819447676523   0.017254143784181865
-0.46491879699547095   -0.07934812869525533   0.0068141009841911505
-0.46491879699547095   -0.07934812869525533   0.0068141009841911505
-0.46491879699547095   -0.07934812869525533   0.0068141009841911505
-0.46491879699547095   -0.07934812869525533   0.0068141009841911505
-0.27617589503601353   -0.033323152865631776   0.017087822703403886
-0.27617589503601353   -0.033323152865631776   0.017087822703403886
-0.27617589503601353   -0.033323152865631776   0.017087822703403886
-0.27617589503601353   -0.033323152865631776   0.017087822703403886
-0.26668249043910836   -0.0006725115086421499   0.002207273552280533
-0.26668249043910836   -0.0006725115086421499   0.002207273552280533
-0.26668249043910836   -0.0006725115086421499   0.002207273552280533
-0.26668249043910836   -0.0006725115086421499   0.002207273552280533
-0.4523643332198643   -0.036205331516509245   -0.004026770375555867
-0.4523643332198643   -0.036205331516509245   -0.004026770375555867
-0.4523643332198643   -0.036205331516509245   -0.004026770375555867
-0.4523643332198643   -0.036205331516509245   -0.004026770375555867
-0.3656155032113332   -0.03563947149914666   -0.01061892196411417
-0.3656155032113332   -0.03563947149914666   -0.01061892196411417
-0.3656155032113332   -0.03563947149914666   -0.01061892196411417
-0.3656155032113332   -0.03563947149914666   -0.01061892196411417
-0.45182694574020926   -0.03804324181506434   0.0004980773212704855
-0.45182694574020926   -0.03804324181506434   0.0004980773212704855
-0.45182694574020926   -0.03804324181506434   0.0004980773212704855
-0.45182694574020926   -0.03804324181506434   0.0004980773212704855
-0.2643332585764177   0.004052018132263156   0.0092289032248288
-0.2643332585764177   0.004052018132263156   0.0092289032248288
-0.2643332585764177   0.004052018132263156   0.0092289032248288
-0.2643332585764177   0.004052018132263156   0.0092289032248288
-0.252841423708197   0.04099810133931119   -0.0036677695548734644
-0.252841423708197   0.04099810133931119   -0.0036677695548734644
-0.252841423708197   0.04099810133931119   -0.0036677695548734644
-0.252841423708197   0.04099810133931119   -0.0036677695548734644
-0.4395967085228541   0.0017028885364156338   -0.011747821835794568
-0.4395967085228541   0.0017028885364156338   -0.011747821835794568
-0.4395967085228541   0.0017028885364156338   -0.011747821835794568
-0.4395967085228541   0.0017028885364156338   -0.011747821835794568
-0.3510169992455964   0.0018284774257290998   0.004990283430224913
-0.3510169992455964   0.0018284774257290998   0.004990283430224913
-0.3510169992455964   0.0018284774257290998   0.004990283430224913
-0.3510169992455964   0.0018284774257290998   0.004990283430224913
-0.4380719742185182   0.003501077327236063   -0.005922339104943299
-0.4380719742185182   0.003501077327236063   -0.005922339104943299
-0.4380719742185182   0.003501077327236063   -0.005922339104943299
-0.4380719742185182   0.003501077327236063   -0.005922339104943299
-0.25175575557936636   0.041810314981658575   0.0009483574469323804
-0.25175575557936636   0.041810314981658575   0.0009483574469323804
-0.25175575557936636   0.041810314981658575   0.0009483574469323804
-0.25175575557936636   0.041810314981658575   0.0009483574469323804
-0.23976846273477917   0.08305007107546566   -0.010371495486597458
-0.23976846273477917   0.08305007107546566   -0.010371495486597458
-0.23976846273477917   0.08305007107546566   -0.010371495486597458
-0.23976846273477917   0.08305007107546566   -0.010371495486597458
-0.42762091646980865   0.03990367466004556   -0.01999833017153814
-0.42762091646980865   0.03990367466004556   -0.01999833017153814
-0.42762091646980865   0.03990367466004556   -0.01999833017153814
-0.42762091646980865   0.03990367466004556   -0.01999833017153814
-0.33720717279257395   0.03943087719942233   0.019971453055263926
-0.33720717279257395   0.03943087719942233   0.019971453055263926
-0.33720717279257395   0.03943087719942233   0.019971453055263926
-0.33720717279257395   0.03943087719942233   0.019971453055263926
-0.29938110483747393   -0.10671952678655888   -0.025541852382975926
-0.29938110483747393   -0.10671952678655888   -0.025541852382975926
-0.29938110483747393   -0.10671952678655888   -0.025541852382975926
-0.29938110483747393   -0.10671952678655888   -0.025541852382975926
-0.09215284703330898   -0.0015686004170501824   0.044806830271666584
-0.09215284703330898   -0.0015686004170501824   0.044806830271666584
-0.09215284703330898   -0.0015686004170501824   0.044806830271666584
-0.09215284703330898   -0.0015686004170501824   0.044806830271666584
-0.10483088740509024   -0.03164853774120245   -0.03287138464581134
-0.10483088740509024   -0.03164853774120245   -0.03287138464581134
-0.10483088740509024   -0.03164853774120245   -0.03287138464581134
-0.10483088740509024   -0.03164853774120245   -0.03287138464581134
-0.26267720060683886   -0.004075817464484537   0.025637028669468265
-0.26267720060683886   -0.004075817464484537   0.025637028669468265
-0.26267720060683886   -0.004075817464484537   0.025637028669468265
-0.26267720060683886   -0.004075817464484537   0.025637028669468265
-0.1897321295794038   -0.03443141535161072   -0.00766273513560863
-0.1897321295794038   -0.03443141535161072   -0.00766273513560863
-0.1897321295794038   -0.03443141535161072   -0.00766273513560863
-0.1897321295794038   -0.03443141535161072   -0.00766273513560863
-0.28704582216762775   -0.06797802257028356   -0.032303874028679326
-0.28704582216762775   -0.06797802257028356   -0.032303874028679326
-0.28704582216762775   -0.06797802257028356   -0.032303874028679326
-0.28704582216762775   -0.06797802257028356   -0.032303874028679326
-0.07722754843837785   0.03548838477051461   0.03800838767603362
-0.07722754843837785   0.03548838477051461   0.03800838767603362
-0.07722754843837785   0.03548838477051461   0.03800838767603362
-0.07722754843837785   0.03548838477051461   0.03800838767603362
-0.08459999064563797   0.007770976780496739   -0.03700479274951907
-0.08459999064563797   0.007770976780496739   -0.03700479274951907
-0.08459999064563797   0.007770976780496739   -0.03700479274951907
-0.08459999064563797   0.007770976780496739   -0.03700479274951907
-0.2508952772790914   0.029962473393435655   0.017098590536527788
-0.2508952772790914   0.029962473393435655   0.017098590536527788
-0.2508952772790914   0.029962473393435655   0.017098590536527788
-0.2508952772790914   0.029962473393435655   0.017098590536527788
-0.17420677138446958   0.00046160166770199684   0.008243431237904903
-0.17420677138446958   0.00046160166770199684   0.008243431237904903
-0.17420677138446958   0.00046160166770199684   0.008243431237904903
-0.17420677138446958   0.00046160166770199684   0.008243431237904903
-0.27449051220987236   -0.03082432593936267   -0.04009078478458176
-0.27449051220987236   -0.03082432593936267   -0.04009078478458176
-0.27449051220987236   -0.03082432593936267   -0.04009078478458176
-0.27449051220987236   -0.03082432593936267   -0.04009078478458176
-0.057993696837323305   0.0715688349908286   0.03222881808172437
-0.057993696837323305   0.0715688349908286   0.03222881808172437
-0.057993696837323305   0.0715688349908286   0.03222881808172437
-0.057993696837323305   0.0715688349908286   0.03222881808172437
-0.0674863632484945   0.05179637847283086   -0.041452167953339655
-0.0674863632484945   0.05179637847283086   -0.041452167953339655
-0.0674863632484945   0.05179637847283086   -0.041452167953339655
-0.0674863632484945   0.05179637847283086   -0.041452167953339655
-0.2388338656022498   0.06848407400457764   0.008867487246939497
-0.2388338656022498   0.06848407400457764   0.008867487246939497
-0.2388338656022498   0.06848407400457764   0.008867487246939497
-0.2388338656022498   0.06848407400457764   0.008867487246939497
-0.15813150095308617   0.036842341722862715   0.02415453931477433
-0.15813150095308617   0.036842341722862715   0.02415453931477433
-0.15813150095308617   0.036842341722862715   0.02415453931477433
-0.15813150095308617   0.036842341722862715   0.02415453931477433
-0.13485514080558117   -0.11477225935756385   -0.055500979649182575
-0.13485514080558117   -0.11477225935756385   -0.055500979649182575
-0.13485514080558117   -0.11477225935756385   -0.055500979649182575
-0.13485514080558117   -0.11477225935756385   -0.055500979649182575
0.04699307609873067   0.03400850359987695   0.06829768078484319
0.04699307609873067   0.03400850359987695   0.06829768078484319
0.04699307609873067   0.03400850359987695   0.06829768078484319
0.04699307609873067   0.03400850359987695   0.06829768078484319
0.047360262083039506   -0.05644334349895807   -0.07348749561625734
0.047360262083039506   -0.05644334349895807   -0.07348749561625734
0.047360262083039506   -0.05644334349895807   -0.07348749561625734
0.047360262083039506   -0.05644334349895807   -0.07348749561625734
-0.07366727783401192   0.03540038439453484   0.05589774107384301
-0.07366727783401192   0.03540038439453484   0.05589774107384301
-0.07366727783401192   0.03540038439453484   0.05589774107384301
-0.07366727783401192   0.03540038439453484   0.05589774107384301
-0.030080268969570473   -0.024339496490458083   -0.013006843628901468
-0.030080268969570473   -0.024339496490458083   -0.013006843628901468
-0.030080268969570473   -0.024339496490458083   -0.013006843628901468
-0.030080268969570473   -0.024339496490458083   -0.013006843628901468
-0.1223790273554314   -0.08845485557595423   -0.06380576656276718
-0.1223790273554314   -0.08845485557595423   -0.06380576656276718
-0.1223790273554314   -0.08845485557595423   -0.06380576656276718
-0.1223790273554314   -0.08845485557595423   -0.06380576656276718
0.09953063113372056   0.07087051600079226   0.060050490137397626
0.09953063113372056   0.07087051600079226   0.060050490137397626
0.09953063113372056   0.07087051600079226   0.060050490137397626
0.09953063113372056   0.07087051600079226   0.060050490137397626
0.08607997345912692   -0.03386500398060205   -0.08728968255513812
0.08607997345912692   -0.03386500398060205   -0.08728968255513812
0.08607997345912692   -0.03386500398060205   -0.08728968255513812
0.08607997345912692   -0.03386500398060205   -0.08728968255513812
-0.05943123566408105   0.051783321384977536   0.0448266375537848
-0.05943123566408105   0.051783321384977536   0.0448266375537848
-0.05943123566408105   0.051783321384977536   0.0448266375537848
-0.05943123566408105   0.051783321384977536   0.0448266375537848
0.001773138512786426   -0.0011130783548533125   0.004234636647360968
0.001773138512786426   -0.0011130783548533125   0.004234636647360968
0.001773138512786426   -0.0011130783548533125   0.004234636647360968
0.001773138512786426   -0.0011130783548533125   0.004234636647360968
-0.1074861508241498   -0.0698776797487887   -0.07378693711279463
-0.1074861508241498   -0.0698776797487887   -0.07378693711279463
-0.1074861508241498   -0.0698776797487887   -0.07378693711279463
-0.1074861508241498   -0.0698776797487887   -0.07378693711279463
0.13759606194734994   0.09125717048131814   0.04516858542405681
0.13759606194734994   0.09125717048131814   0.04516858542405681
0.13759606194734994   0.09125717048131814   0.04516858542405681
0.13759606194734994   0.09125717048131814   0.04516858542405681
0.14032507827988827   0.01034024424384321   -0.09347243487158026
0.14032507827988827   0.01034024424384321   -0.09347243487158026
0.14032507827988827   0.01034024424384321   -0.09347243487158026
0.14032507827988827   0.01034024424384321   -0.09347243487158026
-0.046130416617307685   0.0806968637898856   0.03642707988553966
-0.046130416617307685   0.0806968637898856   0.03642707988553966
-0.046130416617307685   0.0806968637898856   0.03642707988553966
-0.046130416617307685   0.0806968637898856   0.03642707988553966
0.030446711945964603   0.023297686456964315   0.02108161628703667
0.030446711945964603   0.023297686456964315   0.02108161628703667
0.030446711945964603   0.023297686456964315   0.02108161628703667
0.030446711945964603   0.023297686456964315   0.02108161628703667
-0.27977353553057954   0.015873644441894   0.07802487834105315
-0.27977353553057954   0.015873644441894   0.07802487834105315
-0.27977353553057954   0.015873644441894   0.07802487834105315
-0.27977353553057954   0.015873644441894   0.07802487834105315
-0.3320326364214324   -0.10174488964262297   -0.04601054380288214
-0.3320326364214324   -0.10174488964262297   -0.04601054380288214
-0.3320326364214324   -0.10174488964262297   -0.04601054380288214
-0.3320326364214324   -0.10174488964262297   -0.04601054380288214
-0.2650858683115135   0.04730605535729761   0.063893715245428
-0.2650858683115135   0.04730605535729761   0.063893715245428
-0.2650858683115135   0.04730605535729761   0.063893715245428
-0.2650858683115135   0.04730605535729761   0.063893715245428
-0.2716648233618231   -0.06698577302880056   -0.059278843096987756
-0.2716648233618231   -0.06698577302880056   -0.059278843096987756
-0.2716648233618231   -0.06698577302880056   -0.059278843096987756
-0.2716648233618231   -0.06698577302880056   -0.059278843096987756
-0.2798621576654921   -0.021529942984388158   -0.021316343620600302
-0.2798621576654921   -0.021529942984388158   -0.021316343620600302
-0.2798621576654921   -0.021529942984388158   -0.021316343620600302
-0.2798621576654921   -0.021529942984388158   -0.021316343620600302
-0.22027174768703578   0.05802524073561437   0.0726755215125341
-0.22027174768703578   0.05802524073561437   0.0726755215125341
-0.22027174768703578   0.05802524073561437   0.0726755215125341
-0.22027174768703578   0.05802524073561437   0.0726755215125341
-0.3132621018545867   -0.07448811627540318   -0.055193280837237284
-0.3132621018545867   -0.07448811627540318   -0.055193280837237284
-0.3132621018545867   -0.07448811627540318   -0.055193280837237284
-0.3132621018545867   -0.07448811627540318   -0.055193280837237284
-0.24440514890944212   0.06524273866547631   0.05377530573955761
-0.24440514890944212   0.06524273866547631   0.05377530573955761
-0.24440514890944212   0.06524273866547631   0.05377530573955761
-0.24440514890944212   0.06524273866547631   0.05377530573955761
-0.22740416944125832   -0.04671499123712995   -0.07385133841616554
-0.22740416944125832   -0.04671499123712995   -0.07385133841616554
-0.22740416944125832   -0.04671499123712995   -0.07385133841616554
-0.22740416944125832   -0.04671499123712995   -0.07385133841616554
-0.2472088061781732   0.0013906381958413427   -0.00441124125000477
-0.2472088061781732   0.0013906381958413427   -0.00441124125000477
-0.2472088061781732   0.0013906381958413427   -0.00441124125000477
-0.2472088061781732   0.0013906381958413427   -0.00441124125000477
-0.17571021847612456   0.07983945719891784   0.05806396797344772
-0.17571021847612456   0.07983945719891784   0.05806396797344772
-0.17571021847612456   0.07983945719891784   0.05806396797344772
-0.17571021847612456   0.07983945719891784   0.05806396797344772
-0.2930642470390594   -0.0582768569350556   -0.06600058930799271
-0.2930642470390594   -0.0582768569350556   -0.06600058930799271
-0.2930642470390594   -0.0582768569350556   -0.06600058930799271
-0.2930642470390594   -0.0582768569350556   -0.06600058930799271
-0.2254810042113427   0.09262768067323776   0.04644635115483708
-0.2254810042113427   0.09262768067323776   0.04644635115483708
-0.2254810042113427   0.09262768067323776   0.04644635115483708
-0.2254810042113427   0.09262768067323776   0.04644635115483708
-0.16832637438604978   -0.008181976758613478   -0.08319826651059974
-0.16832637438604978   -0.008181976758613478   -0.08319826651059974
-0.16832637438604978   -0.008181976758613478   -0.08319826651059974
-0.16832637438604978   -0.008181976758613478   -0.08319826651059974
-0.2079399364092201   0.025330905418578832   0.0136933212522608
-0.2079399364092201   0.025330905418578832   0.0136933212522608
-0.2079399364092201   0.025330905418578832   0.0136933212522608
-0.2079399364092201   0.025330905418578832   0.0136933212522608
-0.29727831091733575   -0.018314851314861408   0.04433104538983175
-0.29727831091733575   -0.018314851314861408   0.04433104538983175
-0.29727831091733575   -0.018314851314861408   0.04433104538983175
-0.29727831091733575   -0.018314851314861408   0.04433104538983175
-0.3686482361143434   -0.08298980416878074   -0.017977157352515767
-0.3686482361143434   -0.08298980416878074   -0.017977157352515767
-0.3686482361143434   -0.08298980416878074   -0.017977157352515767
-0.3686482361143434   -0.08298980416878074   -0.017977157352515767
-0.3285987028686485   0.00839837942586498   0.0296470978831629
-0.3285987028686485   0.00839837942586498   0.0296470978831629
-0.3285987028686485   0.00839837942586498   0.0296470978831629
-0.3285987028686485   0.00839837942586498   0.0296470978831629
-0.3006255515241878   -0.03926541380478036   -0.02723323165586547
-0.3006255515241878   -0.03926541380478036   -0.02723323165586547
-0.3006255515241878   -0.03926541380478036   -0.02723323165586547
-0.3006255515241878   -0.03926541380478036   -0.02723323165586547
-0.3240122515415669   -0.03051371666567821   -0.01501689877370208
-0.3240122515415669   -0.03051371666567821   -0.01501689877370208
-0.3240122515415669   -0.03051371666567821   -0.01501689877370208
-0.3240122515415669   -0.03051371666567821   -0.01501689877370208
-0.27541855597692183   0.02084354640226147   0.038692785873418706
-0.27541855597692183   0.02084354640226147   0.038692785873418706
-0.27541855597692183   0.02084354640226147   0.038692785873418706
-0.27541855597692183   0.02084354640226147   0.038692785873418706
-0.35128661302047204   -0.04919149538573569   -0.02620257806435789
-0.35128661302047204   -0.04919149538573569   -0.02620257806435789
-0.35128661302047204   -0.04919149538573569   -0.02620257806435789
-0.35128661302047204   -0.04919149538573569   -0.02620257806435789
-0.31013009647220924   0.04408070820537466   0.02262106450812544
-0.31013009647220924   0.04408070820537466   0.02262106450812544
-0.31013009647220924   0.04408070820537466   0.02262106450812544
-0.31013009647220924   0.04408070820537466   0.02262106450812544
-0.2759420902256476   -0.00486250576635118   -0.03380415640963831
-0.2759420902256476   -0.00486250576635118   -0.03380415640963831
-0.2759420902256476   -0.00486250576635118   -0.03380415640963831
-0.2759420902256476   -0.00486250576635118   -0.03380415640963831
-0.3019571538419187   0.0027930715478689805   0.0005898321207303305
-0.3019571538419187   0.0027930715478689805   0.0005898321207303305
-0.3019571538419187   0.0027930715478689805   0.0005898321207303305
-0.3019571538419187   0.0027930715478689805   0.0005898321207303305
-0.24950986130587394   0.05864953235132635   0.034844950071548544
-0.24950986130587394   0.05864953235132635   0.034844950071548544
-0.24950986130587394   0.05864953235132635   0.034844950071548544
-0.24950986130587394   0.05864953235132635   0.034844950071548544
-0.333877361930515   -0.016746366450836575   -0.03528818812719786
-0.333877361930515   -0.016746366450836575   -0.03528818812719786
-0.333877361930515   -0.016746366450836575   -0.03528818812719786
-0.333877361930515   -0.016746366450836575   -0.03528818812719786
-0.2915725866320154   0.0835622319469875   0.01594304725340967
-0.2915725866320154   0.0835622319469875   0.01594304725340967
-0.2915725866320154   0.0835622319469875   0.01594304725340967
-0.2915725866320154   0.0835622319469875   0.01594304725340967
-0.25463377459509423   0.03330775278459194   -0.03999757287527095
-0.25463377459509423   0.03330775278459194   -0.03999757287527095
-0.25463377459509423   0.03330775278459194   -0.03999757287527095
-0.25463377459509423   0.03330775278459194   -0.03999757287527095
-0.28110669711957276   0.0371756722211454   0.01646937783049354
-0.28110669711957276   0.0371756722211454   0.01646937783049354
-0.28110669711957276   0.0371756722211454   0.01646937783049354
-0.28110669711957276   0.0371756722211454   0.01646937783049354
-0.3560104864077008   -0.05021939856522319   0.012441185577134051
-0.3560104864077008   -0.05021939856522319   0.012441185577134051
-0.3560104864077008   -0.05021939856522319   0.012441185577134051
-0.3560104864077008   -0.05021939856522319   0.012441185577134051
-0.40516773189696925   -0.052348748372044784   0.010879386301464788
-0.40516773189696925   -0.052348748372044784   0.010879386301464788
-0.40516773189696925   -0.052348748372044784   0.010879386301464788
-0.40516773189696925   -0.052348748372044784   0.010879386301464788
-0.3903582839121262   -0.02376622133290511   -0.0038372687652733113
-0.3903582839121262   -0.02376622133290511   -0.0038372687652733113
-0.3903582839121262   -0.02376622133290511   -0.0038372687652733113
-0.3903582839121262   -0.02376622133290511   -0.0038372687652733113
-0.3369244049562782   -0.007123835701644335   0.0035408025725237775
-0.3369244049562782   -0.007123835701644335   0.0035408025725237775
-0.3369244049562782   -0.007123835701644335   0.0035408025725237775
-0.3369244049562782   -0.007123835701644335   0.0035408025725237775
-0.37267323889019344   -0.03147284925765001   -0.009960002956027912
-0.37267323889019344   -0.03147284925765001   -0.009960002956027912
-0.37267323889019344   -0.03147284925765001   -0.009960002956027912
-0.37267323889019344   -0.03147284925765001   -0.009960002956027912
-0.33720204498826045   -0.011134805377398908   0.00616357208836125
-0.33720204498826045   -0.011134805377398908   0.00616357208836125
-0.33720204498826045   -0.011134805377398908   0.00616357208836125
-0.33720204498826045   -0.011134805377398908   0.00616357208836125
-0.38770615185799057   -0.017380759634992457   0.003037929807495638
-0.38770615185799057   -0.017380759634992457   0.003037929807495638
-0.38770615185799057   -0.017380759634992457   0.003037929807495638
-0.38770615185799057   -0.017380759634992457   0.003037929807495638
-0.370960414773452   0.015831588880467554   -0.009740613864937176
-0.370960414773452   0.015831588880467554   -0.009740613864937176
-0.370960414773452   0.015831588880467554   -0.009740613864937176
-0.370960414773452   0.015831588880467554   -0.009740613864937176
-0.3185181603562005   0.028810034789916922   -0.004048581496373067
-0.3185181603562005   0.028810034789916922   -0.004048581496373067
-0.3185181603562005   0.028810034789916922   -0.004048581496373067
-0.3185181603562005   0.028810034789916922   -0.004048581496373067
-0.35241054132978544   0.003927472398374238   0.005446686527130991
-0.35241054132978544   0.003927472398374238   0.005446686527130991
-0.35241054132978544   0.003927472398374238   0.005446686527130991
-0.35241054132978544   0.003927472398374238   0.005446686527130991
-0.3178791364614091   0.028322734891135515   -0.00036616212364022974
-0.3178791364614091   0.028322734891135515   -0.00036616212364022974
-0.3178791364614091   0.028322734891135515   -0.00036616212364022974
-0.3178791364614091   0.028322734891135515   -0.00036616212364022974
-0.369528592976429   0.01838973447106236   -0.005139650470417357
-0.369528592976429   0.01838973447106236   -0.005139650470417357
-0.369528592976429   0.01838973447106236   -0.005139650470417357
-0.369528592976429   0.01838973447106236   -0.005139650470417357
-0.3523867937836225   0.05566894020159811   -0.016406125149930936
-0.3523867937836225   0.05566894020159811   -0.016406125149930936
-0.3523867937836225   0.05566894020159811   -0.016406125149930936
-0.3523867937836225   0.05566894020159811   -0.016406125149930936
-0.30097133976862295   0.06489101993501141   -0.01237950641764985
-0.30097133976862295   0.06489101993501141   -0.01237950641764985
-0.30097133976862295   0.06489101993501141   -0.01237950641764985
-0.30097133976862295   0.06489101993501141   -0.01237950641764985
-0.333082836469571   0.03939215628801554   0.02013268652236608
-0.333082836469571   0.03939215628801554   0.02013268652236608
-0.333082836469571   0.03939215628801554   0.02013268652236608
-0.333082836469571   0.03939215628801554   0.02013268652236608
-0.41683533408677675   -0.07952328207166826   -0.02028409094795605
-0.41683533408677675   -0.07952328207166826   -0.02028409094795605
-0.41683533408677675   -0.07952328207166826   -0.02028409094795605
-0.41683533408677675   -0.07952328207166826   -0.02028409094795605
-0.44477162980265   -0.0223409665085193   0.0384618993069728
-0.44477162980265   -0.0223409665085193   0.0384618993069728
-0.44477162980265   -0.0223409665085193   0.0384618993069728
-0.44477162980265   -0.0223409665085193   0.0384618993069728
-0.45190243923803025   -0.05459806723103124   -0.037748981532073886
-0.45190243923803025   -0.05459806723103124   -0.037748981532073886
-0.45190243923803025   -0.05459806723103124   -0.037748981532073886
-0.45190243923803025   -0.05459806723103124   -0.037748981532073886
-0.3735809933332794   0.023847065922869948   0.03243589687318571
-0.3735809933332794   0.023847065922869948   0.03243589687318571
-0.3735809933332794   0.023847065922869948   0.03243589687318571
-0.3735809933332794   0.023847065922869948   0.03243589687318571
-0.4200243237776535   -0.03100514523438208   -0.006257593453599077
-0.4200243237776535   -0.03100514523438208   -0.006257593453599077
-0.4200243237776535   -0.03100514523438208   -0.006257593453599077
-0.4200243237776535   -0.03100514523438208   -0.006257593453599077
-0.39853693759258796   -0.04172876857969363   -0.026767989920797382
-0.39853693759258796   -0.04172876857969363   -0.026767989920797382
-0.39853693759258796   -0.04172876857969363   -0.026767989920797382
-0.39853693759258796   -0.04172876857969363   -0.026767989920797382
-0.4244566102839104   0.013467651966337854   0.031414444041156286
-0.4244566102839104   0.013467651966337854   0.031414444041156286
-0.4244566102839104   0.013467651966337854   0.031414444041156286
-0.4244566102839104   0.013467651966337854   0.031414444041156286
-0.4264953323963941   -0.01704773432423433   -0.04235239293451941
-0.4264953323963941   -0.01704773432423433   -0.04235239293451941
-0.4264953323963941   -0.01704773432423433   -0.04235239293451941
-0.4264953323963941   -0.01704773432423433   -0.04235239293451941
-0.35611010836195317   0.056257680532768806   0.024084826540255372
-0.35611010836195317   0.056257680532768806   0.024084826540255372
-0.35611010836195317   0.056257680532768806   0.024084826540255372
-0.35611010836195317   0.056257680532768806   0.024084826540255372
-0.3970118439373051   0.0030818297836037595   0.009644089968729237
-0.3970118439373051   0.0030818297836037595   0.009644089968729237
-0.3970118439373051   0.0030818297836037595   0.009644089968729237
-0.3970118439373051   0.0030818297836037595   0.009644089968729237
-0.3802931063327231   -0.006209422567302489   -0.034363060213531194
-0.3802931063327231   -0.006209422567302489   -0.034363060213531194
-0.3802931063327231   -0.006209422567302489   -0.034363060213531194
-0.3802931063327231   -0.006209422567302489   -0.034363060213531194
-0.39979598258775684   0.04793572061370294   0.02616090117072971
-0.39979598258775684   0.04793572061370294   0.02616090117072971
-0.39979598258775684   0.04793572061370294   0.02616090117072971
-0.39979598258775684   0.04793572061370294   0.02616090117072971
-0.4042599693316663   0.024330953256504792   -0.046472012764008225
-0.4042599693316663   0.024330953256504792   -0.046472012764008225
-0.4042599693316663   0.024330953256504792   -0.046472012764008225
-0.4042599693316663   0.024330953256504792   -0.046472012764008225
-0.33859096167564184   0.09239337224670215   0.015848603344868026
-0.33859096167564184   0.09239337224670215   0.015848603344868026
-0.33859096167564184   0.09239337224670215   0.015848603344868026
-0.33859096167564184   0.09239337224670215   0.015848603344868026
-0.37745315175250366   0.036918446699386   0.024852585097004325
-0.37745315175250366   0.036918446699386   0.024852585097004325
-0.37745315175250366   0.036918446699386   0.024852585097004325
-0.37745315175250366   0.036918446699386   0.024852585097004325
-0.4770782759623489   -0.09462313547443113   -0.05078916252561759
-0.4770782759623489   -0.09462313547443113   -0.05078916252561759
-0.4770782759623489   -0.09462313547443113   -0.05078916252561759
-0.4770782759623489   -0.09462313547443113   -0.05078916252561759
-0.5272238758229478   0.007396378735086029   0.06915880815508496
-0.5272238758229478   0.007396378735086029   0.06915880815508496
-0.5272238758229478   0.007396378735086029   0.06915880815508496
-0.5272238758229478   0.007396378735086029   0.06915880815508496
-0.520067394785053   -0.07858584378418712   -0.06763328286872561
-0.520067394785053   -0.07858584378418712   -0.06763328286872561
-0.520067394785053   -0.07858584378418712   -0.06763328286872561
-0.520067394785053   -0.07858584378418712   -0.06763328286872561
-0.40910577824808947   0.05964416105583706   0.06199209513075618
-0.40910577824808947   0.05964416105583706   0.06199209513075618
-0.40910577824808947   0.05964416105583706   0.06199209513075618
-0.40910577824808947   0.05964416105583706   0.06199209513075618
-0.4640078574624799   -0.020294168372939486   -0.0031293089336948098
-0.4640078574624799   -0.020294168372939486   -0.0031293089336948098
-0.4640078574624799   -0.020294168372939486   -0.0031293089336948098
-0.4640078574624799   -0.020294168372939486   -0.0031293089336948098
-0.45789489049595977   -0.06423878946931316   -0.05807051558344908
-0.45789489049595977   -0.06423878946931316   -0.05807051558344908
-0.45789489049595977   -0.06423878946931316   -0.05807051558344908
-0.45789489049595977   -0.06423878946931316   -0.05807051558344908
-0.4686460440203168   0.047929345257827216   0.06295828191293426
-0.4686460440203168   0.047929345257827216   0.06295828191293426
-0.4686460440203168   0.047929345257827216   0.06295828191293426
-0.4686460440203168   0.047929345257827216   0.06295828191293426
-0.4762166655427625   -0.056660111022001115   -0.08060509460245766
-0.4762166655427625   -0.056660111022001115   -0.08060509460245766
-0.4762166655427625   -0.056660111022001115   -0.08060509460245766
-0.4762166655427625   -0.056660111022001115   -0.08060509460245766
-0.38944987926233443   0.07508739879944731   0.05073973961209337
-0.38944987926233443   0.07508739879944731   0.05073973961209337
-0.38944987926233443   0.07508739879944731   0.05073973961209337
-0.38944987926233443   0.07508739879944731   0.05073973961209337
-0.4342963855270059   0.0026156087741857487   0.012132970213180085
-0.4342963855270059   0.0026156087741857487   0.012132970213180085
-0.4342963855270059   0.0026156087741857487   0.012132970213180085
-0.4342963855270059   0.0026156087741857487   0.012132970213180085
-0.4372897767556962   -0.046190153462630716   -0.0671821955926413
-0.4372897767556962   -0.046190153462630716   -0.0671821955926413
-0.4372897767556962   -0.046190153462630716   -0.0671821955926413
-0.4372897767556962   -0.046190153462630716   -0.0671821955926413
-0.42561849710498856   0.06737571218448779   0.0483499243799191
-0.42561849710498856   0.06737571218448779   0.0483499243799191
-0.42561849710498856   0.06737571218448779   0.0483499243799191
-0.42561849710498856   0.06737571218448779   0.0483499243799191
-0.41868341289737315   -0.018715521011949857   -0.08808184784354141
-0.41868341289737315   -0.018715521011949857   -0.08808184784354141
-0.41868341289737315   -0.018715521011949857   -0.08808184784354141
-0.41868341289737315   -0.018715521011949857   -0.08808184784354141
-0.37184367480900987   0.09814682875170114   0.041793584354077984
-0.37184367480900987   0.09814682875170114   0.041793584354077984
-0.37184367480900987   0.09814682875170114   0.041793584354077984
-0.37184367480900987   0.09814682875170114   0.041793584354077984
-0.39371483984674494   0.025514897665098776   0.029794024827353608
-0.39371483984674494   0.025514897665098776   0.029794024827353608
-0.39371483984674494   0.025514897665098776   0.029794024827353608
-0.39371483984674494   0.025514897665098776   0.029794024827353608
0.28861652558423306   0.046689549769468125   0.07551249125187723
0.28861652558423306   0.046689549769468125   0.07551249125187723
0.28861652558423306   0.046689549769468125   0.07551249125187723
0.28861652558423306   0.046689549769468125   0.07551249125187723
-0.007165882981748868   -0.12138377224908654   -0.04989549441648207
-0.007165882981748868   -0.12138377224908654   -0.04989549441648207
-0.007165882981748868   -0.12138377224908654   -0.04989549441648207
-0.007165882981748868   -0.12138377224908654   -0.04989549441648207
0.06428467257590426   0.023729452044962955   0.058347786334102376
0.06428467257590426   0.023729452044962955   0.058347786334102376
0.06428467257590426   0.023729452044962955   0.058347786334102376
0.06428467257590426   0.023729452044962955   0.058347786334102376
0.30119779763157006   -0.042618652197781666   -0.0624369837681555
0.30119779763157006   -0.042618652197781666   -0.0624369837681555
0.30119779763157006   -0.042618652197781666   -0.0624369837681555
0.30119779763157006   -0.042618652197781666   -0.0624369837681555
0.14726207158866847   -0.023619647206154556   -0.03595247350066098
0.14726207158866847   -0.023619647206154556   -0.03595247350066098
0.14726207158866847   -0.023619647206154556   -0.03595247350066098
0.14726207158866847   -0.023619647206154556   -0.03595247350066098
0.3525030981337511   0.08333146099892115   0.06813940554604656
0.3525030981337511   0.08333146099892115   0.06813940554604656
0.3525030981337511   0.08333146099892115   0.06813940554604656
0.3525030981337511   0.08333146099892115   0.06813940554604656
0.016129931996454575   -0.09907010122901433   -0.05962636328917262
0.016129931996454575   -0.09907010122901433   -0.05962636328917262
0.016129931996454575   -0.09907010122901433   -0.05962636328917262
0.016129931996454575   -0.09907010122901433   -0.05962636328917262
0.09037436401619899   0.0413513648499945   0.04870190856199939
0.09037436401619899   0.0413513648499945   0.04870190856199939
0.09037436401619899   0.0413513648499945   0.04870190856199939
0.09037436401619899   0.0413513648499945   0.04870190856199939
0.3510971881561034   -0.022710346091016076   -0.0781254314349441
0.3510971881561034   -0.022710346091016076   -0.0781254314349441
0.3510971881561034   -0.022710346091016076   -0.0781254314349441
0.3510971881561034   -0.022710346091016076   -0.0781254314349441
0.19228513691462687   -0.0016428039249014384   -0.016881483918300827
0.19228513691462687   -0.0016428039249014384   -0.016881483918300827
0.19228513691462687   -0.0016428039249014384   -0.016881483918300827
0.19228513691462687   -0.0016428039249014384   -0.016881483918300827
0.4029713579716304   0.10486449686584658   0.053670574685828316
0.4029713579716304   0.10486449686584658   0.053670574685828316
0.4029713579716304   0.10486449686584658   0.053670574685828316
0.4029713579716304   0.10486449686584658   0.053670574685828316
0.04158435680689479   -0.08313931550064535   -0.0707574471338818
0.04158435680689479   -0.08313931550064535   -0.0707574471338818
0.04158435680689479   -0.08313931550064535   -0.0707574471338818
0.04158435680689479   -0.08313931550064535   -0.0707574471338818
0.11569675534312356   0.07369135312545014   0.042145253180545024
0.11569675534312356   0.07369135312545014   0.042145253180545024
0.11569675534312356   0.07369135312545014   0.042145253180545024
0.11569675534312356   0.07369135312545014   0.042145253180545024
0.4173297172687174   0.021852992033669062   -0.0861644374883037
0.4173297172687174   0.021852992033669062   -0.0861644374883037
0.4173297172687174   0.021852992033669062   -0.0861644374883037
0.4173297172687174   0.021852992033669062   -0.0861644374883037
0.23010884924625297   0.022977241466090648   0.0011587603174242535
0.23010884924625297   0.022977241466090648   0.0011587603174242535
0.23010884924625297   0.022977241466090648   0.0011587603174242535
0.23010884924625297   0.022977241466090648   0.0011587603174242535
0.03984447703888318   0.012548897183238376   0.05122363625435324
0.03984447703888318   0.012548897183238376   0.05122363625435324
0.03984447703888318   0.012548897183238376   0.05122363625435324
0.03984447703888318   0.012548897183238376   0.05122363625435324
-0.27480000571128   -0.10304192439927892   -0.02288664899741466
-0.27480000571128   -0.10304192439927892   -0.02288664899741466
-0.27480000571128   -0.10304192439927892   -0.02288664899741466
-0.27480000571128   -0.10304192439927892   -0.02288664899741466
-0.22969079889511754   -0.01494724871122511   0.023422841182840527
-0.22969079889511754   -0.01494724871122511   0.023422841182840527
-0.22969079889511754   -0.01494724871122511   0.023422841182840527
-0.22969079889511754   -0.01494724871122511   0.023422841182840527
0.04184953718021925   -0.011902318887577062   -0.01819611971178655
0.04184953718021925   -0.011902318887577062   -0.01819611971178655
0.04184953718021925   -0.011902318887577062   -0.01819611971178655
0.04184953718021925   -0.011902318887577062   -0.01819611971178655
-0.10796138545162333   -0.026696713490955898   -0.017291369508876067
-0.10796138545162333   -0.026696713490955898   -0.017291369508876067
-0.10796138545162333   -0.026696713490955898   -0.017291369508876067
-0.10796138545162333   -0.026696713490955898   -0.017291369508876067
0.06670555700565524   0.04873648861493718   0.045445171912879175
0.06670555700565524   0.04873648861493718   0.045445171912879175
0.06670555700565524   0.04873648861493718   0.045445171912879175
0.06670555700565524   0.04873648861493718   0.045445171912879175
-0.2522549662317107   -0.07329420372489585   -0.031051040486450607
-0.2522549662317107   -0.07329420372489585   -0.031051040486450607
-0.2522549662317107   -0.07329420372489585   -0.031051040486450607
-0.2522549662317107   -0.07329420372489585   -0.031051040486450607
-0.20589854148561337   0.01921843992451617   0.01655702330466421
-0.20589854148561337   0.01921843992451617   0.01655702330466421
-0.20589854148561337   0.01921843992451617   0.01655702330466421
-0.20589854148561337   0.01921843992451617   0.01655702330466421
0.0715469072592407   0.02053744801501247   -0.024621458387810036
0.0715469072592407   0.02053744801501247   -0.024621458387810036
0.0715469072592407   0.02053744801501247   -0.024621458387810036
0.0715469072592407   0.02053744801501247   -0.024621458387810036
-0.08274496984279119   0.003455721374475168   -0.0020922649341043745
-0.08274496984279119   0.003455721374475168   -0.0020922649341043745
-0.08274496984279119   0.003455721374475168   -0.0020922649341043745
-0.08274496984279119   0.003455721374475168   -0.0020922649341043745
0.09744700343964921   0.08471619862873736   0.040700271900507595
0.09744700343964921   0.08471619862873736   0.040700271900507595
0.09744700343964921   0.08471619862873736   0.040700271900507595
0.09744700343964921   0.08471619862873736   0.040700271900507595
-0.22959377800271186   -0.04275545102590382   -0.03994526833040825
-0.22959377800271186   -0.04275545102590382   -0.03994526833040825
-0.22959377800271186   -0.04275545102590382   -0.03994526833040825
-0.22959377800271186   -0.04275545102590382   -0.03994526833040825
-0.18196610174952005   0.057843197258952775   0.010011976650959
-0.18196610174952005   0.057843197258952775   0.010011976650959
-0.18196610174952005   0.057843197258952775   0.010011976650959
-0.18196610174952005   0.057843197258952775   0.010011976650959
0.09770218432646663   0.0573081414604574   -0.03144439023774689
0.09770218432646663   0.0573081414604574   -0.03144439023774689
0.09770218432646663   0.0573081414604574   -0.03144439023774689
0.09770218432646663   0.0573081414604574   -0.03144439023774689
-0.05487126997650504   0.03673335135278806   0.014106748428776529
-0.05487126997650504   0.03673335135278806   0.014106748428776529
-0.05487126997650504   0.03673335135278806   0.014106748428776529
-0.05487126997650504   0.03673335135278806   0.014106748428776529
-0.24988827574350106   -0.0197855992610026   0.018415675703207554
-0.24988827574350106   -0.0197855992610026   0.018415675703207554
-0.24988827574350106   -0.0197855992610026   0.018415675703207554
-0.24988827574350106   -0.0197855992610026   0.018415675703207554
-0.5375954857022966   -0.0731496078799114   0.0047633895873094925
-0.5375954857022966   -0.0731496078799114   0.0047633895873094925
-0.5375954857022966   -0.0731496078799114   0.0047633895873094925
-0.5375954857022966   -0.0731496078799114   0.0047633895873094925
-0.5167513328646691   -0.045823852751417204   -0.010132354767949669
-0.5167513328646691   -0.045823852751417204   -0.010132354767949669
-0.5167513328646691   -0.045823852751417204   -0.010132354767949669
-0.5167513328646691   -0.045823852751417204   -0.010132354767949669
-0.22528203359588717   0.0190784072185428   0.01144101174922825
-0.22528203359588717   0.0190784072185428   0.01144101174922825
-0.22528203359588717   0.0190784072185428   0.01144101174922825
-0.22528203359588717   0.0190784072185428   0.01144101174922825
-0.38293847499447947   -0.027468675228695193   -0.010058546057832738
-0.38293847499447947   -0.027468675228695193   -0.010058546057832738
-0.38293847499447947   -0.027468675228695193   -0.010058546057832738
-0.38293847499447947   -0.027468675228695193   -0.010058546057832738
-0.22558270587938203   0.0168662959244079   0.012149761625888825
-0.22558270587938203   0.0168662959244079   0.012149761625888825
-0.22558270587938203   0.0168662959244079   0.012149761625888825
-0.22558270587938203   0.0168662959244079   0.012149761625888825
-0.5144863072716662   -0.041647388147769804   -0.002983691406586525
-0.5144863072716662   -0.041647388147769804   -0.002983691406586525
-0.5144863072716662   -0.041647388147769804   -0.002983691406586525
-0.5144863072716662   -0.041647388147769804   -0.002983691406586525
-0.49173626772615797   -0.008210686117320634   -0.015934078662603466
-0.49173626772615797   -0.008210686117320634   -0.015934078662603466
-0.49173626772615797   -0.008210686117320634   -0.015934078662603466
-0.49173626772615797   -0.008210686117320634   -0.015934078662603466
-0.201724835240807   0.052441806663752394   0.004202187789459775
-0.201724835240807   0.052441806663752394   0.004202187789459775
-0.201724835240807   0.052441806663752394   0.004202187789459775
-0.201724835240807   0.052441806663752394   0.004202187789459775
-0.3571131263376006   0.00557343945047753   0.005250782566486607
-0.3571131263376006   0.00557343945047753   0.005250782566486607
-0.3571131263376006   0.00557343945047753   0.005250782566486607
-0.3571131263376006   0.00557343945047753   0.005250782566486607
-0.20112627661563715   0.054187904460930435   0.005448883118131121
-0.20112627661563715   0.054187904460930435   0.005448883118131121
-0.20112627661563715   0.054187904460930435   0.005448883118131121
-0.20112627661563715   0.054187904460930435   0.005448883118131121
-0.4907661407876339   -0.008388098350805492   -0.010906031736502831
-0.4907661407876339   -0.008388098350805492   -0.010906031736502831
-0.4907661407876339   -0.008388098350805492   -0.010906031736502831
-0.4907661407876339   -0.008388098350805492   -0.010906031736502831
-0.4677315437177256   0.02950337804806566   -0.022557511903276005
-0.4677315437177256   0.02950337804806566   -0.022557511903276005
-0.4677315437177256   0.02950337804806566   -0.022557511903276005
-0.4677315437177256   0.02950337804806566   -0.022557511903276005
-0.17918269262887793   0.08590348380298607   -0.004131264289863483
-0.17918269262887793   0.08590348380298607   -0.004131264289863483
-0.17918269262887793   0.08590348380298607   -0.004131264289863483
-0.17918269262887793   0.08590348380298607   -0.004131264289863483
-0.3326319914585476   0.038523632726956636   0.019560682212240686
-0.3326319914585476   0.038523632726956636   0.019560682212240686
-0.3326319914585476   0.038523632726956636   0.019560682212240686
-0.3326319914585476   0.038523632726956636   0.019560682212240686
-0.5373248072858976   -0.05162545592390824   -0.015407370286693586
-0.5373248072858976   -0.05162545592390824   -0.015407370286693586
-0.5373248072858976   -0.05162545592390824   -0.015407370286693586
-0.5373248072858976   -0.05162545592390824   -0.015407370286693586
-0.7975780366647379   -0.04505839828758987   0.03191762565886683
-0.7975780366647379   -0.04505839828758987   0.03191762565886683
-0.7975780366647379   -0.04505839828758987   0.03191762565886683
-0.7975780366647379   -0.04505839828758987   0.03191762565886683
-0.7977603403030775   -0.07605157577500897   -0.04287796464641065
-0.7977603403030775   -0.07605157577500897   -0.04287796464641065
-0.7977603403030775   -0.07605157577500897   -0.04287796464641065
-0.7977603403030775   -0.07605157577500897   -0.04287796464641065
-0.4880300813709551   0.048619714933032215   0.03903033501616651
-0.4880300813709551   0.048619714933032215   0.03903033501616651
-0.4880300813709551   0.048619714933032215   0.03903033501616651
-0.4880300813709551   0.048619714933032215   0.03903033501616651
-0.6515134151054517   -0.027832069385539976   -0.0042279459220874865
-0.6515134151054517   -0.027832069385539976   -0.0042279459220874865
-0.6515134151054517   -0.027832069385539976   -0.0042279459220874865
-0.6515134151054517   -0.027832069385539976   -0.0042279459220874865
-0.5128080467006116   -0.014777899554207982   -0.021461877144871678
-0.5128080467006116   -0.014777899554207982   -0.021461877144871678
-0.5128080467006116   -0.014777899554207982   -0.021461877144871678
-0.5128080467006116   -0.014777899554207982   -0.021461877144871678
-0.7713605567416416   -0.011032143055992927   0.024101520441757937
-0.7713605567416416   -0.011032143055992927   0.024101520441757937
-0.7713605567416416   -0.011032143055992927   0.024101520441757937
-0.7713605567416416   -0.011032143055992927   0.024101520441757937
-0.7664368713194307   -0.040166317790230055   -0.04770840211726135
-0.7664368713194307   -0.040166317790230055   -0.04770840211726135
-0.7664368713194307   -0.040166317790230055   -0.04770840211726135
-0.7664368713194307   -0.040166317790230055   -0.04770840211726135
-0.4648977143414645   0.07898708111210906   0.031060921031429586
-0.4648977143414645   0.07898708111210906   0.031060921031429586
-0.4648977143414645   0.07898708111210906   0.031060921031429586
-0.4648977143414645   0.07898708111210906   0.031060921031429586
-0.6205589648072876   0.005473027635386235   0.01154323635894023
-0.6205589648072876   0.005473027635386235   0.01154323635894023
-0.6205589648072876   0.005473027635386235   0.01154323635894023
-0.6205589648072876   0.005473027635386235   0.01154323635894023
-0.48885511137581283   0.019119931680254665   -0.028858914708455655
-0.48885511137581283   0.019119931680254665   -0.028858914708455655
-0.48885511137581283   0.019119931680254665   -0.028858914708455655
-0.48885511137581283   0.019119931680254665   -0.028858914708455655
-0.7406551073965597   0.021525198530147338   0.019508901176716206
-0.7406551073965597   0.021525198530147338   0.019508901176716206
-0.7406551073965597   0.021525198530147338   0.019508901176716206
-0.7406551073965597   0.021525198530147338   0.019508901176716206
-0.7384121527984306   -0.001010918797554522   -0.05135166075365731
-0.7384121527984306   -0.001010918797554522   -0.05135166075365731
-0.7384121527984306   -0.001010918797554522   -0.05135166075365731
-0.7384121527984306   -0.001010918797554522   -0.05135166075365731
-0.4420053331231936   0.11254430804241905   0.023032611075030122
-0.4420053331231936   0.11254430804241905   0.023032611075030122
-0.4420053331231936   0.11254430804241905   0.023032611075030122
-0.4420053331231936   0.11254430804241905   0.023032611075030122
-0.5973568881962018   0.03655013568657009   0.025682933690735356
-0.5973568881962018   0.03655013568657009   0.025682933690735356
-0.5973568881962018   0.03655013568657009   0.025682933690735356
-0.5973568881962018   0.03655013568657009   0.025682933690735356
-0.8191404771439188   -0.07417441513754228   -0.04677855988708557
-0.8191404771439188   -0.07417441513754228   -0.04677855988708557
-0.8191404771439188   -0.07417441513754228   -0.04677855988708557
-0.8191404771439188   -0.07417441513754228   -0.04677855988708557
-1.093852810377681   -0.01915346989269165   0.0690673099146333
-1.093852810377681   -0.01915346989269165   0.0690673099146333
-1.093852810377681   -0.01915346989269165   0.0690673099146333
-1.093852810377681   -0.01915346989269165   0.0690673099146333
-1.0785039912347916   -0.09911374864845279   -0.06239924040399081
-1.0785039912347916   -0.09911374864845279   -0.06239924040399081
-1.0785039912347916   -0.09911374864845279   -0.06239924040399081
-1.0785039912347916   -0.09911374864845279   -0.06239924040399081
-0.7439289926928595   0.08214006959909217   0.06808712803057893
-0.7439289926928595   0.08214006959909217   0.06808712803057893
-0.7439289926928595   0.08214006959909217   0.06808712803057893
-0.7439289926928595   0.08214006959909217   0.06808712803057893
-0.8936069256145438   -0.015844372201674478   0.007383886326982142
-0.8936069256145438   -0.015844372201674478   0.007383886326982142
-0.8936069256145438   -0.015844372201674478   0.007383886326982142
-0.8936069256145438   -0.015844372201674478   0.007383886326982142
-0.7925607209697785   -0.04002627938803016   -0.05290516436689091
-0.7925607209697785   -0.04002627938803016   -0.05290516436689091
-0.7925607209697785   -0.04002627938803016   -0.05290516436689091
-0.7925607209697785   -0.04002627938803016   -0.05290516436689091
-1.0284018400103108   0.024523023286228685   0.06447474378371279
-1.0284018400103108   0.024523023286228685   0.06447474378371279
-1.0284018400103108   0.024523023286228685   0.06447474378371279
-1.0284018400103108   0.024523023286228685   0.06447474378371279
-1.0289815749068498   -0.07781856970318299   -0.07425840725657362
-1.0289815749068498   -0.07781856970318299   -0.07425840725657362
-1.0289815749068498   -0.07781856970318299   -0.07425840725657362
-1.0289815749068498   -0.07781856970318299   -0.07425840725657362
-0.7184085900854764   0.09614028656506976   0.056126399697202733
-0.7184085900854764   0.09614028656506976   0.056126399697202733
-0.7184085900854764   0.09614028656506976   0.056126399697202733
-0.7184085900854764   0.09614028656506976   0.056126399697202733
-0.8654722735654777   0.006497520540592577   0.020125956590852756
-0.8654722735654777   0.006497520540592577   0.020125956590852756
-0.8654722735654777   0.006497520540592577   0.020125956590852756
-0.8654722735654777   0.006497520540592577   0.020125956590852756
-0.765579258071302   -0.022503129681773648   -0.06108352398507466
-0.765579258071302   -0.022503129681773648   -0.06108352398507466
-0.765579258071302   -0.022503129681773648   -0.06108352398507466
-0.765579258071302   -0.022503129681773648   -0.06108352398507466
-0.9800110296580802   0.04262472380660237   0.050151025477469496
-0.9800110296580802   0.04262472380660237   0.050151025477469496
-0.9800110296580802   0.04262472380660237   0.050151025477469496
-0.9800110296580802   0.04262472380660237   0.050151025477469496
-0.9679955025332916   -0.04600247655468609   -0.08280111445357628
-0.9679955025332916   -0.04600247655468609   -0.08280111445357628
-0.9679955025332916   -0.04600247655468609   -0.08280111445357628
-0.9679955025332916   -0.04600247655468609   -0.08280111445357628
-0.6959746983257477   0.11307062460612818   0.04675406820607478
-0.6959746983257477   0.11307062460612818   0.04675406820607478
-0.6959746983257477   0.11307062460612818   0.04675406820607478
-0.6959746983257477   0.11307062460612818   0.04675406820607478
-0.8129276659252589   0.027435802974703827   0.03806231367901305
-0.8129276659252589   0.027435802974703827   0.03806231367901305
-0.8129276659252589   0.027435802974703827   0.03806231367901305
-0.8129276659252589   0.027435802974703827   0.03806231367901305
0.869195298936107   0.07896334625441945   0.0754789161831921
0.869195298936107   0.07896334625441945   0.0754789161831921
0.869195298936107   0.07896334625441945   0.0754789161831921
0.869195298936107   0.07896334625441945   0.0754789161831921
0.3184360990126621   -0.14464848726205878   -0.049686839500740196
0.3184360990126621   -0.14464848726205878   -0.049686839500740196
0.3184360990126621   -0.14464848726205878   -0.049686839500740196
0.3184360990126621   -0.14464848726205878   -0.049686839500740196
0.3933436657590115   -0.000839008189969917   0.05431536814349257
0.3933436657590115   -0.000839008189969917   0.05431536814349257
0.3933436657590115   -0.000839008189969917   0.05431536814349257
0.3933436657590115   -0.000839008189969917   0.05431536814349257
0.8850432185224304   -0.02018559950200846   -0.06342872301870184
0.8850432185224304   -0.02018559950200846   -0.06342872301870184
0.8850432185224304   -0.02018559950200846   -0.06342872301870184
0.8850432185224304   -0.02018559950200846   -0.06342872301870184
0.5785824540897108   -0.026211970309026306   -0.055899100494495084
0.5785824540897108   -0.026211970309026306   -0.055899100494495084
0.5785824540897108   -0.026211970309026306   -0.055899100494495084
0.5785824540897108   -0.026211970309026306   -0.055899100494495084
0.9369140881355177   0.11013333980464708   0.06560668574007139
0.9369140881355177   0.11013333980464708   0.06560668574007139
0.9369140881355177   0.11013333980464708   0.06560668574007139
0.9369140881355177   0.11013333980464708   0.06560668574007139
0.3451413238684794   -0.12748941977408051   -0.06004592972504967
0.3451413238684794   -0.12748941977408051   -0.06004592972504967
0.3451413238684794   -0.12748941977408051   -0.06004592972504967
0.3451413238684794   -0.12748941977408051   -0.06004592972504967
0.42293132422697044   0.016240785927805035   0.04479609258829444
0.42293132422697044   0.016240785927805035   0.04479609258829444
0.42293132422697044   0.016240785927805035   0.04479609258829444
0.42293132422697044   0.016240785927805035   0.04479609258829444
0.9389437718438236   -0.0007707695962325956   -0.07991816196429788
0.9389437718438236   -0.0007707695962325956   -0.07991816196429788
0.9389437718438236   -0.0007707695962325956   -0.07991816196429788
0.9389437718438236   -0.0007707695962325956   -0.07991816196429788
0.6348515483954972   -0.0052365418668837704   -0.03384684604430384
0.6348515483954972   -0.0052365418668837704   -0.03384684604430384
0.6348515483954972   -0.0052365418668837704   -0.03384684604430384
0.6348515483954972   -0.0052365418668837704   -0.03384684604430384
0.9913945988443599   0.131072719185044   0.050492484257099804
0.9913945988443599   0.131072719185044   0.050492484257099804
0.9913945988443599   0.131072719185044   0.050492484257099804
0.9913945988443599   0.131072719185044   0.050492484257099804
0.37438646572913775   -0.11169673435076846   -0.06999067962229147
0.37438646572913775   -0.11169673435076846   -0.06999067962229147
0.37438646572913775   -0.11169673435076846   -0.06999067962229147
0.37438646572913775   -0.11169673435076846   -0.06999067962229147
0.4524772464351825   0.053880400148962275   0.03882507392169726
0.4524772464351825   0.053880400148962275   0.03882507392169726
0.4524772464351825   0.053880400148962275   0.03882507392169726
0.4524772464351825   0.053880400148962275   0.03882507392169726
1.0097159404248994   0.04986512133130827   -0.0862149800870953
1.0097159404248994   0.04986512133130827   -0.0862149800870953
1.0097159404248994   0.04986512133130827   -0.0862149800870953
1.0097159404248994   0.04986512133130827   -0.0862149800870953
0.6696150061772771   0.020273253366248467   -0.014761452136456181
0.6696150061772771   0.020273253366248467   -0.014761452136456181
0.6696150061772771   0.020273253366248467   -0.014761452136456181
0.6696150061772771   0.020273253366248467   -0.014761452136456181
0.37820069462028755   0.044194229767985274   0.06029342150733881
0.37820069462028755   0.044194229767985274   0.06029342150733881
0.37820069462028755   0.044194229767985274   0.06029342150733881
0.37820069462028755   0.044194229767985274   0.06029342150733881
-0.18409420245115385   -0.13495814332173692   -0.026022742836977652
-0.18409420245115385   -0.13495814332173692   -0.026022742836977652
-0.18409420245115385   -0.13495814332173692   -0.026022742836977652
-0.18409420245115385   -0.13495814332173692   -0.026022742836977652
-0.13255629346146883   -0.03948975563237139   0.018272527205929843
-0.13255629346146883   -0.03948975563237139   0.018272527205929843
-0.13255629346146883   -0.03948975563237139   0.018272527205929843
-0.13255629346146883   -0.03948975563237139   0.018272527205929843
0.38125007631472196   0.0010022994333289126   -0.007993886701249914
0.38125007631472196   0.0010022994333289126   -0.007993886701249914
0.38125007631472196   0.0010022994333289126   -0.007993886701249914
0.38125007631472196   0.0010022994333289126   -0.007993886701249914
0.1057256428471149   -0.02856165085527118   -0.023829747453098522
0.1057256428471149   -0.02856165085527118   -0.023829747453098522
0.1057256428471149   -0.02856165085527118   -0.023829747453098522
0.1057256428471149   -0.02856165085527118   -0.023829747453098522
0.40858951201369453   0.07585501522238641   0.05385057600455552
0.40858951201369453   0.07585501522238641   0.05385057600455552
0.40858951201369453   0.07585501522238641   0.05385057600455552
0.40858951201369453   0.07585501522238641   0.05385057600455552
-0.1576883644925366   -0.11213510675352473   -0.03474247682825952
-0.1576883644925366   -0.11213510675352473   -0.03474247682825952
-0.1576883644925366   -0.11213510675352473   -0.03474247682825952
-0.1576883644925366   -0.11213510675352473   -0.03474247682825952
-0.10498995498473292   -0.007534866931911903   0.011553829121541733
-0.10498995498473292   -0.007534866931911903   0.011553829121541733
-0.10498995498473292   -0.007534866931911903   0.011553829121541733
-0.10498995498473292   -0.007534866931911903   0.011553829121541733
0.4136792843174975   0.029680943874307267   -0.014904264905568489
0.4136792843174975   0.029680943874307267   -0.014904264905568489
0.4136792843174975   0.029680943874307267   -0.014904264905568489
0.4136792843174975   0.029680943874307267   -0.014904264905568489
0.13236371092141266   -0.0033072737307275057   -0.009478002011103472
0.13236371092141266   -0.0033072737307275057   -0.009478002011103472
0.13236371092141266   -0.0033072737307275057   -0.009478002011103472
0.13236371092141266   -0.0033072737307275057   -0.009478002011103472
0.4421115824834992   0.10913525724764563   0.04780291255109726
0.4421115824834992   0.10913525724764563   0.04780291255109726
0.4421115824834992   0.10913525724764563   0.04780291255109726
0.4421115824834992   0.10913525724764563   0.04780291255109726
-0.13120951827157581   -0.0847764454260922   -0.042302408818492454
-0.13120951827157581   -0.0847764454260922   -0.042302408818492454
-0.13120951827157581   -0.0847764454260922   -0.042302408818492454
-0.13120951827157581   -0.0847764454260922   -0.042302408818492454
-0.0777721939237563   0.02947517874591138   0.004865174439745901
-0.0777721939237563   0.02947517874591138   0.004865174439745901
-0.0777721939237563   0.02947517874591138   0.004865174439745901
-0.0777721939237563   0.02947517874591138   0.004865174439745901
0.4424453129531303   0.0638211416397814   -0.021275334979382995
0.4424453129531303   0.0638211416397814   -0.021275334979382995
0.4424453129531303   0.0638211416397814   -0.021275334979382995
0.4424453129531303   0.0638211416397814   -0.021275334979382995
0.16525069835416598   0.027655381999895874   0.007274849404056342
0.16525069835416598   0.027655381999895874   0.007274849404056342
0.16525069835416598   0.027655381999895874   0.007274849404056342
0.16525069835416598   0.027655381999895874   0.007274849404056342
-0.14485932014162795   0.009569710327119528   0.025623815061795438
-0.14485932014162795   0.009569710327119528   0.025623815061795438
-0.14485932014162795   0.009569710327119528   0.025623815061795438
-0.14485932014162795   0.009569710327119528   0.025623815061795438
-0.6766448296956558   -0.1191451023983267   -0.003426923317560333
-0.6766448296956558   -0.1191451023983267   -0.003426923317560333
-0.6766448296956558   -0.1191451023983267   -0.003426923317560333
-0.6766448296956558   -0.1191451023983267   -0.003426923317560333
-0.643949258798397   -0.07012367589894841   -0.01590217863571798
-0.643949258798397   -0.07012367589894841   -0.01590217863571798
-0.643949258798397   -0.07012367589894841   -0.01590217863571798
-0.643949258798397   -0.07012367589894841   -0.01590217863571798
-0.12137075435940255   0.017664076365138365   0.017046390718747667
-0.12137075435940255   0.017664076365138365   0.017046390718747667
-0.12137075435940255   0.017664076365138365   0.017046390718747667
-0.12137075435940255   0.017664076365138365   0.017046390718747667
-0.3974048646061137   -0.036639917787120384   -0.014874367363439946
-0.3974048646061137   -0.036639917787120384   -0.014874367363439946
-0.3974048646061137   -0.036639917787120384   -0.014874367363439946
-0.3974048646061137   -0.036639917787120384   -0.014874367363439946
-0.11592944055888071   0.04253677557783697   0.01938026050866195
-0.11592944055888071   0.04253677557783697   0.01938026050866195
-0.11592944055888071   0.04253677557783697   0.01938026050866195
-0.11592944055888071   0.04253677557783697   0.01938026050866195
-0.6479184140146128   -0.09352421652733528   -0.012347414088410292
-0.6479184140146128   -0.09352421652733528   -0.012347414088410292
-0.6479184140146128   -0.09352421652733528   -0.012347414088410292
-0.6479184140146128   -0.09352421652733528   -0.012347414088410292
-0.6135685539649227   -0.03506407006468694   -0.021483477128621257
-0.6135685539649227   -0.03506407006468694   -0.021483477128621257
-0.6135685539649227   -0.03506407006468694   -0.021483477128621257
-0.6135685539649227   -0.03506407006468694   -0.021483477128621257
-0.09453881068895499   0.04663352365446475   0.009641160014054698
-0.09453881068895499   0.04663352365446475   0.009641160014054698
-0.09453881068895499   0.04663352365446475   0.009641160014054698
-0.09453881068895499   0.04663352365446475   0.009641160014054698
-0.3667638985325626   -0.007304930660666675   -0.00022929127168977784
-0.3667638985325626   -0.007304930660666675   -0.00022929127168977784
-0.3667638985325626   -0.007304930660666675   -0.00022929127168977784
-0.3667638985325626   -0.007304930660666675   -0.00022929127168977784
-0.08797335446147253   0.07681004851909538   0.012291916286840222
-0.08797335446147253   0.07681004851909538   0.012291916286840222
-0.08797335446147253   0.07681004851909538   0.012291916286840222
-0.08797335446147253   0.07681004851909538   0.012291916286840222
-0.6187661487680912   -0.06387273350501321   -0.01866278770413747
-0.6187661487680912   -0.06387273350501321   -0.01866278770413747
-0.6187661487680912   -0.06387273350501321   -0.01866278770413747
-0.6187661487680912   -0.06387273350501321   -0.01866278770413747
-0.5852896460041519   -0.00012320482919278564   -0.028157754075483876
-0.5852896460041519   -0.00012320482919278564   -0.028157754075483876
-0.5852896460041519   -0.00012320482919278564   -0.028157754075483876
-0.5852896460041519   -0.00012320482919278564   -0.028157754075483876
-0.06892480578716342   0.07622289258751104   0.0023544012811106754
-0.06892480578716342   0.07622289258751104   0.0023544012811106754
-0.06892480578716342   0.07622289258751104   0.0023544012811106754
-0.06892480578716342   0.07622289258751104   0.0023544012811106754
-0.33861489649747945   0.02191918314483754   0.013707482460200131
-0.33861489649747945   0.02191918314483754   0.013707482460200131
-0.33861489649747945   0.02191918314483754   0.013707482460200131
-0.33861489649747945   0.02191918314483754   0.013707482460200131
-0.6593154461090509   -0.02581202238733088   -0.010113085395525245
-0.6593154461090509   -0.02581202238733088   -0.010113085395525245
-0.6593154461090509   -0.02581202238733088   -0.010113085395525245
-0.6593154461090509   -0.02581202238733088   -0.010113085395525245
-1.1578938377593715   -0.0964993386794703   0.022390654458247547
-1.1578938377593715   -0.0964993386794703   0.022390654458247547
-1.1578938377593715   -0.0964993386794703   0.022390654458247547
-1.1578938377593715   -0.0964993386794703   0.022390654458247547
-1.1419544320681714   -0.09954210100261551   -0.04785439396482501
-1.1419544320681714   -0.09954210100261551   -0.04785439396482501
-1.1419544320681714   -0.09954210100261551   -0.04785439396482501
-1.1419544320681714   -0.09954210100261551   -0.04785439396482501
-0.6092045556363033   0.044839591084860686   0.04285807019094764
-0.6092045556363033   0.044839591084860686   0.04285807019094764
-0.6092045556363033   0.044839591084860686   0.04285807019094764
-0.6092045556363033   0.044839591084860686   0.04285807019094764
-0.8859199941548664   -0.038671253436474706   -0.005182696799786654
-0.8859199941548664   -0.038671253436474706   -0.005182696799786654
-0.8859199941548664   -0.038671253436474706   -0.005182696799786654
-0.8859199941548664   -0.038671253436474706   -0.005182696799786654
-0.627864899912382   0.009771560167158605   -0.015375620271744009
-0.627864899912382   0.009771560167158605   -0.015375620271744009
-0.627864899912382   0.009771560167158605   -0.015375620271744009
-0.627864899912382   0.009771560167158605   -0.015375620271744009
-1.1232246413671965   -0.06440462366001729   0.0106570821974512
-1.1232246413671965   -0.06440462366001729   0.0106570821974512
-1.1232246413671965   -0.06440462366001729   0.0106570821974512
-1.1232246413671965   -0.06440462366001729   0.0106570821974512
-1.102264293084816   -0.06528435258956547   -0.052929668733591465
-1.102264293084816   -0.06528435258956547   -0.052929668733591465
-1.102264293084816   -0.06528435258956547   -0.052929668733591465
-1.102264293084816   -0.06528435258956547   -0.052929668733591465
-0.580915650224908   0.07246582460981074   0.03425114689695987
-0.580915650224908   0.07246582460981074   0.03425114689695987
-0.580915650224908   0.07246582460981074   0.03425114689695987
-0.580915650224908   0.07246582460981074   0.03425114689695987
-0.8455529761584542   -0.0062451495886713115   0.00950093113386951
-0.8455529761584542   -0.0062451495886713115   0.00950093113386951
-0.8455529761584542   -0.0062451495886713115   0.00950093113386951
-0.8455529761584542   -0.0062451495886713115   0.00950093113386951
-0.5984324783999294   0.04157875851705209   -0.022445927885390404
-0.5984324783999294   0.04157875851705209   -0.022445927885390404
-0.5984324783999294   0.04157875851705209   -0.022445927885390404
-0.5984324783999294   0.04157875851705209   -0.022445927885390404
-1.083827124729892   -0.03347694631689427   0.007448766768357526
-1.083827124729892   -0.03347694631689427   0.007448766768357526
-1.083827124729892   -0.03347694631689427   0.007448766768357526
-1.083827124729892   -0.03347694631689427   0.007448766768357526
-1.0667732345162568   -0.02814557004359386   -0.055648877961971425
-1.0667732345162568   -0.02814557004359386   -0.055648877961971425
-1.0667732345162568   -0.02814557004359386   -0.055648877961971425
-1.0667732345162568   -0.02814557004359386   -0.055648877961971425
-0.5535168808708008   0.10285104515479823   0.02773182160728367
-0.5535168808708008   0.10285104515479823   0.02773182160728367
-0.5535168808708008   0.10285104515479823   0.02773182160728367
-0.5535168808708008   0.10285104515479823   0.02773182160728367
-0.8182183555939172   0.021482581493647096   0.022170013787058802
-0.8182183555939172   0.021482581493647096   0.022170013787058802
-0.8182183555939172   0.021482581493647096   0.022170013787058802
-0.8182183555939172   0.021482581493647096   0.022170013787058802
-1.1627888502253465   -0.0553924076294707   -0.043191338921627236
-1.1627888502253465   -0.0553924076294707   -0.043191338921627236
-1.1627888502253465   -0.0553924076294707   -0.043191338921627236
-1.1627888502253465   -0.0553924076294707   -0.043191338921627236
-1.6571328724224812   -0.05973825551112616   0.0748549859766549
-1.6571328724224812   -0.05973825551112616   0.0748549859766549
-1.6571328724224812   -0.05973825551112616   0.0748549859766549
-1.6571328724224812   -0.05973825551112616   0.0748549859766549
-1.6251747148100015   -0.11916643315532349   -0.05719966362435716
-1.6251747148100015   -0.11916643315532349   -0.05719966362435716
-1.6251747148100015   -0.11916643315532349   -0.05719966362435716
-1.6251747148100015   -0.11916643315532349   -0.05719966362435716
-1.0787126406777487   0.09273808364516337   0.07607437833949805
-1.0787126406777487   0.09273808364516337   0.07607437833949805
-1.0787126406777487   0.09273808364516337   0.07607437833949805
-1.0787126406777487   0.09273808364516337   0.07607437833949805
-1.3197078916005656   -0.016316134815393013   0.015259783431399263
-1.3197078916005656   -0.016316134815393013   0.015259783431399263
-1.3197078916005656   -0.016316134815393013   0.015259783431399263
-1.3197078916005656   -0.016316134815393013   0.015259783431399263
-1.1255588970460813   -0.017405917374222535   -0.04801290248277287
-1.1255588970460813   -0.017405917374222535   -0.04801290248277287
-1.1255588970460813   -0.017405917374222535   -0.04801290248277287
-1.1255588970460813   -0.017405917374222535   -0.04801290248277287
-1.5775612071777085   -0.008255180871978518   0.0699566222537484
-1.5775612071777085   -0.008255180871978518   0.0699566222537484
-1.5775612071777085   -0.008255180871978518   0.0699566222537484
-1.5775612071777085   -0.008255180871978518   0.0699566222537484
-1.56514136837768   -0.09790323160646541   -0.06735841286829991
-1.56514136837768   -0.09790323160646541   -0.06735841286829991
-1.56514136837768   -0.09790323160646541   -0.06735841286829991
-1.56514136837768   -0.09790323160646541   -0.06735841286829991
-1.045395783855375   0.10585395532685737   0.06027456949719043
-1.045395783855375   0.10585395532685737   0.06027456949719043
-1.045395783855375   0.10585395532685737   0.06027456949719043
-1.045395783855375   0.10585395532685737   0.06027456949719043
-1.2886713952112392   0.006890530369262293   0.027489468021320157
-1.2886713952112392   0.006890530369262293   0.027489468021320157
-1.2886713952112392   0.006890530369262293   0.027489468021320157
-1.2886713952112392   0.006890530369262293   0.027489468021320157
-1.0895984299133352   -0.00024991869423901525   -0.054634786771513066
-1.0895984299133352   -0.00024991869423901525   -0.054634786771513066
-1.0895984299133352   -0.00024991869423901525   -0.054634786771513066
-1.0895984299133352   -0.00024991869423901525   -0.054634786771513066
-1.5201751575619005   0.008964207172436456   0.05060520243167249
-1.5201751575619005   0.008964207172436456   0.05060520243167249
-1.5201751575619005   0.008964207172436456   0.05060520243167249
-1.5201751575619005   0.008964207172436456   0.05060520243167249
-1.4995431206525442   -0.07234368853852974   -0.076749075190449
-1.4995431206525442   -0.07234368853852974   -0.076749075190449
-1.4995431206525442   -0.07234368853852974   -0.076749075190449
-1.4995431206525442   -0.07234368853852974   -0.076749075190449
-1.0161067759206037   0.11820801598258782   0.0513298289901116
-1.0161067759206037   0.11820801598258782   0.0513298289901116
-1.0161067759206037   0.11820801598258782   0.0513298289901116
-1.0161067759206037   0.11820801598258782   0.0513298289901116
-1.2225183483669215   0.02619076447884483   0.04595454077617038
-1.2225183483669215   0.02619076447884483   0.04595454077617038
-1.2225183483669215   0.02619076447884483   0.04595454077617038
-1.2225183483669215   0.02619076447884483   0.04595454077617038
1.4600116952485036   0.10908793576108383   0.07741967937913129
1.4600116952485036   0.10908793576108383   0.07741967937913129
1.4600116952485036   0.10908793576108383   0.07741967937913129
1.4600116952485036   0.10908793576108383   0.07741967937913129
0.6441502074858254   -0.17208338514845156   -0.03554570533716611
0.6441502074858254   -0.17208338514845156   -0.03554570533716611
0.6441502074858254   -0.17208338514845156   -0.03554570533716611
0.6441502074858254   -0.17208338514845156   -0.03554570533716611
0.7183646962925115   -0.030197754023670392   0.053189026602907356
0.7183646962925115   -0.030197754023670392   0.053189026602907356
0.7183646962925115   -0.030197754023670392   0.053189026602907356
0.7183646962925115   -0.030197754023670392   0.053189026602907356
1.4761861498687139   -0.0028487087854923154   -0.055735648676363256
1.4761861498687139   -0.0028487087854923154   -0.055735648676363256
1.4761861498687139   -0.0028487087854923154   -0.055735648676363256
1.4761861498687139   -0.0028487087854923154   -0.055735648676363256
1.0117252199183149   -0.03073046737047394   -0.07918519080334113
1.0117252199183149   -0.03073046737047394   -0.07918519080334113
1.0117252199183149   -0.03073046737047394   -0.07918519080334113
1.0117252199183149   -0.03073046737047394   -0.07918519080334113
1.527653006785495   0.1339767401489598   0.06477318697307488
1.527653006785495   0.1339767401489598   0.06477318697307488
1.527653006785495   0.1339767401489598   0.06477318697307488
1.527653006785495   0.1339767401489598   0.06477318697307488
0.6718389535149409   -0.1620820888189133   -0.04755535248969513
0.6718389535149409   -0.1620820888189133   -0.04755535248969513
0.6718389535149409   -0.1620820888189133   -0.04755535248969513
0.6718389535149409   -0.1620820888189133   -0.04755535248969513
0.7474130000669239   -0.014491701734231144   0.043007949122609086
0.7474130000669239   -0.014491701734231144   0.043007949122609086
0.7474130000669239   -0.014491701734231144   0.043007949122609086
0.7474130000669239   -0.014491701734231144   0.043007949122609086
1.526909924403722   0.0144722116022874   -0.06965641376115747
1.526909924403722   0.0144722116022874   -0.06965641376115747
1.526909924403722   0.0144722116022874   -0.06965641376115747
1.526909924403722   0.0144722116022874   -0.06965641376115747
1.0753962565026858   -0.012213344065572174   -0.0538535533749111
1.0753962565026858   -0.012213344065572174   -0.0538535533749111
1.0753962565026858   -0.012213344065572174   -0.0538535533749111
1.0753962565026858   -0.012213344065572174   -0.0538535533749111
1.5780777709254192   0.15264222391905788   0.04801280653055858
1.5780777709254192   0.15264222391905788   0.04801280653055858
1.5780777709254192   0.15264222391905788   0.04801280653055858
1.5780777709254192   0.15264222391905788   0.04801280653055858
0.7005712515639266   -0.14833561603229134   -0.05735687909431679
0.7005712515639266   -0.14833561603229134   -0.05735687909431679
0.7005712515639266   -0.14833561603229134   -0.05735687909431679
0.7005712515639266   -0.14833561603229134   -0.05735687909431679
0.7737240593506336   0.027451019091985857   0.03770638979055855
0.7737240593506336   0.027451019091985857   0.03770638979055855
0.7737240593506336   0.027451019091985857   0.03770638979055855
0.7737240593506336   0.027451019091985857   0.03770638979055855
1.5893029189665773   0.06514700337197321   -0.07295020133426769
1.5893029189665773   0.06514700337197321   -0.07295020133426769
1.5893029189665773   0.06514700337197321   -0.07295020133426769
1.5893029189665773   0.06514700337197321   -0.07295020133426769
1.0992565552402713   0.01270640887570959   -0.036310566605483256
1.0992565552402713   0.01270640887570959   -0.036310566605483256
1.0992565552402713   0.01270640887570959   -0.036310566605483256
1.0992565552402713   0.01270640887570959   -0.036310566605483256
0.7125902739491162   0.06374795740988838   0.07082328442094006
0.7125902739491162   0.06374795740988838   0.07082328442094006
0.7125902739491162   0.06374795740988838   0.07082328442094006
0.7125902739491162   0.06374795740988838   0.07082328442094006
-0.08785532363334962   -0.21208574884851003   -0.02023317320336781
-0.08785532363334962   -0.21208574884851003   -0.02023317320336781
-0.08785532363334962   -0.21208574884851003   -0.02023317320336781
-0.08785532363334962   -0.21208574884851003   -0.02023317320336781
-0.02391092681041996   -0.07482293297952729   0.018040954359611058
-0.02391092681041996   -0.07482293297952729   0.018040954359611058
-0.02391092681041996   -0.07482293297952729   0.018040954359611058
-0.02391092681041996   -0.07482293297952729   0.018040954359611058
0.7065964538263885   -0.03934180059334588   0.003491860841967627
0.7065964538263885   -0.03934180059334588   0.003491860841967627
0.7065964538263885   -0.03934180059334588   0.003491860841967627
0.7065964538263885   -0.03934180059334588   0.003491860841967627
0.3179995872334376   -0.05918264233420212   -0.03776684891159871
0.3179995872334376   -0.05918264233420212   -0.03776684891159871
0.3179995872334376   -0.05918264233420212   -0.03776684891159871
0.3179995872334376   -0.05918264233420212   -0.03776684891159871
0.7438445883537108   0.08766510479868665   0.06272562808655004
0.7438445883537108   0.08766510479868665   0.06272562808655004
0.7438445883537108   0.08766510479868665   0.06272562808655004
0.7438445883537108   0.08766510479868665   0.06272562808655004
-0.058557842333534796   -0.19922861936735178   -0.030787936868138598
-0.058557842333534796   -0.19922861936735178   -0.030787936868138598
-0.058557842333534796   -0.19922861936735178   -0.030787936868138598
-0.058557842333534796   -0.19922861936735178   -0.030787936868138598
0.005711789653091746   -0.04672790313244372   0.011018994725082353
0.005711789653091746   -0.04672790313244372   0.011018994725082353
0.005711789653091746   -0.04672790313244372   0.011018994725082353
0.005711789653091746   -0.04672790313244372   0.011018994725082353
0.7369272994936795   -0.018159158289732413   -0.005753097188111234
0.7369272994936795   -0.018159158289732413   -0.005753097188111234
0.7369272994936795   -0.018159158289732413   -0.005753097188111234
0.7369272994936795   -0.018159158289732413   -0.005753097188111234
0.34374078953038417   -0.04193523152360275   -0.024486932082514314
0.34374078953038417   -0.04193523152360275   -0.024486932082514314
0.34374078953038417   -0.04193523152360275   -0.024486932082514314
0.34374078953038417   -0.04193523152360275   -0.024486932082514314
0.7761767545697081   0.1163569124052691   0.055978107497030104
0.7761767545697081   0.1163569124052691   0.055978107497030104
0.7761767545697081   0.1163569124052691   0.055978107497030104
0.7761767545697081   0.1163569124052691   0.055978107497030104
-0.03199274813967609   -0.1796990565441845   -0.04453254082701606
-0.03199274813967609   -0.1796990565441845   -0.04453254082701606
-0.03199274813967609   -0.1796990565441845   -0.04453254082701606
-0.03199274813967609   -0.1796990565441845   -0.04453254082701606
0.0289631482313123   -0.013836189161713414   0.0039201757349609295
0.0289631482313123   -0.013836189161713414   0.0039201757349609295
0.0289631482313123   -0.013836189161713414   0.0039201757349609295
0.0289631482313123   -0.013836189161713414   0.0039201757349609295
0.7596415990988864   0.008850661670553178   -0.014105554046755932
0.7596415990988864   0.008850661670553178   -0.014105554046755932
0.7596415990988864   0.008850661670553178   -0.014105554046755932
0.7596415990988864   0.008850661670553178   -0.014105554046755932
0.3752437495668232   -0.01614192761743248   -0.010246828184123528
0.3752437495668232   -0.01614192761743248   -0.010246828184123528
0.3752437495668232   -0.01614192761743248   -0.010246828184123528
0.3752437495668232   -0.01614192761743248   -0.010246828184123528
-0.03080810621388311   0.017742549975525698   0.03517461506992903
-0.03080810621388311   0.017742549975525698   0.03517461506992903
-0.03080810621388311   0.017742549975525698   0.03517461506992903
-0.03080810621388311   0.017742549975525698   0.03517461506992903
-0.814221659791664   -0.2662289650355109   -0.01628782450958981
-0.814221659791664   -0.2662289650355109   -0.01628782450958981
-0.814221659791664   -0.2662289650355109   -0.01628782450958981
-0.814221659791664   -0.2662289650355109   -0.01628782450958981
-0.749505808082798   -0.1147981585691199   -0.017129730229148196
-0.749505808082798   -0.1147981585691199   -0.017129730229148196
-0.749505808082798   -0.1147981585691199   -0.017129730229148196
-0.749505808082798   -0.1147981585691199   -0.017129730229148196
-0.027739190242843   -0.09177541585538976   0.015852120073358334
-0.027739190242843   -0.09177541585538976   0.015852120073358334
-0.027739190242843   -0.09177541585538976   0.015852120073358334
-0.027739190242843   -0.09177541585538976   0.015852120073358334
-0.4074188279403373   -0.1076678418046273   -0.03374501697340042
-0.4074188279403373   -0.1076678418046273   -0.03374501697340042
-0.4074188279403373   -0.1076678418046273   -0.03374501697340042
-0.4074188279403373   -0.1076678418046273   -0.03374501697340042
0.0020925117134653424   0.04466207852988705   0.02857313546962323
0.0020925117134653424   0.04466207852988705   0.02857313546962323
0.0020925117134653424   0.04466207852988705   0.02857313546962323
0.0020925117134653424   0.04466207852988705   0.02857313546962323
-0.7774600171981407   -0.24935816011343115   -0.022340774261550744
-0.7774600171981407   -0.24935816011343115   -0.022340774261550744
-0.7774600171981407   -0.24935816011343115   -0.022340774261550744
-0.7774600171981407   -0.24935816011343115   -0.022340774261550744
-0.7127662381967657   -0.0836068968477035   -0.02333351498891449
-0.7127662381967657   -0.0836068968477035   -0.02333351498891449
-0.7127662381967657   -0.0836068968477035   -0.02333351498891449
-0.7127662381967657   -0.0836068968477035   -0.02333351498891449
-0.0001392385884968969   -0.07142129780803659   0.00645724819273202
-0.0001392385884968969   -0.07142129780803659   0.00645724819273202
-0.0001392385884968969   -0.07142129780803659   0.00645724819273202
-0.0001392385884968969   -0.07142129780803659   0.00645724819273202
-0.37175370340610975   -0.08524765058650889   -0.018748466709193175
-0.37175370340610975   -0.08524765058650889   -0.018748466709193175
-0.37175370340610975   -0.08524765058650889   -0.018748466709193175
-0.37175370340610975   -0.08524765058650889   -0.018748466709193175
0.03220058973575827   0.0745001584481487   0.022234933557822543
0.03220058973575827   0.0745001584481487   0.022234933557822543
0.03220058973575827   0.0745001584481487   0.022234933557822543
0.03220058973575827   0.0745001584481487   0.022234933557822543
-0.7451234900569917   -0.22954577663987   -0.039180894497878746
-0.7451234900569917   -0.22954577663987   -0.039180894497878746
-0.7451234900569917   -0.22954577663987   -0.039180894497878746
-0.7451234900569917   -0.22954577663987   -0.039180894497878746
-0.6868050331860064   -0.05387837158941189   -0.030271692204599486
-0.6868050331860064   -0.05387837158941189   -0.030271692204599486
-0.6868050331860064   -0.05387837158941189   -0.030271692204599486
-0.6868050331860064   -0.05387837158941189   -0.030271692204599486
0.017987145600029345   -0.0551660631774378   -0.009629963405725639
0.017987145600029345   -0.0551660631774378   -0.009629963405725639
0.017987145600029345   -0.0551660631774378   -0.009629963405725639
0.017987145600029345   -0.0551660631774378   -0.009629963405725639
-0.3455930181152368   -0.06434202547630176   -0.009366566993718812
-0.3455930181152368   -0.06434202547630176   -0.009366566993718812
-0.3455930181152368   -0.06434202547630176   -0.009366566993718812
-0.3455930181152368   -0.06434202547630176   -0.009366566993718812
-0.762372457346828   -0.022106124127329402   -0.0011646531935915055
-0.762372457346828   -0.022106124127329402   -0.0011646531935915055
-0.762372457346828   -0.022106124127329402   -0.0011646531935915055
-0.762372457346828   -0.022106124127329402   -0.0011646531935915055
-1.5438862431760818   -0.2862280187750783   -0.01311363232719295
-1.5438862431760818   -0.2862280187750783   -0.01311363232719295
-1.5438862431760818   -0.2862280187750783   -0.01311363232719295
-1.5438862431760818   -0.2862280187750783   -0.01311363232719295
-1.4743558992601127   -0.14696111427010874   -0.050994112960028405
-1.4743558992601127   -0.14696111427010874   -0.050994112960028405
-1.4743558992601127   -0.14696111427010874   -0.050994112960028405
-1.4743558992601127   -0.14696111427010874   -0.050994112960028405
-0.7354588918436058   -0.0953365247411925   0.03364321713888552
-0.7354588918436058   -0.0953365247411925   0.03364321713888552
-0.7354588918436058   -0.0953365247411925   0.03364321713888552
-0.7354588918436058   -0.0953365247411925   0.03364321713888552
-1.1191213141774314   -0.129404123875722   -0.0237890092480219
-1.1191213141774314   -0.129404123875722   -0.0237890092480219
-1.1191213141774314   -0.129404123875722   -0.0237890092480219
-1.1191213141774314   -0.129404123875722   -0.0237890092480219
-0.7217863669718542   0.012571231775699132   -0.005901915019247812
-0.7217863669718542   0.012571231775699132   -0.005901915019247812
-0.7217863669718542   0.012571231775699132   -0.005901915019247812
-0.7217863669718542   0.012571231775699132   -0.005901915019247812
-1.4886320522979388   -0.2554724989530831   -0.013863493466172681
-1.4886320522979388   -0.2554724989530831   -0.013863493466172681
-1.4886320522979388   -0.2554724989530831   -0.013863493466172681
-1.4886320522979388   -0.2554724989530831   -0.013863493466172681
-1.4218464667774064   -0.11438316636519391   -0.05906299142562611
-1.4218464667774064   -0.11438316636519391   -0.05906299142562611
-1.4218464667774064   -0.11438316636519391   -0.05906299142562611
-1.4218464667774064   -0.11438316636519391   -0.05906299142562611
-0.6997733442230049   -0.07087011193664235   0.0288941699688342
-0.6997733442230049   -0.07087011193664235   0.0288941699688342
-0.6997733442230049   -0.07087011193664235   0.0288941699688342
-0.6997733442230049   -0.07087011193664235   0.0288941699688342
-1.0651724986368158   -0.09814888244110584   -0.007834728551900552
-1.0651724986368158   -0.09814888244110584   -0.007834728551900552
-1.0651724986368158   -0.09814888244110584   -0.007834728551900552
-1.0651724986368158   -0.09814888244110584   -0.007834728551900552
-0.6849580303588514   0.042689370561860146   -0.010588743208910997
-0.6849580303588514   0.042689370561860146   -0.010588743208910997
-0.6849580303588514   0.042689370561860146   -0.010588743208910997
-0.6849580303588514   0.042689370561860146   -0.010588743208910997
-1.4391996360509913   -0.23048050427312772   -0.02973149988560603
-1.4391996360509913   -0.23048050427312772   -0.02973149988560603
-1.4391996360509913   -0.23048050427312772   -0.02973149988560603
-1.4391996360509913   -0.23048050427312772   -0.02973149988560603
-1.3792297866611913   -0.08002622457879299   -0.06094162127028209
-1.3792297866611913   -0.08002622457879299   -0.06094162127028209
-1.3792297866611913   -0.08002622457879299   -0.06094162127028209
-1.3792297866611913   -0.08002622457879299   -0.06094162127028209
-0.679271016708907   -0.05531561409018368   0.008835632681675469
-0.679271016708907   -0.05531561409018368   0.008835632681675469
-0.679271016708907   -0.05531561409018368   0.008835632681675469
-0.679271016708907   -0.05531561409018368   0.008835632681675469
-1.035373334046512   -0.0790920520051121   -0.0026316692836192215
-1.035373334046512   -0.0790920520051121   -0.0026316692836192215
-1.035373334046512   -0.0790920520051121   -0.0026316692836192215
-1.035373334046512   -0.0790920520051121   -0.0026316692836192215
-1.5016902889717956   -0.05107759336041695   -0.037284286720423526
-1.5016902889717956   -0.05107759336041695   -0.037284286720423526
-1.5016902889717956   -0.05107759336041695   -0.037284286720423526
-1.5016902889717956   -0.05107759336041695   -0.037284286720423526
-2.264334210011885   -0.1934023116928585   0.08574941691935861
-2.264334210011885   -0.1934023116928585   0.08574941691935861
-2.264334210011885   -0.1934023116928585   0.08574941691935861
-2.264334210011885   -0.1934023116928585   0.08574941691935861
-2.186450512903435   -0.15399640069930776   -0.04986017115717138
-2.186450512903435   -0.15399640069930776   -0.04986017115717138
-2.186450512903435   -0.15399640069930776   -0.04986017115717138
-2.186450512903435   -0.15399640069930776   -0.04986017115717138
-1.4109267135685324   0.04038901989868432   0.07880168132906872
-1.4109267135685324   0.04038901989868432   0.07880168132906872
-1.4109267135685324   0.04038901989868432   0.07880168132906872
-1.4109267135685324   0.04038901989868432   0.07880168132906872
-1.75850661457626   -0.060729369664245636   0.008343803145511017
-1.75850661457626   -0.060729369664245636   0.008343803145511017
-1.75850661457626   -0.060729369664245636   0.008343803145511017
-1.75850661457626   -0.060729369664245636   0.008343803145511017
-1.443780762205729   -0.003755270599968441   -0.04132427135824247
-1.443780762205729   -0.003755270599968441   -0.04132427135824247
-1.443780762205729   -0.003755270599968441   -0.04132427135824247
-1.443780762205729   -0.003755270599968441   -0.04132427135824247
-2.148297176005567   -0.104552821939973   0.09146293457281644
-2.148297176005567   -0.104552821939973   0.09146293457281644
-2.148297176005567   -0.104552821939973   0.09146293457281644
-2.148297176005567   -0.104552821939973   0.09146293457281644
-2.1029103940308898   -0.1295794962460357   -0.05937807819169855
-2.1029103940308898   -0.1295794962460357   -0.05937807819169855
-2.1029103940308898   -0.1295794962460357   -0.05937807819169855
-2.1029103940308898   -0.1295794962460357   -0.05937807819169855
-1.3589901902174055   0.06472987189052837   0.07610535311865627
-1.3589901902174055   0.06472987189052837   0.07610535311865627
-1.3589901902174055   0.06472987189052837   0.07610535311865627
-1.3589901902174055   0.06472987189052837   0.07610535311865627
-1.7091264375251003   -0.024498144023818946   0.03500480255302979
-1.7091264375251003   -0.024498144023818946   0.03500480255302979
-1.7091264375251003   -0.024498144023818946   0.03500480255302979
-1.7091264375251003   -0.024498144023818946   0.03500480255302979
-1.3930114338057684   0.015351427375680682   -0.04462242030829969
-1.3930114338057684   0.015351427375680682   -0.04462242030829969
-1.3930114338057684   0.015351427375680682   -0.04462242030829969
-1.3930114338057684   0.015351427375680682   -0.04462242030829969
-2.0678216622948957   -0.07913356358355228   0.06561964782580487
-2.0678216622948957   -0.07913356358355228   0.06561964782580487
-2.0678216622948957   -0.07913356358355228   0.06561964782580487
-2.0678216622948957   -0.07913356358355228   0.06561964782580487
-2.016519937729259   -0.10649156373377383   -0.0717549077830413
-2.016519937729259   -0.10649156373377383   -0.0717549077830413
-2.016519937729259   -0.10649156373377383   -0.0717549077830413
-2.016519937729259   -0.10649156373377383   -0.0717549077830413
-1.3204791149968942   0.093897339410485   0.058888173061935944
-1.3204791149968942   0.093897339410485   0.058888173061935944
-1.3204791149968942   0.093897339410485   0.058888173061935944
-1.3204791149968942   0.093897339410485   0.058888173061935944
-1.61627458526101   0.006482563272002306   0.06169279313075711
-1.61627458526101   0.006482563272002306   0.06169279313075711
-1.61627458526101   0.006482563272002306   0.06169279313075711
-1.61627458526101   0.006482563272002306   0.06169279313075711
1.994331694989043   0.11953613941727637   0.07237042998825555
1.994331694989043   0.11953613941727637   0.07237042998825555
1.994331694989043   0.11953613941727637   0.07237042998825555
1.994331694989043   0.11953613941727637   0.07237042998825555
0.9508568837609048   -0.1781657791992183   0.016266730277069638
0.9508568837609048   -0.1781657791992183   0.016266730277069638
0.9508568837609048   -0.1781657791992183   0.016266730277069638
0.9508568837609048   -0.1781657791992183   0.016266730277069638
1.0033948117741989   -0.0751206959990447   0.05569575335038997
1.0033948117741989   -0.0751206959990447   0.05569575335038997
1.0033948117741989   -0.0751206959990447   0.05569575335038997
1.0033948117741989   -0.0751206959990447   0.05569575335038997
2.004884120148341   0.016882480201828087   -0.016041535212902455
2.004884120148341   0.016882480201828087   -0.016041535212902455
2.004884120148341   0.016882480201828087   -0.016041535212902455
2.004884120148341   0.016882480201828087   -0.016041535212902455
1.4022252875907284   -0.03831527352484937   -0.09322788245648138
1.4022252875907284   -0.03831527352484937   -0.09322788245648138
1.4022252875907284   -0.03831527352484937   -0.09322788245648138
1.4022252875907284   -0.03831527352484937   -0.09322788245648138
2.0427755762821955   0.13306329280342988   0.057234932854766454
2.0427755762821955   0.13306329280342988   0.057234932854766454
2.0427755762821955   0.13306329280342988   0.057234932854766454
2.0427755762821955   0.13306329280342988   0.057234932854766454
0.9746002485165878   -0.18220461572440344   0.01880685678769313
0.9746002485165878   -0.18220461572440344   0.01880685678769313
0.9746002485165878   -0.18220461572440344   0.01880685678769313
0.9746002485165878   -0.18220461572440344   0.01880685678769313
1.0233125718548197   -0.06383835246545491   0.04238811844897229
1.0233125718548197   -0.06383835246545491   0.04238811844897229
1.0233125718548197   -0.06383835246545491   0.04238811844897229
1.0233125718548197   -0.06383835246545491   0.04238811844897229
2.040062319819891   0.02960531675974798   -0.004839328203353616
2.040062319819891   0.02960531675974798   -0.004839328203353616
2.040062319819891   0.02960531675974798   -0.004839328203353616
2.040062319819891   0.02960531675974798   -0.004839328203353616
1.4601152544430847   -0.030310698771648714   -0.0636745669581325
1.4601152544430847   -0.030310698771648714   -0.0636745669581325
1.4601152544430847   -0.030310698771648714   -0.0636745669581325
1.4601152544430847   -0.030310698771648714   -0.0636745669581325
2.0721160589184042   0.14537638172271694   0.03965830232624655
2.0721160589184042   0.14537638172271694   0.03965830232624655
2.0721160589184042   0.14537638172271694   0.03965830232624655
2.0721160589184042   0.14537638172271694   0.03965830232624655
0.9975870174798942   -0.17328123270483548   0.023203226813725553
0.9975870174798942   -0.17328123270483548   0.023203226813725553
0.9975870174798942   -0.17328123270483548   0.023203226813725553
0.9975870174798942   -0.17328123270483548   0.023203226813725553
1.052618114053354   -0.019849993772734054   0.03874961785548016
1.052618114053354   -0.019849993772734054   0.03874961785548016
1.052618114053354   -0.019849993772734054   0.03874961785548016
1.052618114053354   -0.019849993772734054   0.03874961785548016
2.0766376896822663   0.05873026715425822   -0.000720409729434518
2.0766376896822663   0.05873026715425822   -0.000720409729434518
2.0766376896822663   0.05873026715425822   -0.000720409729434518
2.0766376896822663   0.05873026715425822   -0.000720409729434518
1.4673475827356943   -0.014007330585548483   -0.047576695159931515
1.4673475827356943   -0.014007330585548483   -0.047576695159931515
1.4673475827356943   -0.014007330585548483   -0.047576695159931515
1.4673475827356943   -0.014007330585548483   -0.047576695159931515
1.0034776819154252   0.02539039606000762   0.07581454579044566
1.0034776819154252   0.02539039606000762   0.07581454579044566
1.0034776819154252   0.02539039606000762   0.07581454579044566
1.0034776819154252   0.02539039606000762   0.07581454579044566
0.05311963575299057   -0.3550517914812723   0.03651463717663851
0.05311963575299057   -0.3550517914812723   0.03651463717663851
0.05311963575299057   -0.3550517914812723   0.03651463717663851
0.05311963575299057   -0.3550517914812723   0.03651463717663851
0.12161117067493937   -0.15023101490253196   0.03403107244748637
0.12161117067493937   -0.15023101490253196   0.03403107244748637
0.12161117067493937   -0.15023101490253196   0.03403107244748637
0.12161117067493937   -0.15023101490253196   0.03403107244748637
0.9777162699617216   -0.17090784589010563   0.023090194179055515
0.9777162699617216   -0.17090784589010563   0.023090194179055515
0.9777162699617216   -0.17090784589010563   0.023090194179055515
0.9777162699617216   -0.17090784589010563   0.023090194179055515
0.5214640628112903   -0.15925648193656383   -0.05965300681395526
0.5214640628112903   -0.15925648193656383   -0.05965300681395526
0.5214640628112903   -0.15925648193656383   -0.05965300681395526
0.5214640628112903   -0.15925648193656383   -0.05965300681395526
1.0272925034054998   0.03675978354637782   0.06330373196147487
1.0272925034054998   0.03675978354637782   0.06330373196147487
1.0272925034054998   0.03675978354637782   0.06330373196147487
1.0272925034054998   0.03675978354637782   0.06330373196147487
0.08512276538445339   -0.34481081618572124   0.04616884727824559
0.08512276538445339   -0.34481081618572124   0.04616884727824559
0.08512276538445339   -0.34481081618572124   0.04616884727824559
0.08512276538445339   -0.34481081618572124   0.04616884727824559
0.1491573409510602   -0.12962746440435818   0.024675330781379123
0.1491573409510602   -0.12962746440435818   0.024675330781379123
0.1491573409510602   -0.12962746440435818   0.024675330781379123
0.1491573409510602   -0.12962746440435818   0.024675330781379123
1.001290206119053   -0.16012319512365256   0.028561132428337133
1.001290206119053   -0.16012319512365256   0.028561132428337133
1.001290206119053   -0.16012319512365256   0.028561132428337133
1.001290206119053   -0.16012319512365256   0.028561132428337133
0.5449211438483488   -0.1513742163874464   -0.02982704682078982
0.5449211438483488   -0.1513742163874464   -0.02982704682078982
0.5449211438483488   -0.1513742163874464   -0.02982704682078982
0.5449211438483488   -0.1513742163874464   -0.02982704682078982
1.0495034638002707   0.056172949292802254   0.05333127641797075
1.0495034638002707   0.056172949292802254   0.05333127641797075
1.0495034638002707   0.056172949292802254   0.05333127641797075
1.0495034638002707   0.056172949292802254   0.05333127641797075
0.11353624208458396   -0.3333314500060709   0.050273822050714345
0.11353624208458396   -0.3333314500060709   0.050273822050714345
0.11353624208458396   -0.3333314500060709   0.050273822050714345
0.11353624208458396   -0.3333314500060709   0.050273822050714345
0.19143110015314932   -0.09869991591786832   0.01635205695681225
0.19143110015314932   -0.09869991591786832   0.01635205695681225
0.19143110015314932   -0.09869991591786832   0.01635205695681225
0.19143110015314932   -0.09869991591786832   0.01635205695681225
1.0270959365132302   -0.14372710064935762   0.03501583703148756
1.0270959365132302   -0.14372710064935762   0.03501583703148756
1.0270959365132302   -0.14372710064935762   0.03501583703148756
1.0270959365132302   -0.14372710064935762   0.03501583703148756
0.5860216432098418   -0.13227160334913457   0.004879461525707618
0.5860216432098418   -0.13227160334913457   0.004879461525707618
0.5860216432098418   -0.13227160334913457   0.004879461525707618
0.5860216432098418   -0.13227160334913457   0.004879461525707618
0.11303784432594834   -0.06775726799836625   0.04881115655852131
0.11303784432594834   -0.06775726799836625   0.04881115655852131
0.11303784432594834   -0.06775726799836625   0.04881115655852131
0.11303784432594834   -0.06775726799836625   0.04881115655852131
-0.8520567152292474   -0.6099872947337285   0.052858249458867884
-0.8520567152292474   -0.6099872947337285   0.052858249458867884
-0.8520567152292474   -0.6099872947337285   0.052858249458867884
-0.8520567152292474   -0.6099872947337285   0.052858249458867884
-0.7437541289772245   -0.23743597154671392   0.0035642803510575055
-0.7437541289772245   -0.23743597154671392   0.0035642803510575055
-0.7437541289772245   -0.23743597154671392   0.0035642803510575055
-0.7437541289772245   -0.23743597154671392   0.0035642803510575055
0.06005411419501555   -0.44408093001330295   0.02009570515863815
0.06005411419501555   -0.44408093001330295   0.02009570515863815
0.06005411419501555   -0.44408093001330295   0.02009570515863815
0.06005411419501555   -0.44408093001330295   0.02009570515863815
-0.36684334273771746   -0.34225369074295975   -0.07158201413423036
-0.36684334273771746   -0.34225369074295975   -0.07158201413423036
-0.36684334273771746   -0.34225369074295975   -0.07158201413423036
-0.36684334273771746   -0.34225369074295975   -0.07158201413423036
0.1418822195317645   -0.05332541462442638   0.03848071645350634
0.1418822195317645   -0.05332541462442638   0.03848071645350634
0.1418822195317645   -0.05332541462442638   0.03848071645350634
0.1418822195317645   -0.05332541462442638   0.03848071645350634
-0.8066479535183824   -0.6092572061399986   0.06091639223855788
-0.8066479535183824   -0.6092572061399986   0.06091639223855788
-0.8066479535183824   -0.6092572061399986   0.06091639223855788
-0.8066479535183824   -0.6092572061399986   0.06091639223855788
-0.7019802065658225   -0.21307872610889655   1.1074665819052476e-05
-0.7019802065658225   -0.21307872610889655   1.1074665819052476e-05
-0.7019802065658225   -0.21307872610889655   1.1074665819052476e-05
-0.7019802065658225   -0.21307872610889655   1.1074665819052476e-05
0.08909147092929556   -0.4343385294634634   0.029057045731664816
0.08909147092929556   -0.4343385294634634   0.029057045731664816
0.08909147092929556   -0.4343385294634634   0.029057045731664816
0.08909147092929556   -0.4343385294634634   0.029057045731664816
-0.3245392006684012   -0.3305939301339594   -0.026707528166501807
-0.3245392006684012   -0.3305939301339594   -0.026707528166501807
-0.3245392006684012   -0.3305939301339594   -0.026707528166501807
-0.3245392006684012   -0.3305939301339594   -0.026707528166501807
0.16825333085652255   -0.03410722531393672   0.024635041218273222
0.16825333085652255   -0.03410722531393672   0.024635041218273222
0.16825333085652255   -0.03410722531393672   0.024635041218273222
0.16825333085652255   -0.03410722531393672   0.024635041218273222
-0.7640460749628479   -0.5962140387282301   0.0728170453000366
-0.7640460749628479   -0.5962140387282301   0.0728170453000366
-0.7640460749628479   -0.5962140387282301   0.0728170453000366
-0.7640460749628479   -0.5962140387282301   0.0728170453000366
-0.6330473960348489   -0.185019044683725   -0.007860329302221952
-0.6330473960348489   -0.185019044683725   -0.007860329302221952
-0.6330473960348489   -0.185019044683725   -0.007860329302221952
-0.6330473960348489   -0.185019044683725   -0.007860329302221952
0.13442072315991835   -0.407097293495172   0.03969754956796104
0.13442072315991835   -0.407097293495172   0.03969754956796104
0.13442072315991835   -0.407097293495172   0.03969754956796104
0.13442072315991835   -0.407097293495172   0.03969754956796104
-0.2696324878137815   -0.3044512121043915   0.020275142764708057
-0.2696324878137815   -0.3044512121043915   0.020275142764708057
-0.2696324878137815   -0.3044512121043915   0.020275142764708057
-0.2696324878137815   -0.3044512121043915   0.020275142764708057
-0.760430379976576   -0.1222613278933672   0.023263958881856537
-0.760430379976576   -0.1222613278933672   0.023263958881856537
-0.760430379976576   -0.1222613278933672   0.023263958881856537
-0.760430379976576   -0.1222613278933672   0.023263958881856537
-1.8962603466159007   -0.9496837106037277   -0.04482897056852583
-1.8962603466159007   -0.9496837106037277   -0.04482897056852583
-1.8962603466159007   -0.9496837106037277   -0.04482897056852583
-1.8962603466159007   -0.9496837106037277   -0.04482897056852583
-1.7175096142351616   -0.30895193042092906   -0.05238308886817979
-1.7175096142351616   -0.30895193042092906   -0.05238308886817979
-1.7175096142351616   -0.30895193042092906   -0.05238308886817979
-1.7175096142351616   -0.30895193042092906   -0.05238308886817979
-0.8526398343769492   -0.7941994189752944   0.01589920078101356
-0.8526398343769492   -0.7941994189752944   0.01589920078101356
-0.8526398343769492   -0.7941994189752944   0.01589920078101356
-0.8526398343769492   -0.7941994189752944   0.01589920078101356
-1.305230559153343   -0.5617181520234698   -0.07518277279772209
-1.305230559153343   -0.5617181520234698   -0.07518277279772209
-1.305230559153343   -0.5617181520234698   -0.07518277279772209
-1.305230559153343   -0.5617181520234698   -0.07518277279772209
-0.7110749143199638   -0.0927362468717701   0.022260628962416852
-0.7110749143199638   -0.0927362468717701   0.022260628962416852
-0.7110749143199638   -0.0927362468717701   0.022260628962416852
-0.7110749143199638   -0.0927362468717701   0.022260628962416852
-1.8547897339347532   -1.0061303021670571   -0.04160531561999578
-1.8547897339347532   -1.0061303021670571   -0.04160531561999578
-1.8547897339347532   -1.0061303021670571   -0.04160531561999578
-1.8547897339347532   -1.0061303021670571   -0.04160531561999578
-1.661908832827907   -0.2797509516746872   -0.0533745401164879
-1.661908832827907   -0.2797509516746872   -0.0533745401164879
-1.661908832827907   -0.2797509516746872   -0.0533745401164879
-1.661908832827907   -0.2797509516746872   -0.0533745401164879
-0.81214668680997   -0.7879734495600405   0.024073396896230448
-0.81214668680997   -0.7879734495600405   0.024073396896230448
-0.81214668680997   -0.7879734495600405   0.024073396896230448
-0.81214668680997   -0.7879734495600405   0.024073396896230448
-1.2468992514026862   -0.5465465380934839   -0.05276954781827961
-1.2468992514026862   -0.5465465380934839   -0.05276954781827961
-1.2468992514026862   -0.5465465380934839   -0.05276954781827961
-1.2468992514026862   -0.5465465380934839   -0.05276954781827961
-0.671780006486985   -0.06955300716081882   0.007486356111932071
-0.671780006486985   -0.06955300716081882   0.007486356111932071
-0.671780006486985   -0.06955300716081882   0.007486356111932071
-0.671780006486985   -0.06955300716081882   0.007486356111932071
-1.8022023785268644   -0.9980982594498687   -0.036494960836078394
-1.8022023785268644   -0.9980982594498687   -0.036494960836078394
-1.8022023785268644   -0.9980982594498687   -0.036494960836078394
-1.8022023785268644   -0.9980982594498687   -0.036494960836078394
-1.5751820526827942   -0.24836596280495032   -0.060505074918331916
-1.5751820526827942   -0.24836596280495032   -0.060505074918331916
-1.5751820526827942   -0.24836596280495032   -0.060505074918331916
-1.5751820526827942   -0.24836596280495032   -0.060505074918331916
-0.7245414519578206   -0.7085920260395718   0.05824237243877256
-0.7245414519578206   -0.7085920260395718   0.05824237243877256
-0.7245414519578206   -0.7085920260395718   0.05824237243877256
-0.7245414519578206   -0.7085920260395718   0.05824237243877256
-1.1818160441077838   -0.49543304229624385   -0.029398564876602015
-1.1818160441077838   -0.49543304229624385   -0.029398564876602015
-1.1818160441077838   -0.49543304229624385   -0.029398564876602015
-1.1818160441077838   -0.49543304229624385   -0.029398564876602015
-1.720613159593643   -0.10421944517106219   -0.012057300889901923
-1.720613159593643   -0.10421944517106219   -0.012057300889901923
-1.720613159593643   -0.10421944517106219   -0.012057300889901923
-1.720613159593643   -0.10421944517106219   -0.012057300889901923
-3.0367837051910374   -0.601161102113534   0.030978194623367594
-3.0367837051910374   -0.601161102113534   0.030978194623367594
-3.0367837051910374   -0.601161102113534   0.030978194623367594
-3.0367837051910374   -0.601161102113534   0.030978194623367594
-2.917170791415955   -0.28942460348040683   -0.06402235771896432
-2.917170791415955   -0.28942460348040683   -0.06402235771896432
-2.917170791415955   -0.28942460348040683   -0.06402235771896432
-2.917170791415955   -0.28942460348040683   -0.06402235771896432
-1.6823918335094334   -0.3113563248616502   0.12561020920118232
-1.6823918335094334   -0.3113563248616502   0.12561020920118232
-1.6823918335094334   -0.3113563248616502   0.12561020920118232
-1.6823918335094334   -0.3113563248616502   0.12561020920118232
-2.244472466184593   -0.3487171995773098   0.032179186732544704
-2.244472466184593   -0.3487171995773098   0.032179186732544704
-2.244472466184593   -0.3487171995773098   0.032179186732544704
-2.244472466184593   -0.3487171995773098   0.032179186732544704
-1.6497774995496541   -0.023063635613055855   0.0003891897514897019
-1.6497774995496541   -0.023063635613055855   0.0003891897514897019
-1.6497774995496541   -0.023063635613055855   0.0003891897514897019
-1.6497774995496541   -0.023063635613055855   0.0003891897514897019
-2.961183330976432   -0.589115498329702   0.015605839327922033
-2.961183330976432   -0.589115498329702   0.015605839327922033
-2.961183330976432   -0.589115498329702   0.015605839327922033
-2.961183330976432   -0.589115498329702   0.015605839327922033
-2.8512626323325225   -0.2651975058512024   -0.08125909347481897
-2.8512626323325225   -0.2651975058512024   -0.08125909347481897
-2.8512626323325225   -0.2651975058512024   -0.08125909347481897
-2.8512626323325225   -0.2651975058512024   -0.08125909347481897
-1.6251545128550924   -0.29575140079702994   0.14639750886994263
-1.6251545128550924   -0.29575140079702994   0.14639750886994263
-1.6251545128550924   -0.29575140079702994   0.14639750886994263
-1.6251545128550924   -0.29575140079702994   0.14639750886994263
-2.2096663015865867   -0.287180023776151   0.030931084731114847
-2.2096663015865867   -0.287180023776151   0.030931084731114847
-2.2096663015865867   -0.287180023776151   0.030931084731114847
-2.2096663015865867   -0.287180023776151   0.030931084731114847
-1.5987843251081153   -0.0016255136248314872   -0.015877439567371587
-1.5987843251081153   -0.0016255136248314872   -0.015877439567371587
-1.5987843251081153   -0.0016255136248314872   -0.015877439567371587
-1.5987843251081153   -0.0016255136248314872   -0.015877439567371587
-2.8818233628972707   -0.5635139358411765   0.06425368369138851
-2.8818233628972707   -0.5635139358411765   0.06425368369138851
-2.8818233628972707   -0.5635139358411765   0.06425368369138851
-2.8818233628972707   -0.5635139358411765   0.06425368369138851
-2.7144011786445787   -0.2148318921634747   -0.09083592116011664
-2.7144011786445787   -0.2148318921634747   -0.09083592116011664
-2.7144011786445787   -0.2148318921634747   -0.09083592116011664
-2.7144011786445787   -0.2148318921634747   -0.09083592116011664
-1.5361295038314704   -0.2749562995496866   0.16134800608303723
-1.5361295038314704   -0.2749562995496866   0.16134800608303723
-1.5361295038314704   -0.2749562995496866   0.16134800608303723
-1.5361295038314704   -0.2749562995496866   0.16134800608303723
-2.0773379992992895   -0.21953404343617455   0.06338296418457176
-2.0773379992992895   -0.21953404343617455   0.06338296418457176
-2.0773379992992895   -0.21953404343617455   0.06338296418457176
-2.0773379992992895   -0.21953404343617455   0.06338296418457176
2.184391984446288   0.07144229500386307   0.0307720006070938
2.184391984446288   0.07144229500386307   0.0307720006070938
2.184391984446288   0.07144229500386307   0.0307720006070938
2.184391984446288   0.07144229500386307   0.0307720006070938
1.1155630851754226   -0.058669186059132294   0.022702579819672136
1.1155630851754226   -0.058669186059132294   0.022702579819672136
1.1155630851754226   -0.058669186059132294   0.022702579819672136
1.1155630851754226   -0.058669186059132294   0.022702579819672136
1.0719066205163295   -0.15758619373791055   0.04459259472041609
1.0719066205163295   -0.15758619373791055   0.04459259472041609
1.0719066205163295   -0.15758619373791055   0.04459259472041609
1.0719066205163295   -0.15758619373791055   0.04459259472041609
2.1685262818957045   0.12219139897752163   0.016451431380839834
2.1685262818957045   0.12219139897752163   0.016451431380839834
2.1685262818957045   0.12219139897752163   0.016451431380839834
2.1685262818957045   0.12219139897752163   0.016451431380839834
1.5479513515980072   -0.02201965639789738   -0.05714778191712351
1.5479513515980072   -0.02201965639789738   -0.05714778191712351
1.5479513515980072   -0.02201965639789738   -0.05714778191712351
1.5479513515980072   -0.02201965639789738   -0.05714778191712351
2.156536658608774   0.05513353143436445   0.02356118248934637
2.156536658608774   0.05513353143436445   0.02356118248934637
2.156536658608774   0.05513353143436445   0.02356118248934637
2.156536658608774   0.05513353143436445   0.02356118248934637
1.0803200829635415   -0.09410448703447116   0.02317820025303853
1.0803200829635415   -0.09410448703447116   0.02317820025303853
1.0803200829635415   -0.09410448703447116   0.02317820025303853
1.0803200829635415   -0.09410448703447116   0.02317820025303853
1.0440792094870017   -0.16124450545919555   0.0368946710348175
1.0440792094870017   -0.16124450545919555   0.0368946710348175
1.0440792094870017   -0.16124450545919555   0.0368946710348175
1.0440792094870017   -0.16124450545919555   0.0368946710348175
2.143086322454959   0.11687817771561099   0.028432910968340663
2.143086322454959   0.11687817771561099   0.028432910968340663
2.143086322454959   0.11687817771561099   0.028432910968340663
2.143086322454959   0.11687817771561099   0.028432910968340663
1.5432772992365187   -0.03037851299974681   -0.06619145322128306
1.5432772992365187   -0.03037851299974681   -0.06619145322128306
1.5432772992365187   -0.03037851299974681   -0.06619145322128306
1.5432772992365187   -0.03037851299974681   -0.06619145322128306
2.125239760058993   0.049020271490873735   0.007058005213233964
2.125239760058993   0.049020271490873735   0.007058005213233964
2.125239760058993   0.049020271490873735   0.007058005213233964
2.125239760058993   0.049020271490873735   0.007058005213233964
1.0555079942370322   -0.09980437688040628   0.0325984662061809
1.0555079942370322   -0.09980437688040628   0.0325984662061809
1.0555079942370322   -0.09980437688040628   0.0325984662061809
1.0555079942370322   -0.09980437688040628   0.0325984662061809
1.0147138019368966   -0.14713902333303147   0.03185702557948683
1.0147138019368966   -0.14713902333303147   0.03185702557948683
1.0147138019368966   -0.14713902333303147   0.03185702557948683
1.0147138019368966   -0.14713902333303147   0.03185702557948683
2.103875079407247   0.11814216256320176   0.040859555563371314
2.103875079407247   0.11814216256320176   0.040859555563371314
2.103875079407247   0.11814216256320176   0.040859555563371314
2.103875079407247   0.11814216256320176   0.040859555563371314
1.4852350941358294   -0.030633500597119945   -0.08940289152357893
1.4852350941358294   -0.030633500597119945   -0.08940289152357893
1.4852350941358294   -0.030633500597119945   -0.08940289152357893
1.4852350941358294   -0.030633500597119945   -0.08940289152357893
1.1054931913863315   -0.1409526856890959   0.054636610504179436
1.1054931913863315   -0.1409526856890959   0.054636610504179436
1.1054931913863315   -0.1409526856890959   0.054636610504179436
1.1054931913863315   -0.1409526856890959   0.054636610504179436
0.21524363355101972   -0.13165744437938895   0.01176503913028136
0.21524363355101972   -0.13165744437938895   0.01176503913028136
0.21524363355101972   -0.13165744437938895   0.01176503913028136
0.21524363355101972   -0.13165744437938895   0.01176503913028136
0.13996537127744796   -0.33135128744501513   0.05862388508878143
0.13996537127744796   -0.33135128744501513   0.05862388508878143
0.13996537127744796   -0.33135128744501513   0.05862388508878143
0.13996537127744796   -0.33135128744501513   0.05862388508878143
1.111541033041857   0.04295538083779843   0.04222308277234513
1.111541033041857   0.04295538083779843   0.04222308277234513
1.111541033041857   0.04295538083779843   0.04222308277234513
1.111541033041857   0.04295538083779843   0.04222308277234513
0.633179472748802   -0.14081252124866267   -0.002420895949702684
0.633179472748802   -0.14081252124866267   -0.002420895949702684
0.633179472748802   -0.14081252124866267   -0.002420895949702684
0.633179472748802   -0.14081252124866267   -0.002420895949702684
1.0742444313306403   -0.14706763453443322   0.045763089588498465
1.0742444313306403   -0.14706763453443322   0.045763089588498465
1.0742444313306403   -0.14706763453443322   0.045763089588498465
1.0742444313306403   -0.14706763453443322   0.045763089588498465
0.167843625612977   -0.1507466194484702   0.0174104887698818
0.167843625612977   -0.1507466194484702   0.0174104887698818
0.167843625612977   -0.1507466194484702   0.0174104887698818
0.167843625612977   -0.1507466194484702   0.0174104887698818
0.10625634159370048   -0.33434442641973194   0.05248884047329286
0.10625634159370048   -0.33434442641973194   0.05248884047329286
0.10625634159370048   -0.33434442641973194   0.05248884047329286
0.10625634159370048   -0.33434442641973194   0.05248884047329286
1.0858774863737957   0.03460914305633997   0.05003240695325157
1.0858774863737957   0.03460914305633997   0.05003240695325157
1.0858774863737957   0.03460914305633997   0.05003240695325157
1.0858774863737957   0.03460914305633997   0.05003240695325157
0.5874059334015969   -0.15009061982768496   -0.030384248811184497
0.5874059334015969   -0.15009061982768496   -0.030384248811184497
0.5874059334015969   -0.15009061982768496   -0.030384248811184497
0.5874059334015969   -0.15009061982768496   -0.030384248811184497
1.0466792534758649   -0.14918961252830015   0.03783999804822599
1.0466792534758649   -0.14918961252830015   0.03783999804822599
1.0466792534758649   -0.14918961252830015   0.03783999804822599
1.0466792534758649   -0.14918961252830015   0.03783999804822599
0.1352201390003934   -0.16078010632632142   0.023743507413346972
0.1352201390003934   -0.16078010632632142   0.023743507413346972
0.1352201390003934   -0.16078010632632142   0.023743507413346972
0.1352201390003934   -0.16078010632632142   0.023743507413346972
0.0685342451145203   -0.33422360812897267   0.04109499103212205
0.0685342451145203   -0.33422360812897267   0.04109499103212205
0.0685342451145203   -0.33422360812897267   0.04109499103212205
0.0685342451145203   -0.33422360812897267   0.04109499103212205
1.0567519941486383   0.03508401811715567   0.05982494518801448
1.0567519941486383   0.03508401811715567   0.05982494518801448
1.0567519941486383   0.03508401811715567   0.05982494518801448
1.0567519941486383   0.03508401811715567   0.05982494518801448
0.5594317884349946   -0.1489720399647777   -0.05417734571616209
0.5594317884349946   -0.1489720399647777   -0.05417734571616209
0.5594317884349946   -0.1489720399647777   -0.05417734571616209
0.5594317884349946   -0.1489720399647777   -0.05417734571616209
0.16767831254055862   -0.40679645094318684   0.04907744064177
0.16767831254055862   -0.40679645094318684   0.04907744064177
0.16767831254055862   -0.40679645094318684   0.04907744064177
0.16767831254055862   -0.40679645094318684   0.04907744064177
-0.6502364708500381   -0.2043738985390678   0.0007869792592264876
-0.6502364708500381   -0.2043738985390678   0.0007869792592264876
-0.6502364708500381   -0.2043738985390678   0.0007869792592264876
-0.6502364708500381   -0.2043738985390678   0.0007869792592264876
-0.7864268369572756   -0.6039582546494658   0.06719003313011479
-0.7864268369572756   -0.6039582546494658   0.06719003313011479
-0.7864268369572756   -0.6039582546494658   0.06719003313011479
-0.7864268369572756   -0.6039582546494658   0.06719003313011479
0.1928997800586292   -0.03473592979834042   0.02668057134801296
0.1928997800586292   -0.03473592979834042   0.02668057134801296
0.1928997800586292   -0.03473592979834042   0.02668057134801296
0.1928997800586292   -0.03473592979834042   0.02668057134801296
-0.26541123306171666   -0.30806790917569293   0.011571080289100616
-0.26541123306171666   -0.30806790917569293   0.011571080289100616
-0.26541123306171666   -0.30806790917569293   0.011571080289100616
-0.26541123306171666   -0.30806790917569293   0.011571080289100616
0.1155663807081232   -0.42995174065248376   0.03522938544962628
0.1155663807081232   -0.42995174065248376   0.03522938544962628
0.1155663807081232   -0.42995174065248376   0.03522938544962628
0.1155663807081232   -0.42995174065248376   0.03522938544962628
-0.7222680519809654   -0.22191705816951945   0.005942761531712526
-0.7222680519809654   -0.22191705816951945   0.005942761531712526
-0.7222680519809654   -0.22191705816951945   0.005942761531712526
-0.7222680519809654   -0.22191705816951945   0.005942761531712526
-0.8333908746153558   -0.6137109977805275   0.05467704969105744
-0.8333908746153558   -0.6137109977805275   0.05467704969105744
-0.8333908746153558   -0.6137109977805275   0.05467704969105744
-0.8333908746153558   -0.6137109977805275   0.05467704969105744
0.1613177818910384   -0.04400252364578125   0.03745413918603188
0.1613177818910384   -0.04400252364578125   0.03745413918603188
0.1613177818910384   -0.04400252364578125   0.03745413918603188
0.1613177818910384   -0.04400252364578125   0.03745413918603188
-0.32409134960615865   -0.3268279253876879   -0.027631252135741177
-0.32409134960615865   -0.3268279253876879   -0.027631252135741177
-0.32409134960615865   -0.3268279253876879   -0.027631252135741177
-0.32409134960615865   -0.3268279253876879   -0.027631252135741177
0.0796595738809193   -0.4375035024346172   0.022664077924272164
0.0796595738809193   -0.4375035024346172   0.022664077924272164
0.0796595738809193   -0.4375035024346172   0.022664077924272164
0.0796595738809193   -0.4375035024346172   0.022664077924272164
-0.7673950192733509   -0.2358723716597967   0.006817700280344022
-0.7673950192733509   -0.2358723716597967   0.006817700280344022
-0.7673950192733509   -0.2358723716597967   0.006817700280344022
-0.7673950192733509   -0.2358723716597967   0.006817700280344022
-0.8842744701030394   -0.6095552158935696   0.04610313083893039
-0.8842744701030394   -0.6095552158935696   0.04610313083893039
-0.8842744701030394   -0.6095552158935696   0.04610313083893039
-0.8842744701030394   -0.6095552158935696   0.04610313083893039
0.12617545987792103   -0.049177613444969195   0.04425507016512217
0.12617545987792103   -0.049177613444969195   0.04425507016512217
0.12617545987792103   -0.049177613444969195   0.04425507016512217
0.12617545987792103   -0.049177613444969195   0.04425507016512217
-0.37169101856305453   -0.33397034374222084   -0.0667719044006412
-0.37169101856305453   -0.33397034374222084   -0.0667719044006412
-0.37169101856305453   -0.33397034374222084   -0.0667719044006412
-0.37169101856305453   -0.33397034374222084   -0.0667719044006412
-0.7372986510254619   -0.6972542845027715   0.05835646434581637
-0.7372986510254619   -0.6972542845027715   0.05835646434581637
-0.7372986510254619   -0.6972542845027715   0.05835646434581637
-0.7372986510254619   -0.6972542845027715   0.05835646434581637
-1.6345137769715143   -0.2544710236072787   -0.03789991766528425
-1.6345137769715143   -0.2544710236072787   -0.03789991766528425
-1.6345137769715143   -0.2544710236072787   -0.03789991766528425
-1.6345137769715143   -0.2544710236072787   -0.03789991766528425
-1.8724901415799438   -1.0118509979793895   -0.05250838703646679
-1.8724901415799438   -1.0118509979793895   -0.05250838703646679
-1.8724901415799438   -1.0118509979793895   -0.05250838703646679
-1.8724901415799438   -1.0118509979793895   -0.05250838703646679
-0.6859324909780442   -0.05734920547053268   0.023052713847332283
-0.6859324909780442   -0.05734920547053268   0.023052713847332283
-0.6859324909780442   -0.05734920547053268   0.023052713847332283
-0.6859324909780442   -0.05734920547053268   0.023052713847332283
-1.2207663829585973   -0.485659491924913   -0.04192117579429282
-1.2207663829585973   -0.485659491924913   -0.04192117579429282
-1.2207663829585973   -0.485659491924913   -0.04192117579429282
-1.2207663829585973   -0.485659491924913   -0.04192117579429282
-0.8330685107498598   -0.7895502604187782   0.01957366993650575
-0.8330685107498598   -0.7895502604187782   0.01957366993650575
-0.8330685107498598   -0.7895502604187782   0.01957366993650575
-0.8330685107498598   -0.7895502604187782   0.01957366993650575
-1.7215730618225953   -0.27586888304561286   -0.03390510318351734
-1.7215730618225953   -0.27586888304561286   -0.03390510318351734
-1.7215730618225953   -0.27586888304561286   -0.03390510318351734
-1.7215730618225953   -0.27586888304561286   -0.03390510318351734
-1.92834010746054   -1.0281715406747256   -0.060723638026686844
-1.92834010746054   -1.0281715406747256   -0.060723638026686844
-1.92834010746054   -1.0281715406747256   -0.060723638026686844
-1.92834010746054   -1.0281715406747256   -0.060723638026686844
-0.7292068616675078   -0.07254357881545502   0.03442969546521693
-0.7292068616675078   -0.07254357881545502   0.03442969546521693
-0.7292068616675078   -0.07254357881545502   0.03442969546521693
-0.7292068616675078   -0.07254357881545502   0.03442969546521693
-1.289004775744551   -0.53804184610897   -0.059239417214340256
-1.289004775744551   -0.53804184610897   -0.059239417214340256
-1.289004775744551   -0.53804184610897   -0.059239417214340256
-1.289004775744551   -0.53804184610897   -0.059239417214340256
-0.8810627954246893   -0.8050417175745498   0.007648165438402826
-0.8810627954246893   -0.8050417175745498   0.007648165438402826
-0.8810627954246893   -0.8050417175745498   0.007648165438402826
-0.8810627954246893   -0.8050417175745498   0.007648165438402826
-1.7767010017181863   -0.2958902299304712   -0.034809420059185636
-1.7767010017181863   -0.2958902299304712   -0.034809420059185636
-1.7767010017181863   -0.2958902299304712   -0.034809420059185636
-1.7767010017181863   -0.2958902299304712   -0.034809420059185636
-1.9759895708769848   -0.9842257018691509   -0.06847788778995892
-1.9759895708769848   -0.9842257018691509   -0.06847788778995892
-1.9759895708769848   -0.9842257018691509   -0.06847788778995892
-1.9759895708769848   -0.9842257018691509   -0.06847788778995892
-0.7840091342622576   -0.09399563122104788   0.031870225370312436
-0.7840091342622576   -0.09399563122104788   0.031870225370312436
-0.7840091342622576   -0.09399563122104788   0.031870225370312436
-0.7840091342622576   -0.09399563122104788   0.031870225370312436
-1.3518268861506213   -0.5559215427486395   -0.07577006905017748
-1.3518268861506213   -0.5559215427486395   -0.07577006905017748
-1.3518268861506213   -0.5559215427486395   -0.07577006905017748
-1.3518268861506213   -0.5559215427486395   -0.07577006905017748
-1.6054995872201627   -0.2921332632893327   0.14483327077349917
-1.6054995872201627   -0.2921332632893327   0.14483327077349917
-1.6054995872201627   -0.2921332632893327   0.14483327077349917
-1.6054995872201627   -0.2921332632893327   0.14483327077349917
-2.8282661142030916   -0.2117658014885671   -0.050352622927295324
-2.8282661142030916   -0.2117658014885671   -0.050352622927295324
-2.8282661142030916   -0.2117658014885671   -0.050352622927295324
-2.8282661142030916   -0.2117658014885671   -0.050352622927295324
-3.001634679805323   -0.5923738457671054   0.03976545096979622
-3.001634679805323   -0.5923738457671054   0.03976545096979622
-3.001634679805323   -0.5923738457671054   0.03976545096979622
-3.001634679805323   -0.5923738457671054   0.03976545096979622
-1.65202917405893   0.02371187079209075   0.014233581797105752
-1.65202917405893   0.02371187079209075   0.014233581797105752
-1.65202917405893   0.02371187079209075   0.014233581797105752
-1.65202917405893   0.02371187079209075   0.014233581797105752
-2.163662782325607   -0.20809645376076016   0.0435139989422148
-2.163662782325607   -0.20809645376076016   0.0435139989422148
-2.163662782325607   -0.20809645376076016   0.0435139989422148
-2.163662782325607   -0.20809645376076016   0.0435139989422148
-1.696637324085197   -0.31362210360455645   0.1285268060624149
-1.696637324085197   -0.31362210360455645   0.1285268060624149
-1.696637324085197   -0.31362210360455645   0.1285268060624149
-1.696637324085197   -0.31362210360455645   0.1285268060624149
-2.949418679300515   -0.24743202089191335   -0.04409637138132956
-2.949418679300515   -0.24743202089191335   -0.04409637138132956
-2.949418679300515   -0.24743202089191335   -0.04409637138132956
-2.949418679300515   -0.24743202089191335   -0.04409637138132956
-3.0752793173217627   -0.6176394949160346   -0.012918157258410612
-3.0752793173217627   -0.6176394949160346   -0.012918157258410612
-3.0752793173217627   -0.6176394949160346   -0.012918157258410612
-3.0752793173217627   -0.6176394949160346   -0.012918157258410612
-1.704000220696981   0.006684177888034659   0.026120077228335023
-1.704000220696981   0.006684177888034659   0.026120077228335023
-1.704000220696981   0.006684177888034659   0.026120077228335023
-1.704000220696981   0.006684177888034659   0.026120077228335023
-2.2932902214279722   -0.2747651470354243   0.017948903328191962
-2.2932902214279722   -0.2747651470354243   0.017948903328191962
-2.2932902214279722   -0.2747651470354243   0.017948903328191962
-2.2932902214279722   -0.2747651470354243   0.017948903328191962
-1.7551886444782643   -0.32972108471138517   0.10658322092133832
-1.7551886444782643   -0.32972108471138517   0.10658322092133832
-1.7551886444782643   -0.32972108471138517   0.10658322092133832
-1.7551886444782643   -0.32972108471138517   0.10658322092133832
-3.008835924942248   -0.2659792637183794   -0.032361426558468034
-3.008835924942248   -0.2659792637183794   -0.032361426558468034
-3.008835924942248   -0.2659792637183794   -0.032361426558468034
-3.008835924942248   -0.2659792637183794   -0.032361426558468034
-3.1394314688996836   -0.6279159623417796   -0.00014834280921471876
-3.1394314688996836   -0.6279159623417796   -0.00014834280921471876
-3.1394314688996836   -0.6279159623417796   -0.00014834280921471876
-3.1394314688996836   -0.6279159623417796   -0.00014834280921471876
-1.7769642255456226   -0.06824403680309965   0.010667173800801455
-1.7769642255456226   -0.06824403680309965   0.010667173800801455
-1.7769642255456226   -0.06824403680309965   0.010667173800801455
-1.7769642255456226   -0.06824403680309965   0.010667173800801455
-2.321346540096373   -0.33203507562893375   0.02834259735263575
-2.321346540096373   -0.33203507562893375   0.02834259735263575
-2.321346540096373   -0.33203507562893375   0.02834259735263575
-2.321346540096373   -0.33203507562893375   0.02834259735263575
1.9124752586879838   0.08784721048771232   -0.0416276109586661
1.9124752586879838   0.08784721048771232   -0.0416276109586661
1.9124752586879838   0.08784721048771232   -0.0416276109586661
1.9124752586879838   0.08784721048771232   -0.0416276109586661
0.9628449867222457   -0.01925754681326125   0.02052043040639257
0.9628449867222457   -0.01925754681326125   0.02052043040639257
0.9628449867222457   -0.01925754681326125   0.02052043040639257
0.9628449867222457   -0.01925754681326125   0.02052043040639257
0.9014612800873514   -0.1418632046432709   -0.03675658491476984
0.9014612800873514   -0.1418632046432709   -0.03675658491476984
0.9014612800873514   -0.1418632046432709   -0.03675658491476984
0.9014612800873514   -0.1418632046432709   -0.03675658491476984
1.8902950246035912   0.13812447704344488   0.02400868611833984
1.8902950246035912   0.13812447704344488   0.02400868611833984
1.8902950246035912   0.13812447704344488   0.02400868611833984
1.8902950246035912   0.13812447704344488   0.02400868611833984
1.3425018327094211   0.0032906311539358524   -0.05186180024635868
1.3425018327094211   0.0032906311539358524   -0.05186180024635868
1.3425018327094211   0.0032906311539358524   -0.05186180024635868
1.3425018327094211   0.0032906311539358524   -0.05186180024635868
1.8591970653170458   0.04863661894286375   -0.04199325221379106
1.8591970653170458   0.04863661894286375   -0.04199325221379106
1.8591970653170458   0.04863661894286375   -0.04199325221379106
1.8591970653170458   0.04863661894286375   -0.04199325221379106
0.9308286097937046   -0.05410597612288082   0.022322835096598326
0.9308286097937046   -0.05410597612288082   0.022322835096598326
0.9308286097937046   -0.05410597612288082   0.022322835096598326
0.9308286097937046   -0.05410597612288082   0.022322835096598326
0.8684153555309987   -0.14981142440433803   -0.03034413270744421
0.8684153555309987   -0.14981142440433803   -0.03034413270744421
0.8684153555309987   -0.14981142440433803   -0.03034413270744421
0.8684153555309987   -0.14981142440433803   -0.03034413270744421
1.8443786819441974   0.12687046756229148   0.035069247619145566
1.8443786819441974   0.12687046756229148   0.035069247619145566
1.8443786819441974   0.12687046756229148   0.035069247619145566
1.8443786819441974   0.12687046756229148   0.035069247619145566
1.3243984747613209   -0.01347657666865093   -0.06195104664483907
1.3243984747613209   -0.01347657666865093   -0.06195104664483907
1.3243984747613209   -0.01347657666865093   -0.06195104664483907
1.3243984747613209   -0.01347657666865093   -0.06195104664483907
1.8130537205088535   0.0385400472780546   -0.03322513927333598
1.8130537205088535   0.0385400472780546   -0.03322513927333598
1.8130537205088535   0.0385400472780546   -0.03322513927333598
1.8130537205088535   0.0385400472780546   -0.03322513927333598
0.8973434348105556   -0.063877886275888   0.028362725561889873
0.8973434348105556   -0.063877886275888   0.028362725561889873
0.8973434348105556   -0.063877886275888   0.028362725561889873
0.8973434348105556   -0.063877886275888   0.028362725561889873
0.836401415606223   -0.14768424597754676   -0.02079882333940905
0.836401415606223   -0.14768424597754676   -0.02079882333940905
0.836401415606223   -0.14768424597754676   -0.02079882333940905
0.836401415606223   -0.14768424597754676   -0.02079882333940905
1.7875179819266744   0.11917524993421397   0.045604567954802985
1.7875179819266744   0.11917524993421397   0.045604567954802985
1.7875179819266744   0.11917524993421397   0.045604567954802985
1.7875179819266744   0.11917524993421397   0.045604567954802985
1.2587899745051336   -0.023526926325594943   -0.08139720450788249
1.2587899745051336   -0.023526926325594943   -0.08139720450788249
1.2587899745051336   -0.023526926325594943   -0.08139720450788249
1.2587899745051336   -0.023526926325594943   -0.08139720450788249
0.9679539614153452   0.018244303982621335   0.008563453076007366
0.9679539614153452   0.018244303982621335   0.008563453076007366
0.9679539614153452   0.018244303982621335   0.008563453076007366
0.9679539614153452   0.018244303982621335   0.008563453076007366
0.0935605123215031   -0.05791275151744699   -0.0021518731810877337
0.0935605123215031   -0.05791275151744699   -0.0021518731810877337
0.0935605123215031   -0.05791275151744699   -0.0021518731810877337
0.0935605123215031   -0.05791275151744699   -0.0021518731810877337
0.035719296107884324   -0.18772421979162365   -0.03535318344079266
0.035719296107884324   -0.18772421979162365   -0.03535318344079266
0.035719296107884324   -0.18772421979162365   -0.03535318344079266
0.035719296107884324   -0.18772421979162365   -0.03535318344079266
0.9691303491282293   0.11174711949674951   0.04797843614959145
0.9691303491282293   0.11174711949674951   0.04797843614959145
0.9691303491282293   0.11174711949674951   0.04797843614959145
0.9691303491282293   0.11174711949674951   0.04797843614959145
0.5071099856001979   -0.02644244667034129   -0.020137735864332595
0.5071099856001979   -0.02644244667034129   -0.020137735864332595
0.5071099856001979   -0.02644244667034129   -0.020137735864332595
0.5071099856001979   -0.02644244667034129   -0.020137735864332595
0.9407996085383393   0.003314041601671036   0.014757811095225726
0.9407996085383393   0.003314041601671036   0.014757811095225726
0.9407996085383393   0.003314041601671036   0.014757811095225726
0.9407996085383393   0.003314041601671036   0.014757811095225726
0.06512135130227069   -0.07821982729204784   0.0021527000315633843
0.06512135130227069   -0.07821982729204784   0.0021527000315633843
0.06512135130227069   -0.07821982729204784   0.0021527000315633843
0.06512135130227069   -0.07821982729204784   0.0021527000315633843
0.0038565646589198282   -0.19671775269117986   -0.024581150069471563
0.0038565646589198282   -0.19671775269117986   -0.024581150069471563
0.0038565646589198282   -0.19671775269117986   -0.024581150069471563
0.0038565646589198282   -0.19671775269117986   -0.024581150069471563
0.9341493189520161   0.09558840653372339   0.05292585345958146
0.9341493189520161   0.09558840653372339   0.05292585345958146
0.9341493189520161   0.09558840653372339   0.05292585345958146
0.9341493189520161   0.09558840653372339   0.05292585345958146
0.4704574252612205   -0.04130825396198723   -0.028513043102362044
0.4704574252612205   -0.04130825396198723   -0.028513043102362044
0.4704574252612205   -0.04130825396198723   -0.028513043102362044
0.4704574252612205   -0.04130825396198723   -0.028513043102362044
0.9074085485942222   -0.006774203541130258   0.021584611745474054
0.9074085485942222   -0.006774203541130258   0.021584611745474054
0.9074085485942222   -0.006774203541130258   0.021584611745474054
0.9074085485942222   -0.006774203541130258   0.021584611745474054
0.03044396207827766   -0.09450851555476086   0.006146599890898614
0.03044396207827766   -0.09450851555476086   0.006146599890898614
0.03044396207827766   -0.09450851555476086   0.006146599890898614
0.03044396207827766   -0.09450851555476086   0.006146599890898614
-0.03035439566799772   -0.19765137972375013   -0.016745654199816995
-0.03035439566799772   -0.19765137972375013   -0.016745654199816995
-0.03035439566799772   -0.19765137972375013   -0.016745654199816995
-0.03035439566799772   -0.19765137972375013   -0.016745654199816995
0.8988567775036718   0.08529397401216729   0.05849976615812377
0.8988567775036718   0.08529397401216729   0.05849976615812377
0.8988567775036718   0.08529397401216729   0.05849976615812377
0.8988567775036718   0.08529397401216729   0.05849976615812377
0.4417518680925705   -0.04726246404906223   -0.035721067842688366
0.4417518680925705   -0.04726246404906223   -0.035721067842688366
0.4417518680925705   -0.04726246404906223   -0.035721067842688366
0.4417518680925705   -0.04726246404906223   -0.035721067842688366
0.0952382083666361   -0.05480965620179351   0.0031335117289237185
0.0952382083666361   -0.05480965620179351   0.0031335117289237185
0.0952382083666361   -0.05480965620179351   0.0031335117289237185
0.0952382083666361   -0.05480965620179351   0.0031335117289237185
-0.7466515049306789   -0.08632217168085102   -0.023501239616049073
-0.7466515049306789   -0.08632217168085102   -0.023501239616049073
-0.7466515049306789   -0.08632217168085102   -0.023501239616049073
-0.7466515049306789   -0.08632217168085102   -0.023501239616049073
-0.8109547013606395   -0.24889512268626335   -0.04026091167233292
-0.8109547013606395   -0.24889512268626335   -0.04026091167233292
-0.8109547013606395   -0.24889512268626335   -0.04026091167233292
-0.8109547013606395   -0.24889512268626335   -0.04026091167233292
0.10219944232190023   0.08180405392931786   0.02751927390834543
0.10219944232190023   0.08180405392931786   0.02751927390834543
0.10219944232190023   0.08180405392931786   0.02751927390834543
0.10219944232190023   0.08180405392931786   0.02751927390834543
-0.3410552851528626   -0.07336362038244537   -0.019998914004038713
-0.3410552851528626   -0.07336362038244537   -0.019998914004038713
-0.3410552851528626   -0.07336362038244537   -0.019998914004038713
-0.3410552851528626   -0.07336362038244537   -0.019998914004038713
0.0712994984652172   -0.06118948222981316   0.016013090784061254
0.0712994984652172   -0.06118948222981316   0.016013090784061254
0.0712994984652172   -0.06118948222981316   0.016013090784061254
0.0712994984652172   -0.06118948222981316   0.016013090784061254
-0.7776927106396659   -0.10353953966284171   -0.019306541090886288
-0.7776927106396659   -0.10353953966284171   -0.019306541090886288
-0.7776927106396659   -0.10353953966284171   -0.019306541090886288
-0.7776927106396659   -0.10353953966284171   -0.019306541090886288
-0.8483245452409067   -0.258748793756928   -0.02663488423775666
-0.8483245452409067   -0.258748793756928   -0.02663488423775666
-0.8483245452409067   -0.258748793756928   -0.02663488423775666
-0.8483245452409067   -0.258748793756928   -0.02663488423775666
0.06724135958453935   0.06450367060084956   0.031121401266596595
0.06724135958453935   0.06450367060084956   0.031121401266596595
0.06724135958453935   0.06450367060084956   0.031121401266596595
0.06724135958453935   0.06450367060084956   0.031121401266596595
-0.37196664933774193   -0.08367554185798051   -0.02399188678039888
-0.37196664933774193   -0.08367554185798051   -0.02399188678039888
-0.37196664933774193   -0.08367554185798051   -0.02399188678039888
-0.37196664933774193   -0.08367554185798051   -0.02399188678039888
0.038212214961538246   -0.07168216259866628   0.02216151135110697
0.038212214961538246   -0.07168216259866628   0.02216151135110697
0.038212214961538246   -0.07168216259866628   0.02216151135110697
0.038212214961538246   -0.07168216259866628   0.02216151135110697
-0.8188018554267221   -0.1220694153662286   -0.015700813557532795
-0.8188018554267221   -0.1220694153662286   -0.015700813557532795
-0.8188018554267221   -0.1220694153662286   -0.015700813557532795
-0.8188018554267221   -0.1220694153662286   -0.015700813557532795
-0.8897940772450943   -0.26595839822813117   -0.02367931662767234
-0.8897940772450943   -0.26595839822813117   -0.02367931662767234
-0.8897940772450943   -0.26595839822813117   -0.02367931662767234
-0.8897940772450943   -0.26595839822813117   -0.02367931662767234
0.029429572492170965   0.049731151493872666   0.0347916553834036
0.029429572492170965   0.049731151493872666   0.0347916553834036
0.029429572492170965   0.049731151493872666   0.0347916553834036
0.029429572492170965   0.049731151493872666   0.0347916553834036
-0.41213114287626784   -0.09602199369855549   -0.03360569451208864
-0.41213114287626784   -0.09602199369855549   -0.03360569451208864
-0.41213114287626784   -0.09602199369855549   -0.03360569451208864
-0.41213114287626784   -0.09602199369855549   -0.03360569451208864
-0.735285145063346   -0.06470303007052103   0.011711418110274256
-0.735285145063346   -0.06470303007052103   0.011711418110274256
-0.735285145063346   -0.06470303007052103   0.011711418110274256
-0.735285145063346   -0.06470303007052103   0.011711418110274256
-1.5665553990776961   -0.10101748933610707   -0.041449501531738424
-1.5665553990776961   -0.10101748933610707   -0.041449501531738424
-1.5665553990776961   -0.10101748933610707   -0.041449501531738424
-1.5665553990776961   -0.10101748933610707   -0.041449501531738424
-1.6396645990675058   -0.26074306805260083   -0.04018449097354702
-1.6396645990675058   -0.26074306805260083   -0.04018449097354702
-1.6396645990675058   -0.26074306805260083   -0.04018449097354702
-1.6396645990675058   -0.26074306805260083   -0.04018449097354702
-0.7390818762483219   0.06244247562199326   0.007765615580991189
-0.7390818762483219   0.06244247562199326   0.007765615580991189
-0.7390818762483219   0.06244247562199326   0.007765615580991189
-0.7390818762483219   0.06244247562199326   0.007765615580991189
-1.1604990845014198   -0.08678694607755041   -0.016824407947854815
-1.1604990845014198   -0.08678694607755041   -0.016824407947854815
-1.1604990845014198   -0.08678694607755041   -0.016824407947854815
-1.1604990845014198   -0.08678694607755041   -0.016824407947854815
-0.7618020678995172   -0.07151019752907556   0.02811733047609096
-0.7618020678995172   -0.07151019752907556   0.02811733047609096
-0.7618020678995172   -0.07151019752907556   0.02811733047609096
-0.7618020678995172   -0.07151019752907556   0.02811733047609096
-1.6123091472924393   -0.12215513477766132   -0.041995165373164625
-1.6123091472924393   -0.12215513477766132   -0.041995165373164625
-1.6123091472924393   -0.12215513477766132   -0.041995165373164625
-1.6123091472924393   -0.12215513477766132   -0.041995165373164625
-1.6913742160757947   -0.2775013544532943   -0.028191828315692776
-1.6913742160757947   -0.2775013544532943   -0.028191828315692776
-1.6913742160757947   -0.2775013544532943   -0.028191828315692776
-1.6913742160757947   -0.2775013544532943   -0.028191828315692776
-0.7806474472538565   0.043492827018101504   0.009508984922465005
-0.7806474472538565   0.043492827018101504   0.009508984922465005
-0.7806474472538565   0.043492827018101504   0.009508984922465005
-0.7806474472538565   0.043492827018101504   0.009508984922465005
-1.1932203267020542   -0.09608284005800144   -0.01688436696110425
-1.1932203267020542   -0.09608284005800144   -0.01688436696110425
-1.1932203267020542   -0.09608284005800144   -0.01688436696110425
-1.1932203267020542   -0.09608284005800144   -0.01688436696110425
-0.8030856126877499   -0.08836922596527301   0.029180210736368926
-0.8030856126877499   -0.08836922596527301   0.029180210736368926
-0.8030856126877499   -0.08836922596527301   0.029180210736368926
-0.8030856126877499   -0.08836922596527301   0.029180210736368926
-1.6658303717224017   -0.1425336225504233   -0.03544033845161383
-1.6658303717224017   -0.1425336225504233   -0.03544033845161383
-1.6658303717224017   -0.1425336225504233   -0.03544033845161383
-1.6658303717224017   -0.1425336225504233   -0.03544033845161383
-1.7498948064155075   -0.29958420596694946   -0.030186976205945532
-1.7498948064155075   -0.29958420596694946   -0.030186976205945532
-1.7498948064155075   -0.29958420596694946   -0.030186976205945532
-1.7498948064155075   -0.29958420596694946   -0.030186976205945532
-0.8255666027285544   0.02011628139295188   0.01138337633393647
-0.8255666027285544   0.02011628139295188   0.01138337633393647
-0.8255666027285544   0.02011628139295188   0.01138337633393647
-0.8255666027285544   0.02011628139295188   0.01138337633393647
-1.2512361698609575   -0.11870762316498451   -0.02742227015919052
-1.2512361698609575   -0.11870762316498451   -0.02742227015919052
-1.2512361698609575   -0.11870762316498451   -0.02742227015919052
-1.2512361698609575   -0.11870762316498451   -0.02742227015919052
-1.5134425042301458   0.0715741181378855   0.05152336523202154
-1.5134425042301458   0.0715741181378855   0.05152336523202154
-1.5134425042301458   0.0715741181378855   0.05152336523202154
-1.5134425042301458   0.0715741181378855   0.05152336523202154
-2.3467419239299767   -0.11693366938413463   -0.03162776016995575
-2.3467419239299767   -0.11693366938413463   -0.03162776016995575
-2.3467419239299767   -0.11693366938413463   -0.03162776016995575
-2.3467419239299767   -0.11693366938413463   -0.03162776016995575
-2.404606955074897   -0.11906659159511718   0.052919050877033566
-2.404606955074897   -0.11906659159511718   0.052919050877033566
-2.404606955074897   -0.11906659159511718   0.052919050877033566
-2.404606955074897   -0.11906659159511718   0.052919050877033566
-1.5722857893409508   0.0486321427698197   -0.012665653163203977
-1.5722857893409508   0.0486321427698197   -0.012665653163203977
-1.5722857893409508   0.0486321427698197   -0.012665653163203977
-1.5722857893409508   0.0486321427698197   -0.012665653163203977
-1.8679673115780424   0.0014480959027536877   0.04739368786332876
-1.8679673115780424   0.0014480959027536877   0.04739368786332876
-1.8679673115780424   0.0014480959027536877   0.04739368786332876
-1.8679673115780424   0.0014480959027536877   0.04739368786332876
-1.5558505761151407   0.05310782097379879   0.06503473476185666
-1.5558505761151407   0.05310782097379879   0.06503473476185666
-1.5558505761151407   0.05310782097379879   0.06503473476185666
-1.5558505761151407   0.05310782097379879   0.06503473476185666
-2.4199651674107674   -0.1224652689091581   -0.02047333348827654
-2.4199651674107674   -0.1224652689091581   -0.02047333348827654
-2.4199651674107674   -0.1224652689091581   -0.02047333348827654
-2.4199651674107674   -0.1224652689091581   -0.02047333348827654
-2.47767019049464   -0.13888113063073587   0.07196350443208012
-2.47767019049464   -0.13888113063073587   0.07196350443208012
-2.47767019049464   -0.13888113063073587   0.07196350443208012
-2.47767019049464   -0.13888113063073587   0.07196350443208012
-1.6258489214306642   0.035171153084940454   -0.013237862628289243
-1.6258489214306642   0.035171153084940454   -0.013237862628289243
-1.6258489214306642   0.035171153084940454   -0.013237862628289243
-1.6258489214306642   0.035171153084940454   -0.013237862628289243
-1.962151683581381   -0.021750125400510967   0.025855770803895173
-1.962151683581381   -0.021750125400510967   0.025855770803895173
-1.962151683581381   -0.021750125400510967   0.025855770803895173
-1.962151683581381   -0.021750125400510967   0.025855770803895173
-1.6108259125654634   0.03292057585433528   0.06412775892832027
-1.6108259125654634   0.03292057585433528   0.06412775892832027
-1.6108259125654634   0.03292057585433528   0.06412775892832027
-1.6108259125654634   0.03292057585433528   0.06412775892832027
-2.49552224643144   -0.1394596004717361   -0.01671830541089625
-2.49552224643144   -0.1394596004717361   -0.01671830541089625
-2.49552224643144   -0.1394596004717361   -0.01671830541089625
-2.49552224643144   -0.1394596004717361   -0.01671830541089625
-2.5815201885151198   -0.21878036402400547   0.06254150066583089
-2.5815201885151198   -0.21878036402400547   0.06254150066583089
-2.5815201885151198   -0.21878036402400547   0.06254150066583089
-2.5815201885151198   -0.21878036402400547   0.06254150066583089
-1.6876038303674898   -0.00585666355189618   -0.012459638380926036
-1.6876038303674898   -0.00585666355189618   -0.012459638380926036
-1.6876038303674898   -0.00585666355189618   -0.012459638380926036
-1.6876038303674898   -0.00585666355189618   -0.012459638380926036
-2.002365331319993   -0.05094068930682921   0.006882643746046135
-2.002365331319993   -0.05094068930682921   0.006882643746046135
-2.002365331319993   -0.05094068930682921   0.006882643746046135
-2.002365331319993   -0.05094068930682921   0.006882643746046135
1.5489688578358713   0.08279880499938189   -0.05532168164401718
1.5489688578358713   0.08279880499938189   -0.05532168164401718
1.5489688578358713   0.08279880499938189   -0.05532168164401718
1.5489688578358713   0.08279880499938189   -0.05532168164401718
0.7680579198518418   -0.0006755667579204094   0.020073580240026576
0.7680579198518418   -0.0006755667579204094   0.020073580240026576
0.7680579198518418   -0.0006755667579204094   0.020073580240026576
0.7680579198518418   -0.0006755667579204094   0.020073580240026576
0.7018647955840409   -0.11450846424567954   -0.050725791307731666
0.7018647955840409   -0.11450846424567954   -0.050725791307731666
0.7018647955840409   -0.11450846424567954   -0.050725791307731666
0.7018647955840409   -0.11450846424567954   -0.050725791307731666
1.5197431339893435   0.12530444201710622   0.02517128901438828
1.5197431339893435   0.12530444201710622   0.02517128901438828
1.5197431339893435   0.12530444201710622   0.02517128901438828
1.5197431339893435   0.12530444201710622   0.02517128901438828
1.0759982941016393   0.009509217025325811   -0.035408773868322266
1.0759982941016393   0.009509217025325811   -0.035408773868322266
1.0759982941016393   0.009509217025325811   -0.035408773868322266
1.0759982941016393   0.009509217025325811   -0.035408773868322266
1.4874097510414095   0.042089540304756756   -0.05328072401291856
1.4874097510414095   0.042089540304756756   -0.05328072401291856
1.4874097510414095   0.042089540304756756   -0.05328072401291856
1.4874097510414095   0.042089540304756756   -0.05328072401291856
0.7328102567423862   -0.03268148432291884   0.02217453456122026
0.7328102567423862   -0.03268148432291884   0.02217453456122026
0.7328102567423862   -0.03268148432291884   0.02217453456122026
0.7328102567423862   -0.03268148432291884   0.02217453456122026
0.6687568607548756   -0.12408521885075025   -0.04408736325674137
0.6687568607548756   -0.12408521885075025   -0.04408736325674137
0.6687568607548756   -0.12408521885075025   -0.04408736325674137
0.6687568607548756   -0.12408521885075025   -0.04408736325674137
1.4702182223646845   0.11214642834014837   0.03440180539175941
1.4702182223646845   0.11214642834014837   0.03440180539175941
1.4702182223646845   0.11214642834014837   0.03440180539175941
1.4702182223646845   0.11214642834014837   0.03440180539175941
1.0500587378621202   -0.007739991831930332   -0.04654478610893687
1.0500587378621202   -0.007739991831930332   -0.04654478610893687
1.0500587378621202   -0.007739991831930332   -0.04654478610893687
1.0500587378621202   -0.007739991831930332   -0.04654478610893687
1.4385780849181777   0.030305006610948593   -0.041957460111549466
1.4385780849181777   0.030305006610948593   -0.041957460111549466
1.4385780849181777   0.030305006610948593   -0.041957460111549466
1.4385780849181777   0.030305006610948593   -0.041957460111549466
0.6991536166581054   -0.04348717866482435   0.02729837607347485
0.6991536166581054   -0.04348717866482435   0.02729837607347485
0.6991536166581054   -0.04348717866482435   0.02729837607347485
0.6991536166581054   -0.04348717866482435   0.02729837607347485
0.6385211273915543   -0.12694819405948443   -0.03601579747863007
0.6385211273915543   -0.12694819405948443   -0.03601579747863007
0.6385211273915543   -0.12694819405948443   -0.03601579747863007
0.6385211273915543   -0.12694819405948443   -0.03601579747863007
1.414386663524224   0.1005928432013222   0.042799016553967346
1.414386663524224   0.1005928432013222   0.042799016553967346
1.414386663524224   0.1005928432013222   0.042799016553967346
1.414386663524224   0.1005928432013222   0.042799016553967346
0.9897106064979925   -0.019626258428365823   -0.0632297524789415
0.9897106064979925   -0.019626258428365823   -0.0632297524789415
0.9897106064979925   -0.019626258428365823   -0.0632297524789415
0.9897106064979925   -0.019626258428365823   -0.0632297524789415
0.7812004810279856   0.08088981727719334   0.004221002085631465
0.7812004810279856   0.08088981727719334   0.004221002085631465
0.7812004810279856   0.08088981727719334   0.004221002085631465
0.7812004810279856   0.08088981727719334   0.004221002085631465
0.026958148079108468   -0.025515918465966896   -0.0031575609264225084
0.026958148079108468   -0.025515918465966896   -0.0031575609264225084
0.026958148079108468   -0.025515918465966896   -0.0031575609264225084
0.026958148079108468   -0.025515918465966896   -0.0031575609264225084
-0.02293411814863505   -0.1031615739404863   -0.03450056375972323
-0.02293411814863505   -0.1031615739404863   -0.03450056375972323
-0.02293411814863505   -0.1031615739404863   -0.03450056375972323
-0.02293411814863505   -0.1031615739404863   -0.03450056375972323
0.7661033405457017   0.11345057627041402   0.04250789298446544
0.7661033405457017   0.11345057627041402   0.04250789298446544
0.7661033405457017   0.11345057627041402   0.04250789298446544
0.7661033405457017   0.11345057627041402   0.04250789298446544
0.38179045448945037   0.016159043052986932   -0.004381759358042497
0.38179045448945037   0.016159043052986932   -0.004381759358042497
0.38179045448945037   0.016159043052986932   -0.004381759358042497
0.38179045448945037   0.016159043052986932   -0.004381759358042497
0.748597293772922   0.05977539022830558   0.008652845162679071
0.748597293772922   0.05977539022830558   0.008652845162679071
0.748597293772922   0.05977539022830558   0.008652845162679071
0.748597293772922   0.05977539022830558   0.008652845162679071
-0.005118168681303598   -0.049176485203825504   0.0005940948402732276
-0.005118168681303598   -0.049176485203825504   0.0005940948402732276
-0.005118168681303598   -0.049176485203825504   0.0005940948402732276
-0.005118168681303598   -0.049176485203825504   0.0005940948402732276
-0.05429742655425969   -0.11864951174553612   -0.02981699243044035
-0.05429742655425969   -0.11864951174553612   -0.02981699243044035
-0.05429742655425969   -0.11864951174553612   -0.02981699243044035
-0.05429742655425969   -0.11864951174553612   -0.02981699243044035
0.7305758095196995   0.09388184977946192   0.04704031193715906
0.7305758095196995   0.09388184977946192   0.04704031193715906
0.7305758095196995   0.09388184977946192   0.04704031193715906
0.7305758095196995   0.09388184977946192   0.04704031193715906
0.34349262540693376   -0.003121400475564584   -0.015339589030061676
0.34349262540693376   -0.003121400475564584   -0.015339589030061676
0.34349262540693376   -0.003121400475564584   -0.015339589030061676
0.34349262540693376   -0.003121400475564584   -0.015339589030061676
0.7137245823921823   0.04354291145470718   0.01312311462433425
0.7137245823921823   0.04354291145470718   0.01312311462433425
0.7137245823921823   0.04354291145470718   0.01312311462433425
0.7137245823921823   0.04354291145470718   0.01312311462433425
-0.037415646954334705   -0.06828002094837252   0.004222414772020969
-0.037415646954334705   -0.06828002094837252   0.004222414772020969
-0.037415646954334705   -0.06828002094837252   0.004222414772020969
-0.037415646954334705   -0.06828002094837252   0.004222414772020969
-0.08534482703739106   -0.1279876990541031   -0.023706994632103955
-0.08534482703739106   -0.1279876990541031   -0.023706994632103955
-0.08534482703739106   -0.1279876990541031   -0.023706994632103955
-0.08534482703739106   -0.1279876990541031   -0.023706994632103955
0.6967862982572457   0.07736626222005473   0.05099560057027874
0.6967862982572457   0.07736626222005473   0.05099560057027874
0.6967862982572457   0.07736626222005473   0.05099560057027874
0.6967862982572457   0.07736626222005473   0.05099560057027874
0.3151556398211682   -0.015470622613243556   -0.023421836124414192
0.3151556398211682   -0.015470622613243556   -0.023421836124414192
0.3151556398211682   -0.015470622613243556   -0.023421836124414192
0.3151556398211682   -0.015470622613243556   -0.023421836124414192
0.05255509103248383   0.08173470209157403   0.017576533282913386
0.05255509103248383   0.08173470209157403   0.017576533282913386
0.05255509103248383   0.08173470209157403   0.017576533282913386
0.05255509103248383   0.08173470209157403   0.017576533282913386
-0.6911173837086808   -0.04468687553918524   -0.023784876601003736
-0.6911173837086808   -0.04468687553918524   -0.023784876601003736
-0.6911173837086808   -0.04468687553918524   -0.023784876601003736
-0.6911173837086808   -0.04468687553918524   -0.023784876601003736
-0.7300429584200827   -0.09451177103782504   -0.02181745018532464
-0.7300429584200827   -0.09451177103782504   -0.02181745018532464
-0.7300429584200827   -0.09451177103782504   -0.02181745018532464
-0.7300429584200827   -0.09451177103782504   -0.02181745018532464
0.027295640341711776   0.09289461127686122   0.02059204347466339
0.027295640341711776   0.09289461127686122   0.02059204347466339
0.027295640341711776   0.09289461127686122   0.02059204347466339
0.027295640341711776   0.09289461127686122   0.02059204347466339
-0.33490805629628206   0.01043715791325546   0.001267012735503125
-0.33490805629628206   0.01043715791325546   0.001267012735503125
-0.33490805629628206   0.01043715791325546   0.001267012735503125
-0.33490805629628206   0.01043715791325546   0.001267012735503125
0.021951650966222966   0.06466998537609762   0.022096722497982932
0.021951650966222966   0.06466998537609762   0.022096722497982932
0.021951650966222966   0.06466998537609762   0.022096722497982932
0.021951650966222966   0.06466998537609762   0.022096722497982932
-0.7238441067221694   -0.06543228281463691   -0.019902679918945978
-0.7238441067221694   -0.06543228281463691   -0.019902679918945978
-0.7238441067221694   -0.06543228281463691   -0.019902679918945978
-0.7238441067221694   -0.06543228281463691   -0.019902679918945978
-0.7637021583079191   -0.11153064350975758   -0.01810665139391933
-0.7637021583079191   -0.11153064350975758   -0.01810665139391933
-0.7637021583079191   -0.11153064350975758   -0.01810665139391933
-0.7637021583079191   -0.11153064350975758   -0.01810665139391933
-0.005052405345985233   0.07276338109774452   0.024995220767651285
-0.005052405345985233   0.07276338109774452   0.024995220767651285
-0.005052405345985233   0.07276338109774452   0.024995220767651285
-0.005052405345985233   0.07276338109774452   0.024995220767651285
-0.36715457927058226   -0.0062108378301421185   -0.006973138827672257
-0.36715457927058226   -0.0062108378301421185   -0.006973138827672257
-0.36715457927058226   -0.0062108378301421185   -0.006973138827672257
-0.36715457927058226   -0.0062108378301421185   -0.006973138827672257
-0.009618298294288875   0.048244405163783435   0.026684731960094167
-0.009618298294288875   0.048244405163783435   0.026684731960094167
-0.009618298294288875   0.048244405163783435   0.026684731960094167
-0.009618298294288875   0.048244405163783435   0.026684731960094167
-0.7584010693229702   -0.08627647153914099   -0.016855378439791322
-0.7584010693229702   -0.08627647153914099   -0.016855378439791322
-0.7584010693229702   -0.08627647153914099   -0.016855378439791322
-0.7584010693229702   -0.08627647153914099   -0.016855378439791322
-0.7971352953532777   -0.12492799671438033   -0.011939217812474232
-0.7971352953532777   -0.12492799671438033   -0.011939217812474232
-0.7971352953532777   -0.12492799671438033   -0.011939217812474232
-0.7971352953532777   -0.12492799671438033   -0.011939217812474232
-0.0385643473240057   0.05379918832746539   0.028408516553254354
-0.0385643473240057   0.05379918832746539   0.028408516553254354
-0.0385643473240057   0.05379918832746539   0.028408516553254354
-0.0385643473240057   0.05379918832746539   0.028408516553254354
-0.40185077084499743   -0.023142518532858827   -0.015975360417143255
-0.40185077084499743   -0.023142518532858827   -0.015975360417143255
-0.40185077084499743   -0.023142518532858827   -0.015975360417143255
-0.40185077084499743   -0.023142518532858827   -0.015975360417143255
-0.6516708740640367   0.09666789599132783   0.03209290009171514
-0.6516708740640367   0.09666789599132783   0.03209290009171514
-0.6516708740640367   0.09666789599132783   0.03209290009171514
-0.6516708740640367   0.09666789599132783   0.03209290009171514
-1.3852463908487704   -0.0614724119168413   -0.038990216121073944
-1.3852463908487704   -0.0614724119168413   -0.038990216121073944
-1.3852463908487704   -0.0614724119168413   -0.038990216121073944
-1.3852463908487704   -0.0614724119168413   -0.038990216121073944
-1.415599467224911   -0.07565117619616107   -0.006185052533191418
-1.415599467224911   -0.07565117619616107   -0.006185052533191418
-1.415599467224911   -0.07565117619616107   -0.006185052533191418
-1.415599467224911   -0.07565117619616107   -0.006185052533191418
-0.6929613676615995   0.07024585904418698   -0.0011671264749126414
-0.6929613676615995   0.07024585904418698   -0.0011671264749126414
-0.6929613676615995   0.07024585904418698   -0.0011671264749126414
-0.6929613676615995   0.07024585904418698   -0.0011671264749126414
-1.028885645893987   0.010637388048249707   0.007492849380087832
-1.028885645893987   0.010637388048249707   0.007492849380087832
-1.028885645893987   0.010637388048249707   0.007492849380087832
-1.028885645893987   0.010637388048249707   0.007492849380087832
-0.6837396722157617   0.07916269605999979   0.03602451373846362
-0.6837396722157617   0.07916269605999979   0.03602451373846362
-0.6837396722157617   0.07916269605999979   0.03602451373846362
-0.6837396722157617   0.07916269605999979   0.03602451373846362
-1.4236571881603222   -0.08340403870154733   -0.038720794704861436
-1.4236571881603222   -0.08340403870154733   -0.038720794704861436
-1.4236571881603222   -0.08340403870154733   -0.038720794704861436
-1.4236571881603222   -0.08340403870154733   -0.038720794704861436
-1.4570534886492847   -0.09478414539924718   -0.0054698357688501426
-1.4570534886492847   -0.09478414539924718   -0.0054698357688501426
-1.4570534886492847   -0.09478414539924718   -0.0054698357688501426
-1.4570534886492847   -0.09478414539924718   -0.0054698357688501426
-0.7270164072616778   0.05103511982621145   0.0027563405013223963
-0.7270164072616778   0.05103511982621145   0.0027563405013223963
-0.7270164072616778   0.05103511982621145   0.0027563405013223963
-0.7270164072616778   0.05103511982621145   0.0027563405013223963
-1.0579274071428797   -0.004602090537906833   0.0007317555318455543
-1.0579274071428797   -0.004602090537906833   0.0007317555318455543
-1.0579274071428797   -0.004602090537906833   0.0007317555318455543
-1.0579274071428797   -0.004602090537906833   0.0007317555318455543
-0.7169180103398051   0.06266133866983123   0.04162210626706221
-0.7169180103398051   0.06266133866983123   0.04162210626706221
-0.7169180103398051   0.06266133866983123   0.04162210626706221
-0.7169180103398051   0.06266133866983123   0.04162210626706221
-1.4647916238120153   -0.10405010248372565   -0.03489455449802542
-1.4647916238120153   -0.10405010248372565   -0.03489455449802542
-1.4647916238120153   -0.10405010248372565   -0.03489455449802542
-1.4647916238120153   -0.10405010248372565   -0.03489455449802542
-1.4952264178072925   -0.11526554325133806   0.004134068191225061
-1.4952264178072925   -0.11526554325133806   0.004134068191225061
-1.4952264178072925   -0.11526554325133806   0.004134068191225061
-1.4952264178072925   -0.11526554325133806   0.004134068191225061
-0.7631055251579729   0.02818550979052692   0.005096126659141713
-0.7631055251579729   0.02818550979052692   0.005096126659141713
-0.7631055251579729   0.02818550979052692   0.005096126659141713
-0.7631055251579729   0.02818550979052692   0.005096126659141713
-1.1032095152672954   -0.025965893933789758   -0.008348955605759649
-1.1032095152672954   -0.025965893933789758   -0.008348955605759649
-1.1032095152672954   -0.025965893933789758   -0.008348955605759649
-1.1032095152672954   -0.025965893933789758   -0.008348955605759649
-1.3360583659382945   0.10052007795923495   0.04495741855521032
-1.3360583659382945   0.10052007795923495   0.04495741855521032
-1.3360583659382945   0.10052007795923495   0.04495741855521032
-1.3360583659382945   0.10052007795923495   0.04495741855521032
-2.0447156842109067   -0.09456164683761942   -0.03601190382747703
-2.0447156842109067   -0.09456164683761942   -0.03601190382747703
-2.0447156842109067   -0.09456164683761942   -0.03601190382747703
-2.0447156842109067   -0.09456164683761942   -0.03601190382747703
-2.0728708588597735   -0.041296982455335196   0.03827379022984398
-2.0728708588597735   -0.041296982455335196   0.03827379022984398
-2.0728708588597735   -0.041296982455335196   0.03827379022984398
-2.0728708588597735   -0.041296982455335196   0.03827379022984398
-1.394885632098092   0.04196377407692625   -0.020230827172183982
-1.394885632098092   0.04196377407692625   -0.020230827172183982
-1.394885632098092   0.04196377407692625   -0.020230827172183982
-1.394885632098092   0.04196377407692625   -0.020230827172183982
-1.6364877329878975   0.02095447029262304   0.03756360736024915
-1.6364877329878975   0.02095447029262304   0.03756360736024915
-1.6364877329878975   0.02095447029262304   0.03756360736024915
-1.6364877329878975   0.02095447029262304   0.03756360736024915
-1.368446878779068   0.10226533184567221   0.051661381654175526
-1.368446878779068   0.10226533184567221   0.051661381654175526
-1.368446878779068   0.10226533184567221   0.051661381654175526
-1.368446878779068   0.10226533184567221   0.051661381654175526
-2.097748694196453   -0.10003762224173524   -0.027374746667130398
-2.097748694196453   -0.10003762224173524   -0.027374746667130398
-2.097748694196453   -0.10003762224173524   -0.027374746667130398
-2.097748694196453   -0.10003762224173524   -0.027374746667130398
-2.1243539503323396   -0.05130613273739676   0.05288073716176127
-2.1243539503323396   -0.05130613273739676   0.05288073716176127
-2.1243539503323396   -0.05130613273739676   0.05288073716176127
-2.1243539503323396   -0.05130613273739676   0.05288073716176127
-1.4344198032502447   0.030922463174699655   -0.018008017347596925
-1.4344198032502447   0.030922463174699655   -0.018008017347596925
-1.4344198032502447   0.030922463174699655   -0.018008017347596925
-1.4344198032502447   0.030922463174699655   -0.018008017347596925
-1.7072309001327284   0.010329996677572006   0.02409973157649531
-1.7072309001327284   0.010329996677572006   0.02409973157649531
-1.7072309001327284   0.010329996677572006   0.02409973157649531
-1.7072309001327284   0.010329996677572006   0.02409973157649531
-1.4052193887119384   0.09477327988172513   0.06414323863690852
-1.4052193887119384   0.09477327988172513   0.06414323863690852
-1.4052193887119384   0.09477327988172513   0.06414323863690852
-1.4052193887119384   0.09477327988172513   0.06414323863690852
-2.152048119004811   -0.11365070357857293   -0.023245535359393818
-2.152048119004811   -0.11365070357857293   -0.023245535359393818
-2.152048119004811   -0.11365070357857293   -0.023245535359393818
-2.152048119004811   -0.11365070357857293   -0.023245535359393818
-2.1941796025856446   -0.09415777253002106   0.05261058894660417
-2.1941796025856446   -0.09415777253002106   0.05261058894660417
-2.1941796025856446   -0.09415777253002106   0.05261058894660417
-2.1941796025856446   -0.09415777253002106   0.05261058894660417
-1.476807582914308   -0.0021246456445425665   -0.016912654950646894
-1.476807582914308   -0.0021246456445425665   -0.016912654950646894
-1.476807582914308   -0.0021246456445425665   -0.016912654950646894
-1.476807582914308   -0.0021246456445425665   -0.016912654950646894
-1.7279403482984865   -0.004935131664691839   0.019616058833397648
-1.7279403482984865   -0.004935131664691839   0.019616058833397648
-1.7279403482984865   -0.004935131664691839   0.019616058833397648
-1.7279403482984865   -0.004935131664691839   0.019616058833397648
1.1733557130295276   0.06514151990980432   -0.05613877959903531
1.1733557130295276   0.06514151990980432   -0.05613877959903531
1.1733557130295276   0.06514151990980432   -0.05613877959903531
1.1733557130295276   0.06514151990980432   -0.05613877959903531
0.5581025502296877   0.011308986006893285   0.021431491259240674
0.5581025502296877   0.011308986006893285   0.021431491259240674
0.5581025502296877   0.011308986006893285   0.021431491259240674
0.5581025502296877   0.011308986006893285   0.021431491259240674
0.4957184866209417   -0.09519435819828462   -0.05329806469422555
0.4957184866209417   -0.09519435819828462   -0.05329806469422555
0.4957184866209417   -0.09519435819828462   -0.05329806469422555
0.4957184866209417   -0.09519435819828462   -0.05329806469422555
1.1478678214635136   0.10791103884940806   0.026497337266913376
1.1478678214635136   0.10791103884940806   0.026497337266913376
1.1478678214635136   0.10791103884940806   0.026497337266913376
1.1478678214635136   0.10791103884940806   0.026497337266913376
0.8001846010818064   0.010826165357443795   -0.023658765370498026
0.8001846010818064   0.010826165357443795   -0.023658765370498026
0.8001846010818064   0.010826165357443795   -0.023658765370498026
0.8001846010818064   0.010826165357443795   -0.023658765370498026
1.1161652826744863   0.028944791987911833   -0.05304910981672675
1.1161652826744863   0.028944791987911833   -0.05304910981672675
1.1161652826744863   0.028944791987911833   -0.05304910981672675
1.1161652826744863   0.028944791987911833   -0.05304910981672675
0.5267954369374229   -0.016853699809345216   0.02374602849923768
0.5267954369374229   -0.016853699809345216   0.02374602849923768
0.5267954369374229   -0.016853699809345216   0.02374602849923768
0.5267954369374229   -0.016853699809345216   0.02374602849923768
0.46656909830724097   -0.10455337250201792   -0.0454480747616286
0.46656909830724097   -0.10455337250201792   -0.0454480747616286
0.46656909830724097   -0.10455337250201792   -0.0454480747616286
0.46656909830724097   -0.10455337250201792   -0.0454480747616286
1.1025449777664884   0.09453834215685461   0.03483620577566312
1.1025449777664884   0.09453834215685461   0.03483620577566312
1.1025449777664884   0.09453834215685461   0.03483620577566312
1.1025449777664884   0.09453834215685461   0.03483620577566312
0.774054022947549   -0.005392048676907263   -0.0332545830547974
0.774054022947549   -0.005392048676907263   -0.0332545830547974
0.774054022947549   -0.005392048676907263   -0.0332545830547974
0.774054022947549   -0.005392048676907263   -0.0332545830547974
1.0715849474215697   0.017045242928966753   -0.04247084672103385
1.0715849474215697   0.017045242928966753   -0.04247084672103385
1.0715849474215697   0.017045242928966753   -0.04247084672103385
1.0715849474215697   0.017045242928966753   -0.04247084672103385
0.49674146551226256   -0.027847936414026622   0.028708325175483017
0.49674146551226256   -0.027847936414026622   0.028708325175483017
0.49674146551226256   -0.027847936414026622   0.028708325175483017
0.49674146551226256   -0.027847936414026622   0.028708325175483017
0.44029306357531994   -0.11035514568882865   -0.037847327947883085
0.44029306357531994   -0.11035514568882865   -0.037847327947883085
0.44029306357531994   -0.11035514568882865   -0.037847327947883085
0.44029306357531994   -0.11035514568882865   -0.037847327947883085
1.051440454778418   0.08003358719652265   0.041372088733373856
1.051440454778418   0.08003358719652265   0.041372088733373856
1.051440454778418   0.08003358719652265   0.041372088733373856
1.051440454778418   0.08003358719652265   0.041372088733373856
0.7225149674082003   -0.01766026884161695   -0.04743383184742233
0.7225149674082003   -0.01766026884161695   -0.04743383184742233
0.7225149674082003   -0.01766026884161695   -0.04743383184742233
0.7225149674082003   -0.01766026884161695   -0.04743383184742233
0.5673719146751597   0.08251317244769048   -0.003425872954186924
0.5673719146751597   0.08251317244769048   -0.003425872954186924
0.5673719146751597   0.08251317244769048   -0.003425872954186924
0.5673719146751597   0.08251317244769048   -0.003425872954186924
-0.03694090187233721   -0.007964457108372711   -0.000257151135318199
-0.03694090187233721   -0.007964457108372711   -0.000257151135318199
-0.03694090187233721   -0.007964457108372711   -0.000257151135318199
-0.03694090187233721   -0.007964457108372711   -0.000257151135318199
-0.08088650424984456   -0.07122253419311704   -0.03386781453764353
-0.08088650424984456   -0.07122253419311704   -0.03386781453764353
-0.08088650424984456   -0.07122253419311704   -0.03386781453764353
-0.08088650424984456   -0.07122253419311704   -0.03386781453764353
0.5525657762243504   0.09806807155644616   0.03767595356808379
0.5525657762243504   0.09806807155644616   0.03767595356808379
0.5525657762243504   0.09806807155644616   0.03767595356808379
0.5525657762243504   0.09806807155644616   0.03767595356808379
0.24666874862655508   0.024214759411955184   0.001750170917371524
0.24666874862655508   0.024214759411955184   0.001750170917371524
0.24666874862655508   0.024214759411955184   0.001750170917371524
0.24666874862655508   0.024214759411955184   0.001750170917371524
0.5376513873443024   0.05957751931509464   0.001594561409206597
0.5376513873443024   0.05957751931509464   0.001594561409206597
0.5376513873443024   0.05957751931509464   0.001594561409206597
0.5376513873443024   0.05957751931509464   0.001594561409206597
-0.06571612537836678   -0.032475991960323636   0.003237537586951976
-0.06571612537836678   -0.032475991960323636   0.003237537586951976
-0.06571612537836678   -0.032475991960323636   0.003237537586951976
-0.06571612537836678   -0.032475991960323636   0.003237537586951976
-0.10834416515825866   -0.08890975940253337   -0.027997759294859356
-0.10834416515825866   -0.08890975940253337   -0.027997759294859356
-0.10834416515825866   -0.08890975940253337   -0.027997759294859356
-0.10834416515825866   -0.08890975940253337   -0.027997759294859356
0.5201990097494723   0.0769588557699904   0.04118925417751468
0.5201990097494723   0.0769588557699904   0.04118925417751468
0.5201990097494723   0.0769588557699904   0.04118925417751468
0.5201990097494723   0.0769588557699904   0.04118925417751468
0.2128403904514392   0.0033449569168039345   -0.008728679232109918
0.2128403904514392   0.0033449569168039345   -0.008728679232109918
0.2128403904514392   0.0033449569168039345   -0.008728679232109918
0.2128403904514392   0.0033449569168039345   -0.008728679232109918
0.505778129167445   0.040602493940888607   0.005441213096485389
0.505778129167445   0.040602493940888607   0.005441213096485389
0.505778129167445   0.040602493940888607   0.005441213096485389
0.505778129167445   0.040602493940888607   0.005441213096485389
-0.0941317021855032   -0.052761815182692275   0.006916611349076812
-0.0941317021855032   -0.052761815182692275   0.006916611349076812
-0.0941317021855032   -0.052761815182692275   0.006916611349076812
-0.0941317021855032   -0.052761815182692275   0.006916611349076812
-0.1354443472562073   -0.10377547001711192   -0.02248241510210143
-0.1354443472562073   -0.10377547001711192   -0.02248241510210143
-0.1354443472562073   -0.10377547001711192   -0.02248241510210143
-0.1354443472562073   -0.10377547001711192   -0.02248241510210143
0.4903155278828589   0.05743093580714447   0.0444789120938365
0.4903155278828589   0.05743093580714447   0.0444789120938365
0.4903155278828589   0.05743093580714447   0.0444789120938365
0.4903155278828589   0.05743093580714447   0.0444789120938365
0.18687755426290278   -0.012487117373200601   -0.017462813024511616
0.18687755426290278   -0.012487117373200601   -0.017462813024511616
0.18687755426290278   -0.012487117373200601   -0.017462813024511616
0.18687755426290278   -0.012487117373200601   -0.017462813024511616
-0.012871875339082017   0.09845325528287689   0.013670269139708152
-0.012871875339082017   0.09845325528287689   0.013670269139708152
-0.012871875339082017   0.09845325528287689   0.013670269139708152
-0.012871875339082017   0.09845325528287689   0.013670269139708152
-0.6193045638617066   -0.026802090385667693   -0.020542356022074118
-0.6193045638617066   -0.026802090385667693   -0.020542356022074118
-0.6193045638617066   -0.026802090385667693   -0.020542356022074118
-0.6193045638617066   -0.026802090385667693   -0.020542356022074118
-0.6476283864757115   -0.04941514915715699   -0.016032731878004244
-0.6476283864757115   -0.04941514915715699   -0.016032731878004244
-0.6476283864757115   -0.04941514915715699   -0.016032731878004244
-0.6476283864757115   -0.04941514915715699   -0.016032731878004244
-0.040744687710808074   0.07920312570479976   0.016415608259622124
-0.040744687710808074   0.07920312570479976   0.016415608259622124
-0.040744687710808074   0.07920312570479976   0.016415608259622124
-0.040744687710808074   0.07920312570479976   0.016415608259622124
-0.32935550602876307   0.025531757938616353   0.006461830555340609
-0.32935550602876307   0.025531757938616353   0.006461830555340609
-0.32935550602876307   0.025531757938616353   0.006461830555340609
-0.32935550602876307   0.025531757938616353   0.006461830555340609
-0.04019545496774572   0.07912580254665313   0.01923909513308053
-0.04019545496774572   0.07912580254665313   0.01923909513308053
-0.04019545496774572   0.07912580254665313   0.01923909513308053
-0.04019545496774572   0.07912580254665313   0.01923909513308053
-0.647646992034007   -0.048807198814243447   -0.016733710012394952
-0.647646992034007   -0.048807198814243447   -0.016733710012394952
-0.647646992034007   -0.048807198814243447   -0.016733710012394952
-0.647646992034007   -0.048807198814243447   -0.016733710012394952
-0.6757527965616049   -0.06855763912884459   -0.010909489149674604
-0.6757527965616049   -0.06855763912884459   -0.010909489149674604
-0.6757527965616049   -0.06855763912884459   -0.010909489149674604
-0.6757527965616049   -0.06855763912884459   -0.010909489149674604
-0.06937024241094499   0.05746681872222881   0.020495276316946823
-0.06937024241094499   0.05746681872222881   0.020495276316946823
-0.06937024241094499   0.05746681872222881   0.020495276316946823
-0.06937024241094499   0.05746681872222881   0.020495276316946823
-0.35776935425640355   0.006650603288416643   -0.002042041087646971
-0.35776935425640355   0.006650603288416643   -0.002042041087646971
-0.35776935425640355   0.006650603288416643   -0.002042041087646971
-0.35776935425640355   0.006650603288416643   -0.002042041087646971
-0.06825396647476296   0.05986059971872987   0.023682875001355793
-0.06825396647476296   0.05986059971872987   0.023682875001355793
-0.06825396647476296   0.05986059971872987   0.023682875001355793
-0.06825396647476296   0.05986059971872987   0.023682875001355793
-0.6767126258529541   -0.07079497348051232   -0.01347130125474964
-0.6767126258529541   -0.07079497348051232   -0.01347130125474964
-0.6767126258529541   -0.07079497348051232   -0.01347130125474964
-0.6767126258529541   -0.07079497348051232   -0.01347130125474964
-0.7035474749671711   -0.08604688912914502   -0.005838743086632304
-0.7035474749671711   -0.08604688912914502   -0.005838743086632304
-0.7035474749671711   -0.08604688912914502   -0.005838743086632304
-0.7035474749671711   -0.08604688912914502   -0.005838743086632304
-0.09811159511336295   0.03644406649580425   0.023961809099204166
-0.09811159511336295   0.03644406649580425   0.023961809099204166
-0.09811159511336295   0.03644406649580425   0.023961809099204166
-0.09811159511336295   0.03644406649580425   0.023961809099204166
-0.38748374979686173   -0.012390234189953678   -0.011511483730712313
-0.38748374979686173   -0.012390234189953678   -0.011511483730712313
-0.38748374979686173   -0.012390234189953678   -0.011511483730712313
-0.38748374979686173   -0.012390234189953678   -0.011511483730712313
-0.5812755037763693   0.11306664960470086   0.029734204414235778
-0.5812755037763693   0.11306664960470086   0.029734204414235778
-0.5812755037763693   0.11306664960470086   0.029734204414235778
-0.5812755037763693   0.11306664960470086   0.029734204414235778
-1.188273776951573   -0.046040059017255   -0.037047403152739466
-1.188273776951573   -0.046040059017255   -0.037047403152739466
-1.188273776951573   -0.046040059017255   -0.037047403152739466
-1.188273776951573   -0.046040059017255   -0.037047403152739466
-1.203755825266359   -0.030999095110444852   0.0034025603566876367
-1.203755825266359   -0.030999095110444852   0.0034025603566876367
-1.203755825266359   -0.030999095110444852   0.0034025603566876367
-1.203755825266359   -0.030999095110444852   0.0034025603566876367
-0.6241194831579514   0.05686796446486081   -0.0047713289112173846
-0.6241194831579514   0.05686796446486081   -0.0047713289112173846
-0.6241194831579514   0.05686796446486081   -0.0047713289112173846
-0.6241194831579514   0.05686796446486081   -0.0047713289112173846
-0.8935187747281513   0.024365498003581343   0.010952128951746458
-0.8935187747281513   0.024365498003581343   0.010952128951746458
-0.8935187747281513   0.024365498003581343   0.010952128951746458
-0.8935187747281513   0.024365498003581343   0.010952128951746458
-0.6086475236707848   0.09436111644601236   0.03509531654346081
-0.6086475236707848   0.09436111644601236   0.03509531654346081
-0.6086475236707848   0.09436111644601236   0.03509531654346081
-0.6086475236707848   0.09436111644601236   0.03509531654346081
-1.219082751300035   -0.0683472136381193   -0.03588395128403418
-1.219082751300035   -0.0683472136381193   -0.03588395128403418
-1.219082751300035   -0.0683472136381193   -0.03588395128403418
-1.219082751300035   -0.0683472136381193   -0.03588395128403418
-1.236504573654805   -0.050349660797258555   0.005320603777099753
-1.236504573654805   -0.050349660797258555   0.005320603777099753
-1.236504573654805   -0.050349660797258555   0.005320603777099753
-1.236504573654805   -0.050349660797258555   0.005320603777099753
-0.6526365475746717   0.036736915011524235   -0.0006227983553739672
-0.6526365475746717   0.036736915011524235   -0.0006227983553739672
-0.6526365475746717   0.036736915011524235   -0.0006227983553739672
-0.6526365475746717   0.036736915011524235   -0.0006227983553739672
-0.9175582349701867   0.007516631351309894   0.0030355237891664735
-0.9175582349701867   0.007516631351309894   0.0030355237891664735
-0.9175582349701867   0.007516631351309894   0.0030355237891664735
-0.9175582349701867   0.007516631351309894   0.0030355237891664735
-0.6365195057535293   0.07660258098328063   0.04009674477858117
-0.6365195057535293   0.07660258098328063   0.04009674477858117
-0.6365195057535293   0.07660258098328063   0.04009674477858117
-0.6365195057535293   0.07660258098328063   0.04009674477858117
-1.2517914845281275   -0.08938519582120649   -0.03207841556557179
-1.2517914845281275   -0.08938519582120649   -0.03207841556557179
-1.2517914845281275   -0.08938519582120649   -0.03207841556557179
-1.2517914845281275   -0.08938519582120649   -0.03207841556557179
-1.2662126744702542   -0.07117593148994092   0.011396069569083782
-1.2662126744702542   -0.07117593148994092   0.011396069569083782
-1.2662126744702542   -0.07117593148994092   0.011396069569083782
-1.2662126744702542   -0.07117593148994092   0.011396069569083782
-0.6819519387959883   0.01371018148949879   0.0023818671506457625
-0.6819519387959883   0.01371018148949879   0.0023818671506457625
-0.6819519387959883   0.01371018148949879   0.0023818671506457625
-0.6819519387959883   0.01371018148949879   0.0023818671506457625
-0.9541452121312951   -0.013602959442739898   -0.007011554095785792
-0.9541452121312951   -0.013602959442739898   -0.007011554095785792
-0.9541452121312951   -0.013602959442739898   -0.007011554095785792
-0.9541452121312951   -0.013602959442739898   -0.007011554095785792
-1.1429688119078305   0.10139798416519552   0.0420393788835214
-1.1429688119078305   0.10139798416519552   0.0420393788835214
-1.1429688119078305   0.10139798416519552   0.0420393788835214
-1.1429688119078305   0.10139798416519552   0.0420393788835214
-1.7292184489545845   -0.0797690807011206   -0.040859063580202235
-1.7292184489545845   -0.0797690807011206   -0.040859063580202235
-1.7292184489545845   -0.0797690807011206   -0.040859063580202235
-1.7292184489545845   -0.0797690807011206   -0.040859063580202235
-1.748500988155025   -0.01696297786435297   0.03875076917835264
-1.748500988155025   -0.01696297786435297   0.03875076917835264
-1.748500988155025   -0.01696297786435297   0.03875076917835264
-1.748500988155025   -0.01696297786435297   0.03875076917835264
-1.1972966490269832   0.028619426839577577   -0.0239200803964546
-1.1972966490269832   0.028619426839577577   -0.0239200803964546
-1.1972966490269832   0.028619426839577577   -0.0239200803964546
-1.1972966490269832   0.028619426839577577   -0.0239200803964546
-1.3901617821331216   0.022826924263693982   0.03402499610924688
-1.3901617821331216   0.022826924263693982   0.03402499610924688
-1.3901617821331216   0.022826924263693982   0.03402499610924688
-1.3901617821331216   0.022826924263693982   0.03402499610924688
-1.1681298768510917   0.10122311002106454   0.04931009730150705
-1.1681298768510917   0.10122311002106454   0.04931009730150705
-1.1681298768510917   0.10122311002106454   0.04931009730150705
-1.1681298768510917   0.10122311002106454   0.04931009730150705
-1.7771738122182181   -0.08907271293314067   -0.032503616068810554
-1.7771738122182181   -0.08907271293314067   -0.032503616068810554
-1.7771738122182181   -0.08907271293314067   -0.032503616068810554
-1.7771738122182181   -0.08907271293314067   -0.032503616068810554
-1.791368469703097   -0.027170731364972778   0.04847467640689297
-1.791368469703097   -0.027170731364972778   0.04847467640689297
-1.791368469703097   -0.027170731364972778   0.04847467640689297
-1.791368469703097   -0.027170731364972778   0.04847467640689297
-1.2280818821167252   0.01758227949165736   -0.020497878821416876
-1.2280818821167252   0.01758227949165736   -0.020497878821416876
-1.2280818821167252   0.01758227949165736   -0.020497878821416876
-1.2280818821167252   0.01758227949165736   -0.020497878821416876
-1.4499952346882008   0.011431823850190648   0.020668392118389473
-1.4499952346882008   0.011431823850190648   0.020668392118389473
-1.4499952346882008   0.011431823850190648   0.020668392118389473
-1.4499952346882008   0.011431823850190648   0.020668392118389473
-1.197142564152136   0.09361309380207516   0.058167896691110596
-1.197142564152136   0.09361309380207516   0.058167896691110596
-1.197142564152136   0.09361309380207516   0.058167896691110596
-1.197142564152136   0.09361309380207516   0.058167896691110596
-1.821494180999814   -0.10238793900750709   -0.026936672434150183
-1.821494180999814   -0.10238793900750709   -0.026936672434150183
-1.821494180999814   -0.10238793900750709   -0.026936672434150183
-1.821494180999814   -0.10238793900750709   -0.026936672434150183
-1.8479443897718575   -0.06344625602639675   0.047616099997631695
-1.8479443897718575   -0.06344625602639675   0.047616099997631695
-1.8479443897718575   -0.06344625602639675   0.047616099997631695
-1.8479443897718575   -0.06344625602639675   0.047616099997631695
-1.2605855431675572   -0.013070014398463337   -0.01857419100890835
-1.2605855431675572   -0.013070014398463337   -0.01857419100890835
-1.2605855431675572   -0.013070014398463337   -0.01857419100890835
-1.2605855431675572   -0.013070014398463337   -0.01857419100890835
-1.4654865376181259   -0.0027316343191864934   0.016201931900695243
-1.4654865376181259   -0.0027316343191864934   0.016201931900695243
-1.4654865376181259   -0.0027316343191864934   0.016201931900695243
-1.4654865376181259   -0.0027316343191864934   0.016201931900695243
0.8052102039616478   0.04554264552163445   -0.05450786489901358
0.8052102039616478   0.04554264552163445   -0.05450786489901358
0.8052102039616478   0.04554264552163445   -0.05450786489901358
0.8052102039616478   0.04554264552163445   -0.05450786489901358
0.34394468894234603   0.022077801568626813   0.023411526724100427
0.34394468894234603   0.022077801568626813   0.023411526724100427
0.34394468894234603   0.022077801568626813   0.023411526724100427
0.34394468894234603   0.022077801568626813   0.023411526724100427
0.2877489487636517   -0.07957542540730839   -0.05081611131680687
0.2877489487636517   -0.07957542540730839   -0.05081611131680687
0.2877489487636517   -0.07957542540730839   -0.05081611131680687
0.2877489487636517   -0.07957542540730839   -0.05081611131680687
0.7862621962899414   0.09154777143590925   0.028442497407494063
0.7862621962899414   0.09154777143590925   0.028442497407494063
0.7862621962899414   0.09154777143590925   0.028442497407494063
0.7862621962899414   0.09154777143590925   0.028442497407494063
0.5263549245236223   0.01167731477149675   -0.014383054897693877
0.5263549245236223   0.01167731477149675   -0.014383054897693877
0.5263549245236223   0.01167731477149675   -0.014383054897693877
0.5263549245236223   0.01167731477149675   -0.014383054897693877
0.7548650330498238   0.013843253534874145   -0.05083880089206631
0.7548650330498238   0.013843253534874145   -0.05083880089206631
0.7548650330498238   0.013843253534874145   -0.05083880089206631
0.7548650330498238   0.013843253534874145   -0.05083880089206631
0.3185563951315193   -0.002460624378523485   0.026106319493752382
0.3185563951315193   -0.002460624378523485   0.026106319493752382
0.3185563951315193   -0.002460624378523485   0.026106319493752382
0.3185563951315193   -0.002460624378523485   0.026106319493752382
0.26380701312135696   -0.08882570332054746   -0.043246056966215564
0.26380701312135696   -0.08882570332054746   -0.043246056966215564
0.26380701312135696   -0.08882570332054746   -0.043246056966215564
0.26380701312135696   -0.08882570332054746   -0.043246056966215564
0.7468748242911522   0.07842351251933843   0.036646202244294705
0.7468748242911522   0.07842351251933843   0.036646202244294705
0.7468748242911522   0.07842351251933843   0.036646202244294705
0.7468748242911522   0.07842351251933843   0.036646202244294705
0.501577795585122   -0.0035737544462155213   -0.023450184898986846
0.501577795585122   -0.0035737544462155213   -0.023450184898986846
0.501577795585122   -0.0035737544462155213   -0.023450184898986846
0.501577795585122   -0.0035737544462155213   -0.023450184898986846
0.7159952530945886   0.0019962731862529226   -0.04132441440544519
0.7159952530945886   0.0019962731862529226   -0.04132441440544519
0.7159952530945886   0.0019962731862529226   -0.04132441440544519
0.7159952530945886   0.0019962731862529226   -0.04132441440544519
0.293817526684078   -0.013267521621305331   0.031248329148149914
0.293817526684078   -0.013267521621305331   0.031248329148149914
0.293817526684078   -0.013267521621305331   0.031248329148149914
0.293817526684078   -0.013267521621305331   0.031248329148149914
0.24240245567788538   -0.09725667528330839   -0.03604122456524877
0.24240245567788538   -0.09725667528330839   -0.03604122456524877
0.24240245567788538   -0.09725667528330839   -0.03604122456524877
0.24240245567788538   -0.09725667528330839   -0.03604122456524877
0.700900766495628   0.06114979525347852   0.04181794162291268
0.700900766495628   0.06114979525347852   0.04181794162291268
0.700900766495628   0.06114979525347852   0.04181794162291268
0.700900766495628   0.06114979525347852   0.04181794162291268
0.45973359647689116   -0.01609825154776459   -0.03588822788186146
0.45973359647689116   -0.01609825154776459   -0.03588822788186146
0.45973359647689116   -0.01609825154776459   -0.03588822788186146
0.45973359647689116   -0.01609825154776459   -0.03588822788186146
0.34622545295563617   0.06674906146343326   -0.00985591310426164
0.34622545295563617   0.06674906146343326   -0.00985591310426164
0.34622545295563617   0.06674906146343326   -0.00985591310426164
0.34622545295563617   0.06674906146343326   -0.00985591310426164
-0.10643387106271106   0.005830818941835125   0.003194821031898499
-0.10643387106271106   0.005830818941835125   0.003194821031898499
-0.10643387106271106   0.005830818941835125   0.003194821031898499
-0.10643387106271106   0.005830818941835125   0.003194821031898499
-0.14485133481695958   -0.05520813606869397   -0.031287973516306924
-0.14485133481695958   -0.05520813606869397   -0.031287973516306924
-0.14485133481695958   -0.05520813606869397   -0.031287973516306924
-0.14485133481695958   -0.05520813606869397   -0.031287973516306924
0.33659529751057704   0.08026176573874706   0.033578441271770676
0.33659529751057704   0.08026176573874706   0.033578441271770676
0.33659529751057704   0.08026176573874706   0.033578441271770676
0.33659529751057704   0.08026176573874706   0.033578441271770676
0.1055163108907679   0.023223662182438223   0.004043280947959398
0.1055163108907679   0.023223662182438223   0.004043280947959398
0.1055163108907679   0.023223662182438223   0.004043280947959398
0.1055163108907679   0.023223662182438223   0.004043280947959398
0.32141289752929997   0.04323995543720398   -0.005311748333076678
0.32141289752929997   0.04323995543720398   -0.005311748333076678
0.32141289752929997   0.04323995543720398   -0.005311748333076678
0.32141289752929997   0.04323995543720398   -0.005311748333076678
-0.12989256375432645   -0.018409954685790604   0.006707700413955236
-0.12989256375432645   -0.018409954685790604   0.006707700413955236
-0.12989256375432645   -0.018409954685790604   0.006707700413955236
-0.12989256375432645   -0.018409954685790604   0.006707700413955236
-0.16712062507825087   -0.07380474460755124   -0.02530911288247036
-0.16712062507825087   -0.07380474460755124   -0.02530911288247036
-0.16712062507825087   -0.07380474460755124   -0.02530911288247036
-0.16712062507825087   -0.07380474460755124   -0.02530911288247036
0.3092847796040482   0.05881079238561038   0.03650627974108493
0.3092847796040482   0.05881079238561038   0.03650627974108493
0.3092847796040482   0.05881079238561038   0.03650627974108493
0.3092847796040482   0.05881079238561038   0.03650627974108493
0.07806127774529377   0.0022038176210666498   -0.00605422664697398
0.07806127774529377   0.0022038176210666498   -0.00605422664697398
0.07806127774529377   0.0022038176210666498   -0.00605422664697398
0.07806127774529377   0.0022038176210666498   -0.00605422664697398
0.29458230084868575   0.023298832353588206   -0.0014941540037097557
0.29458230084868575   0.023298832353588206   -0.0014941540037097557
0.29458230084868575   0.023298832353588206   -0.0014941540037097557
0.29458230084868575   0.023298832353588206   -0.0014941540037097557
-0.15298492542158904   -0.03885956367423557   0.010424204467523129
-0.15298492542158904   -0.03885956367423557   0.010424204467523129
-0.15298492542158904   -0.03885956367423557   0.010424204467523129
-0.15298492542158904   -0.03885956367423557   0.010424204467523129
-0.1890949623028899   -0.09130383351702603   -0.019784444341267284
-0.1890949623028899   -0.09130383351702603   -0.019784444341267284
-0.1890949623028899   -0.09130383351702603   -0.019784444341267284
-0.1890949623028899   -0.09130383351702603   -0.019784444341267284
0.28463934124238616   0.03818360965823418   0.03970291831571944
0.28463934124238616   0.03818360965823418   0.03970291831571944
0.28463934124238616   0.03818360965823418   0.03970291831571944
0.28463934124238616   0.03818360965823418   0.03970291831571944
0.05600686073463856   -0.015258521664204147   -0.01497778028381907
0.05600686073463856   -0.015258521664204147   -0.01497778028381907
0.05600686073463856   -0.015258521664204147   -0.01497778028381907
0.05600686073463856   -0.015258521664204147   -0.01497778028381907
-0.08974021721608859   0.08476502665769993   0.0077288825491460544
-0.08974021721608859   0.08476502665769993   0.0077288825491460544
-0.08974021721608859   0.08476502665769993   0.0077288825491460544
-0.08974021721608859   0.08476502665769993   0.0077288825491460544
-0.5501431618908363   -0.013826371863244355   -0.016720747867588853
-0.5501431618908363   -0.013826371863244355   -0.016720747867588853
-0.5501431618908363   -0.013826371863244355   -0.016720747867588853
-0.5501431618908363   -0.013826371863244355   -0.016720747867588853
-0.5721106435598311   -0.032814393639419126   -0.012306032612449315
-0.5721106435598311   -0.032814393639419126   -0.012306032612449315
-0.5721106435598311   -0.032814393639419126   -0.012306032612449315
-0.5721106435598311   -0.032814393639419126   -0.012306032612449315
-0.1127090935329882   0.06120123673781342   0.013013860097038726
-0.1127090935329882   0.06120123673781342   0.013013860097038726
-0.1127090935329882   0.06120123673781342   0.013013860097038726
-0.1127090935329882   0.06120123673781342   0.013013860097038726
-0.3303699153219985   0.02444783711037675   0.006527325625066176
-0.3303699153219985   0.02444783711037675   0.006527325625066176
-0.3303699153219985   0.02444783711037675   0.006527325625066176
-0.3303699153219985   0.02444783711037675   0.006527325625066176
-0.11201765248614182   0.06433322625968846   0.013339075809399387
-0.11201765248614182   0.06433322625968846   0.013339075809399387
-0.11201765248614182   0.06433322625968846   0.013339075809399387
-0.11201765248614182   0.06433322625968846   0.013339075809399387
-0.572863937682354   -0.03600823623697007   -0.0128786606275129
-0.572863937682354   -0.03600823623697007   -0.0128786606275129
-0.572863937682354   -0.03600823623697007   -0.0128786606275129
-0.572863937682354   -0.03600823623697007   -0.0128786606275129
-0.5946093308700945   -0.053076043579524015   -0.006979946732667785
-0.5946093308700945   -0.053076043579524015   -0.006979946732667785
-0.5946093308700945   -0.053076043579524015   -0.006979946732667785
-0.5946093308700945   -0.053076043579524015   -0.006979946732667785
-0.13607723089794044   0.039125296240946995   0.016977817170579574
-0.13607723089794044   0.039125296240946995   0.016977817170579574
-0.13607723089794044   0.039125296240946995   0.016977817170579574
-0.13607723089794044   0.039125296240946995   0.016977817170579574
-0.3535016810796304   0.004723994683144814   -0.0021551315481230134
-0.3535016810796304   0.004723994683144814   -0.0021551315481230134
-0.3535016810796304   0.004723994683144814   -0.0021551315481230134
-0.3535016810796304   0.004723994683144814   -0.0021551315481230134
-0.1349039687659005   0.04387908583516198   0.018090338236568203
-0.1349039687659005   0.04387908583516198   0.018090338236568203
-0.1349039687659005   0.04387908583516198   0.018090338236568203
-0.1349039687659005   0.04387908583516198   0.018090338236568203
-0.5961408170138868   -0.05818805718548556   -0.009525363845667566
-0.5961408170138868   -0.05818805718548556   -0.009525363845667566
-0.5961408170138868   -0.05818805718548556   -0.009525363845667566
-0.5961408170138868   -0.05818805718548556   -0.009525363845667566
-0.616730025847647   -0.07243243623167767   -0.0018022738039212907
-0.616730025847647   -0.07243243623167767   -0.0018022738039212907
-0.616730025847647   -0.07243243623167767   -0.0018022738039212907
-0.616730025847647   -0.07243243623167767   -0.0018022738039212907
-0.15924679778392054   0.017674001672208006   0.020478543064345545
-0.15924679778392054   0.017674001672208006   0.020478543064345545
-0.15924679778392054   0.017674001672208006   0.020478543064345545
-0.15924679778392054   0.017674001672208006   0.020478543064345545
-0.3775854262627493   -0.015022189001089759   -0.011565920542749592
-0.3775854262627493   -0.015022189001089759   -0.011565920542749592
-0.3775854262627493   -0.015022189001089759   -0.011565920542749592
-0.3775854262627493   -0.015022189001089759   -0.011565920542749592
-0.5190088333187974   0.10020609580476691   0.024918427324594636
-0.5190088333187974   0.10020609580476691   0.024918427324594636
-0.5190088333187974   0.10020609580476691   0.024918427324594636
-0.5190088333187974   0.10020609580476691   0.024918427324594636
-0.9859612694528489   -0.03337510603845137   -0.034047314967784834
-0.9859612694528489   -0.03337510603845137   -0.034047314967784834
-0.9859612694528489   -0.03337510603845137   -0.034047314967784834
-0.9859612694528489   -0.03337510603845137   -0.034047314967784834
-0.9942193236046679   -0.014586914560646286   0.008054116407963663
-0.9942193236046679   -0.014586914560646286   0.008054116407963663
-0.9942193236046679   -0.014586914560646286   0.008054116407963663
-0.9942193236046679   -0.014586914560646286   0.008054116407963663
-0.5565639313835274   0.03987730168593401   -0.007264167056291779
-0.5565639313835274   0.03987730168593401   -0.007264167056291779
-0.5565639313835274   0.03987730168593401   -0.007264167056291779
-0.5565639313835274   0.03987730168593401   -0.007264167056291779
-0.7594105447812335   0.023256315287330687   0.009480979233955585
-0.7594105447812335   0.023256315287330687   0.009480979233955585
-0.7594105447812335   0.023256315287330687   0.009480979233955585
-0.7594105447812335   0.023256315287330687   0.009480979233955585
-0.5408730495005221   0.08057085482293788   0.030496689221738676
-0.5408730495005221   0.08057085482293788   0.030496689221738676
-0.5408730495005221   0.08057085482293788   0.030496689221738676
-0.5408730495005221   0.08057085482293788   0.030496689221738676
-1.0105944813212007   -0.05596474353118133   -0.032443843204164886
-1.0105944813212007   -0.05596474353118133   -0.032443843204164886
-1.0105944813212007   -0.05596474353118133   -0.032443843204164886
-1.0105944813212007   -0.05596474353118133   -0.032443843204164886
-1.020739753723486   -0.03465452953685824   0.010523185051527877
-1.020739753723486   -0.03465452953685824   0.010523185051527877
-1.020739753723486   -0.03465452953685824   0.010523185051527877
-1.020739753723486   -0.03465452953685824   0.010523185051527877
-0.5793030011477893   0.019533736977107446   -0.0030580786777844454
-0.5793030011477893   0.019533736977107446   -0.0030580786777844454
-0.5793030011477893   0.019533736977107446   -0.0030580786777844454
-0.5793030011477893   0.019533736977107446   -0.0030580786777844454
-0.7788923593759243   0.0053668842837509   0.0007750336139580594
-0.7788923593759243   0.0053668842837509   0.0007750336139580594
-0.7788923593759243   0.0053668842837509   0.0007750336139580594
-0.7788923593759243   0.0053668842837509   0.0007750336139580594
-0.563048202339206   0.06194089516511733   0.035808757177125915
-0.563048202339206   0.06194089516511733   0.035808757177125915
-0.563048202339206   0.06194089516511733   0.035808757177125915
-0.563048202339206   0.06194089516511733   0.035808757177125915
-1.0370535742605784   -0.07712070945337918   -0.028579737717428513
-1.0370535742605784   -0.07712070945337918   -0.028579737717428513
-1.0370535742605784   -0.07712070945337918   -0.028579737717428513
-1.0370535742605784   -0.07712070945337918   -0.028579737717428513
-1.0443559338757402   -0.056031087719532496   0.016079516185241206
-1.0443559338757402   -0.056031087719532496   0.016079516185241206
-1.0443559338757402   -0.056031087719532496   0.016079516185241206
-1.0443559338757402   -0.056031087719532496   0.016079516185241206
-0.6024390843555134   -0.0030271639150380725   0.0002471613400958361
-0.6024390843555134   -0.0030271639150380725   0.0002471613400958361
-0.6024390843555134   -0.0030271639150380725   0.0002471613400958361
-0.6024390843555134   -0.0030271639150380725   0.0002471613400958361
-0.8081128194212531   -0.015389393017310043   -0.009326552966640887
-0.8081128194212531   -0.015389393017310043   -0.009326552966640887
-0.8081128194212531   -0.015389393017310043   -0.009326552966640887
-0.8081128194212531   -0.015389393017310043   -0.009326552966640887
-0.9460681542109844   0.09286785167021433   0.03917530353287209
-0.9460681542109844   0.09286785167021433   0.03917530353287209
-0.9460681542109844   0.09286785167021433   0.03917530353287209
-0.9460681542109844   0.09286785167021433   0.03917530353287209
-1.3958132763251674   -0.06425026881166945   -0.04424507035753855
-1.3958132763251674   -0.06425026881166945   -0.04424507035753855
-1.3958132763251674   -0.06425026881166945   -0.04424507035753855
-1.3958132763251674   -0.06425026881166945   -0.04424507035753855
-1.409317536151196   -0.0012351536269106234   0.0388279043953175
-1.409317536151196   -0.0012351536269106234   0.0388279043953175
-1.409317536151196   -0.0012351536269106234   0.0388279043953175
-1.409317536151196   -0.0012351536269106234   0.0388279043953175
-0.9955133695309253   0.013566404993103437   -0.026569432777089133
-0.9955133695309253   0.013566404993103437   -0.026569432777089133
-0.9955133695309253   0.013566404993103437   -0.026569432777089133
-0.9955133695309253   0.013566404993103437   -0.026569432777089133
-1.1344692315518567   0.02156784006802462   0.02870566606763089
-1.1344692315518567   0.02156784006802462   0.02870566606763089
-1.1344692315518567   0.02156784006802462   0.02870566606763089
-1.1344692315518567   0.02156784006802462   0.02870566606763089
-0.9658850670746287   0.08892788017403491   0.04621060432347793
-0.9658850670746287   0.08892788017403491   0.04621060432347793
-0.9658850670746287   0.08892788017403491   0.04621060432347793
-0.9658850670746287   0.08892788017403491   0.04621060432347793
-1.4395296519137144   -0.07718044211406022   -0.036287385930118224
-1.4395296519137144   -0.07718044211406022   -0.036287385930118224
-1.4395296519137144   -0.07718044211406022   -0.036287385930118224
-1.4395296519137144   -0.07718044211406022   -0.036287385930118224
-1.4467820165806131   -0.012271160945592885   0.048935053456219985
-1.4467820165806131   -0.012271160945592885   0.048935053456219985
-1.4467820165806131   -0.012271160945592885   0.048935053456219985
-1.4467820165806131   -0.012271160945592885   0.048935053456219985
-1.0199597713011785   0.0024104334334232314   -0.022641865807239966
-1.0199597713011785   0.0024104334334232314   -0.022641865807239966
-1.0199597713011785   0.0024104334334232314   -0.022641865807239966
-1.0199597713011785   0.0024104334334232314   -0.022641865807239966
-1.1849709079030248   0.008880480860447681   0.015016995004690947
-1.1849709079030248   0.008880480860447681   0.015016995004690947
-1.1849709079030248   0.008880480860447681   0.015016995004690947
-1.1849709079030248   0.008880480860447681   0.015016995004690947
-0.9889441075339129   0.08039898955417257   0.05444789690834692
-0.9889441075339129   0.08039898955417257   0.05444789690834692
-0.9889441075339129   0.08039898955417257   0.05444789690834692
-0.9889441075339129   0.08039898955417257   0.05444789690834692
-1.4782195639135822   -0.090681600632047   -0.029842243522156503
-1.4782195639135822   -0.090681600632047   -0.029842243522156503
-1.4782195639135822   -0.090681600632047   -0.029842243522156503
-1.4782195639135822   -0.090681600632047   -0.029842243522156503
-1.496901810229906   -0.04679849135925512   0.04909969124948148
-1.496901810229906   -0.04679849135925512   0.04909969124948148
-1.496901810229906   -0.04679849135925512   0.04909969124948148
-1.496901810229906   -0.04679849135925512   0.04909969124948148
-1.0455370918867737   -0.02583755186456871   -0.020019809724905496
-1.0455370918867737   -0.02583755186456871   -0.020019809724905496
-1.0455370918867737   -0.02583755186456871   -0.020019809724905496
-1.0455370918867737   -0.02583755186456871   -0.020019809724905496
-1.199293447185546   -0.005589429351181285   0.008499114687606696
-1.199293447185546   -0.005589429351181285   0.008499114687606696
-1.199293447185546   -0.005589429351181285   0.008499114687606696
-1.199293447185546   -0.005589429351181285   0.008499114687606696
0.4425455222485847   0.02645165057027358   -0.05332006157390442
0.4425455222485847   0.02645165057027358   -0.05332006157390442
0.4425455222485847   0.02645165057027358   -0.05332006157390442
0.4425455222485847   0.02645165057027358   -0.05332006157390442
0.1285422869107556   0.032062590539643346   0.025515722554484265
0.1285422869107556   0.032062590539643346   0.025515722554484265
0.1285422869107556   0.032062590539643346   0.025515722554484265
0.1285422869107556   0.032062590539643346   0.025515722554484265
0.078902083078593   -0.06501589754202142   -0.04701573427078021
0.078902083078593   -0.06501589754202142   -0.04701573427078021
0.078902083078593   -0.06501589754202142   -0.04701573427078021
0.078902083078593   -0.06501589754202142   -0.04701573427078021
0.43031707599089475   0.07553579801226687   0.030700797148720795
0.43031707599089475   0.07553579801226687   0.030700797148720795
0.43031707599089475   0.07553579801226687   0.030700797148720795
0.43031707599089475   0.07553579801226687   0.030700797148720795
0.2542958433996393   0.012594320938988969   -0.005887086898604605
0.2542958433996393   0.012594320938988969   -0.005887086898604605
0.2542958433996393   0.012594320938988969   -0.005887086898604605
0.2542958433996393   0.012594320938988969   -0.005887086898604605
0.3990201098370564   -0.001365660381511577   -0.04888257522669444
0.3990201098370564   -0.001365660381511577   -0.04888257522669444
0.3990201098370564   -0.001365660381511577   -0.04888257522669444
0.3990201098370564   -0.001365660381511577   -0.04888257522669444
0.10922226475498696   0.010908776374312482   0.028660500194856595
0.10922226475498696   0.010908776374312482   0.028660500194856595
0.10922226475498696   0.010908776374312482   0.028660500194856595
0.10922226475498696   0.010908776374312482   0.028660500194856595
0.060160852156187425   -0.07423401583504316   -0.03992746739261793
0.060160852156187425   -0.07423401583504316   -0.03992746739261793
0.060160852156187425   -0.07423401583504316   -0.03992746739261793
0.060160852156187425   -0.07423401583504316   -0.03992746739261793
0.39662980536312553   0.06281510137569958   0.03943417812875466
0.39662980536312553   0.06281510137569958   0.03943417812875466
0.39662980536312553   0.06281510137569958   0.03943417812875466
0.39662980536312553   0.06281510137569958   0.03943417812875466
0.2307633042747666   -0.0018022047583269307   -0.01523111192244259
0.2307633042747666   -0.0018022047583269307   -0.01523111192244259
0.2307633042747666   -0.0018022047583269307   -0.01523111192244259
0.2307633042747666   -0.0018022047583269307   -0.01523111192244259
0.3655130373150774   -0.013204164559910567   -0.040130396175875625
0.3655130373150774   -0.013204164559910567   -0.040130396175875625
0.3655130373150774   -0.013204164559910567   -0.040130396175875625
0.3655130373150774   -0.013204164559910567   -0.040130396175875625
0.08996995432570888   0.0004775842220457842   0.03440644339790234
0.08996995432570888   0.0004775842220457842   0.03440644339790234
0.08996995432570888   0.0004775842220457842   0.03440644339790234
0.08996995432570888   0.0004775842220457842   0.03440644339790234
0.043402481624952624   -0.08536425536783533   -0.03325402661298117
0.043402481624952624   -0.08536425536783533   -0.03325402661298117
0.043402481624952624   -0.08536425536783533   -0.03325402661298117
0.043402481624952624   -0.08536425536783533   -0.03325402661298117
0.35491819005844544   0.0424578323136354   0.043777337120629894
0.35491819005844544   0.0424578323136354   0.043777337120629894
0.35491819005844544   0.0424578323136354   0.043777337120629894
0.35491819005844544   0.0424578323136354   0.043777337120629894
0.19826404203716902   -0.014628072991096079   -0.02664993659786613
0.19826404203716902   -0.014628072991096079   -0.02664993659786613
0.19826404203716902   -0.014628072991096079   -0.02664993659786613
0.19826404203716902   -0.014628072991096079   -0.02664993659786613
0.12355337631600675   0.048096713529396234   -0.015462953409013741
0.12355337631600675   0.048096713529396234   -0.015462953409013741
0.12355337631600675   0.048096713529396234   -0.015462953409013741
0.12355337631600675   0.048096713529396234   -0.015462953409013741
-0.18010071403666741   0.015528467377394578   0.006204697368517347
-0.18010071403666741   0.015528467377394578   0.006204697368517347
-0.18010071403666741   0.015528467377394578   0.006204697368517347
-0.18010071403666741   0.015528467377394578   0.006204697368517347
-0.2120755822955323   -0.04167503695566207   -0.027434692394165572
-0.2120755822955323   -0.04167503695566207   -0.027434692394165572
-0.2120755822955323   -0.04167503695566207   -0.027434692394165572
-0.2120755822955323   -0.04167503695566207   -0.027434692394165572
0.11907842587239689   0.059699708264445754   0.02915037389177301
0.11907842587239689   0.059699708264445754   0.02915037389177301
0.11907842587239689   0.059699708264445754   0.02915037389177301
0.11907842587239689   0.059699708264445754   0.02915037389177301
-0.03844387294772866   0.019551676989537192   0.0049525199100094565
-0.03844387294772866   0.019551676989537192   0.0049525199100094565
-0.03844387294772866   0.019551676989537192   0.0049525199100094565
-0.03844387294772866   0.019551676989537192   0.0049525199100094565
0.10398550585834727   0.024751012975955864   -0.011365530889986151
0.10398550585834727   0.024751012975955864   -0.011365530889986151
0.10398550585834727   0.024751012975955864   -0.011365530889986151
0.10398550585834727   0.024751012975955864   -0.011365530889986151
-0.19781526186558215   -0.0075589412512666945   0.009750814051189839
-0.19781526186558215   -0.0075589412512666945   0.009750814051189839
-0.19781526186558215   -0.0075589412512666945   0.009750814051189839
-0.19781526186558215   -0.0075589412512666945   0.009750814051189839
-0.2288412677885459   -0.06041216972111628   -0.021482483399954174
-0.2288412677885459   -0.06041216972111628   -0.021482483399954174
-0.2288412677885459   -0.06041216972111628   -0.021482483399954174
-0.2288412677885459   -0.06041216972111628   -0.021482483399954174
0.09708109183377338   0.038657670687099396   0.03178204447317126
0.09708109183377338   0.038657670687099396   0.03178204447317126
0.09708109183377338   0.038657670687099396   0.03178204447317126
0.09708109183377338   0.038657670687099396   0.03178204447317126
-0.05915750549299387   -0.0006559616368266036   -0.004730413575699014
-0.05915750549299387   -0.0006559616368266036   -0.004730413575699014
-0.05915750549299387   -0.0006559616368266036   -0.004730413575699014
-0.05915750549299387   -0.0006559616368266036   -0.004730413575699014
0.08243430662751597   0.00465049972323605   -0.007444710594254418
0.08243430662751597   0.00465049972323605   -0.007444710594254418
0.08243430662751597   0.00465049972323605   -0.007444710594254418
0.08243430662751597   0.00465049972323605   -0.007444710594254418
-0.21527211651507833   -0.02748263269004246   0.013433735936313699
-0.21527211651507833   -0.02748263269004246   0.013433735936313699
-0.21527211651507833   -0.02748263269004246   0.013433735936313699
-0.21527211651507833   -0.02748263269004246   0.013433735936313699
-0.24547903913170338   -0.07900124082047724   -0.016102953703748073
-0.24547903913170338   -0.07900124082047724   -0.016102953703748073
-0.24547903913170338   -0.07900124082047724   -0.016102953703748073
-0.24547903913170338   -0.07900124082047724   -0.016102953703748073
0.0778212398375193   0.0179952711884688   0.03548023789354904
0.0778212398375193   0.0179952711884688   0.03548023789354904
0.0778212398375193   0.0179952711884688   0.03548023789354904
0.0778212398375193   0.0179952711884688   0.03548023789354904
-0.07708631635273583   -0.01875364929530735   -0.013875454358364712
-0.07708631635273583   -0.01875364929530735   -0.013875454358364712
-0.07708631635273583   -0.01875364929530735   -0.013875454358364712
-0.07708631635273583   -0.01875364929530735   -0.013875454358364712
-0.17081320733302355   0.06584825689555185   0.002322441368579342
-0.17081320733302355   0.06584825689555185   0.002322441368579342
-0.17081320733302355   0.06584825689555185   0.002322441368579342
-0.17081320733302355   0.06584825689555185   0.002322441368579342
-0.4846450189340984   -0.005765163448335886   -0.013316793176737673
-0.4846450189340984   -0.005765163448335886   -0.013316793176737673
-0.4846450189340984   -0.005765163448335886   -0.013316793176737673
-0.4846450189340984   -0.005765163448335886   -0.013316793176737673
-0.4997451362754126   -0.02039991406712921   -0.007955851185280693
-0.4997451362754126   -0.02039991406712921   -0.007955851185280693
-0.4997451362754126   -0.02039991406712921   -0.007955851185280693
-0.4997451362754126   -0.02039991406712921   -0.007955851185280693
-0.18854019638622987   0.039296743977965516   0.009270456218719043
-0.18854019638622987   0.039296743977965516   0.009270456218719043
-0.18854019638622987   0.039296743977965516   0.009270456218719043
-0.18854019638622987   0.039296743977965516   0.009270456218719043
-0.33513960537975895   0.019330262830693626   0.005135148031321608
-0.33513960537975895   0.019330262830693626   0.005135148031321608
-0.33513960537975895   0.019330262830693626   0.005135148031321608
-0.33513960537975895   0.019330262830693626   0.005135148031321608
-0.18764057171535697   0.045187694826784766   0.007877628724264205
-0.18764057171535697   0.045187694826784766   0.007877628724264205
-0.18764057171535697   0.045187694826784766   0.007877628724264205
-0.18764057171535697   0.045187694826784766   0.007877628724264205
-0.5013738508468785   -0.027019954816547717   -0.009479383293198602
-0.5013738508468785   -0.027019954816547717   -0.009479383293198602
-0.5013738508468785   -0.027019954816547717   -0.009479383293198602
-0.5013738508468785   -0.027019954816547717   -0.009479383293198602
-0.5164377951931473   -0.040854934404860196   -0.0025627717632495696
-0.5164377951931473   -0.040854934404860196   -0.0025627717632495696
-0.5164377951931473   -0.040854934404860196   -0.0025627717632495696
-0.5164377951931473   -0.040854934404860196   -0.0025627717632495696
-0.20623722149695367   0.0179561399681019   0.013169438368788873
-0.20623722149695367   0.0179561399681019   0.013169438368788873
-0.20623722149695367   0.0179561399681019   0.013169438368788873
-0.20623722149695367   0.0179561399681019   0.013169438368788873
-0.3525557692569615   -9.698531819883616e-05   -0.0035458961949645616
-0.3525557692569615   -9.698531819883616e-05   -0.0035458961949645616
-0.3525557692569615   -9.698531819883616e-05   -0.0035458961949645616
-0.3525557692569615   -9.698531819883616e-05   -0.0035458961949645616
-0.2050308520511731   0.024475411407786703   0.012682014158010766
-0.2050308520511731   0.024475411407786703   0.012682014158010766
-0.2050308520511731   0.024475411407786703   0.012682014158010766
-0.2050308520511731   0.024475411407786703   0.012682014158010766
-0.5186806500815038   -0.04841069128712085   -0.006221289322774819
-0.5186806500815038   -0.04841069128712085   -0.006221289322774819
-0.5186806500815038   -0.04841069128712085   -0.006221289322774819
-0.5186806500815038   -0.04841069128712085   -0.006221289322774819
-0.5328103117723714   -0.06060285417749854   0.00265777780423292
-0.5328103117723714   -0.06060285417749854   0.00265777780423292
-0.5328103117723714   -0.06060285417749854   0.00265777780423292
-0.5328103117723714   -0.06060285417749854   0.00265777780423292
-0.2236309315330708   -0.002601796668155208   0.016738140137092655
-0.2236309315330708   -0.002601796668155208   0.016738140137092655
-0.2236309315330708   -0.002601796668155208   0.016738140137092655
-0.2236309315330708   -0.002601796668155208   0.016738140137092655
-0.37088029171648185   -0.019570728403940085   -0.012971223100653274
-0.37088029171648185   -0.019570728403940085   -0.012971223100653274
-0.37088029171648185   -0.019570728403940085   -0.012971223100653274
-0.37088029171648185   -0.019570728403940085   -0.012971223100653274
-0.4601707613076201   0.08270860407134586   0.020580727435972446
-0.4601707613076201   0.08270860407134586   0.020580727435972446
-0.4601707613076201   0.08270860407134586   0.020580727435972446
-0.4601707613076201   0.08270860407134586   0.020580727435972446
-0.7825208623071059   -0.023239167140758105   -0.03039245979443478
-0.7825208623071059   -0.023239167140758105   -0.03039245979443478
-0.7825208623071059   -0.023239167140758105   -0.03039245979443478
-0.7825208623071059   -0.023239167140758105   -0.03039245979443478
-0.7840156067379618   -0.0016217002261707802   0.012692498737649126
-0.7840156067379618   -0.0016217002261707802   0.012692498737649126
-0.7840156067379618   -0.0016217002261707802   0.012692498737649126
-0.7840156067379618   -0.0016217002261707802   0.012692498737649126
-0.4919511917176767   0.020199127150037244   -0.00958516961377888
-0.4919511917176767   0.020199127150037244   -0.00958516961377888
-0.4919511917176767   0.020199127150037244   -0.00958516961377888
-0.4919511917176767   0.020199127150037244   -0.00958516961377888
-0.6264581897589822   0.01947468287568968   0.006762012977556221
-0.6264581897589822   0.01947468287568968   0.006762012977556221
-0.6264581897589822   0.01947468287568968   0.006762012977556221
-0.6264581897589822   0.01947468287568968   0.006762012977556221
-0.47632145482485355   0.06260929900750353   0.02615334299288191
-0.47632145482485355   0.06260929900750353   0.02615334299288191
-0.47632145482485355   0.06260929900750353   0.02615334299288191
-0.47632145482485355   0.06260929900750353   0.02615334299288191
-0.8010453154212985   -0.0454318438741399   -0.028645901031073534
-0.8010453154212985   -0.0454318438741399   -0.028645901031073534
-0.8010453154212985   -0.0454318438741399   -0.028645901031073534
-0.8010453154212985   -0.0454318438741399   -0.028645901031073534
-0.8045655621276763   -0.02178768918244961   0.015597351504286698
-0.8045655621276763   -0.02178768918244961   0.015597351504286698
-0.8045655621276763   -0.02178768918244961   0.015597351504286698
-0.8045655621276763   -0.02178768918244961   0.015597351504286698
-0.5087315886354511   0.0005502220899725324   -0.00543689546960888
-0.5087315886354511   0.0005502220899725324   -0.00543689546960888
-0.5087315886354511   0.0005502220899725324   -0.00543689546960888
-0.5087315886354511   0.0005502220899725324   -0.00543689546960888
-0.6412601489847977   0.0013689059224828992   -0.002339483481177823
-0.6412601489847977   0.0013689059224828992   -0.002339483481177823
-0.6412601489847977   0.0013689059224828992   -0.002339483481177823
-0.6412601489847977   0.0013689059224828992   -0.002339483481177823
-0.49268629219490817   0.043780546889880756   0.031559261933201035
-0.49268629219490817   0.043780546889880756   0.031559261933201035
-0.49268629219490817   0.043780546889880756   0.031559261933201035
-0.49268629219490817   0.043780546889880756   0.031559261933201035
-0.8214836300927977   -0.06589078550694204   -0.024889891996835115
-0.8214836300927977   -0.06589078550694204   -0.024889891996835115
-0.8214836300927977   -0.06589078550694204   -0.024889891996835115
-0.8214836300927977   -0.06589078550694204   -0.024889891996835115
-0.8223176068392214   -0.042806230362813696   0.021230351584956356
-0.8223176068392214   -0.042806230362813696   0.021230351584956356
-0.8223176068392214   -0.042806230362813696   0.021230351584956356
-0.8223176068392214   -0.042806230362813696   0.021230351584956356
-0.5257218375878495   -0.02046276407003665   -0.0020399413806275087
-0.5257218375878495   -0.02046276407003665   -0.0020399413806275087
-0.5257218375878495   -0.02046276407003665   -0.0020399413806275087
-0.5257218375878495   -0.02046276407003665   -0.0020399413806275087
-0.6632728624932703   -0.018357561909878528   -0.01225830849358403
-0.6632728624932703   -0.018357561909878528   -0.01225830849358403
-0.6632728624932703   -0.018357561909878528   -0.01225830849358403
-0.6632728624932703   -0.018357561909878528   -0.01225830849358403
-0.7482213297291483   0.08140861814163036   0.036457417812972036
-0.7482213297291483   0.08140861814163036   0.036457417812972036
-0.7482213297291483   0.08140861814163036   0.036457417812972036
-0.7482213297291483   0.08140861814163036   0.036457417812972036
-1.0530031418729655   -0.04845369932274424   -0.046143262244096594
-1.0530031418729655   -0.04845369932274424   -0.046143262244096594
-1.0530031418729655   -0.04845369932274424   -0.046143262244096594
-1.0530031418729655   -0.04845369932274424   -0.046143262244096594
-1.060718755577961   0.013504158177043202   0.03832471918964529
-1.060718755577961   0.013504158177043202   0.03832471918964529
-1.060718755577961   0.013504158177043202   0.03832471918964529
-1.060718755577961   0.013504158177043202   0.03832471918964529
-0.7923462792905767   -0.0023940454071951778   -0.028188518844416338
-0.7923462792905767   -0.0023940454071951778   -0.028188518844416338
-0.7923462792905767   -0.0023940454071951778   -0.028188518844416338
-0.7923462792905767   -0.0023940454071951778   -0.028188518844416338
-0.87431043751694   0.019529434824331587   0.02116828025068635
-0.87431043751694   0.019529434824331587   0.02116828025068635
-0.87431043751694   0.019529434824331587   0.02116828025068635
-0.87431043751694   0.019529434824331587   0.02116828025068635
-0.7627966940388871   0.07404724920691863   0.04311811279991781
-0.7627966940388871   0.07404724920691863   0.04311811279991781
-0.7627966940388871   0.07404724920691863   0.04311811279991781
-0.7627966940388871   0.07404724920691863   0.04311811279991781
-1.0917582602818117   -0.06442705588922915   -0.038941590263320516
-1.0917582602818117   -0.06442705588922915   -0.038941590263320516
-1.0917582602818117   -0.06442705588922915   -0.038941590263320516
-1.0917582602818117   -0.06442705588922915   -0.038941590263320516
-1.0927226391942024   0.0021752646078952165   0.048945157958174806
-1.0927226391942024   0.0021752646078952165   0.048945157958174806
-1.0927226391942024   0.0021752646078952165   0.048945157958174806
-1.0927226391942024   0.0021752646078952165   0.048945157958174806
-0.810837001640407   -0.013358054784797208   -0.024189480457026867
-0.810837001640407   -0.013358054784797208   -0.024189480457026867
-0.810837001640407   -0.013358054784797208   -0.024189480457026867
-0.810837001640407   -0.013358054784797208   -0.024189480457026867
-0.9152125179945936   0.006130500643197034   0.0076262223050445055
-0.9152125179945936   0.006130500643197034   0.0076262223050445055
-0.9152125179945936   0.006130500643197034   0.0076262223050445055
-0.9152125179945936   0.006130500643197034   0.0076262223050445055
-0.7800344718021385   0.0651807410704858   0.05128437287903283
-0.7800344718021385   0.0651807410704858   0.05128437287903283
-0.7800344718021385   0.0651807410704858   0.05128437287903283
-0.7800344718021385   0.0651807410704858   0.05128437287903283
-1.124935298718328   -0.07777366093323856   -0.0321692141213124
-1.124935298718328   -0.07777366093323856   -0.0321692141213124
-1.124935298718328   -0.07777366093323856   -0.0321692141213124
-1.124935298718328   -0.07777366093323856   -0.0321692141213124
-1.1369814541681305   -0.03001471110956691   0.05053875633142952
-1.1369814541681305   -0.03001471110956691   0.05053875633142952
-1.1369814541681305   -0.03001471110956691   0.05053875633142952
-1.1369814541681305   -0.03001471110956691   0.05053875633142952
-0.8299174325263362   -0.03848042652607686   -0.021094580687370003
-0.8299174325263362   -0.03848042652607686   -0.021094580687370003
-0.8299174325263362   -0.03848042652607686   -0.021094580687370003
-0.8299174325263362   -0.03848042652607686   -0.021094580687370003
-0.9285517666673686   -0.008118827664735706   -0.00042972652564031433
-0.9285517666673686   -0.008118827664735706   -0.00042972652564031433
-0.9285517666673686   -0.008118827664735706   -0.00042972652564031433
-0.9285517666673686   -0.008118827664735706   -0.00042972652564031433
0.07976017069417816   0.006561952169593432   -0.053205353079157205
0.07976017069417816   0.006561952169593432   -0.053205353079157205
0.07976017069417816   0.006561952169593432   -0.053205353079157205
0.07976017069417816   0.006561952169593432   -0.053205353079157205
-0.08663335143987946   0.03989305692165948   0.027209255677280518
-0.08663335143987946   0.03989305692165948   0.027209255677280518
-0.08663335143987946   0.03989305692165948   0.027209255677280518
-0.08663335143987946   0.03989305692165948   0.027209255677280518
-0.12999314421757333   -0.051236647723951007   -0.04285121132390058
-0.12999314421757333   -0.051236647723951007   -0.04285121132390058
-0.12999314421757333   -0.051236647723951007   -0.04285121132390058
-0.12999314421757333   -0.051236647723951007   -0.04285121132390058
0.0731905577190001   0.056382386590412975   0.03340814056293514
0.0731905577190001   0.056382386590412975   0.03340814056293514
0.0731905577190001   0.056382386590412975   0.03340814056293514
0.0731905577190001   0.056382386590412975   0.03340814056293514
-0.01773796127534693   0.012373751931009546   0.0046222156907934735
-0.01773796127534693   0.012373751931009546   0.0046222156907934735
-0.01773796127534693   0.012373751931009546   0.0046222156907934735
-0.01773796127534693   0.012373751931009546   0.0046222156907934735
0.04216867481073758   -0.017748182609251335   -0.04757070477871311
0.04216867481073758   -0.017748182609251335   -0.04757070477871311
0.04216867481073758   -0.017748182609251335   -0.04757070477871311
0.04216867481073758   -0.017748182609251335   -0.04757070477871311
-0.10080415838460646   0.02106102440041765   0.030796045716565065
-0.10080415838460646   0.02106102440041765   0.030796045716565065
-0.10080415838460646   0.02106102440041765   0.030796045716565065
-0.10080415838460646   0.02106102440041765   0.030796045716565065
-0.14428178932122315   -0.06051923579788611   -0.03632591305482514
-0.14428178932122315   -0.06051923579788611   -0.03632591305482514
-0.14428178932122315   -0.06051923579788611   -0.03632591305482514
-0.14428178932122315   -0.06051923579788611   -0.03632591305482514
0.04377794800067679   0.04377559232385625   0.04582269088550748
0.04377794800067679   0.04377559232385625   0.04582269088550748
0.04377794800067679   0.04377559232385625   0.04582269088550748
0.04377794800067679   0.04377559232385625   0.04582269088550748
-0.04094099752318119   -0.0015340029797125867   -0.006099157276450051
-0.04094099752318119   -0.0015340029797125867   -0.006099157276450051
-0.04094099752318119   -0.0015340029797125867   -0.006099157276450051
-0.04094099752318119   -0.0015340029797125867   -0.006099157276450051
0.012038222988542624   -0.02984176591269113   -0.03925857593861598
0.012038222988542624   -0.02984176591269113   -0.03925857593861598
0.012038222988542624   -0.02984176591269113   -0.03925857593861598
0.012038222988542624   -0.02984176591269113   -0.03925857593861598
-0.11508590891145452   0.010554277836295624   0.03857997535983565
-0.11508590891145452   0.010554277836295624   0.03857997535983565
-0.11508590891145452   0.010554277836295624   0.03857997535983565
-0.11508590891145452   0.010554277836295624   0.03857997535983565
-0.1573687712009584   -0.0747774907007702   -0.030112316691994302
-0.1573687712009584   -0.0747774907007702   -0.030112316691994302
-0.1573687712009584   -0.0747774907007702   -0.030112316691994302
-0.1573687712009584   -0.0747774907007702   -0.030112316691994302
0.002930358889776113   0.017356593601707163   0.05224485905299346
0.002930358889776113   0.017356593601707163   0.05224485905299346
0.002930358889776113   0.017356593601707163   0.05224485905299346
0.002930358889776113   0.017356593601707163   0.05224485905299346
-0.06587838754655853   -0.015532786829895083   -0.018465312335420224
-0.06587838754655853   -0.015532786829895083   -0.018465312335420224
-0.06587838754655853   -0.015532786829895083   -0.018465312335420224
-0.06587838754655853   -0.015532786829895083   -0.018465312335420224
-0.09903134390645582   0.02626989331912089   -0.021157543053062697
-0.09903134390645582   0.02626989331912089   -0.021157543053062697
-0.09903134390645582   0.02626989331912089   -0.021157543053062697
-0.09903134390645582   0.02626989331912089   -0.021157543053062697
-0.254816824053763   0.010721172736500327   0.007097841544613473
-0.254816824053763   0.010721172736500327   0.007097841544613473
-0.254816824053763   0.010721172736500327   0.007097841544613473
-0.254816824053763   0.010721172736500327   0.007097841544613473
-0.2771902339926018   -0.02984154011097736   -0.02228720812034391
-0.2771902339926018   -0.02984154011097736   -0.02228720812034391
-0.2771902339926018   -0.02984154011097736   -0.02228720812034391
-0.2771902339926018   -0.02984154011097736   -0.02228720812034391
-0.10181941713755802   0.025489454332343404   0.02129132201988159
-0.10181941713755802   0.025489454332343404   0.02129132201988159
-0.10181941713755802   0.025489454332343404   0.02129132201988159
-0.10181941713755802   0.025489454332343404   0.02129132201988159
-0.18284178553249733   0.007639561184501639   0.00407347469446908
-0.18284178553249733   0.007639561184501639   0.00407347469446908
-0.18284178553249733   0.007639561184501639   0.00407347469446908
-0.18284178553249733   0.007639561184501639   0.00407347469446908
-0.11389279148650241   0.0037984757798379502   -0.017384571172335994
-0.11389279148650241   0.0037984757798379502   -0.017384571172335994
-0.11389279148650241   0.0037984757798379502   -0.017384571172335994
-0.11389279148650241   0.0037984757798379502   -0.017384571172335994
-0.26662227773132957   -0.009655979646150697   0.01036701272118265
-0.26662227773132957   -0.009655979646150697   0.01036701272118265
-0.26662227773132957   -0.009655979646150697   0.01036701272118265
-0.26662227773132957   -0.009655979646150697   0.01036701272118265
-0.28831528578418153   -0.0480682231537304   -0.01645104711302278
-0.28831528578418153   -0.0480682231537304   -0.01645104711302278
-0.28831528578418153   -0.0480682231537304   -0.01645104711302278
-0.28831528578418153   -0.0480682231537304   -0.01645104711302278
-0.11904199909518336   0.005347941319267451   0.024005860958219646
-0.11904199909518336   0.005347941319267451   0.024005860958219646
-0.11904199909518336   0.005347941319267451   0.024005860958219646
-0.11904199909518336   0.005347941319267451   0.024005860958219646
-0.1968954658394419   -0.010654132913058868   -0.005105752744242341
-0.1968954658394419   -0.010654132913058868   -0.005105752744242341
-0.1968954658394419   -0.010654132913058868   -0.005105752744242341
-0.1968954658394419   -0.010654132913058868   -0.005105752744242341
-0.13068029419129484   -0.0158487917109688   -0.012988881492101506
-0.13068029419129484   -0.0158487917109688   -0.012988881492101506
-0.13068029419129484   -0.0158487917109688   -0.012988881492101506
-0.13068029419129484   -0.0158487917109688   -0.012988881492101506
-0.27829312633781417   -0.028487625773238878   0.01407915273831882
-0.27829312633781417   -0.028487625773238878   0.01407915273831882
-0.27829312633781417   -0.028487625773238878   0.01407915273831882
-0.27829312633781417   -0.028487625773238878   0.01407915273831882
-0.2995136735949271   -0.06682434256777063   -0.011282917455201687
-0.2995136735949271   -0.06682434256777063   -0.011282917455201687
-0.2995136735949271   -0.06682434256777063   -0.011282917455201687
-0.2995136735949271   -0.06682434256777063   -0.011282917455201687
-0.13344594712983668   -0.015060665988381634   0.029784978951223774
-0.13344594712983668   -0.015060665988381634   0.029784978951223774
-0.13344594712983668   -0.015060665988381634   0.029784978951223774
-0.13344594712983668   -0.015060665988381634   0.029784978951223774
-0.21093257796557782   -0.028747553305824815   -0.014440903417563416
-0.21093257796557782   -0.028747553305824815   -0.014440903417563416
-0.21093257796557782   -0.028747553305824815   -0.014440903417563416
-0.21093257796557782   -0.028747553305824815   -0.014440903417563416
-0.2501600449904841   0.0433464765793577   -0.0022435669818533684
-0.2501600449904841   0.0433464765793577   -0.0022435669818533684
-0.2501600449904841   0.0433464765793577   -0.0022435669818533684
-0.2501600449904841   0.0433464765793577   -0.0022435669818533684
-0.42146959892955016   -0.014445861528039741   -0.011914295492666396
-0.42146959892955016   -0.014445861528039741   -0.011914295492666396
-0.42146959892955016   -0.014445861528039741   -0.011914295492666396
-0.42146959892955016   -0.014445861528039741   -0.011914295492666396
-0.4259020065788969   -0.010534105111991238   -0.0025219790384284277
-0.4259020065788969   -0.010534105111991238   -0.0025219790384284277
-0.4259020065788969   -0.010534105111991238   -0.0025219790384284277
-0.4259020065788969   -0.010534105111991238   -0.0025219790384284277
-0.2656155663546346   0.0024589428511396366   0.003285647107367012
-0.2656155663546346   0.0024589428511396366   0.003285647107367012
-0.2656155663546346   0.0024589428511396366   0.003285647107367012
-0.2656155663546346   0.0024589428511396366   0.003285647107367012
-0.34007410887633494   0.004873467189150604   0.0013923077503606614
-0.34007410887633494   0.004873467189150604   0.0013923077503606614
-0.34007410887633494   0.004873467189150604   0.0013923077503606614
-0.34007410887633494   0.004873467189150604   0.0013923077503606614
-0.26141155297203245   0.02351776065947061   0.003246896212047056
-0.26141155297203245   0.02351776065947061   0.003246896212047056
-0.26141155297203245   0.02351776065947061   0.003246896212047056
-0.26141155297203245   0.02351776065947061   0.003246896212047056
-0.43155436653549145   -0.0330412694943197   -0.008276614439072865
-0.43155436653549145   -0.0330412694943197   -0.008276614439072865
-0.43155436653549145   -0.0330412694943197   -0.008276614439072865
-0.43155436653549145   -0.0330412694943197   -0.008276614439072865
-0.43633369325204735   -0.030115118977978264   0.002909615393481703
-0.43633369325204735   -0.030115118977978264   0.002909615393481703
-0.43633369325204735   -0.030115118977978264   0.002909615393481703
-0.43633369325204735   -0.030115118977978264   0.002909615393481703
-0.27741319999530534   -0.016790721266661236   0.006781879944285392
-0.27741319999530534   -0.016790721266661236   0.006781879944285392
-0.27741319999530534   -0.016790721266661236   0.006781879944285392
-0.27741319999530534   -0.016790721266661236   0.006781879944285392
-0.3513821396546543   -0.012934855495627631   -0.0070379867754422065
-0.3513821396546543   -0.012934855495627631   -0.0070379867754422065
-0.3513821396546543   -0.012934855495627631   -0.0070379867754422065
-0.3513821396546543   -0.012934855495627631   -0.0070379867754422065
-0.27308092904228937   0.0035700112281865926   0.008082502214517305
-0.27308092904228937   0.0035700112281865926   0.008082502214517305
-0.27308092904228937   0.0035700112281865926   0.008082502214517305
-0.27308092904228937   0.0035700112281865926   0.008082502214517305
-0.4424120838526538   -0.052221971120411485   -0.005375485467117412
-0.4424120838526538   -0.052221971120411485   -0.005375485467117412
-0.4424120838526538   -0.052221971120411485   -0.005375485467117412
-0.4424120838526538   -0.052221971120411485   -0.005375485467117412
-0.4464932674790361   -0.048898152910143954   0.008118694873114273
-0.4464932674790361   -0.048898152910143954   0.008118694873114273
-0.4464932674790361   -0.048898152910143954   0.008118694873114273
-0.4464932674790361   -0.048898152910143954   0.008118694873114273
-0.2887430793735986   -0.03495081350178608   0.010696524585452487
-0.2887430793735986   -0.03495081350178608   0.010696524585452487
-0.2887430793735986   -0.03495081350178608   0.010696524585452487
-0.2887430793735986   -0.03495081350178608   0.010696524585452487
-0.3635504855289795   -0.030853614008371666   -0.01619842301852201
-0.3635504855289795   -0.030853614008371666   -0.01619842301852201
-0.3635504855289795   -0.030853614008371666   -0.01619842301852201
-0.3635504855289795   -0.030853614008371666   -0.01619842301852201
-0.4001893137562046   0.06276157358126128   0.01727969526476074
-0.4001893137562046   0.06276157358126128   0.01727969526476074
-0.4001893137562046   0.06276157358126128   0.01727969526476074
-0.4001893137562046   0.06276157358126128   0.01727969526476074
-0.5815525003549088   -0.024031599506822987   -0.02672595220570074
-0.5815525003549088   -0.024031599506822987   -0.02672595220570074
-0.5815525003549088   -0.024031599506822987   -0.02672595220570074
-0.5815525003549088   -0.024031599506822987   -0.02672595220570074
-0.5737528297381382   0.00933086406063438   0.017875152959637625
-0.5737528297381382   0.00933086406063438   0.017875152959637625
-0.5737528297381382   0.00933086406063438   0.017875152959637625
-0.5737528297381382   0.00933086406063438   0.017875152959637625
-0.42735505518917855   -0.008432593969036603   -0.011888733232791441
-0.42735505518917855   -0.008432593969036603   -0.011888733232791441
-0.42735505518917855   -0.008432593969036603   -0.011888733232791441
-0.42735505518917855   -0.008432593969036603   -0.011888733232791441
-0.4939953879646604   0.009976214051006002   0.0023821920803574065
-0.4939953879646604   0.009976214051006002   0.0023821920803574065
-0.4939953879646604   0.009976214051006002   0.0023821920803574065
-0.4939953879646604   0.009976214051006002   0.0023821920803574065
-0.4101270504831768   0.043037273821107586   0.022781422507072976
-0.4101270504831768   0.043037273821107586   0.022781422507072976
-0.4101270504831768   0.043037273821107586   0.022781422507072976
-0.4101270504831768   0.043037273821107586   0.022781422507072976
-0.5930958962787715   -0.04425406556415275   -0.025255250118748535
-0.5930958962787715   -0.04425406556415275   -0.025255250118748535
-0.5930958962787715   -0.04425406556415275   -0.025255250118748535
-0.5930958962787715   -0.04425406556415275   -0.025255250118748535
-0.5877333333032773   -0.009939765537707479   0.021114911059817217
-0.5877333333032773   -0.009939765537707479   0.021114911059817217
-0.5877333333032773   -0.009939765537707479   0.021114911059817217
-0.5877333333032773   -0.009939765537707479   0.021114911059817217
-0.4376964757384644   -0.025935528029815066   -0.008083887986766517
-0.4376964757384644   -0.025935528029815066   -0.008083887986766517
-0.4376964757384644   -0.025935528029815066   -0.008083887986766517
-0.4376964757384644   -0.025935528029815066   -0.008083887986766517
-0.5034917087877625   -0.007184267487403778   -0.006756279694278104
-0.5034917087877625   -0.007184267487403778   -0.006756279694278104
-0.5034917087877625   -0.007184267487403778   -0.006756279694278104
-0.5034917087877625   -0.007184267487403778   -0.006756279694278104
-0.42027485341073645   0.024955572794372688   0.028133122827677336
-0.42027485341073645   0.024955572794372688   0.028133122827677336
-0.42027485341073645   0.024955572794372688   0.028133122827677336
-0.42027485341073645   0.024955572794372688   0.028133122827677336
-0.6068251414809787   -0.06250105221187774   -0.021782843154534895
-0.6068251414809787   -0.06250105221187774   -0.021782843154534895
-0.6068251414809787   -0.06250105221187774   -0.021782843154534895
-0.6068251414809787   -0.06250105221187774   -0.021782843154534895
-0.5990980984240913   -0.0293509934098964   0.02689517275631564
-0.5990980984240913   -0.0293509934098964   0.02689517275631564
-0.5990980984240913   -0.0293509934098964   0.02689517275631564
-0.5990980984240913   -0.0293509934098964   0.02689517275631564
-0.4480758978306567   -0.043857296463753956   -0.004835313331386492
-0.4480758978306567   -0.043857296463753956   -0.004835313331386492
-0.4480758978306567   -0.043857296463753956   -0.004835313331386492
-0.4480758978306567   -0.043857296463753956   -0.004835313331386492
-0.517786998953718   -0.024687412165707703   -0.01612230119308843
-0.517786998953718   -0.024687412165707703   -0.01612230119308843
-0.517786998953718   -0.024687412165707703   -0.01612230119308843
-0.517786998953718   -0.024687412165707703   -0.01612230119308843
-0.5509635645705029   0.06801691169039079   0.034170215519115615
-0.5509635645705029   0.06801691169039079   0.034170215519115615
-0.5509635645705029   0.06801691169039079   0.034170215519115615
-0.5509635645705029   0.06801691169039079   0.034170215519115615
-0.7091482628141069   -0.035473277919779084   -0.04470034721439269
-0.7091482628141069   -0.035473277919779084   -0.04470034721439269
-0.7091482628141069   -0.035473277919779084   -0.04470034721439269
-0.7091482628141069   -0.035473277919779084   -0.04470034721439269
-0.7097067825814942   0.027305112082556038   0.03766777189525736
-0.7097067825814942   0.027305112082556038   0.03766777189525736
-0.7097067825814942   0.027305112082556038   0.03766777189525736
-0.7097067825814942   0.027305112082556038   0.03766777189525736
-0.5886682085133691   -0.02002341909988431   -0.027347457756005437
-0.5886682085133691   -0.02002341909988431   -0.027347457756005437
-0.5886682085133691   -0.02002341909988431   -0.027347457756005437
-0.5886682085133691   -0.02002341909988431   -0.027347457756005437
-0.613742226839735   0.01613748405287188   0.011873367882197922
-0.613742226839735   0.01613748405287188   0.011873367882197922
-0.613742226839735   0.01613748405287188   0.011873367882197922
-0.613742226839735   0.01613748405287188   0.011873367882197922
-0.5595593576447075   0.057863098490287965   0.040310278997130244
-0.5595593576447075   0.057863098490287965   0.040310278997130244
-0.5595593576447075   0.057863098490287965   0.040310278997130244
-0.5595593576447075   0.057863098490287965   0.040310278997130244
-0.7410126541114312   -0.052778426168891585   -0.03877804750297987
-0.7410126541114312   -0.052778426168891585   -0.03877804750297987
-0.7410126541114312   -0.052778426168891585   -0.03877804750297987
-0.7410126541114312   -0.052778426168891585   -0.03877804750297987
-0.7351351734584118   0.016326973540466833   0.04853383298729825
-0.7351351734584118   0.016326973540466833   0.04853383298729825
-0.7351351734584118   0.016326973540466833   0.04853383298729825
-0.7351351734584118   0.016326973540466833   0.04853383298729825
-0.6007769327111502   -0.030085172687390527   -0.023957678829871834
-0.6007769327111502   -0.030085172687390527   -0.023957678829871834
-0.6007769327111502   -0.030085172687390527   -0.023957678829871834
-0.6007769327111502   -0.030085172687390527   -0.023957678829871834
-0.6440116207769923   0.0027893413328321515   -0.0008047766395571643
-0.6440116207769923   0.0027893413328321515   -0.0008047766395571643
-0.6440116207769923   0.0027893413328321515   -0.0008047766395571643
-0.6440116207769923   0.0027893413328321515   -0.0008047766395571643
-0.5704558935758317   0.04922377645948581   0.048338567699843626
-0.5704558935758317   0.04922377645948581   0.048338567699843626
-0.5704558935758317   0.04922377645948581   0.048338567699843626
-0.5704558935758317   0.04922377645948581   0.048338567699843626
-0.7676951136928196   -0.0652208767054989   -0.03271801793877489
-0.7676951136928196   -0.0652208767054989   -0.03271801793877489
-0.7676951136928196   -0.0652208767054989   -0.03271801793877489
-0.7676951136928196   -0.0652208767054989   -0.03271801793877489
-0.7727132381106968   -0.012556964029267231   0.05131853738100795
-0.7727132381106968   -0.012556964029267231   0.05131853738100795
-0.7727132381106968   -0.012556964029267231   0.05131853738100795
-0.7727132381106968   -0.012556964029267231   0.05131853738100795
-0.61293526286786   -0.050947488235746616   -0.020694154636684937
-0.61293526286786   -0.050947488235746616   -0.020694154636684937
-0.61293526286786   -0.050947488235746616   -0.020694154636684937
-0.61293526286786   -0.050947488235746616   -0.020694154636684937
-0.6556321913187421   -0.010434996216842074   -0.009803780236202833
-0.6556321913187421   -0.010434996216842074   -0.009803780236202833
-0.6556321913187421   -0.010434996216842074   -0.009803780236202833
-0.6556321913187421   -0.010434996216842074   -0.009803780236202833
-0.30040339346743966   -0.019604404185203907   -0.056508007829476195
-0.30040339346743966   -0.019604404185203907   -0.056508007829476195
-0.30040339346743966   -0.019604404185203907   -0.056508007829476195
-0.30040339346743966   -0.019604404185203907   -0.056508007829476195
-0.29750789169802055   0.0432649395136758   0.025418079743330733
-0.29750789169802055   0.0432649395136758   0.025418079743330733
-0.29750789169802055   0.0432649395136758   0.025418079743330733
-0.29750789169802055   0.0432649395136758   0.025418079743330733
-0.334791828973407   -0.03955825948271546   -0.038312703110299974
-0.334791828973407   -0.03955825948271546   -0.038312703110299974
-0.334791828973407   -0.03955825948271546   -0.038312703110299974
-0.334791828973407   -0.03955825948271546   -0.038312703110299974
-0.30662984003486793   0.022650419484566017   0.03818597012202204
-0.30662984003486793   0.022650419484566017   0.03818597012202204
-0.30662984003486793   0.022650419484566017   0.03818597012202204
-0.30662984003486793   0.022650419484566017   0.03818597012202204
-0.2942795172480398   0.007299063378909704   0.02593208899935524
-0.2942795172480398   0.007299063378909704   0.02593208899935524
-0.2942795172480398   0.007299063378909704   0.02593208899935524
-0.2942795172480398   0.007299063378909704   0.02593208899935524
-0.336614956130588   -0.04173181872207812   -0.0473573721499323
-0.336614956130588   -0.04173181872207812   -0.0473573721499323
-0.336614956130588   -0.04173181872207812   -0.0473573721499323
-0.336614956130588   -0.04173181872207812   -0.0473573721499323
-0.30852948155386295   0.021101210047752977   0.03233956445695179
-0.30852948155386295   0.021101210047752977   0.03233956445695179
-0.30852948155386295   0.021101210047752977   0.03233956445695179
-0.30852948155386295   0.021101210047752977   0.03233956445695179
-0.3460190642689033   -0.04983351705753836   -0.03242584375188551
-0.3460190642689033   -0.04983351705753836   -0.03242584375188551
-0.3460190642689033   -0.04983351705753836   -0.03242584375188551
-0.3460190642689033   -0.04983351705753836   -0.03242584375188551
-0.3355526250668728   0.008664150229549146   0.0709963421715834
-0.3355526250668728   0.008664150229549146   0.0709963421715834
-0.3355526250668728   0.008664150229549146   0.0709963421715834
-0.3355526250668728   0.008664150229549146   0.0709963421715834
-0.32093457488522303   -0.010353129758647932   0.010369655227291061
-0.32093457488522303   -0.010353129758647932   0.010369655227291061
-0.32093457488522303   -0.010353129758647932   0.010369655227291061
-0.32093457488522303   -0.010353129758647932   0.010369655227291061
-0.36997110030196734   -0.055520943557201455   -0.036910940217136874
-0.36997110030196734   -0.055520943557201455   -0.036910940217136874
-0.36997110030196734   -0.055520943557201455   -0.036910940217136874
-0.36997110030196734   -0.055520943557201455   -0.036910940217136874
-0.3204146306626478   0.005537535100373442   0.04022527212147993
-0.3204146306626478   0.005537535100373442   0.04022527212147993
-0.3204146306626478   0.005537535100373442   0.04022527212147993
-0.3204146306626478   0.005537535100373442   0.04022527212147993
-0.3552121455091834   -0.0698251089521638   -0.025521149317401865
-0.3552121455091834   -0.0698251089521638   -0.025521149317401865
-0.3552121455091834   -0.0698251089521638   -0.025521149317401865
-0.3552121455091834   -0.0698251089521638   -0.025521149317401865
-0.3805065182721593   -0.037555667397391815   0.06644023767553056
-0.3805065182721593   -0.037555667397391815   0.06644023767553056
-0.3805065182721593   -0.037555667397391815   0.06644023767553056
-0.3805065182721593   -0.037555667397391815   0.06644023767553056
-0.34404335496890126   -0.031219892484244303   -0.014290728266473684
-0.34404335496890126   -0.031219892484244303   -0.014290728266473684
-0.34404335496890126   -0.031219892484244303   -0.014290728266473684
-0.34404335496890126   -0.031219892484244303   -0.014290728266473684
-0.3189321384384535   -0.00934091778199346   -0.029097296663164893
-0.3189321384384535   -0.00934091778199346   -0.029097296663164893
-0.3189321384384535   -0.00934091778199346   -0.029097296663164893
-0.3189321384384535   -0.00934091778199346   -0.029097296663164893
-0.3233922716412671   -0.03973873121609742   -0.0016936147150529964
-0.3233922716412671   -0.03973873121609742   -0.0016936147150529964
-0.3233922716412671   -0.03973873121609742   -0.0016936147150529964
-0.3233922716412671   -0.03973873121609742   -0.0016936147150529964
-0.32575053635746554   -0.02646006355031233   -0.014525148173489565
-0.32575053635746554   -0.02646006355031233   -0.014525148173489565
-0.32575053635746554   -0.02646006355031233   -0.014525148173489565
-0.32575053635746554   -0.02646006355031233   -0.014525148173489565
-0.3301310651232977   -0.05400633374834113   -0.000560809594128076
-0.3301310651232977   -0.05400633374834113   -0.000560809594128076
-0.3301310651232977   -0.05400633374834113   -0.000560809594128076
-0.3301310651232977   -0.05400633374834113   -0.000560809594128076
-0.3217927671609328   -0.033793127447240105   -0.0011442692056179895
-0.3217927671609328   -0.033793127447240105   -0.0011442692056179895
-0.3217927671609328   -0.033793127447240105   -0.0011442692056179895
-0.3217927671609328   -0.033793127447240105   -0.0011442692056179895
-0.33014744443053573   -0.029470186254961624   -0.025178853623696547
-0.33014744443053573   -0.029470186254961624   -0.025178853623696547
-0.33014744443053573   -0.029470186254961624   -0.025178853623696547
-0.33014744443053573   -0.029470186254961624   -0.025178853623696547
-0.32781047578826017   -0.05307252978171914   0.0017876209039442282
-0.32781047578826017   -0.05307252978171914   0.0017876209039442282
-0.32781047578826017   -0.05307252978171914   0.0017876209039442282
-0.32781047578826017   -0.05307252978171914   0.0017876209039442282
-0.3312168125178625   -0.04376284710238011   -0.009373267727369714
-0.3312168125178625   -0.04376284710238011   -0.009373267727369714
-0.3312168125178625   -0.04376284710238011   -0.009373267727369714
-0.3312168125178625   -0.04376284710238011   -0.009373267727369714
-0.34210176132963543   -0.07006476050444259   0.007391914391358184
-0.34210176132963543   -0.07006476050444259   0.007391914391358184
-0.34210176132963543   -0.07006476050444259   0.007391914391358184
-0.34210176132963543   -0.07006476050444259   0.007391914391358184
-0.32919436577171135   -0.04777174406467677   -0.009157685979722548
-0.32919436577171135   -0.04777174406467677   -0.009157685979722548
-0.32919436577171135   -0.04777174406467677   -0.009157685979722548
-0.32919436577171135   -0.04777174406467677   -0.009157685979722548
-0.34289647164070564   -0.04796117076263494   -0.018685226905800687
-0.34289647164070564   -0.04796117076263494   -0.018685226905800687
-0.34289647164070564   -0.04796117076263494   -0.018685226905800687
-0.34289647164070564   -0.04796117076263494   -0.018685226905800687
-0.3330774185415696   -0.0685217531789651   0.006082608230679773
-0.3330774185415696   -0.0685217531789651   0.006082608230679773
-0.3330774185415696   -0.0685217531789651   0.006082608230679773
-0.3330774185415696   -0.0685217531789651   0.006082608230679773
-0.33612438481326345   -0.062407566745558724   -0.004271087151234812
-0.33612438481326345   -0.062407566745558724   -0.004271087151234812
-0.33612438481326345   -0.062407566745558724   -0.004271087151234812
-0.33612438481326345   -0.062407566745558724   -0.004271087151234812
-0.35126287586402966   -0.09045668842077464   0.014856778376973958
-0.35126287586402966   -0.09045668842077464   0.014856778376973958
-0.35126287586402966   -0.09045668842077464   0.014856778376973958
-0.35126287586402966   -0.09045668842077464   0.014856778376973958
-0.3393729148640073   -0.06465626092372527   -0.01934986857259043
-0.3393729148640073   -0.06465626092372527   -0.01934986857259043
-0.3393729148640073   -0.06465626092372527   -0.01934986857259043
-0.3393729148640073   -0.06465626092372527   -0.01934986857259043
-0.31452092240435425   0.008259677438518659   -0.005335277185101017
-0.31452092240435425   0.008259677438518659   -0.005335277185101017
-0.31452092240435425   0.008259677438518659   -0.005335277185101017
-0.31452092240435425   0.008259677438518659   -0.005335277185101017
-0.3559626298129834   -0.06758056205302335   -0.01706427380449267
-0.3559626298129834   -0.06758056205302335   -0.01706427380449267
-0.3559626298129834   -0.06758056205302335   -0.01706427380449267
-0.3559626298129834   -0.06758056205302335   -0.01706427380449267
-0.34143236571816254   -0.012463626824995348   0.004489598090220008
-0.34143236571816254   -0.012463626824995348   0.004489598090220008
-0.34143236571816254   -0.012463626824995348   0.004489598090220008
-0.34143236571816254   -0.012463626824995348   0.004489598090220008
-0.3342688904783201   -0.07304649174069214   -0.010530490587382405
-0.3342688904783201   -0.07304649174069214   -0.010530490587382405
-0.3342688904783201   -0.07304649174069214   -0.010530490587382405
-0.3342688904783201   -0.07304649174069214   -0.010530490587382405
-0.3363109468328394   -0.037354621685788486   -0.007610516770977502
-0.3363109468328394   -0.037354621685788486   -0.007610516770977502
-0.3363109468328394   -0.037354621685788486   -0.007610516770977502
-0.3363109468328394   -0.037354621685788486   -0.007610516770977502
-0.31935177365376355   -0.00895308972601492   -3.830847927688459e-05
-0.31935177365376355   -0.00895308972601492   -3.830847927688459e-05
-0.31935177365376355   -0.00895308972601492   -3.830847927688459e-05
-0.31935177365376355   -0.00895308972601492   -3.830847927688459e-05
-0.3582346833446779   -0.07844222964163007   -0.013543387225729526
-0.3582346833446779   -0.07844222964163007   -0.013543387225729526
-0.3582346833446779   -0.07844222964163007   -0.013543387225729526
-0.3582346833446779   -0.07844222964163007   -0.013543387225729526
-0.3453619108287906   -0.029815430522905327   0.009607044496550187
-0.3453619108287906   -0.029815430522905327   0.009607044496550187
-0.3453619108287906   -0.029815430522905327   0.009607044496550187
-0.3453619108287906   -0.029815430522905327   0.009607044496550187
-0.3393852347331303   -0.0867211674811692   -0.0072570584249198175
-0.3393852347331303   -0.0867211674811692   -0.0072570584249198175
-0.3393852347331303   -0.0867211674811692   -0.0072570584249198175
-0.3393852347331303   -0.0867211674811692   -0.0072570584249198175
-0.34048413652374415   -0.05057205784127821   -0.014482003383786633
-0.34048413652374415   -0.05057205784127821   -0.014482003383786633
-0.34048413652374415   -0.05057205784127821   -0.014482003383786633
-0.34048413652374415   -0.05057205784127821   -0.014482003383786633
-0.32488542008432714   -0.026614476504781083   0.005135323842707986
-0.32488542008432714   -0.026614476504781083   0.005135323842707986
-0.32488542008432714   -0.026614476504781083   0.005135323842707986
-0.32488542008432714   -0.026614476504781083   0.005135323842707986
-0.3619676348293106   -0.09202803085101033   -0.011208975177945099
-0.3619676348293106   -0.09202803085101033   -0.011208975177945099
-0.3619676348293106   -0.09202803085101033   -0.011208975177945099
-0.3619676348293106   -0.09202803085101033   -0.011208975177945099
-0.3485620696883088   -0.04613138975401229   0.014612633639031616
-0.3485620696883088   -0.04613138975401229   0.014612633639031616
-0.3485620696883088   -0.04613138975401229   0.014612633639031616
-0.3485620696883088   -0.04613138975401229   0.014612633639031616
-0.3431973331267656   -0.09983864284478142   -0.002204752619522696
-0.3431973331267656   -0.09983864284478142   -0.002204752619522696
-0.3431973331267656   -0.09983864284478142   -0.002204752619522696
-0.3431973331267656   -0.09983864284478142   -0.002204752619522696
-0.34545703211095413   -0.06439518953445009   -0.022031845672953625
-0.34545703211095413   -0.06439518953445009   -0.022031845672953625
-0.34545703211095413   -0.06439518953445009   -0.022031845672953625
-0.34545703211095413   -0.06439518953445009   -0.022031845672953625
-0.3286782674893806   0.035203193882935316   0.016573781877562525
-0.3286782674893806   0.035203193882935316   0.016573781877562525
-0.3286782674893806   0.035203193882935316   0.016573781877562525
-0.3286782674893806   0.035203193882935316   0.016573781877562525
-0.3885837319368841   -0.050427235339720475   -0.02378438952423509
-0.3885837319368841   -0.050427235339720475   -0.02378438952423509
-0.3885837319368841   -0.050427235339720475   -0.02378438952423509
-0.3885837319368841   -0.050427235339720475   -0.02378438952423509
-0.3676399313896741   0.01047995180745688   0.02295887185020219
-0.3676399313896741   0.01047995180745688   0.02295887185020219
-0.3676399313896741   0.01047995180745688   0.02295887185020219
-0.3676399313896741   0.01047995180745688   0.02295887185020219
-0.3539711874097556   -0.05626522023291487   -0.014402916959825509
-0.3539711874097556   -0.05626522023291487   -0.014402916959825509
-0.3539711874097556   -0.05626522023291487   -0.014402916959825509
-0.3539711874097556   -0.05626522023291487   -0.014402916959825509
-0.3596857944242287   -0.014874542037347158   -0.004545136625462024
-0.3596857944242287   -0.014874542037347158   -0.004545136625462024
-0.3596857944242287   -0.014874542037347158   -0.004545136625462024
-0.3596857944242287   -0.014874542037347158   -0.004545136625462024
-0.33202543427849535   0.01735266879364207   0.021707959669918713
-0.33202543427849535   0.01735266879364207   0.021707959669918713
-0.33202543427849535   0.01735266879364207   0.021707959669918713
-0.33202543427849535   0.01735266879364207   0.021707959669918713
-0.39208914685676094   -0.06564139955492286   -0.023165854122860093
-0.39208914685676094   -0.06564139955492286   -0.023165854122860093
-0.39208914685676094   -0.06564139955492286   -0.023165854122860093
-0.39208914685676094   -0.06564139955492286   -0.023165854122860093
-0.3744505971210812   -0.006463177233195033   0.026031987378981228
-0.3744505971210812   -0.006463177233195033   0.026031987378981228
-0.3744505971210812   -0.006463177233195033   0.026031987378981228
-0.3744505971210812   -0.006463177233195033   0.026031987378981228
-0.3573919718009187   -0.06889357658195348   -0.011465114305042367
-0.3573919718009187   -0.06889357658195348   -0.011465114305042367
-0.3573919718009187   -0.06889357658195348   -0.011465114305042367
-0.3573919718009187   -0.06889357658195348   -0.011465114305042367
-0.3631223825338951   -0.029201586881391225   -0.012604095420698024
-0.3631223825338951   -0.029201586881391225   -0.012604095420698024
-0.3631223825338951   -0.029201586881391225   -0.012604095420698024
-0.3631223825338951   -0.029201586881391225   -0.012604095420698024
-0.33569696229204204   0.0014203529902501594   0.02669600366713727
-0.33569696229204204   0.0014203529902501594   0.02669600366713727
-0.33569696229204204   0.0014203529902501594   0.02669600366713727
-0.33569696229204204   0.0014203529902501594   0.02669600366713727
-0.3983149529733355   -0.07894645314876862   -0.02080651596671659
-0.3983149529733355   -0.07894645314876862   -0.02080651596671659
-0.3983149529733355   -0.07894645314876862   -0.02080651596671659
-0.3983149529733355   -0.07894645314876862   -0.02080651596671659
-0.3789572133148199   -0.022716985739682047   0.03174755577313618
-0.3789572133148199   -0.022716985739682047   0.03174755577313618
-0.3789572133148199   -0.022716985739682047   0.03174755577313618
-0.3789572133148199   -0.022716985739682047   0.03174755577313618
-0.3603325407826433   -0.08157896782353644   -0.008792143763116968
-0.3603325407826433   -0.08157896782353644   -0.008792143763116968
-0.3603325407826433   -0.08157896782353644   -0.008792143763116968
-0.3603325407826433   -0.08157896782353644   -0.008792143763116968
-0.369138068554265   -0.04270730502558051   -0.020413199671694148
-0.369138068554265   -0.04270730502558051   -0.020413199671694148
-0.369138068554265   -0.04270730502558051   -0.020413199671694148
-0.369138068554265   -0.04270730502558051   -0.020413199671694148
-0.35702175444550155   0.05050978809617668   0.03308847449678066
-0.35702175444550155   0.05050978809617668   0.03308847449678066
-0.35702175444550155   0.05050978809617668   0.03308847449678066
-0.35702175444550155   0.05050978809617668   0.03308847449678066
-0.38172118118531567   -0.030462707427742187   -0.03446246141676695
-0.38172118118531567   -0.030462707427742187   -0.03446246141676695
-0.38172118118531567   -0.030462707427742187   -0.03446246141676695
-0.38172118118531567   -0.030462707427742187   -0.03446246141676695
-0.3731605986182815   0.03590204445008324   0.036772250098744665
-0.3731605986182815   0.03590204445008324   0.036772250098744665
-0.3731605986182815   0.03590204445008324   0.036772250098744665
-0.3731605986182815   0.03590204445008324   0.036772250098744665
-0.3863532735143773   -0.039062530161729475   -0.021065356804135536
-0.3863532735143773   -0.039062530161729475   -0.021065356804135536
-0.3863532735143773   -0.039062530161729475   -0.021065356804135536
-0.3863532735143773   -0.039062530161729475   -0.021065356804135536
-0.36182223508835315   0.009017958112223265   0.0014160864864469422
-0.36182223508835315   0.009017958112223265   0.0014160864864469422
-0.36182223508835315   0.009017958112223265   0.0014160864864469422
-0.36182223508835315   0.009017958112223265   0.0014160864864469422
-0.35886564668916227   0.03905719520683221   0.038253051953370275
-0.35886564668916227   0.03905719520683221   0.038253051953370275
-0.35886564668916227   0.03905719520683221   0.038253051953370275
-0.35886564668916227   0.03905719520683221   0.038253051953370275
-0.4026883452493011   -0.04425780072428426   -0.030706637881985667
-0.4026883452493011   -0.04425780072428426   -0.030706637881985667
-0.4026883452493011   -0.04425780072428426   -0.030706637881985667
-0.4026883452493011   -0.04425780072428426   -0.030706637881985667
-0.3895953467730097   0.026411354276994384   0.04734337005388162
-0.3895953467730097   0.026411354276994384   0.04734337005388162
-0.3895953467730097   0.026411354276994384   0.04734337005388162
-0.3895953467730097   0.026411354276994384   0.04734337005388162
-0.3915074606866887   -0.04649522558699166   -0.019220282095259403
-0.3915074606866887   -0.04649522558699166   -0.019220282095259403
-0.3915074606866887   -0.04649522558699166   -0.019220282095259403
-0.3915074606866887   -0.04649522558699166   -0.019220282095259403
-0.3795261905526497   -0.002480922805508018   -0.008096696440409938
-0.3795261905526497   -0.002480922805508018   -0.008096696440409938
-0.3795261905526497   -0.002480922805508018   -0.008096696440409938
-0.3795261905526497   -0.002480922805508018   -0.008096696440409938
-0.3629203587211398   0.03143473192140378   0.04578527022408936
-0.3629203587211398   0.03143473192140378   0.04578527022408936
-0.3629203587211398   0.03143473192140378   0.04578527022408936
-0.3629203587211398   0.03143473192140378   0.04578527022408936
-0.42084013005337045   -0.05417628454621553   -0.028292907524696945
-0.42084013005337045   -0.05417628454621553   -0.028292907524696945
-0.42084013005337045   -0.05417628454621553   -0.028292907524696945
-0.42084013005337045   -0.05417628454621553   -0.028292907524696945
-0.4185737501947191   0.0021809700485494465   0.0505866241116545
-0.4185737501947191   0.0021809700485494465   0.0505866241116545
-0.4185737501947191   0.0021809700485494465   0.0505866241116545
-0.4185737501947191   0.0021809700485494465   0.0505866241116545
-0.3962108349708165   -0.06053428042506435   -0.016703257821472133
-0.3962108349708165   -0.06053428042506435   -0.016703257821472133
-0.3962108349708165   -0.06053428042506435   -0.016703257821472133
-0.3962108349708165   -0.06053428042506435   -0.016703257821472133
-0.3879207953318088   -0.013062616264536572   -0.016675782454699882
-0.3879207953318088   -0.013062616264536572   -0.016675782454699882
-0.3879207953318088   -0.013062616264536572   -0.016675782454699882
-0.3879207953318088   -0.013062616264536572   -0.016675782454699882
-0.7662131615252504   -0.07001238126565612   -0.07226325432609898
-0.7662131615252504   -0.07001238126565612   -0.07226325432609898
-0.7662131615252504   -0.07001238126565612   -0.07226325432609898
-0.7662131615252504   -0.07001238126565612   -0.07226325432609898
-0.48597785736447524   0.04151896385351504   0.017038065424132345
-0.48597785736447524   0.04151896385351504   0.017038065424132345
-0.48597785736447524   0.04151896385351504   0.017038065424132345
-0.48597785736447524   0.04151896385351504   0.017038065424132345
-0.5103026438602555   -0.0321667781492596   -0.03222721422170326
-0.5103026438602555   -0.0321667781492596   -0.03222721422170326
-0.5103026438602555   -0.0321667781492596   -0.03222721422170326
-0.5103026438602555   -0.0321667781492596   -0.03222721422170326
-0.814559754961148   -0.09169022084092324   0.08100758087002521
-0.814559754961148   -0.09169022084092324   0.08100758087002521
-0.814559754961148   -0.09169022084092324   0.08100758087002521
-0.814559754961148   -0.09169022084092324   0.08100758087002521
-0.5922897884919577   -0.02251929244337006   0.07854975432043548
-0.5922897884919577   -0.02251929244337006   0.07854975432043548
-0.5922897884919577   -0.02251929244337006   0.07854975432043548
-0.5922897884919577   -0.02251929244337006   0.07854975432043548
-0.8436054659060265   -0.1029701155442724   -0.052941079151011546
-0.8436054659060265   -0.1029701155442724   -0.052941079151011546
-0.8436054659060265   -0.1029701155442724   -0.052941079151011546
-0.8436054659060265   -0.1029701155442724   -0.052941079151011546
-0.5016829370957195   -0.04131288762625001   0.020017429077962896
-0.5016829370957195   -0.04131288762625001   0.020017429077962896
-0.5016829370957195   -0.04131288762625001   0.020017429077962896
-0.5016829370957195   -0.04131288762625001   0.020017429077962896
-0.5180991791862695   -0.04667015879631228   -0.02312864883834247
-0.5180991791862695   -0.04667015879631228   -0.02312864883834247
-0.5180991791862695   -0.04667015879631228   -0.02312864883834247
-0.5180991791862695   -0.04667015879631228   -0.02312864883834247
-0.8404400624562286   -0.1281285686995655   0.0020238199668641335
-0.8404400624562286   -0.1281285686995655   0.0020238199668641335
-0.8404400624562286   -0.1281285686995655   0.0020238199668641335
-0.8404400624562286   -0.1281285686995655   0.0020238199668641335
-0.6557024885599917   -0.07731383051256284   0.01814149916837293
-0.6557024885599917   -0.07731383051256284   0.01814149916837293
-0.6557024885599917   -0.07731383051256284   0.01814149916837293
-0.6557024885599917   -0.07731383051256284   0.01814149916837293
-0.8470134358946416   -0.11635133629606119   -0.042620279628699576
-0.8470134358946416   -0.11635133629606119   -0.042620279628699576
-0.8470134358946416   -0.11635133629606119   -0.042620279628699576
-0.8470134358946416   -0.11635133629606119   -0.042620279628699576
-0.5177168566140424   -0.06463844206600498   -0.0032487527075195574
-0.5177168566140424   -0.06463844206600498   -0.0032487527075195574
-0.5177168566140424   -0.06463844206600498   -0.0032487527075195574
-0.5177168566140424   -0.06463844206600498   -0.0032487527075195574
-0.5184159823453554   -0.08179386332725454   -0.01684127790058707
-0.5184159823453554   -0.08179386332725454   -0.01684127790058707
-0.5184159823453554   -0.08179386332725454   -0.01684127790058707
-0.5184159823453554   -0.08179386332725454   -0.01684127790058707
-0.860496044610631   -0.19569481638162134   0.012877523189291362
-0.860496044610631   -0.19569481638162134   0.012877523189291362
-0.860496044610631   -0.19569481638162134   0.012877523189291362
-0.860496044610631   -0.19569481638162134   0.012877523189291362
-0.6549567839272759   -0.10628639520350806   0.0013522355975940188
-0.6549567839272759   -0.10628639520350806   0.0013522355975940188
-0.6549567839272759   -0.10628639520350806   0.0013522355975940188
-0.6549567839272759   -0.10628639520350806   0.0013522355975940188
-0.5247810935124035   -0.08897466911642418   -0.046484482345565716
-0.5247810935124035   -0.08897466911642418   -0.046484482345565716
-0.5247810935124035   -0.08897466911642418   -0.046484482345565716
-0.5247810935124035   -0.08897466911642418   -0.046484482345565716
-0.36052278238039537   -0.23296730551958914   -0.043679033196582354
-0.36052278238039537   -0.23296730551958914   -0.043679033196582354
-0.36052278238039537   -0.23296730551958914   -0.043679033196582354
-0.36052278238039537   -0.23296730551958914   -0.043679033196582354
-0.31666965937333263   -0.051752249878303944   -0.0027517959939072777
-0.31666965937333263   -0.051752249878303944   -0.0027517959939072777
-0.31666965937333263   -0.051752249878303944   -0.0027517959939072777
-0.31666965937333263   -0.051752249878303944   -0.0027517959939072777
-0.5578591755608442   -0.24711221657338805   -0.05506443430052206
-0.5578591755608442   -0.24711221657338805   -0.05506443430052206
-0.5578591755608442   -0.24711221657338805   -0.05506443430052206
-0.5578591755608442   -0.24711221657338805   -0.05506443430052206
-0.434852447031677   -0.16472431590793524   -0.012674793826011232
-0.434852447031677   -0.16472431590793524   -0.012674793826011232
-0.434852447031677   -0.16472431590793524   -0.012674793826011232
-0.434852447031677   -0.16472431590793524   -0.012674793826011232
-0.5243717004419264   -0.09974179495759018   -0.03499748032172937
-0.5243717004419264   -0.09974179495759018   -0.03499748032172937
-0.5243717004419264   -0.09974179495759018   -0.03499748032172937
-0.5243717004419264   -0.09974179495759018   -0.03499748032172937
-0.35228325507753855   -0.20124879207939286   -0.031323232313851646
-0.35228325507753855   -0.20124879207939286   -0.031323232313851646
-0.35228325507753855   -0.20124879207939286   -0.031323232313851646
-0.35228325507753855   -0.20124879207939286   -0.031323232313851646
-0.320221090632499   -0.06706563381770714   0.0005068771278989607
-0.320221090632499   -0.06706563381770714   0.0005068771278989607
-0.320221090632499   -0.06706563381770714   0.0005068771278989607
-0.320221090632499   -0.06706563381770714   0.0005068771278989607
-0.5598070138048195   -0.24582764332400248   -0.03251033740340758
-0.5598070138048195   -0.24582764332400248   -0.03251033740340758
-0.5598070138048195   -0.24582764332400248   -0.03251033740340758
-0.5598070138048195   -0.24582764332400248   -0.03251033740340758
-0.42998913428763447   -0.1544064508939098   -0.013465575327915636
-0.42998913428763447   -0.1544064508939098   -0.013465575327915636
-0.42998913428763447   -0.1544064508939098   -0.013465575327915636
-0.42998913428763447   -0.1544064508939098   -0.013465575327915636
-0.5323554918111683   -0.11484163635904222   -0.026238734400107124
-0.5323554918111683   -0.11484163635904222   -0.026238734400107124
-0.5323554918111683   -0.11484163635904222   -0.026238734400107124
-0.5323554918111683   -0.11484163635904222   -0.026238734400107124
-0.35207238824297865   -0.20245141639949574   -0.023363828342714617
-0.35207238824297865   -0.20245141639949574   -0.023363828342714617
-0.35207238824297865   -0.20245141639949574   -0.023363828342714617
-0.35207238824297865   -0.20245141639949574   -0.023363828342714617
-0.3200379174877631   -0.08615008396403052   0.005164842284428059
-0.3200379174877631   -0.08615008396403052   0.005164842284428059
-0.3200379174877631   -0.08615008396403052   0.005164842284428059
-0.3200379174877631   -0.08615008396403052   0.005164842284428059
-0.5583581670979598   -0.24991394883314033   -0.048432116157730104
-0.5583581670979598   -0.24991394883314033   -0.048432116157730104
-0.5583581670979598   -0.24991394883314033   -0.048432116157730104
-0.5583581670979598   -0.24991394883314033   -0.048432116157730104
-0.4364164940322103   -0.166095969682497   -0.0250085471448392
-0.4364164940322103   -0.166095969682497   -0.0250085471448392
-0.4364164940322103   -0.166095969682497   -0.0250085471448392
-0.4364164940322103   -0.166095969682497   -0.0250085471448392
-0.3174490705615987   -0.05726712613857381   -0.004010653483614364
-0.3174490705615987   -0.05726712613857381   -0.004010653483614364
-0.3174490705615987   -0.05726712613857381   -0.004010653483614364
-0.3174490705615987   -0.05726712613857381   -0.004010653483614364
-0.2661903187017159   -0.17822824297902096   -0.03076736829551699
-0.2661903187017159   -0.17822824297902096   -0.03076736829551699
-0.2661903187017159   -0.17822824297902096   -0.03076736829551699
-0.2661903187017159   -0.17822824297902096   -0.03076736829551699
-0.22939435271976596   -0.04751290340266018   0.012262913344223343
-0.22939435271976596   -0.04751290340266018   0.012262913344223343
-0.22939435271976596   -0.04751290340266018   0.012262913344223343
-0.22939435271976596   -0.04751290340266018   0.012262913344223343
-0.3513243764055935   -0.19377645011317918   -0.03400118092034017
-0.3513243764055935   -0.19377645011317918   -0.03400118092034017
-0.3513243764055935   -0.19377645011317918   -0.03400118092034017
-0.3513243764055935   -0.19377645011317918   -0.03400118092034017
-0.2898057198820823   -0.12086522124343527   -0.01419700073190932
-0.2898057198820823   -0.12086522124343527   -0.01419700073190932
-0.2898057198820823   -0.12086522124343527   -0.01419700073190932
-0.2898057198820823   -0.12086522124343527   -0.01419700073190932
-0.31922160952921397   -0.06781974730309892   0.0005559506514775157
-0.31922160952921397   -0.06781974730309892   0.0005559506514775157
-0.31922160952921397   -0.06781974730309892   0.0005559506514775157
-0.31922160952921397   -0.06781974730309892   0.0005559506514775157
-0.2633805486520171   -0.17535303526861196   -0.029827934451080403
-0.2633805486520171   -0.17535303526861196   -0.029827934451080403
-0.2633805486520171   -0.17535303526861196   -0.029827934451080403
-0.2633805486520171   -0.17535303526861196   -0.029827934451080403
-0.22941628351681467   -0.06009814356175863   0.015889109955817403
-0.22941628351681467   -0.06009814356175863   0.015889109955817403
-0.22941628351681467   -0.06009814356175863   0.015889109955817403
-0.22941628351681467   -0.06009814356175863   0.015889109955817403
-0.3523712334325036   -0.196848667600724   -0.030460803089110977
-0.3523712334325036   -0.196848667600724   -0.030460803089110977
-0.3523712334325036   -0.196848667600724   -0.030460803089110977
-0.3523712334325036   -0.196848667600724   -0.030460803089110977
-0.2892370669135879   -0.12560655942141633   -0.018421710074375385
-0.2892370669135879   -0.12560655942141633   -0.018421710074375385
-0.2892370669135879   -0.12560655942141633   -0.018421710074375385
-0.2892370669135879   -0.12560655942141633   -0.018421710074375385
-0.32184100651470054   -0.08057714781055524   0.005918811709735581
-0.32184100651470054   -0.08057714781055524   0.005918811709735581
-0.32184100651470054   -0.08057714781055524   0.005918811709735581
-0.32184100651470054   -0.08057714781055524   0.005918811709735581
-0.2609814582535296   -0.17740461117084183   -0.024630296118673976
-0.2609814582535296   -0.17740461117084183   -0.024630296118673976
-0.2609814582535296   -0.17740461117084183   -0.024630296118673976
-0.2609814582535296   -0.17740461117084183   -0.024630296118673976
-0.22664739720254   -0.07212038482552757   0.01983660155250557
-0.22664739720254   -0.07212038482552757   0.01983660155250557
-0.22664739720254   -0.07212038482552757   0.01983660155250557
-0.22664739720254   -0.07212038482552757   0.01983660155250557
-0.3481042619526925   -0.19936420349957593   -0.02195276050467352
-0.3481042619526925   -0.19936420349957593   -0.02195276050467352
-0.3481042619526925   -0.19936420349957593   -0.02195276050467352
-0.3481042619526925   -0.19936420349957593   -0.02195276050467352
-0.2883051305284616   -0.13184406653767697   -0.021345730294642106
-0.2883051305284616   -0.13184406653767697   -0.021345730294642106
-0.2883051305284616   -0.13184406653767697   -0.021345730294642106
-0.2883051305284616   -0.13184406653767697   -0.021345730294642106
-0.22163167562945035   -0.007933687796690611   0.021731291883480483
-0.22163167562945035   -0.007933687796690611   0.021731291883480483
-0.22163167562945035   -0.007933687796690611   0.021731291883480483
-0.22163167562945035   -0.007933687796690611   0.021731291883480483
-0.20946923862449582   -0.0943245527753237   -0.018409681850476846
-0.20946923862449582   -0.0943245527753237   -0.018409681850476846
-0.20946923862449582   -0.0943245527753237   -0.018409681850476846
-0.20946923862449582   -0.0943245527753237   -0.018409681850476846
-0.18055817135369984   -0.013667499685072335   0.02517266972333149
-0.18055817135369984   -0.013667499685072335   0.02517266972333149
-0.18055817135369984   -0.013667499685072335   0.02517266972333149
-0.18055817135369984   -0.013667499685072335   0.02517266972333149
-0.24676089302481582   -0.1090390475161276   -0.013043644067558442
-0.24676089302481582   -0.1090390475161276   -0.013043644067558442
-0.24676089302481582   -0.1090390475161276   -0.013043644067558442
-0.24676089302481582   -0.1090390475161276   -0.013043644067558442
-0.2153220642829304   -0.055723160959221196   -0.00769927981494776
-0.2153220642829304   -0.055723160959221196   -0.00769927981494776
-0.2153220642829304   -0.055723160959221196   -0.00769927981494776
-0.2153220642829304   -0.055723160959221196   -0.00769927981494776
-0.22171550633882806   -0.02192054354792811   0.02506478539418083
-0.22171550633882806   -0.02192054354792811   0.02506478539418083
-0.22171550633882806   -0.02192054354792811   0.02506478539418083
-0.22171550633882806   -0.02192054354792811   0.02506478539418083
-0.2076061139099311   -0.10278855952351534   -0.02094598321938187
-0.2076061139099311   -0.10278855952351534   -0.02094598321938187
-0.2076061139099311   -0.10278855952351534   -0.02094598321938187
-0.2076061139099311   -0.10278855952351534   -0.02094598321938187
-0.18076290206768234   -0.02586375502615592   0.027054923740709013
-0.18076290206768234   -0.02586375502615592   0.027054923740709013
-0.18076290206768234   -0.02586375502615592   0.027054923740709013
-0.18076290206768234   -0.02586375502615592   0.027054923740709013
-0.24661913560150173   -0.11568187436843454   -0.014541419660941947
-0.24661913560150173   -0.11568187436843454   -0.014541419660941947
-0.24661913560150173   -0.11568187436843454   -0.014541419660941947
-0.24661913560150173   -0.11568187436843454   -0.014541419660941947
-0.21432716744091146   -0.06552119673430284   -0.01306450816799861
-0.21432716744091146   -0.06552119673430284   -0.01306450816799861
-0.21432716744091146   -0.06552119673430284   -0.01306450816799861
-0.21432716744091146   -0.06552119673430284   -0.01306450816799861
-0.22161941905143168   -0.03374248785570942   0.028517776576690867
-0.22161941905143168   -0.03374248785570942   0.028517776576690867
-0.22161941905143168   -0.03374248785570942   0.028517776576690867
-0.22161941905143168   -0.03374248785570942   0.028517776576690867
-0.2069750906746898   -0.1090156135958159   -0.020854160724668367
-0.2069750906746898   -0.1090156135958159   -0.020854160724668367
-0.2069750906746898   -0.1090156135958159   -0.020854160724668367
-0.2069750906746898   -0.1090156135958159   -0.020854160724668367
-0.17915517917580528   -0.037314709234416536   0.03135178757565977
-0.17915517917580528   -0.037314709234416536   0.03135178757565977
-0.17915517917580528   -0.037314709234416536   0.03135178757565977
-0.17915517917580528   -0.037314709234416536   0.03135178757565977
-0.24264587772910348   -0.12232827343851577   -0.00994791246732354
-0.24264587772910348   -0.12232827343851577   -0.00994791246732354
-0.24264587772910348   -0.12232827343851577   -0.00994791246732354
-0.24264587772910348   -0.12232827343851577   -0.00994791246732354
-0.213617064527787   -0.07394066796963596   -0.016788831534925545
-0.213617064527787   -0.07394066796963596   -0.016788831534925545
-0.213617064527787   -0.07394066796963596   -0.016788831534925545
-0.213617064527787   -0.07394066796963596   -0.016788831534925545
-0.17524937271488233   0.024497637945124752   0.03386745697713441
-0.17524937271488233   0.024497637945124752   0.03386745697713441
-0.17524937271488233   0.024497637945124752   0.03386745697713441
-0.17524937271488233   0.024497637945124752   0.03386745697713441
-0.11631702491638941   -0.031005304900742502   -0.011316559612005351
-0.11631702491638941   -0.031005304900742502   -0.011316559612005351
-0.11631702491638941   -0.031005304900742502   -0.011316559612005351
-0.11631702491638941   -0.031005304900742502   -0.011316559612005351
-0.101490883104753   0.02881067418541483   0.03343827452197699
-0.101490883104753   0.02881067418541483   0.03343827452197699
-0.101490883104753   0.02881067418541483   0.03343827452197699
-0.101490883104753   0.02881067418541483   0.03343827452197699
-0.19353233611840748   -0.04750688582590375   -0.005858767959375285
-0.19353233611840748   -0.04750688582590375   -0.005858767959375285
-0.19353233611840748   -0.04750688582590375   -0.005858767959375285
-0.19353233611840748   -0.04750688582590375   -0.005858767959375285
-0.14463957207863196   -0.003029551717597539   -0.006125036115253898
-0.14463957207863196   -0.003029551717597539   -0.006125036115253898
-0.14463957207863196   -0.003029551717597539   -0.006125036115253898
-0.14463957207863196   -0.003029551717597539   -0.006125036115253898
-0.17239871399554185   0.015334953723894193   0.036967503105147334
-0.17239871399554185   0.015334953723894193   0.036967503105147334
-0.17239871399554185   0.015334953723894193   0.036967503105147334
-0.17239871399554185   0.015334953723894193   0.036967503105147334
-0.1228257215377676   -0.03423238167453206   -0.010192861783149102
-0.1228257215377676   -0.03423238167453206   -0.010192861783149102
-0.1228257215377676   -0.03423238167453206   -0.010192861783149102
-0.1228257215377676   -0.03423238167453206   -0.010192861783149102
-0.10594239966866748   0.022875693032775042   0.04206924998555291
-0.10594239966866748   0.022875693032775042   0.04206924998555291
-0.10594239966866748   0.022875693032775042   0.04206924998555291
-0.10594239966866748   0.022875693032775042   0.04206924998555291
-0.1926150463147123   -0.050566245604134655   -0.007503306916462066
-0.1926150463147123   -0.050566245604134655   -0.007503306916462066
-0.1926150463147123   -0.050566245604134655   -0.007503306916462066
-0.1926150463147123   -0.050566245604134655   -0.007503306916462066
-0.14890583968061732   -0.00951196153904546   -0.0086369609582126
-0.14890583968061732   -0.00951196153904546   -0.0086369609582126
-0.14890583968061732   -0.00951196153904546   -0.0086369609582126
-0.14890583968061732   -0.00951196153904546   -0.0086369609582126
-0.1704745708375749   0.0100683114790842   0.0425645133860061
-0.1704745708375749   0.0100683114790842   0.0425645133860061
-0.1704745708375749   0.0100683114790842   0.0425645133860061
-0.1704745708375749   0.0100683114790842   0.0425645133860061
-0.12959863981447162   -0.03927462871911181   -0.014061628991580878
-0.12959863981447162   -0.03927462871911181   -0.014061628991580878
-0.12959863981447162   -0.03927462871911181   -0.014061628991580878
-0.12959863981447162   -0.03927462871911181   -0.014061628991580878
-0.12122819899924782   0.006558172346477025   0.043776370064666094
-0.12122819899924782   0.006558172346477025   0.043776370064666094
-0.12122819899924782   0.006558172346477025   0.043776370064666094
-0.12122819899924782   0.006558172346477025   0.043776370064666094
-0.18988163032711378   -0.053302359566090876   -0.00629281784920825
-0.18988163032711378   -0.053302359566090876   -0.00629281784920825
-0.18988163032711378   -0.053302359566090876   -0.00629281784920825
-0.18988163032711378   -0.053302359566090876   -0.00629281784920825
-0.15094823701530752   -0.014198018156132221   -0.012711028152167337
-0.15094823701530752   -0.014198018156132221   -0.012711028152167337
-0.15094823701530752   -0.014198018156132221   -0.012711028152167337
-0.15094823701530752   -0.014198018156132221   -0.012711028152167337
-1.8073179079540194   -0.25624777131384524   -0.1504555598231326
-1.8073179079540194   -0.25624777131384524   -0.1504555598231326
-1.8073179079540194   -0.25624777131384524   -0.1504555598231326
-1.8073179079540194   -0.25624777131384524   -0.1504555598231326
-0.6274256431876943   -0.9889809508685434   -0.11773181235469554
-0.6274256431876943   -0.9889809508685434   -0.11773181235469554
-0.6274256431876943   -0.9889809508685434   -0.11773181235469554
-0.6274256431876943   -0.9889809508685434   -0.11773181235469554
-0.48464274926370177   -0.041779246896585624   0.0006454448942670079
-0.48464274926370177   -0.041779246896585624   0.0006454448942670079
-0.48464274926370177   -0.041779246896585624   0.0006454448942670079
-0.48464274926370177   -0.041779246896585624   0.0006454448942670079
-1.930245543966021   -1.1620701057235796   -0.6184631299379202
-1.930245543966021   -1.1620701057235796   -0.6184631299379202
-1.930245543966021   -1.1620701057235796   -0.6184631299379202
-1.930245543966021   -1.1620701057235796   -0.6184631299379202
-1.1820940866784142   -0.5780510622801798   -0.08423811576782764
-1.1820940866784142   -0.5780510622801798   -0.08423811576782764
-1.1820940866784142   -0.5780510622801798   -0.08423811576782764
-1.1820940866784142   -0.5780510622801798   -0.08423811576782764
-1.679388285322097   -0.3217556929795805   -0.20449124946231217
-1.679388285322097   -0.3217556929795805   -0.20449124946231217
-1.679388285322097   -0.3217556929795805   -0.20449124946231217
-1.679388285322097   -0.3217556929795805   -0.20449124946231217
-0.6776315967083926   -0.8242252484413528   -0.18185279078441496
-0.6776315967083926   -0.8242252484413528   -0.18185279078441496
-0.6776315967083926   -0.8242252484413528   -0.18185279078441496
-0.6776315967083926   -0.8242252484413528   -0.18185279078441496
-0.4944833095236414   -0.055622912169682445   0.01859534968369215
-0.4944833095236414   -0.055622912169682445   0.01859534968369215
-0.4944833095236414   -0.055622912169682445   0.01859534968369215
-0.4944833095236414   -0.055622912169682445   0.01859534968369215
-1.8063136938647875   -1.0368414902238041   -0.5686310368177183
-1.8063136938647875   -1.0368414902238041   -0.5686310368177183
-1.8063136938647875   -1.0368414902238041   -0.5686310368177183
-1.8063136938647875   -1.0368414902238041   -0.5686310368177183
-1.1134195227232004   -0.5213277603225647   0.045004597573354385
-1.1134195227232004   -0.5213277603225647   0.045004597573354385
-1.1134195227232004   -0.5213277603225647   0.045004597573354385
-1.1134195227232004   -0.5213277603225647   0.045004597573354385
-1.5770017718444092   -0.30635688163208574   -0.15255603530755688
-1.5770017718444092   -0.30635688163208574   -0.15255603530755688
-1.5770017718444092   -0.30635688163208574   -0.15255603530755688
-1.5770017718444092   -0.30635688163208574   -0.15255603530755688
-0.6594861520203616   -0.7217984412377438   -0.14024333373184292
-0.6594861520203616   -0.7217984412377438   -0.14024333373184292
-0.6594861520203616   -0.7217984412377438   -0.14024333373184292
-0.6594861520203616   -0.7217984412377438   -0.14024333373184292
-0.5683893865445018   -0.14577094110659983   -0.02960975850173031
-0.5683893865445018   -0.14577094110659983   -0.02960975850173031
-0.5683893865445018   -0.14577094110659983   -0.02960975850173031
-0.5683893865445018   -0.14577094110659983   -0.02960975850173031
-1.646346693254496   -0.8717386329594234   -0.5036170652427839
-1.646346693254496   -0.8717386329594234   -0.5036170652427839
-1.646346693254496   -0.8717386329594234   -0.5036170652427839
-1.646346693254496   -0.8717386329594234   -0.5036170652427839
-1.0314026281794977   -0.4520351449472369   0.19102284269974196
-1.0314026281794977   -0.4520351449472369   0.19102284269974196
-1.0314026281794977   -0.4520351449472369   0.19102284269974196
-1.0314026281794977   -0.4520351449472369   0.19102284269974196
-0.46403596123612556   -0.25240583778708214   -0.03735851567831705
-0.46403596123612556   -0.25240583778708214   -0.03735851567831705
-0.46403596123612556   -0.25240583778708214   -0.03735851567831705
-0.46403596123612556   -0.25240583778708214   -0.03735851567831705
-0.21476456769565377   -0.3129962562221148   -0.05307467026274403
-0.21476456769565377   -0.3129962562221148   -0.05307467026274403
-0.21476456769565377   -0.3129962562221148   -0.05307467026274403
-0.21476456769565377   -0.3129962562221148   -0.05307467026274403
-0.18930333036141153   -0.16141301771996946   0.004875714767138231
-0.18930333036141153   -0.16141301771996946   0.004875714767138231
-0.18930333036141153   -0.16141301771996946   0.004875714767138231
-0.18930333036141153   -0.16141301771996946   0.004875714767138231
-0.5679085270900979   -0.45785874347735533   0.0003960523430613788
-0.5679085270900979   -0.45785874347735533   0.0003960523430613788
-0.5679085270900979   -0.45785874347735533   0.0003960523430613788
-0.5679085270900979   -0.45785874347735533   0.0003960523430613788
-0.3049460430418308   -0.2219945173213298   0.09778142826328212
-0.3049460430418308   -0.2219945173213298   0.09778142826328212
-0.3049460430418308   -0.2219945173213298   0.09778142826328212
-0.3049460430418308   -0.2219945173213298   0.09778142826328212
-0.528215237786586   -0.2349748259014834   -0.024021418715256954
-0.528215237786586   -0.2349748259014834   -0.024021418715256954
-0.528215237786586   -0.2349748259014834   -0.024021418715256954
-0.528215237786586   -0.2349748259014834   -0.024021418715256954
-0.2450490849746998   -0.40034940060561874   -0.034916675413653786
-0.2450490849746998   -0.40034940060561874   -0.034916675413653786
-0.2450490849746998   -0.40034940060561874   -0.034916675413653786
-0.2450490849746998   -0.40034940060561874   -0.034916675413653786
-0.20452310039577787   -0.16726362682691334   0.005025831672996514
-0.20452310039577787   -0.16726362682691334   0.005025831672996514
-0.20452310039577787   -0.16726362682691334   0.005025831672996514
-0.20452310039577787   -0.16726362682691334   0.005025831672996514
-0.5956973149629512   -0.45206392077956525   -0.09103366890296918
-0.5956973149629512   -0.45206392077956525   -0.09103366890296918
-0.5956973149629512   -0.45206392077956525   -0.09103366890296918
-0.5956973149629512   -0.45206392077956525   -0.09103366890296918
-0.36373079921079743   -0.2847092815406551   0.044587086628024124
-0.36373079921079743   -0.2847092815406551   0.044587086628024124
-0.36373079921079743   -0.2847092815406551   0.044587086628024124
-0.36373079921079743   -0.2847092815406551   0.044587086628024124
-0.545125848377679   -0.24536449509093958   -0.044875761665233514
-0.545125848377679   -0.24536449509093958   -0.044875761665233514
-0.545125848377679   -0.24536449509093958   -0.044875761665233514
-0.545125848377679   -0.24536449509093958   -0.044875761665233514
-0.25360013283165683   -0.3724686183661457   -0.03515433896716589
-0.25360013283165683   -0.3724686183661457   -0.03515433896716589
-0.25360013283165683   -0.3724686183661457   -0.03515433896716589
-0.25360013283165683   -0.3724686183661457   -0.03515433896716589
-0.22801161992000318   -0.1726775983808807   0.007403088925603624
-0.22801161992000318   -0.1726775983808807   0.007403088925603624
-0.22801161992000318   -0.1726775983808807   0.007403088925603624
-0.22801161992000318   -0.1726775983808807   0.007403088925603624
-0.637024055369928   -0.4393023479843773   -0.07925169575108287
-0.637024055369928   -0.4393023479843773   -0.07925169575108287
-0.637024055369928   -0.4393023479843773   -0.07925169575108287
-0.637024055369928   -0.4393023479843773   -0.07925169575108287
-0.3806507685894742   -0.2683502216585964   0.047164886197608585
-0.3806507685894742   -0.2683502216585964   0.047164886197608585
-0.3806507685894742   -0.2683502216585964   0.047164886197608585
-0.3806507685894742   -0.2683502216585964   0.047164886197608585
-0.16944979188635773   -0.1505217278704347   0.011024680432056067
-0.16944979188635773   -0.1505217278704347   0.011024680432056067
-0.16944979188635773   -0.1505217278704347   0.011024680432056067
-0.16944979188635773   -0.1505217278704347   0.011024680432056067
-0.1036720207605904   -0.09785880646182982   -0.025922196832866926
-0.1036720207605904   -0.09785880646182982   -0.025922196832866926
-0.1036720207605904   -0.09785880646182982   -0.025922196832866926
-0.1036720207605904   -0.09785880646182982   -0.025922196832866926
-0.10048448039504064   -0.13458785951528765   0.011101876058564726
-0.10048448039504064   -0.13458785951528765   0.011101876058564726
-0.10048448039504064   -0.13458785951528765   0.011101876058564726
-0.10048448039504064   -0.13458785951528765   0.011101876058564726
-0.1871804569336244   -0.13413694912331714   -0.011785986690578482
-0.1871804569336244   -0.13413694912331714   -0.011785986690578482
-0.1871804569336244   -0.13413694912331714   -0.011785986690578482
-0.1871804569336244   -0.13413694912331714   -0.011785986690578482
-0.11838146294300537   -0.1090412467126038   0.04904435807434218
-0.11838146294300537   -0.1090412467126038   0.04904435807434218
-0.11838146294300537   -0.1090412467126038   0.04904435807434218
-0.11838146294300537   -0.1090412467126038   0.04904435807434218
-0.18591990017051083   -0.15151612423480013   0.011895972236472444
-0.18591990017051083   -0.15151612423480013   0.011895972236472444
-0.18591990017051083   -0.15151612423480013   0.011895972236472444
-0.18591990017051083   -0.15151612423480013   0.011895972236472444
-0.10337838603456488   -0.11884203328021514   -0.019113478374129002
-0.10337838603456488   -0.11884203328021514   -0.019113478374129002
-0.10337838603456488   -0.11884203328021514   -0.019113478374129002
-0.10337838603456488   -0.11884203328021514   -0.019113478374129002
-0.10161022145847594   -0.13863016352065233   0.009870705337219857
-0.10161022145847594   -0.13863016352065233   0.009870705337219857
-0.10161022145847594   -0.13863016352065233   0.009870705337219857
-0.10161022145847594   -0.13863016352065233   0.009870705337219857
-0.19875391498434603   -0.1565034223352487   0.02311155423849106
-0.19875391498434603   -0.1565034223352487   0.02311155423849106
-0.19875391498434603   -0.1565034223352487   0.02311155423849106
-0.19875391498434603   -0.1565034223352487   0.02311155423849106
-0.12872257329050335   -0.12149907897929164   0.04154454157396588
-0.12872257329050335   -0.12149907897929164   0.04154454157396588
-0.12872257329050335   -0.12149907897929164   0.04154454157396588
-0.12872257329050335   -0.12149907897929164   0.04154454157396588
-0.20028985921405518   -0.15712879165689403   0.016057202411590553
-0.20028985921405518   -0.15712879165689403   0.016057202411590553
-0.20028985921405518   -0.15712879165689403   0.016057202411590553
-0.20028985921405518   -0.15712879165689403   0.016057202411590553
-0.10869265072861423   -0.14662316769885445   -0.01754843683526947
-0.10869265072861423   -0.14662316769885445   -0.01754843683526947
-0.10869265072861423   -0.14662316769885445   -0.01754843683526947
-0.10869265072861423   -0.14662316769885445   -0.01754843683526947
-0.10276186813434816   -0.14313152479907054   0.01386823917951667
-0.10276186813434816   -0.14313152479907054   0.01386823917951667
-0.10276186813434816   -0.14313152479907054   0.01386823917951667
-0.10276186813434816   -0.14313152479907054   0.01386823917951667
-0.23245573743217962   -0.19255280066843175   0.00505770365227242
-0.23245573743217962   -0.19255280066843175   0.00505770365227242
-0.23245573743217962   -0.19255280066843175   0.00505770365227242
-0.23245573743217962   -0.19255280066843175   0.00505770365227242
-0.14372935054615998   -0.1385144253915595   0.019627044540655635
-0.14372935054615998   -0.1385144253915595   0.019627044540655635
-0.14372935054615998   -0.1385144253915595   0.019627044540655635
-0.14372935054615998   -0.1385144253915595   0.019627044540655635
-0.08508214029063975   -0.059942930772871494   0.02911132982792805
-0.08508214029063975   -0.059942930772871494   0.02911132982792805
-0.08508214029063975   -0.059942930772871494   0.02911132982792805
-0.08508214029063975   -0.059942930772871494   0.02911132982792805
-0.05967775504319093   -0.00010454284345657455   -0.005821184290311261
-0.05967775504319093   -0.00010454284345657455   -0.005821184290311261
-0.05967775504319093   -0.00010454284345657455   -0.005821184290311261
-0.05967775504319093   -0.00010454284345657455   -0.005821184290311261
-0.056633687726585   -0.06479209361055807   0.018063920162058347
-0.056633687726585   -0.06479209361055807   0.018063920162058347
-0.056633687726585   -0.06479209361055807   0.018063920162058347
-0.056633687726585   -0.06479209361055807   0.018063920162058347
-0.07882033265616106   -0.011487622368924935   -0.0036776223934001286
-0.07882033265616106   -0.011487622368924935   -0.0036776223934001286
-0.07882033265616106   -0.011487622368924935   -0.0036776223934001286
-0.07882033265616106   -0.011487622368924935   -0.0036776223934001286
-0.06477486076500799   -0.032783556989440785   0.01443995063268847
-0.06477486076500799   -0.032783556989440785   0.01443995063268847
-0.06477486076500799   -0.032783556989440785   0.01443995063268847
-0.06477486076500799   -0.032783556989440785   0.01443995063268847
-0.08397458127205319   -0.0683836282670171   0.027447140425231397
-0.08397458127205319   -0.0683836282670171   0.027447140425231397
-0.08397458127205319   -0.0683836282670171   0.027447140425231397
-0.08397458127205319   -0.0683836282670171   0.027447140425231397
-0.050000206022212494   -0.006416854623985525   -0.007143910302651666
-0.050000206022212494   -0.006416854623985525   -0.007143910302651666
-0.050000206022212494   -0.006416854623985525   -0.007143910302651666
-0.050000206022212494   -0.006416854623985525   -0.007143910302651666
-0.051891011581397944   -0.07049689146043732   0.016655370858940366
-0.051891011581397944   -0.07049689146043732   0.016655370858940366
-0.051891011581397944   -0.07049689146043732   0.016655370858940366
-0.051891011581397944   -0.07049689146043732   0.016655370858940366
-0.07938730532352264   -0.02258168494399036   0.004936807435324427
-0.07938730532352264   -0.02258168494399036   0.004936807435324427
-0.07938730532352264   -0.02258168494399036   0.004936807435324427
-0.07938730532352264   -0.02258168494399036   0.004936807435324427
-0.059420512537539286   -0.03757650758436208   0.01721484971846265
-0.059420512537539286   -0.03757650758436208   0.01721484971846265
-0.059420512537539286   -0.03757650758436208   0.01721484971846265
-0.059420512537539286   -0.03757650758436208   0.01721484971846265
-0.08439893467691585   -0.07405846258871408   0.03135543831307442
-0.08439893467691585   -0.07405846258871408   0.03135543831307442
-0.08439893467691585   -0.07405846258871408   0.03135543831307442
-0.08439893467691585   -0.07405846258871408   0.03135543831307442
-0.047329150859381   -0.01946988244709113   -0.01156233454432107
-0.047329150859381   -0.01946988244709113   -0.01156233454432107
-0.047329150859381   -0.01946988244709113   -0.01156233454432107
-0.047329150859381   -0.01946988244709113   -0.01156233454432107
-0.04336635477741024   -0.07682150470825239   0.01830640823230015
-0.04336635477741024   -0.07682150470825239   0.01830640823230015
-0.04336635477741024   -0.07682150470825239   0.01830640823230015
-0.04336635477741024   -0.07682150470825239   0.01830640823230015
-0.08554591888745638   -0.04965756871485656   0.006474029329761629
-0.08554591888745638   -0.04965756871485656   0.006474029329761629
-0.08554591888745638   -0.04965756871485656   0.006474029329761629
-0.08554591888745638   -0.04965756871485656   0.006474029329761629
-0.05714342579030264   -0.04742714041812317   0.014890556964677452
-0.05714342579030264   -0.04742714041812317   0.014890556964677452
-0.05714342579030264   -0.04742714041812317   0.014890556964677452
-0.05714342579030264   -0.04742714041812317   0.014890556964677452
-0.05474998611981277   -0.010571634768667917   0.02928475225179092
-0.05474998611981277   -0.010571634768667917   0.02928475225179092
-0.05474998611981277   -0.010571634768667917   0.02928475225179092
-0.05474998611981277   -0.010571634768667917   0.02928475225179092
-0.009605459152307433   0.00638290251827645   -0.0005913438093406416
-0.009605459152307433   0.00638290251827645   -0.0005913438093406416
-0.009605459152307433   0.00638290251827645   -0.0005913438093406416
-0.009605459152307433   0.00638290251827645   -0.0005913438093406416
0.003192147637505038   -0.003367675319856013   0.018112800814950838
0.003192147637505038   -0.003367675319856013   0.018112800814950838
0.003192147637505038   -0.003367675319856013   0.018112800814950838
0.003192147637505038   -0.003367675319856013   0.018112800814950838
-0.04678545200387627   0.004779016899000796   -0.0022660117339568537
-0.04678545200387627   0.004779016899000796   -0.0022660117339568537
-0.04678545200387627   0.004779016899000796   -0.0022660117339568537
-0.04678545200387627   0.004779016899000796   -0.0022660117339568537
-0.027444048406356315   -0.0020626294368382278   -0.002270265777731796
-0.027444048406356315   -0.0020626294368382278   -0.002270265777731796
-0.027444048406356315   -0.0020626294368382278   -0.002270265777731796
-0.027444048406356315   -0.0020626294368382278   -0.002270265777731796
-0.043235534914052125   -0.010186044891937238   0.030448635506109552
-0.043235534914052125   -0.010186044891937238   0.030448635506109552
-0.043235534914052125   -0.010186044891937238   0.030448635506109552
-0.043235534914052125   -0.010186044891937238   0.030448635506109552
0.0012776781740734162   0.013232834097474538   -0.008060055919537824
0.0012776781740734162   0.013232834097474538   -0.008060055919537824
0.0012776781740734162   0.013232834097474538   -0.008060055919537824
0.0012776781740734162   0.013232834097474538   -0.008060055919537824
0.009661756762614132   -0.004145834961468981   0.022321943219539862
0.009661756762614132   -0.004145834961468981   0.022321943219539862
0.009661756762614132   -0.004145834961468981   0.022321943219539862
0.009661756762614132   -0.004145834961468981   0.022321943219539862
-0.04105941949284985   0.003657351594354624   -0.0033409117531111063
-0.04105941949284985   0.003657351594354624   -0.0033409117531111063
-0.04105941949284985   0.003657351594354624   -0.0033409117531111063
-0.04105941949284985   0.003657351594354624   -0.0033409117531111063
-0.017953018058567076   -0.00047484426754276906   0.002889303053195508
-0.017953018058567076   -0.00047484426754276906   0.002889303053195508
-0.017953018058567076   -0.00047484426754276906   0.002889303053195508
-0.017953018058567076   -0.00047484426754276906   0.002889303053195508
-0.03685817352023965   -0.01137472976757529   0.03269739947186978
-0.03685817352023965   -0.01137472976757529   0.03269739947186978
-0.03685817352023965   -0.01137472976757529   0.03269739947186978
-0.03685817352023965   -0.01137472976757529   0.03269739947186978
0.006933114154661019   0.012358849765116734   -0.007825954546811426
0.006933114154661019   0.012358849765116734   -0.007825954546811426
0.006933114154661019   0.012358849765116734   -0.007825954546811426
0.006933114154661019   0.012358849765116734   -0.007825954546811426
0.01627374539181682   -0.0064782980143367665   0.021672114190631718
0.01627374539181682   -0.0064782980143367665   0.021672114190631718
0.01627374539181682   -0.0064782980143367665   0.021672114190631718
0.01627374539181682   -0.0064782980143367665   0.021672114190631718
-0.03167134734044662   0.003747281716651573   -0.0037873410077856533
-0.03167134734044662   0.003747281716651573   -0.0037873410077856533
-0.03167134734044662   0.003747281716651573   -0.0037873410077856533
-0.03167134734044662   0.003747281716651573   -0.0037873410077856533
-0.009473729964474   0.0005141906952883695   0.007433653720963912
-0.009473729964474   0.0005141906952883695   0.007433653720963912
-0.009473729964474   0.0005141906952883695   0.007433653720963912
-0.009473729964474   0.0005141906952883695   0.007433653720963912
              </DataArray>   
             <DataArray type="Float64" NumberOfComponents="3" Name="Displacements" format="ascii">   
0.0   0.0   0.0
-0.00503159487998397   -0.0033013995013428613   -0.0016855452601662335
0.0   0.0   0.0
0.0   0.0   0.0
-0.00503159487998397   -0.0033013995013428613   -0.0016855452601662335
-0.0032017849092164543   -0.002966889682520086   -0.0012383817733875118
0.0   0.0   0.0
-0.0031385309837744847   -0.0031157585241237823   -0.0010374867009401527
0.0   0.0   0.0
0.0   0.0   0.0
-0.0031385309837744847   -0.0031157585241237823   -0.0010374867009401527
0.0   0.0   0.0
0.0   0.0   0.0
-0.0031385309837744847   -0.0031157585241237823   -0.0010374867009401527
-0.005265885044773261   -0.003517155242401903   -0.0013532389359564472
-0.00503159487998397   -0.0033013995013428613   -0.0016855452601662335
0.0   0.0   0.0
-0.0031385309837744847   -0.0031157585241237823   -0.0010374867009401527
-0.00503159487998397   -0.0033013995013428613   -0.0016855452601662335
0.0   0.0   0.0
0.0   0.0   0.0
-0.005265885044773261   -0.003517155242401903   -0.0013532389359564472
0.0   0.0   0.0
0.0   0.0   0.0
-0.005265885044773261   -0.003517155242401903   -0.0013532389359564472
-0.0031385309837744847   -0.0031157585241237823   -0.0010374867009401527
0.0   0.0   0.0
-0.0031474546656273064   -0.0031920408509990865   -0.0008368727525824385
0.0   0.0   0.0
0.0   0.0   0.0
-0.0031474546656273064   -0.0031920408509990865   -0.0008368727525824385
0.0   0.0   0.0
0.0   0.0   0.0
-0.0031474546656273064   -0.0031920408509990865   -0.0008368727525824385
-0.0054304580009888045   -0.0036220681769740036   -0.0010348221314418378
-0.005265885044773261   -0.003517155242401903   -0.0013532389359564472
0.0   0.0   0.0
-0.0031474546656273064   -0.0031920408509990865   -0.0008368727525824385
-0.005265885044773261   -0.003517155242401903   -0.0013532389359564472
0.0   0.0   0.0
0.0   0.0   0.0
-0.0054304580009888045   -0.0036220681769740036   -0.0010348221314418378
0.0   0.0   0.0
0.0   0.0   0.0
-0.0054304580009888045   -0.0036220681769740036   -0.0010348221314418378
-0.0031474546656273064   -0.0031920408509990865   -0.0008368727525824385
0.0   0.0   0.0
-0.003145881986853732   -0.0032116309390444113   -0.00062942497361259
0.0   0.0   0.0
0.0   0.0   0.0
-0.003145881986853732   -0.0032116309390444113   -0.00062942497361259
0.0   0.0   0.0
0.0   0.0   0.0
-0.003145881986853732   -0.0032116309390444113   -0.00062942497361259
-0.005784921569658156   -0.0037014928436341736   -0.0006654031395463369
-0.0054304580009888045   -0.0036220681769740036   -0.0010348221314418378
0.0   0.0   0.0
-0.003145881986853732   -0.0032116309390444113   -0.00062942497361259
-0.0054304580009888045   -0.0036220681769740036   -0.0010348221314418378
0.0   0.0   0.0
0.0   0.0   0.0
-0.0032017849092164543   -0.002966889682520086   -0.0012383817733875118
0.0   0.0   0.0
0.0   0.0   0.0
-0.0032017849092164543   -0.002966889682520086   -0.0012383817733875118
-0.0014580263563497594   -0.002844191652394384   -0.0009419076156024143
0.0   0.0   0.0
-0.0014023797536370825   -0.002941096702033681   -0.0008470757457750288
0.0   0.0   0.0
0.0   0.0   0.0
-0.0014023797536370825   -0.002941096702033681   -0.0008470757457750288
0.0   0.0   0.0
0.0   0.0   0.0
-0.0014023797536370825   -0.002941096702033681   -0.0008470757457750288
-0.0031385309837744847   -0.0031157585241237823   -0.0010374867009401527
-0.0032017849092164543   -0.002966889682520086   -0.0012383817733875118
0.0   0.0   0.0
-0.0014023797536370825   -0.002941096702033681   -0.0008470757457750288
-0.0032017849092164543   -0.002966889682520086   -0.0012383817733875118
0.0   0.0   0.0
0.0   0.0   0.0
-0.0031385309837744847   -0.0031157585241237823   -0.0010374867009401527
0.0   0.0   0.0
0.0   0.0   0.0
-0.0031385309837744847   -0.0031157585241237823   -0.0010374867009401527
-0.0014023797536370825   -0.002941096702033681   -0.0008470757457750288
0.0   0.0   0.0
-0.001371156531759735   -0.002978030387015917   -0.0007547122218563956
0.0   0.0   0.0
0.0   0.0   0.0
-0.001371156531759735   -0.002978030387015917   -0.0007547122218563956
0.0   0.0   0.0
0.0   0.0   0.0
-0.001371156531759735   -0.002978030387015917   -0.0007547122218563956
-0.0031474546656273064   -0.0031920408509990865   -0.0008368727525824385
-0.0031385309837744847   -0.0031157585241237823   -0.0010374867009401527
0.0   0.0   0.0
-0.001371156531759735   -0.002978030387015917   -0.0007547122218563956
-0.0031385309837744847   -0.0031157585241237823   -0.0010374867009401527
0.0   0.0   0.0
0.0   0.0   0.0
-0.0031474546656273064   -0.0031920408509990865   -0.0008368727525824385
0.0   0.0   0.0
0.0   0.0   0.0
-0.0031474546656273064   -0.0031920408509990865   -0.0008368727525824385
-0.001371156531759735   -0.002978030387015917   -0.0007547122218563956
0.0   0.0   0.0
-0.0013427373140693312   -0.00296261510069803   -0.0006592166113539485
0.0   0.0   0.0
0.0   0.0   0.0
-0.0013427373140693312   -0.00296261510069803   -0.0006592166113539485
0.0   0.0   0.0
0.0   0.0   0.0
-0.0013427373140693312   -0.00296261510069803   -0.0006592166113539485
-0.003145881986853732   -0.0032116309390444113   -0.00062942497361259
-0.0031474546656273064   -0.0031920408509990865   -0.0008368727525824385
0.0   0.0   0.0
-0.0013427373140693312   -0.00296261510069803   -0.0006592166113539485
-0.0031474546656273064   -0.0031920408509990865   -0.0008368727525824385
0.0   0.0   0.0
0.0   0.0   0.0
-0.0014580263563497594   -0.002844191652394384   -0.0009419076156024143
0.0   0.0   0.0
0.0   0.0   0.0
-0.0014580263563497594   -0.002844191652394384   -0.0009419076156024143
0.00018955983568051215   -0.0028599013020142294   -0.0007529757524564569
0.0   0.0   0.0
0.00022504537694511395   -0.0029101359404887926   -0.0007661184714056904
0.0   0.0   0.0
0.0   0.0   0.0
0.00022504537694511395   -0.0029101359404887926   -0.0007661184714056904
0.0   0.0   0.0
0.0   0.0   0.0
0.00022504537694511395   -0.0029101359404887926   -0.0007661184714056904
-0.0014023797536370825   -0.002941096702033681   -0.0008470757457750288
-0.0014580263563497594   -0.002844191652394384   -0.0009419076156024143
0.0   0.0   0.0
0.00022504537694511395   -0.0029101359404887926   -0.0007661184714056904
-0.0014580263563497594   -0.002844191652394384   -0.0009419076156024143
0.0   0.0   0.0
0.0   0.0   0.0
-0.0014023797536370825   -0.002941096702033681   -0.0008470757457750288
0.0   0.0   0.0
0.0   0.0   0.0
-0.0014023797536370825   -0.002941096702033681   -0.0008470757457750288
0.00022504537694511395   -0.0029101359404887926   -0.0007661184714056904
0.0   0.0   0.0
0.0002530432369113594   -0.0029059781172294736   -0.0007779831816564036
0.0   0.0   0.0
0.0   0.0   0.0
0.0002530432369113594   -0.0029059781172294736   -0.0007779831816564036
0.0   0.0   0.0
0.0   0.0   0.0
0.0002530432369113594   -0.0029059781172294736   -0.0007779831816564036
-0.001371156531759735   -0.002978030387015917   -0.0007547122218563956
-0.0014023797536370825   -0.002941096702033681   -0.0008470757457750288
0.0   0.0   0.0
0.0002530432369113594   -0.0029059781172294736   -0.0007779831816564036
-0.0014023797536370825   -0.002941096702033681   -0.0008470757457750288
0.0   0.0   0.0
0.0   0.0   0.0
-0.001371156531759735   -0.002978030387015917   -0.0007547122218563956
0.0   0.0   0.0
0.0   0.0   0.0
-0.001371156531759735   -0.002978030387015917   -0.0007547122218563956
0.0002530432369113594   -0.0029059781172294736   -0.0007779831816564036
0.0   0.0   0.0
0.00029073854782273376   -0.0028429658065014323   -0.0007901689476115665
0.0   0.0   0.0
0.0   0.0   0.0
0.00029073854782273376   -0.0028429658065014323   -0.0007901689476115665
0.0   0.0   0.0
0.0   0.0   0.0
0.00029073854782273376   -0.0028429658065014323   -0.0007901689476115665
-0.0013427373140693312   -0.00296261510069803   -0.0006592166113539485
-0.001371156531759735   -0.002978030387015917   -0.0007547122218563956
0.0   0.0   0.0
0.00029073854782273376   -0.0028429658065014323   -0.0007901689476115665
-0.001371156531759735   -0.002978030387015917   -0.0007547122218563956
0.0   0.0   0.0
0.0   0.0   0.0
0.00018955983568051215   -0.0028599013020142294   -0.0007529757524564569
0.0   0.0   0.0
0.0   0.0   0.0
0.00018955983568051215   -0.0028599013020142294   -0.0007529757524564569
0.0019779280629474904   -0.0029990955283498324   -0.0006595311099884618
0.0   0.0   0.0
0.0019813238891724766   -0.0030150822234245086   -0.0007862866156157456
0.0   0.0   0.0
0.0   0.0   0.0
0.0019813238891724766   -0.0030150822234245086   -0.0007862866156157456
0.0   0.0   0.0
0.0   0.0   0.0
0.0019813238891724766   -0.0030150822234245086   -0.0007862866156157456
0.00022504537694511395   -0.0029101359404887926   -0.0007661184714056904
0.00018955983568051215   -0.0028599013020142294   -0.0007529757524564569
0.0   0.0   0.0
0.0019813238891724766   -0.0030150822234245086   -0.0007862866156157456
0.00018955983568051215   -0.0028599013020142294   -0.0007529757524564569
0.0   0.0   0.0
0.0   0.0   0.0
0.00022504537694511395   -0.0029101359404887926   -0.0007661184714056904
0.0   0.0   0.0
0.0   0.0   0.0
0.00022504537694511395   -0.0029101359404887926   -0.0007661184714056904
0.0019813238891724766   -0.0030150822234245086   -0.0007862866156157456
0.0   0.0   0.0
0.001972733664457361   -0.002972027118926256   -0.0009078804690079921
0.0   0.0   0.0
0.0   0.0   0.0
0.001972733664457361   -0.002972027118926256   -0.0009078804690079921
0.0   0.0   0.0
0.0   0.0   0.0
0.001972733664457361   -0.002972027118926256   -0.0009078804690079921
0.0002530432369113594   -0.0029059781172294736   -0.0007779831816564036
0.00022504537694511395   -0.0029101359404887926   -0.0007661184714056904
0.0   0.0   0.0
0.001972733664457361   -0.002972027118926256   -0.0009078804690079921
0.00022504537694511395   -0.0029101359404887926   -0.0007661184714056904
0.0   0.0   0.0
0.0   0.0   0.0
0.0002530432369113594   -0.0029059781172294736   -0.0007779831816564036
0.0   0.0   0.0
0.0   0.0   0.0
0.0002530432369113594   -0.0029059781172294736   -0.0007779831816564036
0.001972733664457361   -0.002972027118926256   -0.0009078804690079921
0.0   0.0   0.0
0.002010839167107883   -0.002856741726339986   -0.001027154852613395
0.0   0.0   0.0
0.0   0.0   0.0
0.002010839167107883   -0.002856741726339986   -0.001027154852613395
0.0   0.0   0.0
0.0   0.0   0.0
0.002010839167107883   -0.002856741726339986   -0.001027154852613395
0.00029073854782273376   -0.0028429658065014323   -0.0007901689476115665
0.0002530432369113594   -0.0029059781172294736   -0.0007779831816564036
0.0   0.0   0.0
0.002010839167107883   -0.002856741726339986   -0.001027154852613395
0.0002530432369113594   -0.0029059781172294736   -0.0007779831816564036
0.0   0.0   0.0
0.0   0.0   0.0
0.0019779280629474904   -0.0029990955283498324   -0.0006595311099884618
0.0   0.0   0.0
0.0   0.0   0.0
0.0019779280629474904   -0.0029990955283498324   -0.0006595311099884618
0.004464813882856254   -0.003351903302777003   -0.0006222864032830856
0.0   0.0   0.0
0.004193023249847515   -0.00331530392692092   -0.0009096489030755172
0.0   0.0   0.0
0.0   0.0   0.0
0.004193023249847515   -0.00331530392692092   -0.0009096489030755172
0.0   0.0   0.0
0.0   0.0   0.0
0.004193023249847515   -0.00331530392692092   -0.0009096489030755172
0.0019813238891724766   -0.0030150822234245086   -0.0007862866156157456
0.0019779280629474904   -0.0029990955283498324   -0.0006595311099884618
0.0   0.0   0.0
0.004193023249847515   -0.00331530392692092   -0.0009096489030755172
0.0019779280629474904   -0.0029990955283498324   -0.0006595311099884618
0.0   0.0   0.0
0.0   0.0   0.0
0.0019813238891724766   -0.0030150822234245086   -0.0007862866156157456
0.0   0.0   0.0
0.0   0.0   0.0
0.0019813238891724766   -0.0030150822234245086   -0.0007862866156157456
0.004193023249847515   -0.00331530392692092   -0.0009096489030755172
0.0   0.0   0.0
0.004067642519118618   -0.003246375798396599   -0.0011526467691464475
0.0   0.0   0.0
0.0   0.0   0.0
0.004067642519118618   -0.003246375798396599   -0.0011526467691464475
0.0   0.0   0.0
0.0   0.0   0.0
0.004067642519118618   -0.003246375798396599   -0.0011526467691464475
0.001972733664457361   -0.002972027118926256   -0.0009078804690079921
0.0019813238891724766   -0.0030150822234245086   -0.0007862866156157456
0.0   0.0   0.0
0.004067642519118618   -0.003246375798396599   -0.0011526467691464475
0.0019813238891724766   -0.0030150822234245086   -0.0007862866156157456
0.0   0.0   0.0
0.0   0.0   0.0
0.001972733664457361   -0.002972027118926256   -0.0009078804690079921
0.0   0.0   0.0
0.0   0.0   0.0
0.001972733664457361   -0.002972027118926256   -0.0009078804690079921
0.004067642519118618   -0.003246375798396599   -0.0011526467691464475
0.0   0.0   0.0
0.00388105891907981   -0.003070017300632607   -0.001409782685916519
0.0   0.0   0.0
0.0   0.0   0.0
0.00388105891907981   -0.003070017300632607   -0.001409782685916519
0.0   0.0   0.0
0.0   0.0   0.0
0.00388105891907981   -0.003070017300632607   -0.001409782685916519
0.002010839167107883   -0.002856741726339986   -0.001027154852613395
0.001972733664457361   -0.002972027118926256   -0.0009078804690079921
0.0   0.0   0.0
0.00388105891907981   -0.003070017300632607   -0.001409782685916519
0.001972733664457361   -0.002972027118926256   -0.0009078804690079921
0.0   0.0   0.0
-0.00503159487998397   -0.0033013995013428613   -0.0016855452601662335
-0.009397844185435973   -0.009215344323659658   -0.0022708777450196685
-0.0032017849092164543   -0.002966889682520086   -0.0012383817733875118
-0.005265885044773261   -0.003517155242401903   -0.0013532389359564472
-0.009397844185435973   -0.009215344323659658   -0.0022708777450196685
-0.005998275701142514   -0.008914502653601563   -0.0018692095132487973
-0.0032017849092164543   -0.002966889682520086   -0.0012383817733875118
-0.006005432062371483   -0.009066814925474878   -0.0016834050350649351
-0.005265885044773261   -0.003517155242401903   -0.0013532389359564472
-0.0031385309837744847   -0.0031157585241237823   -0.0010374867009401527
-0.006005432062371483   -0.009066814925474878   -0.0016834050350649351
-0.0032017849092164543   -0.002966889682520086   -0.0012383817733875118
-0.005265885044773261   -0.003517155242401903   -0.0013532389359564472
-0.006005432062371483   -0.009066814925474878   -0.0016834050350649351
-0.009679502905116365   -0.009427872635159656   -0.001969150678619714
-0.009397844185435973   -0.009215344323659658   -0.0022708777450196685
-0.005265885044773261   -0.003517155242401903   -0.0013532389359564472
-0.006005432062371483   -0.009066814925474878   -0.0016834050350649351
-0.009397844185435973   -0.009215344323659658   -0.0022708777450196685
-0.0032017849092164543   -0.002966889682520086   -0.0012383817733875118
-0.005265885044773261   -0.003517155242401903   -0.0013532389359564472
-0.009679502905116365   -0.009427872635159656   -0.001969150678619714
-0.0031385309837744847   -0.0031157585241237823   -0.0010374867009401527
-0.0054304580009888045   -0.0036220681769740036   -0.0010348221314418378
-0.009679502905116365   -0.009427872635159656   -0.001969150678619714
-0.006005432062371483   -0.009066814925474878   -0.0016834050350649351
-0.0031385309837744847   -0.0031157585241237823   -0.0010374867009401527
-0.0060291589290738575   -0.009159659737933952   -0.0015048501413529563
-0.0054304580009888045   -0.0036220681769740036   -0.0010348221314418378
-0.0031474546656273064   -0.0031920408509990865   -0.0008368727525824385
-0.0060291589290738575   -0.009159659737933952   -0.0015048501413529563
-0.0031385309837744847   -0.0031157585241237823   -0.0010374867009401527
-0.0054304580009888045   -0.0036220681769740036   -0.0010348221314418378
-0.0060291589290738575   -0.009159659737933952   -0.0015048501413529563
-0.009875226669496705   -0.009547893798550342   -0.0016737022645609907
-0.009679502905116365   -0.009427872635159656   -0.001969150678619714
-0.0054304580009888045   -0.0036220681769740036   -0.0010348221314418378
-0.0060291589290738575   -0.009159659737933952   -0.0015048501413529563
-0.009679502905116365   -0.009427872635159656   -0.001969150678619714
-0.0031385309837744847   -0.0031157585241237823   -0.0010374867009401527
-0.0054304580009888045   -0.0036220681769740036   -0.0010348221314418378
-0.009875226669496705   -0.009547893798550342   -0.0016737022645609907
-0.0031474546656273064   -0.0031920408509990865   -0.0008368727525824385
-0.005784921569658156   -0.0037014928436341736   -0.0006654031395463369
-0.009875226669496705   -0.009547893798550342   -0.0016737022645609907
-0.0060291589290738575   -0.009159659737933952   -0.0015048501413529563
-0.0031474546656273064   -0.0031920408509990865   -0.0008368727525824385
-0.006011274274038824   -0.009207830112752145   -0.0013377122826888012
-0.005784921569658156   -0.0037014928436341736   -0.0006654031395463369
-0.003145881986853732   -0.0032116309390444113   -0.00062942497361259
-0.006011274274038824   -0.009207830112752145   -0.0013377122826888012
-0.0031474546656273064   -0.0031920408509990865   -0.0008368727525824385
-0.005784921569658156   -0.0037014928436341736   -0.0006654031395463369
-0.006011274274038824   -0.009207830112752145   -0.0013377122826888012
-0.01010656756626325   -0.009617662923807994   -0.0014048894110932591
-0.009875226669496705   -0.009547893798550342   -0.0016737022645609907
-0.005784921569658156   -0.0037014928436341736   -0.0006654031395463369
-0.006011274274038824   -0.009207830112752145   -0.0013377122826888012
-0.009875226669496705   -0.009547893798550342   -0.0016737022645609907
-0.0031474546656273064   -0.0031920408509990865   -0.0008368727525824385
-0.0032017849092164543   -0.002966889682520086   -0.0012383817733875118
-0.005998275701142514   -0.008914502653601563   -0.0018692095132487973
-0.0014580263563497594   -0.002844191652394384   -0.0009419076156024143
-0.0031385309837744847   -0.0031157585241237823   -0.0010374867009401527
-0.005998275701142514   -0.008914502653601563   -0.0018692095132487973
-0.0027830618431989407   -0.00877451710408435   -0.0015950128521942393
-0.0014580263563497594   -0.002844191652394384   -0.0009419076156024143
-0.002759125482992977   -0.008871456330310395   -0.0014998043428055344
-0.0031385309837744847   -0.0031157585241237823   -0.0010374867009401527
-0.0014023797536370825   -0.002941096702033681   -0.0008470757457750288
-0.002759125482992977   -0.008871456330310395   -0.0014998043428055344
-0.0014580263563497594   -0.002844191652394384   -0.0009419076156024143
-0.0031385309837744847   -0.0031157585241237823   -0.0010374867009401527
-0.002759125482992977   -0.008871456330310395   -0.0014998043428055344
-0.006005432062371483   -0.009066814925474878   -0.0016834050350649351
-0.005998275701142514   -0.008914502653601563   -0.0018692095132487973
-0.0031385309837744847   -0.0031157585241237823   -0.0010374867009401527
-0.002759125482992977   -0.008871456330310395   -0.0014998043428055344
-0.005998275701142514   -0.008914502653601563   -0.0018692095132487973
-0.0014580263563497594   -0.002844191652394384   -0.0009419076156024143
-0.0031385309837744847   -0.0031157585241237823   -0.0010374867009401527
-0.006005432062371483   -0.009066814925474878   -0.0016834050350649351
-0.0014023797536370825   -0.002941096702033681   -0.0008470757457750288
-0.0031474546656273064   -0.0031920408509990865   -0.0008368727525824385
-0.006005432062371483   -0.009066814925474878   -0.0016834050350649351
-0.002759125482992977   -0.008871456330310395   -0.0014998043428055344
-0.0014023797536370825   -0.002941096702033681   -0.0008470757457750288
-0.00273792234418609   -0.008918469897297531   -0.00141349316581084
-0.0031474546656273064   -0.0031920408509990865   -0.0008368727525824385
-0.001371156531759735   -0.002978030387015917   -0.0007547122218563956
-0.00273792234418609   -0.008918469897297531   -0.00141349316581084
-0.0014023797536370825   -0.002941096702033681   -0.0008470757457750288
-0.0031474546656273064   -0.0031920408509990865   -0.0008368727525824385
-0.00273792234418609   -0.008918469897297531   -0.00141349316581084
-0.0060291589290738575   -0.009159659737933952   -0.0015048501413529563
-0.006005432062371483   -0.009066814925474878   -0.0016834050350649351
-0.0031474546656273064   -0.0031920408509990865   -0.0008368727525824385
-0.00273792234418609   -0.008918469897297531   -0.00141349316581084
-0.006005432062371483   -0.009066814925474878   -0.0016834050350649351
-0.0014023797536370825   -0.002941096702033681   -0.0008470757457750288
-0.0031474546656273064   -0.0031920408509990865   -0.0008368727525824385
-0.0060291589290738575   -0.009159659737933952   -0.0015048501413529563
-0.001371156531759735   -0.002978030387015917   -0.0007547122218563956
-0.003145881986853732   -0.0032116309390444113   -0.00062942497361259
-0.0060291589290738575   -0.009159659737933952   -0.0015048501413529563
-0.00273792234418609   -0.008918469897297531   -0.00141349316581084
-0.001371156531759735   -0.002978030387015917   -0.0007547122218563956
-0.0027062463765270784   -0.008917330141028367   -0.0013383458052308756
-0.003145881986853732   -0.0032116309390444113   -0.00062942497361259
-0.0013427373140693312   -0.00296261510069803   -0.0006592166113539485
-0.0027062463765270784   -0.008917330141028367   -0.0013383458052308756
-0.001371156531759735   -0.002978030387015917   -0.0007547122218563956
-0.003145881986853732   -0.0032116309390444113   -0.00062942497361259
-0.0027062463765270784   -0.008917330141028367   -0.0013383458052308756
-0.006011274274038824   -0.009207830112752145   -0.0013377122826888012
-0.0060291589290738575   -0.009159659737933952   -0.0015048501413529563
-0.003145881986853732   -0.0032116309390444113   -0.00062942497361259
-0.0027062463765270784   -0.008917330141028367   -0.0013383458052308756
-0.0060291589290738575   -0.009159659737933952   -0.0015048501413529563
-0.001371156531759735   -0.002978030387015917   -0.0007547122218563956
-0.0014580263563497594   -0.002844191652394384   -0.0009419076156024143
-0.0027830618431989407   -0.00877451710408435   -0.0015950128521942393
0.00018955983568051215   -0.0028599013020142294   -0.0007529757524564569
-0.0014023797536370825   -0.002941096702033681   -0.0008470757457750288
-0.0027830618431989407   -0.00877451710408435   -0.0015950128521942393
0.00031742729351656675   -0.008778680566163616   -0.0014216594533765844
0.00018955983568051215   -0.0028599013020142294   -0.0007529757524564569
0.0003468613187266366   -0.008824602748911593   -0.001415368950572971
-0.0014023797536370825   -0.002941096702033681   -0.0008470757457750288
0.00022504537694511395   -0.0029101359404887926   -0.0007661184714056904
0.0003468613187266366   -0.008824602748911593   -0.001415368950572971
0.00018955983568051215   -0.0028599013020142294   -0.0007529757524564569
-0.0014023797536370825   -0.002941096702033681   -0.0008470757457750288
0.0003468613187266366   -0.008824602748911593   -0.001415368950572971
-0.002759125482992977   -0.008871456330310395   -0.0014998043428055344
-0.0027830618431989407   -0.00877451710408435   -0.0015950128521942393
-0.0014023797536370825   -0.002941096702033681   -0.0008470757457750288
0.0003468613187266366   -0.008824602748911593   -0.001415368950572971
-0.0027830618431989407   -0.00877451710408435   -0.0015950128521942393
0.00018955983568051215   -0.0028599013020142294   -0.0007529757524564569
-0.0014023797536370825   -0.002941096702033681   -0.0008470757457750288
-0.002759125482992977   -0.008871456330310395   -0.0014998043428055344
0.00022504537694511395   -0.0029101359404887926   -0.0007661184714056904
-0.001371156531759735   -0.002978030387015917   -0.0007547122218563956
-0.002759125482992977   -0.008871456330310395   -0.0014998043428055344
0.0003468613187266366   -0.008824602748911593   -0.001415368950572971
0.00022504537694511395   -0.0029101359404887926   -0.0007661184714056904
0.0003666425892310932   -0.008821769871408792   -0.0014191770593352268
-0.001371156531759735   -0.002978030387015917   -0.0007547122218563956
0.0002530432369113594   -0.0029059781172294736   -0.0007779831816564036
0.0003666425892310932   -0.008821769871408792   -0.0014191770593352268
0.00022504537694511395   -0.0029101359404887926   -0.0007661184714056904
-0.001371156531759735   -0.002978030387015917   -0.0007547122218563956
0.0003666425892310932   -0.008821769871408792   -0.0014191770593352268
-0.00273792234418609   -0.008918469897297531   -0.00141349316581084
-0.002759125482992977   -0.008871456330310395   -0.0014998043428055344
-0.001371156531759735   -0.002978030387015917   -0.0007547122218563956
0.0003666425892310932   -0.008821769871408792   -0.0014191770593352268
-0.002759125482992977   -0.008871456330310395   -0.0014998043428055344
0.00022504537694511395   -0.0029101359404887926   -0.0007661184714056904
-0.001371156531759735   -0.002978030387015917   -0.0007547122218563956
-0.00273792234418609   -0.008918469897297531   -0.00141349316581084
0.0002530432369113594   -0.0029059781172294736   -0.0007779831816564036
-0.0013427373140693312   -0.00296261510069803   -0.0006592166113539485
-0.00273792234418609   -0.008918469897297531   -0.00141349316581084
0.0003666425892310932   -0.008821769871408792   -0.0014191770593352268
0.0002530432369113594   -0.0029059781172294736   -0.0007779831816564036
0.0003878704649428559   -0.008768693796605762   -0.0014332435541841294
-0.0013427373140693312   -0.00296261510069803   -0.0006592166113539485
0.00029073854782273376   -0.0028429658065014323   -0.0007901689476115665
0.0003878704649428559   -0.008768693796605762   -0.0014332435541841294
0.0002530432369113594   -0.0029059781172294736   -0.0007779831816564036
-0.0013427373140693312   -0.00296261510069803   -0.0006592166113539485
0.0003878704649428559   -0.008768693796605762   -0.0014332435541841294
-0.0027062463765270784   -0.008917330141028367   -0.0013383458052308756
-0.00273792234418609   -0.008918469897297531   -0.00141349316581084
-0.0013427373140693312   -0.00296261510069803   -0.0006592166113539485
0.0003878704649428559   -0.008768693796605762   -0.0014332435541841294
-0.00273792234418609   -0.008918469897297531   -0.00141349316581084
0.0002530432369113594   -0.0029059781172294736   -0.0007779831816564036
0.00018955983568051215   -0.0028599013020142294   -0.0007529757524564569
0.00031742729351656675   -0.008778680566163616   -0.0014216594533765844
0.0019779280629474904   -0.0029990955283498324   -0.0006595311099884618
0.00022504537694511395   -0.0029101359404887926   -0.0007661184714056904
0.00031742729351656675   -0.008778680566163616   -0.0014216594533765844
0.00360303676739112   -0.008921788422867307   -0.0013408001975318755
0.0019779280629474904   -0.0029990955283498324   -0.0006595311099884618
0.003619664587800135   -0.008921359981060854   -0.0014263116773913116
0.00022504537694511395   -0.0029101359404887926   -0.0007661184714056904
0.0019813238891724766   -0.0030150822234245086   -0.0007862866156157456
0.003619664587800135   -0.008921359981060854   -0.0014263116773913116
0.0019779280629474904   -0.0029990955283498324   -0.0006595311099884618
0.00022504537694511395   -0.0029101359404887926   -0.0007661184714056904
0.003619664587800135   -0.008921359981060854   -0.0014263116773913116
0.0003468613187266366   -0.008824602748911593   -0.001415368950572971
0.00031742729351656675   -0.008778680566163616   -0.0014216594533765844
0.00022504537694511395   -0.0029101359404887926   -0.0007661184714056904
0.003619664587800135   -0.008921359981060854   -0.0014263116773913116
0.00031742729351656675   -0.008778680566163616   -0.0014216594533765844
0.0019779280629474904   -0.0029990955283498324   -0.0006595311099884618
0.00022504537694511395   -0.0029101359404887926   -0.0007661184714056904
0.0003468613187266366   -0.008824602748911593   -0.001415368950572971
0.0019813238891724766   -0.0030150822234245086   -0.0007862866156157456
0.0002530432369113594   -0.0029059781172294736   -0.0007779831816564036
0.0003468613187266366   -0.008824602748911593   -0.001415368950572971
0.003619664587800135   -0.008921359981060854   -0.0014263116773913116
0.0019813238891724766   -0.0030150822234245086   -0.0007862866156157456
0.003602882038850956   -0.00887312224870852   -0.0015232486806315297
0.0002530432369113594   -0.0029059781172294736   -0.0007779831816564036
0.001972733664457361   -0.002972027118926256   -0.0009078804690079921
0.003602882038850956   -0.00887312224870852   -0.0015232486806315297
0.0019813238891724766   -0.0030150822234245086   -0.0007862866156157456
0.0002530432369113594   -0.0029059781172294736   -0.0007779831816564036
0.003602882038850956   -0.00887312224870852   -0.0015232486806315297
0.0003666425892310932   -0.008821769871408792   -0.0014191770593352268
0.0003468613187266366   -0.008824602748911593   -0.001415368950572971
0.0002530432369113594   -0.0029059781172294736   -0.0007779831816564036
0.003602882038850956   -0.00887312224870852   -0.0015232486806315297
0.0003468613187266366   -0.008824602748911593   -0.001415368950572971
0.0019813238891724766   -0.0030150822234245086   -0.0007862866156157456
0.0002530432369113594   -0.0029059781172294736   -0.0007779831816564036
0.0003666425892310932   -0.008821769871408792   -0.0014191770593352268
0.001972733664457361   -0.002972027118926256   -0.0009078804690079921
0.00029073854782273376   -0.0028429658065014323   -0.0007901689476115665
0.0003666425892310932   -0.008821769871408792   -0.0014191770593352268
0.003602882038850956   -0.00887312224870852   -0.0015232486806315297
0.001972733664457361   -0.002972027118926256   -0.0009078804690079921
0.0035932442351337135   -0.008763883300950799   -0.0016280248886144765
0.00029073854782273376   -0.0028429658065014323   -0.0007901689476115665
0.002010839167107883   -0.002856741726339986   -0.001027154852613395
0.0035932442351337135   -0.008763883300950799   -0.0016280248886144765
0.001972733664457361   -0.002972027118926256   -0.0009078804690079921
0.00029073854782273376   -0.0028429658065014323   -0.0007901689476115665
0.0035932442351337135   -0.008763883300950799   -0.0016280248886144765
0.0003878704649428559   -0.008768693796605762   -0.0014332435541841294
0.0003666425892310932   -0.008821769871408792   -0.0014191770593352268
0.00029073854782273376   -0.0028429658065014323   -0.0007901689476115665
0.0035932442351337135   -0.008763883300950799   -0.0016280248886144765
0.0003666425892310932   -0.008821769871408792   -0.0014191770593352268
0.001972733664457361   -0.002972027118926256   -0.0009078804690079921
0.0019779280629474904   -0.0029990955283498324   -0.0006595311099884618
0.00360303676739112   -0.008921788422867307   -0.0013408001975318755
0.004464813882856254   -0.003351903302777003   -0.0006222864032830856
0.0019813238891724766   -0.0030150822234245086   -0.0007862866156157456
0.00360303676739112   -0.008921788422867307   -0.0013408001975318755
0.007567758450928379   -0.009187800163492677   -0.0013190806241749201
0.004464813882856254   -0.003351903302777003   -0.0006222864032830856
0.007413727442442066   -0.009162708356908926   -0.0015114530178592107
0.0019813238891724766   -0.0030150822234245086   -0.0007862866156157456
0.004193023249847515   -0.00331530392692092   -0.0009096489030755172
0.007413727442442066   -0.009162708356908926   -0.0015114530178592107
0.004464813882856254   -0.003351903302777003   -0.0006222864032830856
0.0019813238891724766   -0.0030150822234245086   -0.0007862866156157456
0.007413727442442066   -0.009162708356908926   -0.0015114530178592107
0.003619664587800135   -0.008921359981060854   -0.0014263116773913116
0.00360303676739112   -0.008921788422867307   -0.0013408001975318755
0.0019813238891724766   -0.0030150822234245086   -0.0007862866156157456
0.007413727442442066   -0.009162708356908926   -0.0015114530178592107
0.00360303676739112   -0.008921788422867307   -0.0013408001975318755
0.004464813882856254   -0.003351903302777003   -0.0006222864032830856
0.0019813238891724766   -0.0030150822234245086   -0.0007862866156157456
0.003619664587800135   -0.008921359981060854   -0.0014263116773913116
0.004193023249847515   -0.00331530392692092   -0.0009096489030755172
0.001972733664457361   -0.002972027118926256   -0.0009078804690079921
0.003619664587800135   -0.008921359981060854   -0.0014263116773913116
0.007413727442442066   -0.009162708356908926   -0.0015114530178592107
0.004193023249847515   -0.00331530392692092   -0.0009096489030755172
0.007276078396492154   -0.009088340663334056   -0.001727866005778265
0.001972733664457361   -0.002972027118926256   -0.0009078804690079921
0.004067642519118618   -0.003246375798396599   -0.0011526467691464475
0.007276078396492154   -0.009088340663334056   -0.001727866005778265
0.004193023249847515   -0.00331530392692092   -0.0009096489030755172
0.001972733664457361   -0.002972027118926256   -0.0009078804690079921
0.007276078396492154   -0.009088340663334056   -0.001727866005778265
0.003602882038850956   -0.00887312224870852   -0.0015232486806315297
0.003619664587800135   -0.008921359981060854   -0.0014263116773913116
0.001972733664457361   -0.002972027118926256   -0.0009078804690079921
0.007276078396492154   -0.009088340663334056   -0.001727866005778265
0.003619664587800135   -0.008921359981060854   -0.0014263116773913116
0.004193023249847515   -0.00331530392692092   -0.0009096489030755172
0.001972733664457361   -0.002972027118926256   -0.0009078804690079921
0.003602882038850956   -0.00887312224870852   -0.0015232486806315297
0.004067642519118618   -0.003246375798396599   -0.0011526467691464475
0.002010839167107883   -0.002856741726339986   -0.001027154852613395
0.003602882038850956   -0.00887312224870852   -0.0015232486806315297
0.007276078396492154   -0.009088340663334056   -0.001727866005778265
0.004067642519118618   -0.003246375798396599   -0.0011526467691464475
0.007069844997963303   -0.008922868951618852   -0.0019531428441949125
0.002010839167107883   -0.002856741726339986   -0.001027154852613395
0.00388105891907981   -0.003070017300632607   -0.001409782685916519
0.007069844997963303   -0.008922868951618852   -0.0019531428441949125
0.004067642519118618   -0.003246375798396599   -0.0011526467691464475
0.002010839167107883   -0.002856741726339986   -0.001027154852613395
0.007069844997963303   -0.008922868951618852   -0.0019531428441949125
0.0035932442351337135   -0.008763883300950799   -0.0016280248886144765
0.003602882038850956   -0.00887312224870852   -0.0015232486806315297
0.002010839167107883   -0.002856741726339986   -0.001027154852613395
0.007069844997963303   -0.008922868951618852   -0.0019531428441949125
0.003602882038850956   -0.00887312224870852   -0.0015232486806315297
0.004067642519118618   -0.003246375798396599   -0.0011526467691464475
-0.009397844185435973   -0.009215344323659658   -0.0022708777450196685
-0.012876471936435851   -0.01728198110122432   -0.002586550399564803
-0.005998275701142514   -0.008914502653601563   -0.0018692095132487973
-0.009679502905116365   -0.009427872635159656   -0.001969150678619714
-0.012876471936435851   -0.01728198110122432   -0.002586550399564803
-0.00827870976194596   -0.01705208129156193   -0.0022607885212318772
-0.005998275701142514   -0.008914502653601563   -0.0018692095132487973
-0.008296930268325587   -0.017183541790416222   -0.002116636312130006
-0.009679502905116365   -0.009427872635159656   -0.001969150678619714
-0.006005432062371483   -0.009066814925474878   -0.0016834050350649351
-0.008296930268325587   -0.017183541790416222   -0.002116636312130006
-0.005998275701142514   -0.008914502653601563   -0.0018692095132487973
-0.009679502905116365   -0.009427872635159656   -0.001969150678619714
-0.008296930268325587   -0.017183541790416222   -0.002116636312130006
-0.013105536337443836   -0.017461640369456178   -0.002361538349839911
-0.012876471936435851   -0.01728198110122432   -0.002586550399564803
-0.009679502905116365   -0.009427872635159656   -0.001969150678619714
-0.008296930268325587   -0.017183541790416222   -0.002116636312130006
-0.012876471936435851   -0.01728198110122432   -0.002586550399564803
-0.005998275701142514   -0.008914502653601563   -0.0018692095132487973
-0.009679502905116365   -0.009427872635159656   -0.001969150678619714
-0.013105536337443836   -0.017461640369456178   -0.002361538349839911
-0.006005432062371483   -0.009066814925474878   -0.0016834050350649351
-0.009875226669496705   -0.009547893798550342   -0.0016737022645609907
-0.013105536337443836   -0.017461640369456178   -0.002361538349839911
-0.008296930268325587   -0.017183541790416222   -0.002116636312130006
-0.006005432062371483   -0.009066814925474878   -0.0016834050350649351
-0.008318377949397122   -0.01727502715038505   -0.001982914225414748
-0.009875226669496705   -0.009547893798550342   -0.0016737022645609907
-0.0060291589290738575   -0.009159659737933952   -0.0015048501413529563
-0.008318377949397122   -0.01727502715038505   -0.001982914225414748
-0.006005432062371483   -0.009066814925474878   -0.0016834050350649351
-0.009875226669496705   -0.009547893798550342   -0.0016737022645609907
-0.008318377949397122   -0.01727502715038505   -0.001982914225414748
-0.01324997292565104   -0.017574299886158724   -0.002151815590867866
-0.013105536337443836   -0.017461640369456178   -0.002361538349839911
-0.009875226669496705   -0.009547893798550342   -0.0016737022645609907
-0.008318377949397122   -0.01727502715038505   -0.001982914225414748
-0.013105536337443836   -0.017461640369456178   -0.002361538349839911
-0.006005432062371483   -0.009066814925474878   -0.0016834050350649351
-0.009875226669496705   -0.009547893798550342   -0.0016737022645609907
-0.01324997292565104   -0.017574299886158724   -0.002151815590867866
-0.0060291589290738575   -0.009159659737933952   -0.0015048501413529563
-0.01010656756626325   -0.009617662923807994   -0.0014048894110932591
-0.01324997292565104   -0.017574299886158724   -0.002151815590867866
-0.008318377949397122   -0.01727502715038505   -0.001982914225414748
-0.0060291589290738575   -0.009159659737933952   -0.0015048501413529563
-0.00830285755157827   -0.01733521672734326   -0.0018574003157510212
-0.01010656756626325   -0.009617662923807994   -0.0014048894110932591
-0.006011274274038824   -0.009207830112752145   -0.0013377122826888012
-0.00830285755157827   -0.01733521672734326   -0.0018574003157510212
-0.0060291589290738575   -0.009159659737933952   -0.0015048501413529563
-0.01010656756626325   -0.009617662923807994   -0.0014048894110932591
-0.00830285755157827   -0.01733521672734326   -0.0018574003157510212
-0.013414312541811569   -0.017655323552906808   -0.0019588118867157026
-0.01324997292565104   -0.017574299886158724   -0.002151815590867866
-0.01010656756626325   -0.009617662923807994   -0.0014048894110932591
-0.00830285755157827   -0.01733521672734326   -0.0018574003157510212
-0.01324997292565104   -0.017574299886158724   -0.002151815590867866
-0.0060291589290738575   -0.009159659737933952   -0.0015048501413529563
-0.005998275701142514   -0.008914502653601563   -0.0018692095132487973
-0.00827870976194596   -0.01705208129156193   -0.0022607885212318772
-0.0027830618431989407   -0.00877451710408435   -0.0015950128521942393
-0.006005432062371483   -0.009066814925474878   -0.0016834050350649351
-0.00827870976194596   -0.01705208129156193   -0.0022607885212318772
-0.003943585914567574   -0.016937456072567903   -0.0020344632180193147
-0.0027830618431989407   -0.00877451710408435   -0.0015950128521942393
-0.003933780609740065   -0.017021515572003217   -0.001952998830828461
-0.006005432062371483   -0.009066814925474878   -0.0016834050350649351
-0.002759125482992977   -0.008871456330310395   -0.0014998043428055344
-0.003933780609740065   -0.017021515572003217   -0.001952998830828461
-0.0027830618431989407   -0.00877451710408435   -0.0015950128521942393
-0.006005432062371483   -0.009066814925474878   -0.0016834050350649351
-0.003933780609740065   -0.017021515572003217   -0.001952998830828461
-0.008296930268325587   -0.017183541790416222   -0.002116636312130006
-0.00827870976194596   -0.01705208129156193   -0.0022607885212318772
-0.006005432062371483   -0.009066814925474878   -0.0016834050350649351
-0.003933780609740065   -0.017021515572003217   -0.001952998830828461
-0.00827870976194596   -0.01705208129156193   -0.0022607885212318772
-0.0027830618431989407   -0.00877451710408435   -0.0015950128521942393
-0.006005432062371483   -0.009066814925474878   -0.0016834050350649351
-0.008296930268325587   -0.017183541790416222   -0.002116636312130006
-0.002759125482992977   -0.008871456330310395   -0.0014998043428055344
-0.0060291589290738575   -0.009159659737933952   -0.0015048501413529563
-0.008296930268325587   -0.017183541790416222   -0.002116636312130006
-0.003933780609740065   -0.017021515572003217   -0.001952998830828461
-0.002759125482992977   -0.008871456330310395   -0.0014998043428055344
-0.00392175346625251   -0.017070891991923617   -0.0018814666260489263
-0.0060291589290738575   -0.009159659737933952   -0.0015048501413529563
-0.00273792234418609   -0.008918469897297531   -0.00141349316581084
-0.00392175346625251   -0.017070891991923617   -0.0018814666260489263
-0.002759125482992977   -0.008871456330310395   -0.0014998043428055344
-0.0060291589290738575   -0.009159659737933952   -0.0015048501413529563
-0.00392175346625251   -0.017070891991923617   -0.0018814666260489263
-0.008318377949397122   -0.01727502715038505   -0.001982914225414748
-0.008296930268325587   -0.017183541790416222   -0.002116636312130006
-0.0060291589290738575   -0.009159659737933952   -0.0015048501413529563
-0.00392175346625251   -0.017070891991923617   -0.0018814666260489263
-0.008296930268325587   -0.017183541790416222   -0.002116636312130006
-0.002759125482992977   -0.008871456330310395   -0.0014998043428055344
-0.0060291589290738575   -0.009159659737933952   -0.0015048501413529563
-0.008318377949397122   -0.01727502715038505   -0.001982914225414748
-0.00273792234418609   -0.008918469897297531   -0.00141349316581084
-0.006011274274038824   -0.009207830112752145   -0.0013377122826888012
-0.008318377949397122   -0.01727502715038505   -0.001982914225414748
-0.00392175346625251   -0.017070891991923617   -0.0018814666260489263
-0.00273792234418609   -0.008918469897297531   -0.00141349316581084
-0.003901937911662372   -0.01708629122642369   -0.0018198368793690988
-0.006011274274038824   -0.009207830112752145   -0.0013377122826888012
-0.0027062463765270784   -0.008917330141028367   -0.0013383458052308756
-0.003901937911662372   -0.01708629122642369   -0.0018198368793690988
-0.00273792234418609   -0.008918469897297531   -0.00141349316581084
-0.006011274274038824   -0.009207830112752145   -0.0013377122826888012
-0.003901937911662372   -0.01708629122642369   -0.0018198368793690988
-0.00830285755157827   -0.01733521672734326   -0.0018574003157510212
-0.008318377949397122   -0.01727502715038505   -0.001982914225414748
-0.006011274274038824   -0.009207830112752145   -0.0013377122826888012
-0.003901937911662372   -0.01708629122642369   -0.0018198368793690988
-0.008318377949397122   -0.01727502715038505   -0.001982914225414748
-0.00273792234418609   -0.008918469897297531   -0.00141349316581084
-0.0027830618431989407   -0.00877451710408435   -0.0015950128521942393
-0.003943585914567574   -0.016937456072567903   -0.0020344632180193147
0.00031742729351656675   -0.008778680566163616   -0.0014216594533765844
-0.002759125482992977   -0.008871456330310395   -0.0014998043428055344
-0.003943585914567574   -0.016937456072567903   -0.0020344632180193147
0.0002642468337310622   -0.016931355355719387   -0.0018941439281103818
0.00031742729351656675   -0.008778680566163616   -0.0014216594533765844
0.00028233806537949986   -0.01696875805984597   -0.0018750311700745502
-0.002759125482992977   -0.008871456330310395   -0.0014998043428055344
0.0003468613187266366   -0.008824602748911593   -0.001415368950572971
0.00028233806537949986   -0.01696875805984597   -0.0018750311700745502
0.00031742729351656675   -0.008778680566163616   -0.0014216594533765844
-0.002759125482992977   -0.008871456330310395   -0.0014998043428055344
0.00028233806537949986   -0.01696875805984597   -0.0018750311700745502
-0.003933780609740065   -0.017021515572003217   -0.001952998830828461
-0.003943585914567574   -0.016937456072567903   -0.0020344632180193147
-0.002759125482992977   -0.008871456330310395   -0.0014998043428055344
0.00028233806537949986   -0.01696875805984597   -0.0018750311700745502
-0.003943585914567574   -0.016937456072567903   -0.0020344632180193147
0.00031742729351656675   -0.008778680566163616   -0.0014216594533765844
-0.002759125482992977   -0.008871456330310395   -0.0014998043428055344
-0.003933780609740065   -0.017021515572003217   -0.001952998830828461
0.0003468613187266366   -0.008824602748911593   -0.001415368950572971
-0.00273792234418609   -0.008918469897297531   -0.00141349316581084
-0.003933780609740065   -0.017021515572003217   -0.001952998830828461
0.00028233806537949986   -0.01696875805984597   -0.0018750311700745502
0.0003468613187266366   -0.008824602748911593   -0.001415368950572971
0.00029391080352350943   -0.01697161699721462   -0.001865590971440052
-0.00273792234418609   -0.008918469897297531   -0.00141349316581084
0.0003666425892310932   -0.008821769871408792   -0.0014191770593352268
0.00029391080352350943   -0.01697161699721462   -0.001865590971440052
0.0003468613187266366   -0.008824602748911593   -0.001415368950572971
-0.00273792234418609   -0.008918469897297531   -0.00141349316581084
0.00029391080352350943   -0.01697161699721462   -0.001865590971440052
-0.00392175346625251   -0.017070891991923617   -0.0018814666260489263
-0.003933780609740065   -0.017021515572003217   -0.001952998830828461
-0.00273792234418609   -0.008918469897297531   -0.00141349316581084
0.00029391080352350943   -0.01697161699721462   -0.001865590971440052
-0.003933780609740065   -0.017021515572003217   -0.001952998830828461
0.0003468613187266366   -0.008824602748911593   -0.001415368950572971
-0.00273792234418609   -0.008918469897297531   -0.00141349316581084
-0.00392175346625251   -0.017070891991923617   -0.0018814666260489263
0.0003666425892310932   -0.008821769871408792   -0.0014191770593352268
-0.0027062463765270784   -0.008917330141028367   -0.0013383458052308756
-0.00392175346625251   -0.017070891991923617   -0.0018814666260489263
0.00029391080352350943   -0.01697161699721462   -0.001865590971440052
0.0003666425892310932   -0.008821769871408792   -0.0014191770593352268
0.00030226173084522935   -0.016939417084551628   -0.0018664113469168235
-0.0027062463765270784   -0.008917330141028367   -0.0013383458052308756
0.0003878704649428559   -0.008768693796605762   -0.0014332435541841294
0.00030226173084522935   -0.016939417084551628   -0.0018664113469168235
0.0003666425892310932   -0.008821769871408792   -0.0014191770593352268
-0.0027062463765270784   -0.008917330141028367   -0.0013383458052308756
0.00030226173084522935   -0.016939417084551628   -0.0018664113469168235
-0.003901937911662372   -0.01708629122642369   -0.0018198368793690988
-0.00392175346625251   -0.017070891991923617   -0.0018814666260489263
-0.0027062463765270784   -0.008917330141028367   -0.0013383458052308756
0.00030226173084522935   -0.016939417084551628   -0.0018664113469168235
-0.00392175346625251   -0.017070891991923617   -0.0018814666260489263
0.0003666425892310932   -0.008821769871408792   -0.0014191770593352268
0.00031742729351656675   -0.008778680566163616   -0.0014216594533765844
0.0002642468337310622   -0.016931355355719387   -0.0018941439281103818
0.00360303676739112   -0.008921788422867307   -0.0013408001975318755
0.0003468613187266366   -0.008824602748911593   -0.001415368950572971
0.0002642468337310622   -0.016931355355719387   -0.0018941439281103818
0.004651655296865857   -0.017027328721765402   -0.001837431759212384
0.00360303676739112   -0.008921788422867307   -0.0013408001975318755
0.004667443065868875   -0.01702196787866522   -0.0018819659094621761
0.0003468613187266366   -0.008824602748911593   -0.001415368950572971
0.003619664587800135   -0.008921359981060854   -0.0014263116773913116
0.004667443065868875   -0.01702196787866522   -0.0018819659094621761
0.00360303676739112   -0.008921788422867307   -0.0013408001975318755
0.0003468613187266366   -0.008824602748911593   -0.001415368950572971
0.004667443065868875   -0.01702196787866522   -0.0018819659094621761
0.00028233806537949986   -0.01696875805984597   -0.0018750311700745502
0.0002642468337310622   -0.016931355355719387   -0.0018941439281103818
0.0003468613187266366   -0.008824602748911593   -0.001415368950572971
0.004667443065868875   -0.01702196787866522   -0.0018819659094621761
0.0002642468337310622   -0.016931355355719387   -0.0018941439281103818
0.00360303676739112   -0.008921788422867307   -0.0013408001975318755
0.0003468613187266366   -0.008824602748911593   -0.001415368950572971
0.00028233806537949986   -0.01696875805984597   -0.0018750311700745502
0.003619664587800135   -0.008921359981060854   -0.0014263116773913116
0.0003666425892310932   -0.008821769871408792   -0.0014191770593352268
0.00028233806537949986   -0.01696875805984597   -0.0018750311700745502
0.004667443065868875   -0.01702196787866522   -0.0018819659094621761
0.003619664587800135   -0.008921359981060854   -0.0014263116773913116
0.004655565448587445   -0.016982803370624484   -0.0019354618838554598
0.0003666425892310932   -0.008821769871408792   -0.0014191770593352268
0.003602882038850956   -0.00887312224870852   -0.0015232486806315297
0.004655565448587445   -0.016982803370624484   -0.0019354618838554598
0.003619664587800135   -0.008921359981060854   -0.0014263116773913116
0.0003666425892310932   -0.008821769871408792   -0.0014191770593352268
0.004655565448587445   -0.016982803370624484   -0.0019354618838554598
0.00029391080352350943   -0.01697161699721462   -0.001865590971440052
0.00028233806537949986   -0.01696875805984597   -0.0018750311700745502
0.0003666425892310932   -0.008821769871408792   -0.0014191770593352268
0.004655565448587445   -0.016982803370624484   -0.0019354618838554598
0.00028233806537949986   -0.01696875805984597   -0.0018750311700745502
0.003619664587800135   -0.008921359981060854   -0.0014263116773913116
0.0003666425892310932   -0.008821769871408792   -0.0014191770593352268
0.00029391080352350943   -0.01697161699721462   -0.001865590971440052
0.003602882038850956   -0.00887312224870852   -0.0015232486806315297
0.0003878704649428559   -0.008768693796605762   -0.0014332435541841294
0.00029391080352350943   -0.01697161699721462   -0.001865590971440052
0.004655565448587445   -0.016982803370624484   -0.0019354618838554598
0.003602882038850956   -0.00887312224870852   -0.0015232486806315297
0.0046378054529360325   -0.016901465608198375   -0.0019989813058871367
0.0003878704649428559   -0.008768693796605762   -0.0014332435541841294
0.0035932442351337135   -0.008763883300950799   -0.0016280248886144765
0.0046378054529360325   -0.016901465608198375   -0.0019989813058871367
0.003602882038850956   -0.00887312224870852   -0.0015232486806315297
0.0003878704649428559   -0.008768693796605762   -0.0014332435541841294
0.0046378054529360325   -0.016901465608198375   -0.0019989813058871367
0.00030226173084522935   -0.016939417084551628   -0.0018664113469168235
0.00029391080352350943   -0.01697161699721462   -0.001865590971440052
0.0003878704649428559   -0.008768693796605762   -0.0014332435541841294
0.0046378054529360325   -0.016901465608198375   -0.0019989813058871367
0.00029391080352350943   -0.01697161699721462   -0.001865590971440052
0.003602882038850956   -0.00887312224870852   -0.0015232486806315297
0.00360303676739112   -0.008921788422867307   -0.0013408001975318755
0.004651655296865857   -0.017027328721765402   -0.001837431759212384
0.007567758450928379   -0.009187800163492677   -0.0013190806241749201
0.003619664587800135   -0.008921359981060854   -0.0014263116773913116
0.004651655296865857   -0.017027328721765402   -0.001837431759212384
0.009648227602520341   -0.017201412315370663   -0.0018385711361814708
0.007567758450928379   -0.009187800163492677   -0.0013190806241749201
0.009564245093537975   -0.01717141346012409   -0.0019549462889759082
0.003619664587800135   -0.008921359981060854   -0.0014263116773913116
0.007413727442442066   -0.009162708356908926   -0.0015114530178592107
0.009564245093537975   -0.01717141346012409   -0.0019549462889759082
0.007567758450928379   -0.009187800163492677   -0.0013190806241749201
0.003619664587800135   -0.008921359981060854   -0.0014263116773913116
0.009564245093537975   -0.01717141346012409   -0.0019549462889759082
0.004667443065868875   -0.01702196787866522   -0.0018819659094621761
0.004651655296865857   -0.017027328721765402   -0.001837431759212384
0.003619664587800135   -0.008921359981060854   -0.0014263116773913116
0.009564245093537975   -0.01717141346012409   -0.0019549462889759082
0.004651655296865857   -0.017027328721765402   -0.001837431759212384
0.007567758450928379   -0.009187800163492677   -0.0013190806241749201
0.003619664587800135   -0.008921359981060854   -0.0014263116773913116
0.004667443065868875   -0.01702196787866522   -0.0018819659094621761
0.007413727442442066   -0.009162708356908926   -0.0015114530178592107
0.003602882038850956   -0.00887312224870852   -0.0015232486806315297
0.004667443065868875   -0.01702196787866522   -0.0018819659094621761
0.009564245093537975   -0.01717141346012409   -0.0019549462889759082
0.007413727442442066   -0.009162708356908926   -0.0015114530178592107
0.009480420009332783   -0.017111113165554984   -0.0020874818341307787
0.003602882038850956   -0.00887312224870852   -0.0015232486806315297
0.007276078396492154   -0.009088340663334056   -0.001727866005778265
0.009480420009332783   -0.017111113165554984   -0.0020874818341307787
0.007413727442442066   -0.009162708356908926   -0.0015114530178592107
0.003602882038850956   -0.00887312224870852   -0.0015232486806315297
0.009480420009332783   -0.017111113165554984   -0.0020874818341307787
0.004655565448587445   -0.016982803370624484   -0.0019354618838554598
0.004667443065868875   -0.01702196787866522   -0.0018819659094621761
0.003602882038850956   -0.00887312224870852   -0.0015232486806315297
0.009480420009332783   -0.017111113165554984   -0.0020874818341307787
0.004667443065868875   -0.01702196787866522   -0.0018819659094621761
0.007413727442442066   -0.009162708356908926   -0.0015114530178592107
0.003602882038850956   -0.00887312224870852   -0.0015232486806315297
0.004655565448587445   -0.016982803370624484   -0.0019354618838554598
0.007276078396492154   -0.009088340663334056   -0.001727866005778265
0.0035932442351337135   -0.008763883300950799   -0.0016280248886144765
0.004655565448587445   -0.016982803370624484   -0.0019354618838554598
0.009480420009332783   -0.017111113165554984   -0.0020874818341307787
0.007276078396492154   -0.009088340663334056   -0.001727866005778265
0.009331529584662343   -0.016984622126329226   -0.0022361949532325887
0.0035932442351337135   -0.008763883300950799   -0.0016280248886144765
0.007069844997963303   -0.008922868951618852   -0.0019531428441949125
0.009331529584662343   -0.016984622126329226   -0.0022361949532325887
0.007276078396492154   -0.009088340663334056   -0.001727866005778265
0.0035932442351337135   -0.008763883300950799   -0.0016280248886144765
0.009331529584662343   -0.016984622126329226   -0.0022361949532325887
0.0046378054529360325   -0.016901465608198375   -0.0019989813058871367
0.004655565448587445   -0.016982803370624484   -0.0019354618838554598
0.0035932442351337135   -0.008763883300950799   -0.0016280248886144765
0.009331529584662343   -0.016984622126329226   -0.0022361949532325887
0.004655565448587445   -0.016982803370624484   -0.0019354618838554598
0.007276078396492154   -0.009088340663334056   -0.001727866005778265
-0.012876471936435851   -0.01728198110122432   -0.002586550399564803
-0.015376627351139517   -0.026846792319957145   -0.0027585381786689213
-0.00827870976194596   -0.01705208129156193   -0.0022607885212318772
-0.013105536337443836   -0.017461640369456178   -0.002361538349839911
-0.015376627351139517   -0.026846792319957145   -0.0027585381786689213
-0.009980932043349414   -0.026700524120803624   -0.0024929526368402803
-0.00827870976194596   -0.01705208129156193   -0.0022607885212318772
-0.009992958854960526   -0.026813599548991974   -0.002389775830553452
-0.013105536337443836   -0.017461640369456178   -0.002361538349839911
-0.008296930268325587   -0.017183541790416222   -0.002116636312130006
-0.009992958854960526   -0.026813599548991974   -0.002389775830553452
-0.00827870976194596   -0.01705208129156193   -0.0022607885212318772
-0.013105536337443836   -0.017461640369456178   -0.002361538349839911
-0.009992958854960526   -0.026813599548991974   -0.002389775830553452
-0.01553094269309179   -0.026999768139394784   -0.0026091328679078434
-0.015376627351139517   -0.026846792319957145   -0.0027585381786689213
-0.013105536337443836   -0.017461640369456178   -0.002361538349839911
-0.009992958854960526   -0.026813599548991974   -0.002389775830553452
-0.015376627351139517   -0.026846792319957145   -0.0027585381786689213
-0.00827870976194596   -0.01705208129156193   -0.0022607885212318772
-0.013105536337443836   -0.017461640369456178   -0.002361538349839911
-0.01553094269309179   -0.026999768139394784   -0.0026091328679078434
-0.008296930268325587   -0.017183541790416222   -0.002116636312130006
-0.01324997292565104   -0.017574299886158724   -0.002151815590867866
-0.01553094269309179   -0.026999768139394784   -0.0026091328679078434
-0.009992958854960526   -0.026813599548991974   -0.002389775830553452
-0.008296930268325587   -0.017183541790416222   -0.002116636312130006
-0.010001545926583422   -0.026903246457792542   -0.0022968803594706393
-0.01324997292565104   -0.017574299886158724   -0.002151815590867866
-0.008318377949397122   -0.01727502715038505   -0.001982914225414748
-0.010001545926583422   -0.026903246457792542   -0.0022968803594706393
-0.008296930268325587   -0.017183541790416222   -0.002116636312130006
-0.01324997292565104   -0.017574299886158724   -0.002151815590867866
-0.010001545926583422   -0.026903246457792542   -0.0022968803594706393
-0.015619497498267344   -0.02710800393372354   -0.002474063493098871
-0.01553094269309179   -0.026999768139394784   -0.0026091328679078434
-0.01324997292565104   -0.017574299886158724   -0.002151815590867866
-0.010001545926583422   -0.026903246457792542   -0.0022968803594706393
-0.01553094269309179   -0.026999768139394784   -0.0026091328679078434
-0.008296930268325587   -0.017183541790416222   -0.002116636312130006
-0.01324997292565104   -0.017574299886158724   -0.002151815590867866
-0.015619497498267344   -0.02710800393372354   -0.002474063493098871
-0.008318377949397122   -0.01727502715038505   -0.001982914225414748
-0.013414312541811569   -0.017655323552906808   -0.0019588118867157026
-0.015619497498267344   -0.02710800393372354   -0.002474063493098871
-0.010001545926583422   -0.026903246457792542   -0.0022968803594706393
-0.008318377949397122   -0.01727502715038505   -0.001982914225414748
-0.009980874218706283   -0.02697689942825427   -0.0022128996023351266
-0.013414312541811569   -0.017655323552906808   -0.0019588118867157026
-0.00830285755157827   -0.01733521672734326   -0.0018574003157510212
-0.009980874218706283   -0.02697689942825427   -0.0022128996023351266
-0.008318377949397122   -0.01727502715038505   -0.001982914225414748
-0.013414312541811569   -0.017655323552906808   -0.0019588118867157026
-0.009980874218706283   -0.02697689942825427   -0.0022128996023351266
-0.015710714801790825   -0.027205029441243932   -0.002355034035065125
-0.015619497498267344   -0.02710800393372354   -0.002474063493098871
-0.013414312541811569   -0.017655323552906808   -0.0019588118867157026
-0.009980874218706283   -0.02697689942825427   -0.0022128996023351266
-0.015619497498267344   -0.02710800393372354   -0.002474063493098871
-0.008318377949397122   -0.01727502715038505   -0.001982914225414748
-0.00827870976194596   -0.01705208129156193   -0.0022607885212318772
-0.009980932043349414   -0.026700524120803624   -0.0024929526368402803
-0.003943585914567574   -0.016937456072567903   -0.0020344632180193147
-0.008296930268325587   -0.017183541790416222   -0.002116636312130006
-0.009980932043349414   -0.026700524120803624   -0.0024929526368402803
-0.004922594514347943   -0.026624914644439633   -0.002309050169357277
-0.003943585914567574   -0.016937456072567903   -0.0020344632180193147
-0.004913263564541813   -0.026695867289864363   -0.0022409303306515425
-0.008296930268325587   -0.017183541790416222   -0.002116636312130006
-0.003933780609740065   -0.017021515572003217   -0.001952998830828461
-0.004913263564541813   -0.026695867289864363   -0.0022409303306515425
-0.003943585914567574   -0.016937456072567903   -0.0020344632180193147
-0.008296930268325587   -0.017183541790416222   -0.002116636312130006
-0.004913263564541813   -0.026695867289864363   -0.0022409303306515425
-0.009992958854960526   -0.026813599548991974   -0.002389775830553452
-0.009980932043349414   -0.026700524120803624   -0.0024929526368402803
-0.008296930268325587   -0.017183541790416222   -0.002116636312130006
-0.004913263564541813   -0.026695867289864363   -0.0022409303306515425
-0.009980932043349414   -0.026700524120803624   -0.0024929526368402803
-0.003943585914567574   -0.016937456072567903   -0.0020344632180193147
-0.008296930268325587   -0.017183541790416222   -0.002116636312130006
-0.009992958854960526   -0.026813599548991974   -0.002389775830553452
-0.003933780609740065   -0.017021515572003217   -0.001952998830828461
-0.008318377949397122   -0.01727502715038505   -0.001982914225414748
-0.009992958854960526   -0.026813599548991974   -0.002389775830553452
-0.004913263564541813   -0.026695867289864363   -0.0022409303306515425
-0.003933780609740065   -0.017021515572003217   -0.001952998830828461
-0.004900509426653761   -0.02674718702723331   -0.002182937330161363
-0.008318377949397122   -0.01727502715038505   -0.001982914225414748
-0.00392175346625251   -0.017070891991923617   -0.0018814666260489263
-0.004900509426653761   -0.02674718702723331   -0.002182937330161363
-0.003933780609740065   -0.017021515572003217   -0.001952998830828461
-0.008318377949397122   -0.01727502715038505   -0.001982914225414748
-0.004900509426653761   -0.02674718702723331   -0.002182937330161363
-0.010001545926583422   -0.026903246457792542   -0.0022968803594706393
-0.009992958854960526   -0.026813599548991974   -0.002389775830553452
-0.008318377949397122   -0.01727502715038505   -0.001982914225414748
-0.004900509426653761   -0.02674718702723331   -0.002182937330161363
-0.009992958854960526   -0.026813599548991974   -0.002389775830553452
-0.003933780609740065   -0.017021515572003217   -0.001952998830828461
-0.008318377949397122   -0.01727502715038505   -0.001982914225414748
-0.010001545926583422   -0.026903246457792542   -0.0022968803594706393
-0.00392175346625251   -0.017070891991923617   -0.0018814666260489263
-0.00830285755157827   -0.01733521672734326   -0.0018574003157510212
-0.010001545926583422   -0.026903246457792542   -0.0022968803594706393
-0.004900509426653761   -0.02674718702723331   -0.002182937330161363
-0.00392175346625251   -0.017070891991923617   -0.0018814666260489263
-0.004881472741783902   -0.0267792102535762   -0.002135238955442097
-0.00830285755157827   -0.01733521672734326   -0.0018574003157510212
-0.003901937911662372   -0.01708629122642369   -0.0018198368793690988
-0.004881472741783902   -0.0267792102535762   -0.002135238955442097
-0.00392175346625251   -0.017070891991923617   -0.0018814666260489263
-0.00830285755157827   -0.01733521672734326   -0.0018574003157510212
-0.004881472741783902   -0.0267792102535762   -0.002135238955442097
-0.009980874218706283   -0.02697689942825427   -0.0022128996023351266
-0.010001545926583422   -0.026903246457792542   -0.0022968803594706393
-0.00830285755157827   -0.01733521672734326   -0.0018574003157510212
-0.004881472741783902   -0.0267792102535762   -0.002135238955442097
-0.010001545926583422   -0.026903246457792542   -0.0022968803594706393
-0.00392175346625251   -0.017070891991923617   -0.0018814666260489263
-0.003943585914567574   -0.016937456072567903   -0.0020344632180193147
-0.004922594514347943   -0.026624914644439633   -0.002309050169357277
0.0002642468337310622   -0.016931355355719387   -0.0018941439281103818
-0.003933780609740065   -0.017021515572003217   -0.001952998830828461
-0.004922594514347943   -0.026624914644439633   -0.002309050169357277
-1.6149582942534684e-06   -0.02661190459796578   -0.002201951912733014
0.0002642468337310622   -0.016931355355719387   -0.0018941439281103818
1.5973562649215956e-05   -0.02664050771544522   -0.002169161409822631
-0.003933780609740065   -0.017021515572003217   -0.001952998830828461
0.00028233806537949986   -0.01696875805984597   -0.0018750311700745502
1.5973562649215956e-05   -0.02664050771544522   -0.002169161409822631
0.0002642468337310622   -0.016931355355719387   -0.0018941439281103818
-0.003933780609740065   -0.017021515572003217   -0.001952998830828461
1.5973562649215956e-05   -0.02664050771544522   -0.002169161409822631
-0.004913263564541813   -0.026695867289864363   -0.0022409303306515425
-0.004922594514347943   -0.026624914644439633   -0.002309050169357277
-0.003933780609740065   -0.017021515572003217   -0.001952998830828461
1.5973562649215956e-05   -0.02664050771544522   -0.002169161409822631
-0.004922594514347943   -0.026624914644439633   -0.002309050169357277
0.0002642468337310622   -0.016931355355719387   -0.0018941439281103818
-0.003933780609740065   -0.017021515572003217   -0.001952998830828461
-0.004913263564541813   -0.026695867289864363   -0.0022409303306515425
0.00028233806537949986   -0.01696875805984597   -0.0018750311700745502
-0.00392175346625251   -0.017070891991923617   -0.0018814666260489263
-0.004913263564541813   -0.026695867289864363   -0.0022409303306515425
1.5973562649215956e-05   -0.02664050771544522   -0.002169161409822631
0.00028233806537949986   -0.01696875805984597   -0.0018750311700745502
2.8487241302216842e-05   -0.02664934256787791   -0.002146369363345067
-0.00392175346625251   -0.017070891991923617   -0.0018814666260489263
0.00029391080352350943   -0.01697161699721462   -0.001865590971440052
2.8487241302216842e-05   -0.02664934256787791   -0.002146369363345067
0.00028233806537949986   -0.01696875805984597   -0.0018750311700745502
-0.00392175346625251   -0.017070891991923617   -0.0018814666260489263
2.8487241302216842e-05   -0.02664934256787791   -0.002146369363345067
-0.004900509426653761   -0.02674718702723331   -0.002182937330161363
-0.004913263564541813   -0.026695867289864363   -0.0022409303306515425
-0.00392175346625251   -0.017070891991923617   -0.0018814666260489263
2.8487241302216842e-05   -0.02664934256787791   -0.002146369363345067
-0.004913263564541813   -0.026695867289864363   -0.0022409303306515425
0.00028233806537949986   -0.01696875805984597   -0.0018750311700745502
-0.00392175346625251   -0.017070891991923617   -0.0018814666260489263
-0.004900509426653761   -0.02674718702723331   -0.002182937330161363
0.00029391080352350943   -0.01697161699721462   -0.001865590971440052
-0.003901937911662372   -0.01708629122642369   -0.0018198368793690988
-0.004900509426653761   -0.02674718702723331   -0.002182937330161363
2.8487241302216842e-05   -0.02664934256787791   -0.002146369363345067
0.00029391080352350943   -0.01697161699721462   -0.001865590971440052
3.6422551664138766e-05   -0.026638138102283188   -0.002134018254484487
-0.003901937911662372   -0.01708629122642369   -0.0018198368793690988
0.00030226173084522935   -0.016939417084551628   -0.0018664113469168235
3.6422551664138766e-05   -0.026638138102283188   -0.002134018254484487
0.00029391080352350943   -0.01697161699721462   -0.001865590971440052
-0.003901937911662372   -0.01708629122642369   -0.0018198368793690988
3.6422551664138766e-05   -0.026638138102283188   -0.002134018254484487
-0.004881472741783902   -0.0267792102535762   -0.002135238955442097
-0.004900509426653761   -0.02674718702723331   -0.002182937330161363
-0.003901937911662372   -0.01708629122642369   -0.0018198368793690988
3.6422551664138766e-05   -0.026638138102283188   -0.002134018254484487
-0.004900509426653761   -0.02674718702723331   -0.002182937330161363
0.00029391080352350943   -0.01697161699721462   -0.001865590971440052
0.0002642468337310622   -0.016931355355719387   -0.0018941439281103818
-1.6149582942534684e-06   -0.02661190459796578   -0.002201951912733014
0.004651655296865857   -0.017027328721765402   -0.001837431759212384
0.00028233806537949986   -0.01696875805984597   -0.0018750311700745502
-1.6149582942534684e-06   -0.02661190459796578   -0.002201951912733014
0.00508858642246856   -0.026656146578894195   -0.0021712254082755845
0.004651655296865857   -0.017027328721765402   -0.001837431759212384
0.0051101133408808196   -0.026644862574100016   -0.0021745089769543554
0.00028233806537949986   -0.01696875805984597   -0.0018750311700745502
0.004667443065868875   -0.01702196787866522   -0.0018819659094621761
0.0051101133408808196   -0.026644862574100016   -0.0021745089769543554
0.004651655296865857   -0.017027328721765402   -0.001837431759212384
0.00028233806537949986   -0.01696875805984597   -0.0018750311700745502
0.0051101133408808196   -0.026644862574100016   -0.0021745089769543554
1.5973562649215956e-05   -0.02664050771544522   -0.002169161409822631
-1.6149582942534684e-06   -0.02661190459796578   -0.002201951912733014
0.00028233806537949986   -0.01696875805984597   -0.0018750311700745502
0.0051101133408808196   -0.026644862574100016   -0.0021745089769543554
-1.6149582942534684e-06   -0.02661190459796578   -0.002201951912733014
0.004651655296865857   -0.017027328721765402   -0.001837431759212384
0.00028233806537949986   -0.01696875805984597   -0.0018750311700745502
1.5973562649215956e-05   -0.02664050771544522   -0.002169161409822631
0.004667443065868875   -0.01702196787866522   -0.0018819659094621761
0.00029391080352350943   -0.01697161699721462   -0.001865590971440052
1.5973562649215956e-05   -0.02664050771544522   -0.002169161409822631
0.0051101133408808196   -0.026644862574100016   -0.0021745089769543554
0.004667443065868875   -0.01702196787866522   -0.0018819659094621761
0.005111756196863304   -0.026615322850429647   -0.0021872527873056454
0.00029391080352350943   -0.01697161699721462   -0.001865590971440052
0.004655565448587445   -0.016982803370624484   -0.0019354618838554598
0.005111756196863304   -0.026615322850429647   -0.0021872527873056454
0.004667443065868875   -0.01702196787866522   -0.0018819659094621761
0.00029391080352350943   -0.01697161699721462   -0.001865590971440052
0.005111756196863304   -0.026615322850429647   -0.0021872527873056454
2.8487241302216842e-05   -0.02664934256787791   -0.002146369363345067
1.5973562649215956e-05   -0.02664050771544522   -0.002169161409822631
0.00029391080352350943   -0.01697161699721462   -0.001865590971440052
0.005111756196863304   -0.026615322850429647   -0.0021872527873056454
1.5973562649215956e-05   -0.02664050771544522   -0.002169161409822631
0.004667443065868875   -0.01702196787866522   -0.0018819659094621761
0.00029391080352350943   -0.01697161699721462   -0.001865590971440052
2.8487241302216842e-05   -0.02664934256787791   -0.002146369363345067
0.004655565448587445   -0.016982803370624484   -0.0019354618838554598
0.00030226173084522935   -0.016939417084551628   -0.0018664113469168235
2.8487241302216842e-05   -0.02664934256787791   -0.002146369363345067
0.005111756196863304   -0.026615322850429647   -0.0021872527873056454
0.004655565448587445   -0.016982803370624484   -0.0019354618838554598
0.005100611897854646   -0.026560133772198524   -0.0022098170811797367
0.00030226173084522935   -0.016939417084551628   -0.0018664113469168235
0.0046378054529360325   -0.016901465608198375   -0.0019989813058871367
0.005100611897854646   -0.026560133772198524   -0.0022098170811797367
0.004655565448587445   -0.016982803370624484   -0.0019354618838554598
0.00030226173084522935   -0.016939417084551628   -0.0018664113469168235
0.005100611897854646   -0.026560133772198524   -0.0022098170811797367
3.6422551664138766e-05   -0.026638138102283188   -0.002134018254484487
2.8487241302216842e-05   -0.02664934256787791   -0.002146369363345067
0.00030226173084522935   -0.016939417084551628   -0.0018664113469168235
0.005100611897854646   -0.026560133772198524   -0.0022098170811797367
2.8487241302216842e-05   -0.02664934256787791   -0.002146369363345067
0.004655565448587445   -0.016982803370624484   -0.0019354618838554598
0.004651655296865857   -0.017027328721765402   -0.001837431759212384
0.00508858642246856   -0.026656146578894195   -0.0021712254082755845
0.009648227602520341   -0.017201412315370663   -0.0018385711361814708
0.004667443065868875   -0.01702196787866522   -0.0018819659094621761
0.00508858642246856   -0.026656146578894195   -0.0021712254082755845
0.01070942315747632   -0.026737455096844664   -0.002200190819982564
0.009648227602520341   -0.017201412315370663   -0.0018385711361814708
0.010699557957879307   -0.02669915716433922   -0.002242399818411936
0.004667443065868875   -0.01702196787866522   -0.0018819659094621761
0.009564245093537975   -0.01717141346012409   -0.0019549462889759082
0.010699557957879307   -0.02669915716433922   -0.002242399818411936
0.009648227602520341   -0.017201412315370663   -0.0018385711361814708
0.004667443065868875   -0.01702196787866522   -0.0018819659094621761
0.010699557957879307   -0.02669915716433922   -0.002242399818411936
0.0051101133408808196   -0.026644862574100016   -0.0021745089769543554
0.00508858642246856   -0.026656146578894195   -0.0021712254082755845
0.004667443065868875   -0.01702196787866522   -0.0018819659094621761
0.010699557957879307   -0.02669915716433922   -0.002242399818411936
0.00508858642246856   -0.026656146578894195   -0.0021712254082755845
0.009648227602520341   -0.017201412315370663   -0.0018385711361814708
0.004667443065868875   -0.01702196787866522   -0.0018819659094621761
0.0051101133408808196   -0.026644862574100016   -0.0021745089769543554
0.009564245093537975   -0.01717141346012409   -0.0019549462889759082
0.004655565448587445   -0.016982803370624484   -0.0019354618838554598
0.0051101133408808196   -0.026644862574100016   -0.0021745089769543554
0.010699557957879307   -0.02669915716433922   -0.002242399818411936
0.009564245093537975   -0.01717141346012409   -0.0019549462889759082
0.010672779693490744   -0.02665096567250887   -0.002299957342823504
0.004655565448587445   -0.016982803370624484   -0.0019354618838554598
0.009480420009332783   -0.017111113165554984   -0.0020874818341307787
0.010672779693490744   -0.02665096567250887   -0.002299957342823504
0.009564245093537975   -0.01717141346012409   -0.0019549462889759082
0.004655565448587445   -0.016982803370624484   -0.0019354618838554598
0.010672779693490744   -0.02665096567250887   -0.002299957342823504
0.005111756196863304   -0.026615322850429647   -0.0021872527873056454
0.0051101133408808196   -0.026644862574100016   -0.0021745089769543554
0.004655565448587445   -0.016982803370624484   -0.0019354618838554598
0.010672779693490744   -0.02665096567250887   -0.002299957342823504
0.0051101133408808196   -0.026644862574100016   -0.0021745089769543554
0.009564245093537975   -0.01717141346012409   -0.0019549462889759082
0.004655565448587445   -0.016982803370624484   -0.0019354618838554598
0.005111756196863304   -0.026615322850429647   -0.0021872527873056454
0.009480420009332783   -0.017111113165554984   -0.0020874818341307787
0.0046378054529360325   -0.016901465608198375   -0.0019989813058871367
0.005111756196863304   -0.026615322850429647   -0.0021872527873056454
0.010672779693490744   -0.02665096567250887   -0.002299957342823504
0.009480420009332783   -0.017111113165554984   -0.0020874818341307787
0.01059969796310528   -0.026559105805171478   -0.0023727521009956633
0.0046378054529360325   -0.016901465608198375   -0.0019989813058871367
0.009331529584662343   -0.016984622126329226   -0.0022361949532325887
0.01059969796310528   -0.026559105805171478   -0.0023727521009956633
0.009480420009332783   -0.017111113165554984   -0.0020874818341307787
0.0046378054529360325   -0.016901465608198375   -0.0019989813058871367
0.01059969796310528   -0.026559105805171478   -0.0023727521009956633
0.005100611897854646   -0.026560133772198524   -0.0022098170811797367
0.005111756196863304   -0.026615322850429647   -0.0021872527873056454
0.0046378054529360325   -0.016901465608198375   -0.0019989813058871367
0.01059969796310528   -0.026559105805171478   -0.0023727521009956633
0.005111756196863304   -0.026615322850429647   -0.0021872527873056454
0.009480420009332783   -0.017111113165554984   -0.0020874818341307787
-0.015376627351139517   -0.026846792319957145   -0.0027585381786689213
-0.016890272889174416   -0.03725800321886649   -0.002809110931870347
-0.009980932043349414   -0.026700524120803624   -0.0024929526368402803
-0.01553094269309179   -0.026999768139394784   -0.0026091328679078434
-0.016890272889174416   -0.03725800321886649   -0.002809110931870347
-0.011098513786323769   -0.03719840246705045   -0.0025975791601266
-0.009980932043349414   -0.026700524120803624   -0.0024929526368402803
-0.01109409981981021   -0.037294844481312615   -0.0025342990200581247
-0.01553094269309179   -0.026999768139394784   -0.0026091328679078434
-0.009992958854960526   -0.026813599548991974   -0.002389775830553452
-0.01109409981981021   -0.037294844481312615   -0.0025342990200581247
-0.009980932043349414   -0.026700524120803624   -0.0024929526368402803
-0.01553094269309179   -0.026999768139394784   -0.0026091328679078434
-0.01109409981981021   -0.037294844481312615   -0.0025342990200581247
-0.016962348784551738   -0.03738764782333083   -0.0027320762695860184
-0.016890272889174416   -0.03725800321886649   -0.002809110931870347
-0.01553094269309179   -0.026999768139394784   -0.0026091328679078434
-0.01109409981981021   -0.037294844481312615   -0.0025342990200581247
-0.016890272889174416   -0.03725800321886649   -0.002809110931870347
-0.009980932043349414   -0.026700524120803624   -0.0024929526368402803
-0.01553094269309179   -0.026999768139394784   -0.0026091328679078434
-0.016962348784551738   -0.03738764782333083   -0.0027320762695860184
-0.009992958854960526   -0.026813599548991974   -0.002389775830553452
-0.015619497498267344   -0.02710800393372354   -0.002474063493098871
-0.016962348784551738   -0.03738764782333083   -0.0027320762695860184
-0.01109409981981021   -0.037294844481312615   -0.0025342990200581247
-0.009992958854960526   -0.026813599548991974   -0.002389775830553452
-0.011079223090609817   -0.037383818458407166   -0.002481526471301734
-0.015619497498267344   -0.02710800393372354   -0.002474063493098871
-0.010001545926583422   -0.026903246457792542   -0.0022968803594706393
-0.011079223090609817   -0.037383818458407166   -0.002481526471301734
-0.009992958854960526   -0.026813599548991974   -0.002389775830553452
-0.015619497498267344   -0.02710800393372354   -0.002474063493098871
-0.011079223090609817   -0.037383818458407166   -0.002481526471301734
-0.016985301183959887   -0.03749339659335359   -0.0026701653020342994
-0.016962348784551738   -0.03738764782333083   -0.0027320762695860184
-0.015619497498267344   -0.02710800393372354   -0.002474063493098871
-0.011079223090609817   -0.037383818458407166   -0.002481526471301734
-0.016962348784551738   -0.03738764782333083   -0.0027320762695860184
-0.009992958854960526   -0.026813599548991974   -0.002389775830553452
-0.015619497498267344   -0.02710800393372354   -0.002474063493098871
-0.016985301183959887   -0.03749339659335359   -0.0026701653020342994
-0.010001545926583422   -0.026903246457792542   -0.0022968803594706393
-0.015710714801790825   -0.027205029441243932   -0.002355034035065125
-0.016985301183959887   -0.03749339659335359   -0.0026701653020342994
-0.011079223090609817   -0.037383818458407166   -0.002481526471301734
-0.010001545926583422   -0.026903246457792542   -0.0022968803594706393
-0.011042563171653868   -0.037472107105503735   -0.002438524695175434
-0.015710714801790825   -0.027205029441243932   -0.002355034035065125
-0.009980874218706283   -0.02697689942825427   -0.0022128996023351266
-0.011042563171653868   -0.037472107105503735   -0.002438524695175434
-0.010001545926583422   -0.026903246457792542   -0.0022968803594706393
-0.015710714801790825   -0.027205029441243932   -0.002355034035065125
-0.011042563171653868   -0.037472107105503735   -0.002438524695175434
-0.01699298252048235   -0.03760825687011632   -0.0026246775987192883
-0.016985301183959887   -0.03749339659335359   -0.0026701653020342994
-0.015710714801790825   -0.027205029441243932   -0.002355034035065125
-0.011042563171653868   -0.037472107105503735   -0.002438524695175434
-0.016985301183959887   -0.03749339659335359   -0.0026701653020342994
-0.010001545926583422   -0.026903246457792542   -0.0022968803594706393
-0.009980932043349414   -0.026700524120803624   -0.0024929526368402803
-0.011098513786323769   -0.03719840246705045   -0.0025975791601266
-0.004922594514347943   -0.026624914644439633   -0.002309050169357277
-0.009992958854960526   -0.026813599548991974   -0.002389775830553452
-0.011098513786323769   -0.03719840246705045   -0.0025975791601266
-0.005718375417975609   -0.03716418910826179   -0.0024535707147705665
-0.004922594514347943   -0.026624914644439633   -0.002309050169357277
-0.005698277544827063   -0.03722255963987484   -0.002398395707366727
-0.009992958854960526   -0.026813599548991974   -0.002389775830553452
-0.004913263564541813   -0.026695867289864363   -0.0022409303306515425
-0.005698277544827063   -0.03722255963987484   -0.002398395707366727
-0.004922594514347943   -0.026624914644439633   -0.002309050169357277
-0.009992958854960526   -0.026813599548991974   -0.002389775830553452
-0.005698277544827063   -0.03722255963987484   -0.002398395707366727
-0.01109409981981021   -0.037294844481312615   -0.0025342990200581247
-0.011098513786323769   -0.03719840246705045   -0.0025975791601266
-0.009992958854960526   -0.026813599548991974   -0.002389775830553452
-0.005698277544827063   -0.03722255963987484   -0.002398395707366727
-0.011098513786323769   -0.03719840246705045   -0.0025975791601266
-0.004922594514347943   -0.026624914644439633   -0.002309050169357277
-0.009992958854960526   -0.026813599548991974   -0.002389775830553452
-0.01109409981981021   -0.037294844481312615   -0.0025342990200581247
-0.004913263564541813   -0.026695867289864363   -0.0022409303306515425
-0.010001545926583422   -0.026903246457792542   -0.0022968803594706393
-0.01109409981981021   -0.037294844481312615   -0.0025342990200581247
-0.005698277544827063   -0.03722255963987484   -0.002398395707366727
-0.004913263564541813   -0.026695867289864363   -0.0022409303306515425
-0.005673632610157255   -0.03727613381395679   -0.0023537367308287455
-0.010001545926583422   -0.026903246457792542   -0.0022968803594706393
-0.004900509426653761   -0.02674718702723331   -0.002182937330161363
-0.005673632610157255   -0.03727613381395679   -0.0023537367308287455
-0.004913263564541813   -0.026695867289864363   -0.0022409303306515425
-0.010001545926583422   -0.026903246457792542   -0.0022968803594706393
-0.005673632610157255   -0.03727613381395679   -0.0023537367308287455
-0.011079223090609817   -0.037383818458407166   -0.002481526471301734
-0.01109409981981021   -0.037294844481312615   -0.0025342990200581247
-0.010001545926583422   -0.026903246457792542   -0.0022968803594706393
-0.005673632610157255   -0.03727613381395679   -0.0023537367308287455
-0.01109409981981021   -0.037294844481312615   -0.0025342990200581247
-0.004913263564541813   -0.026695867289864363   -0.0022409303306515425
-0.010001545926583422   -0.026903246457792542   -0.0022968803594706393
-0.011079223090609817   -0.037383818458407166   -0.002481526471301734
-0.004900509426653761   -0.02674718702723331   -0.002182937330161363
-0.009980874218706283   -0.02697689942825427   -0.0022128996023351266
-0.011079223090609817   -0.037383818458407166   -0.002481526471301734
-0.005673632610157255   -0.03727613381395679   -0.0023537367308287455
-0.004900509426653761   -0.02674718702723331   -0.002182937330161363
-0.005644020419111657   -0.037325087876009695   -0.0023198467907872763
-0.009980874218706283   -0.02697689942825427   -0.0022128996023351266
-0.004881472741783902   -0.0267792102535762   -0.002135238955442097
-0.005644020419111657   -0.037325087876009695   -0.0023198467907872763
-0.004900509426653761   -0.02674718702723331   -0.002182937330161363
-0.009980874218706283   -0.02697689942825427   -0.0022128996023351266
-0.005644020419111657   -0.037325087876009695   -0.0023198467907872763
-0.011042563171653868   -0.037472107105503735   -0.002438524695175434
-0.011079223090609817   -0.037383818458407166   -0.002481526471301734
-0.009980874218706283   -0.02697689942825427   -0.0022128996023351266
-0.005644020419111657   -0.037325087876009695   -0.0023198467907872763
-0.011079223090609817   -0.037383818458407166   -0.002481526471301734
-0.004900509426653761   -0.02674718702723331   -0.002182937330161363
-0.004922594514347943   -0.026624914644439633   -0.002309050169357277
-0.005718375417975609   -0.03716418910826179   -0.0024535707147705665
-1.6149582942534684e-06   -0.02661190459796578   -0.002201951912733014
-0.004913263564541813   -0.026695867289864363   -0.0022409303306515425
-0.005718375417975609   -0.03716418910826179   -0.0024535707147705665
-0.0004838213699613339   -0.03714458367193576   -0.0023790937611204497
-1.6149582942534684e-06   -0.02661190459796578   -0.002201951912733014
-0.0004557392339017305   -0.037164178485243136   -0.0023325757209062374
-0.004913263564541813   -0.026695867289864363   -0.0022409303306515425
1.5973562649215956e-05   -0.02664050771544522   -0.002169161409822631
-0.0004557392339017305   -0.037164178485243136   -0.0023325757209062374
-1.6149582942534684e-06   -0.02661190459796578   -0.002201951912733014
-0.004913263564541813   -0.026695867289864363   -0.0022409303306515425
-0.0004557392339017305   -0.037164178485243136   -0.0023325757209062374
-0.005698277544827063   -0.03722255963987484   -0.002398395707366727
-0.005718375417975609   -0.03716418910826179   -0.0024535707147705665
-0.004913263564541813   -0.026695867289864363   -0.0022409303306515425
-0.0004557392339017305   -0.037164178485243136   -0.0023325757209062374
-0.005718375417975609   -0.03716418910826179   -0.0024535707147705665
-1.6149582942534684e-06   -0.02661190459796578   -0.002201951912733014
-0.004913263564541813   -0.026695867289864363   -0.0022409303306515425
-0.005698277544827063   -0.03722255963987484   -0.002398395707366727
1.5973562649215956e-05   -0.02664050771544522   -0.002169161409822631
-0.004900509426653761   -0.02674718702723331   -0.002182937330161363
-0.005698277544827063   -0.03722255963987484   -0.002398395707366727
-0.0004557392339017305   -0.037164178485243136   -0.0023325757209062374
1.5973562649215956e-05   -0.02664050771544522   -0.002169161409822631
-0.0004314199849611828   -0.03717863721189868   -0.0022964831700736936
-0.004900509426653761   -0.02674718702723331   -0.002182937330161363
2.8487241302216842e-05   -0.02664934256787791   -0.002146369363345067
-0.0004314199849611828   -0.03717863721189868   -0.0022964831700736936
1.5973562649215956e-05   -0.02664050771544522   -0.002169161409822631
-0.004900509426653761   -0.02674718702723331   -0.002182937330161363
-0.0004314199849611828   -0.03717863721189868   -0.0022964831700736936
-0.005673632610157255   -0.03727613381395679   -0.0023537367308287455
-0.005698277544827063   -0.03722255963987484   -0.002398395707366727
-0.004900509426653761   -0.02674718702723331   -0.002182937330161363
-0.0004314199849611828   -0.03717863721189868   -0.0022964831700736936
-0.005698277544827063   -0.03722255963987484   -0.002398395707366727
1.5973562649215956e-05   -0.02664050771544522   -0.002169161409822631
-0.004900509426653761   -0.02674718702723331   -0.002182937330161363
-0.005673632610157255   -0.03727613381395679   -0.0023537367308287455
2.8487241302216842e-05   -0.02664934256787791   -0.002146369363345067
-0.004881472741783902   -0.0267792102535762   -0.002135238955442097
-0.005673632610157255   -0.03727613381395679   -0.0023537367308287455
-0.0004314199849611828   -0.03717863721189868   -0.0022964831700736936
2.8487241302216842e-05   -0.02664934256787791   -0.002146369363345067
-0.00041287811591987693   -0.037187885553760604   -0.002271196099657631
-0.004881472741783902   -0.0267792102535762   -0.002135238955442097
3.6422551664138766e-05   -0.026638138102283188   -0.002134018254484487
-0.00041287811591987693   -0.037187885553760604   -0.002271196099657631
2.8487241302216842e-05   -0.02664934256787791   -0.002146369363345067
-0.004881472741783902   -0.0267792102535762   -0.002135238955442097
-0.00041287811591987693   -0.037187885553760604   -0.002271196099657631
-0.005644020419111657   -0.037325087876009695   -0.0023198467907872763
-0.005673632610157255   -0.03727613381395679   -0.0023537367308287455
-0.004881472741783902   -0.0267792102535762   -0.002135238955442097
-0.00041287811591987693   -0.037187885553760604   -0.002271196099657631
-0.005673632610157255   -0.03727613381395679   -0.0023537367308287455
2.8487241302216842e-05   -0.02664934256787791   -0.002146369363345067
-1.6149582942534684e-06   -0.02661190459796578   -0.002201951912733014
-0.0004838213699613339   -0.03714458367193576   -0.0023790937611204497
0.00508858642246856   -0.026656146578894195   -0.0021712254082755845
1.5973562649215956e-05   -0.02664050771544522   -0.002169161409822631
-0.0004838213699613339   -0.03714458367193576   -0.0023790937611204497
0.004910493678644829   -0.037136208474477864   -0.0023748039150860924
0.00508858642246856   -0.026656146578894195   -0.0021712254082755845
0.004947698318040383   -0.037118243272957284   -0.002337376871645728
1.5973562649215956e-05   -0.02664050771544522   -0.002169161409822631
0.0051101133408808196   -0.026644862574100016   -0.0021745089769543554
0.004947698318040383   -0.037118243272957284   -0.002337376871645728
0.00508858642246856   -0.026656146578894195   -0.0021712254082755845
1.5973562649215956e-05   -0.02664050771544522   -0.002169161409822631
0.004947698318040383   -0.037118243272957284   -0.002337376871645728
-0.0004557392339017305   -0.037164178485243136   -0.0023325757209062374
-0.0004838213699613339   -0.03714458367193576   -0.0023790937611204497
1.5973562649215956e-05   -0.02664050771544522   -0.002169161409822631
0.004947698318040383   -0.037118243272957284   -0.002337376871645728
-0.0004838213699613339   -0.03714458367193576   -0.0023790937611204497
0.00508858642246856   -0.026656146578894195   -0.0021712254082755845
1.5973562649215956e-05   -0.02664050771544522   -0.002169161409822631
-0.0004557392339017305   -0.037164178485243136   -0.0023325757209062374
0.0051101133408808196   -0.026644862574100016   -0.0021745089769543554
2.8487241302216842e-05   -0.02664934256787791   -0.002146369363345067
-0.0004557392339017305   -0.037164178485243136   -0.0023325757209062374
0.004947698318040383   -0.037118243272957284   -0.002337376871645728
0.0051101133408808196   -0.026644862574100016   -0.0021745089769543554
0.004972616219033209   -0.03709730667047612   -0.0023100763884834163
2.8487241302216842e-05   -0.02664934256787791   -0.002146369363345067
0.005111756196863304   -0.026615322850429647   -0.0021872527873056454
0.004972616219033209   -0.03709730667047612   -0.0023100763884834163
0.0051101133408808196   -0.026644862574100016   -0.0021745089769543554
2.8487241302216842e-05   -0.02664934256787791   -0.002146369363345067
0.004972616219033209   -0.03709730667047612   -0.0023100763884834163
-0.0004314199849611828   -0.03717863721189868   -0.0022964831700736936
-0.0004557392339017305   -0.037164178485243136   -0.0023325757209062374
2.8487241302216842e-05   -0.02664934256787791   -0.002146369363345067
0.004972616219033209   -0.03709730667047612   -0.0023100763884834163
-0.0004557392339017305   -0.037164178485243136   -0.0023325757209062374
0.0051101133408808196   -0.026644862574100016   -0.0021745089769543554
2.8487241302216842e-05   -0.02664934256787791   -0.002146369363345067
-0.0004314199849611828   -0.03717863721189868   -0.0022964831700736936
0.005111756196863304   -0.026615322850429647   -0.0021872527873056454
3.6422551664138766e-05   -0.026638138102283188   -0.002134018254484487
-0.0004314199849611828   -0.03717863721189868   -0.0022964831700736936
0.004972616219033209   -0.03709730667047612   -0.0023100763884834163
0.005111756196863304   -0.026615322850429647   -0.0021872527873056454
0.004977722842461726   -0.03706653147283236   -0.002292694886451011
3.6422551664138766e-05   -0.026638138102283188   -0.002134018254484487
0.005100611897854646   -0.026560133772198524   -0.0022098170811797367
0.004977722842461726   -0.03706653147283236   -0.002292694886451011
0.005111756196863304   -0.026615322850429647   -0.0021872527873056454
3.6422551664138766e-05   -0.026638138102283188   -0.002134018254484487
0.004977722842461726   -0.03706653147283236   -0.002292694886451011
-0.00041287811591987693   -0.037187885553760604   -0.002271196099657631
-0.0004314199849611828   -0.03717863721189868   -0.0022964831700736936
3.6422551664138766e-05   -0.026638138102283188   -0.002134018254484487
0.004977722842461726   -0.03706653147283236   -0.002292694886451011
-0.0004314199849611828   -0.03717863721189868   -0.0022964831700736936
0.005111756196863304   -0.026615322850429647   -0.0021872527873056454
0.00508858642246856   -0.026656146578894195   -0.0021712254082755845
0.004910493678644829   -0.037136208474477864   -0.0023748039150860924
0.01070942315747632   -0.026737455096844664   -0.002200190819982564
0.0051101133408808196   -0.026644862574100016   -0.0021745089769543554
0.004910493678644829   -0.037136208474477864   -0.0023748039150860924
0.010756299198504212   -0.03712460032724483   -0.002433667822848643
0.01070942315747632   -0.026737455096844664   -0.002200190819982564
0.010829145289868853   -0.03707694897075244   -0.0024029862181106443
0.0051101133408808196   -0.026644862574100016   -0.0021745089769543554
0.010699557957879307   -0.02669915716433922   -0.002242399818411936
0.010829145289868853   -0.03707694897075244   -0.0024029862181106443
0.01070942315747632   -0.026737455096844664   -0.002200190819982564
0.0051101133408808196   -0.026644862574100016   -0.0021745089769543554
0.010829145289868853   -0.03707694897075244   -0.0024029862181106443
0.004947698318040383   -0.037118243272957284   -0.002337376871645728
0.004910493678644829   -0.037136208474477864   -0.0023748039150860924
0.0051101133408808196   -0.026644862574100016   -0.0021745089769543554
0.010829145289868853   -0.03707694897075244   -0.0024029862181106443
0.004910493678644829   -0.037136208474477864   -0.0023748039150860924
0.01070942315747632   -0.026737455096844664   -0.002200190819982564
0.0051101133408808196   -0.026644862574100016   -0.0021745089769543554
0.004947698318040383   -0.037118243272957284   -0.002337376871645728
0.010699557957879307   -0.02669915716433922   -0.002242399818411936
0.005111756196863304   -0.026615322850429647   -0.0021872527873056454
0.004947698318040383   -0.037118243272957284   -0.002337376871645728
0.010829145289868853   -0.03707694897075244   -0.0024029862181106443
0.010699557957879307   -0.02669915716433922   -0.002242399818411936
0.0108676752955513   -0.03703931630898456   -0.0023876916004955118
0.005111756196863304   -0.026615322850429647   -0.0021872527873056454
0.010672779693490744   -0.02665096567250887   -0.002299957342823504
0.0108676752955513   -0.03703931630898456   -0.0023876916004955118
0.010699557957879307   -0.02669915716433922   -0.002242399818411936
0.005111756196863304   -0.026615322850429647   -0.0021872527873056454
0.0108676752955513   -0.03703931630898456   -0.0023876916004955118
0.004972616219033209   -0.03709730667047612   -0.0023100763884834163
0.004947698318040383   -0.037118243272957284   -0.002337376871645728
0.005111756196863304   -0.026615322850429647   -0.0021872527873056454
0.0108676752955513   -0.03703931630898456   -0.0023876916004955118
0.004947698318040383   -0.037118243272957284   -0.002337376871645728
0.010699557957879307   -0.02669915716433922   -0.002242399818411936
0.005111756196863304   -0.026615322850429647   -0.0021872527873056454
0.004972616219033209   -0.03709730667047612   -0.0023100763884834163
0.010672779693490744   -0.02665096567250887   -0.002299957342823504
0.005100611897854646   -0.026560133772198524   -0.0022098170811797367
0.004972616219033209   -0.03709730667047612   -0.0023100763884834163
0.0108676752955513   -0.03703931630898456   -0.0023876916004955118
0.010672779693490744   -0.02665096567250887   -0.002299957342823504
0.010876997462054812   -0.03697892984971975   -0.002388046171203213
0.005100611897854646   -0.026560133772198524   -0.0022098170811797367
0.01059969796310528   -0.026559105805171478   -0.0023727521009956633
0.010876997462054812   -0.03697892984971975   -0.002388046171203213
0.010672779693490744   -0.02665096567250887   -0.002299957342823504
0.005100611897854646   -0.026560133772198524   -0.0022098170811797367
0.010876997462054812   -0.03697892984971975   -0.002388046171203213
0.004977722842461726   -0.03706653147283236   -0.002292694886451011
0.004972616219033209   -0.03709730667047612   -0.0023100763884834163
0.005100611897854646   -0.026560133772198524   -0.0022098170811797367
0.010876997462054812   -0.03697892984971975   -0.002388046171203213
0.004972616219033209   -0.03709730667047612   -0.0023100763884834163
0.010672779693490744   -0.02665096567250887   -0.002299957342823504
-0.016890272889174416   -0.03725800321886649   -0.002809110931870347
-0.017417752111943265   -0.047856486824439146   -0.0027617224059093295
-0.011098513786323769   -0.03719840246705045   -0.0025975791601266
-0.016962348784551738   -0.03738764782333083   -0.0027320762695860184
-0.017417752111943265   -0.047856486824439146   -0.0027617224059093295
-0.011632933485497498   -0.04788419310033783   -0.0026053294238887695
-0.011098513786323769   -0.03719840246705045   -0.0025975791601266
-0.011601742615626569   -0.04796367050452268   -0.002581333569112604
-0.016962348784551738   -0.03738764782333083   -0.0027320762695860184
-0.01109409981981021   -0.037294844481312615   -0.0025342990200581247
-0.011601742615626569   -0.04796367050452268   -0.002581333569112604
-0.011098513786323769   -0.03719840246705045   -0.0025975791601266
-0.016962348784551738   -0.03738764782333083   -0.0027320762695860184
-0.011601742615626569   -0.04796367050452268   -0.002581333569112604
-0.017397705498574115   -0.047962825586073524   -0.002756745211456363
-0.017417752111943265   -0.047856486824439146   -0.0027617224059093295
-0.016962348784551738   -0.03738764782333083   -0.0027320762695860184
-0.011601742615626569   -0.04796367050452268   -0.002581333569112604
-0.017417752111943265   -0.047856486824439146   -0.0027617224059093295
-0.011098513786323769   -0.03719840246705045   -0.0025975791601266
-0.016962348784551738   -0.03738764782333083   -0.0027320762695860184
-0.017397705498574115   -0.047962825586073524   -0.002756745211456363
-0.01109409981981021   -0.037294844481312615   -0.0025342990200581247
-0.016985301183959887   -0.03749339659335359   -0.0026701653020342994
-0.017397705498574115   -0.047962825586073524   -0.002756745211456363
-0.011601742615626569   -0.04796367050452268   -0.002581333569112604
-0.01109409981981021   -0.037294844481312615   -0.0025342990200581247
-0.011553090153843827   -0.04805173533553888   -0.002568167042146314
-0.016985301183959887   -0.03749339659335359   -0.0026701653020342994
-0.011079223090609817   -0.037383818458407166   -0.002481526471301734
-0.011553090153843827   -0.04805173533553888   -0.002568167042146314
-0.01109409981981021   -0.037294844481312615   -0.0025342990200581247
-0.016985301183959887   -0.03749339659335359   -0.0026701653020342994
-0.011553090153843827   -0.04805173533553888   -0.002568167042146314
-0.017344472391575785   -0.048066084569108866   -0.0027679510455438116
-0.017397705498574115   -0.047962825586073524   -0.002756745211456363
-0.016985301183959887   -0.03749339659335359   -0.0026701653020342994
-0.011553090153843827   -0.04805173533553888   -0.002568167042146314
-0.017397705498574115   -0.047962825586073524   -0.002756745211456363
-0.01109409981981021   -0.037294844481312615   -0.0025342990200581247
-0.016985301183959887   -0.03749339659335359   -0.0026701653020342994
-0.017344472391575785   -0.048066084569108866   -0.0027679510455438116
-0.011079223090609817   -0.037383818458407166   -0.002481526471301734
-0.01699298252048235   -0.03760825687011632   -0.0026246775987192883
-0.017344472391575785   -0.048066084569108866   -0.0027679510455438116
-0.011553090153843827   -0.04805173533553888   -0.002568167042146314
-0.011079223090609817   -0.037383818458407166   -0.002481526471301734
-0.011490082271613158   -0.04815445182509369   -0.002565653713826626
-0.01699298252048235   -0.03760825687011632   -0.0026246775987192883
-0.011042563171653868   -0.037472107105503735   -0.002438524695175434
-0.011490082271613158   -0.04815445182509369   -0.002565653713826626
-0.011079223090609817   -0.037383818458407166   -0.002481526471301734
-0.01699298252048235   -0.03760825687011632   -0.0026246775987192883
-0.011490082271613158   -0.04815445182509369   -0.002565653713826626
-0.017258089103048085   -0.048199105130486676   -0.0027961586994199403
-0.017344472391575785   -0.048066084569108866   -0.0027679510455438116
-0.01699298252048235   -0.03760825687011632   -0.0026246775987192883
-0.011490082271613158   -0.04815445182509369   -0.002565653713826626
-0.017344472391575785   -0.048066084569108866   -0.0027679510455438116
-0.011079223090609817   -0.037383818458407166   -0.002481526471301734
-0.011098513786323769   -0.03719840246705045   -0.0025975791601266
-0.011632933485497498   -0.04788419310033783   -0.0026053294238887695
-0.005718375417975609   -0.03716418910826179   -0.0024535707147705665
-0.01109409981981021   -0.037294844481312615   -0.0025342990200581247
-0.011632933485497498   -0.04788419310033783   -0.0026053294238887695
-0.006334020018346782   -0.047890198109675715   -0.0025013819554496213
-0.005718375417975609   -0.03716418910826179   -0.0024535707147705665
-0.006292284255658253   -0.04793578392201608   -0.0024587727383093925
-0.01109409981981021   -0.037294844481312615   -0.0025342990200581247
-0.005698277544827063   -0.03722255963987484   -0.002398395707366727
-0.006292284255658253   -0.04793578392201608   -0.0024587727383093925
-0.005718375417975609   -0.03716418910826179   -0.0024535707147705665
-0.01109409981981021   -0.037294844481312615   -0.0025342990200581247
-0.006292284255658253   -0.04793578392201608   -0.0024587727383093925
-0.011601742615626569   -0.04796367050452268   -0.002581333569112604
-0.011632933485497498   -0.04788419310033783   -0.0026053294238887695
-0.01109409981981021   -0.037294844481312615   -0.0025342990200581247
-0.006292284255658253   -0.04793578392201608   -0.0024587727383093925
-0.011632933485497498   -0.04788419310033783   -0.0026053294238887695
-0.005718375417975609   -0.03716418910826179   -0.0024535707147705665
-0.01109409981981021   -0.037294844481312615   -0.0025342990200581247
-0.011601742615626569   -0.04796367050452268   -0.002581333569112604
-0.005698277544827063   -0.03722255963987484   -0.002398395707366727
-0.011079223090609817   -0.037383818458407166   -0.002481526471301734
-0.011601742615626569   -0.04796367050452268   -0.002581333569112604
-0.006292284255658253   -0.04793578392201608   -0.0024587727383093925
-0.005698277544827063   -0.03722255963987484   -0.002398395707366727
-0.006245135173787836   -0.04799121935296569   -0.002427033607792971
-0.011079223090609817   -0.037383818458407166   -0.002481526471301734
-0.005673632610157255   -0.03727613381395679   -0.0023537367308287455
-0.006245135173787836   -0.04799121935296569   -0.002427033607792971
-0.005698277544827063   -0.03722255963987484   -0.002398395707366727
-0.011079223090609817   -0.037383818458407166   -0.002481526471301734
-0.006245135173787836   -0.04799121935296569   -0.002427033607792971
-0.011553090153843827   -0.04805173533553888   -0.002568167042146314
-0.011601742615626569   -0.04796367050452268   -0.002581333569112604
-0.011079223090609817   -0.037383818458407166   -0.002481526471301734
-0.006245135173787836   -0.04799121935296569   -0.002427033607792971
-0.011601742615626569   -0.04796367050452268   -0.002581333569112604
-0.005698277544827063   -0.03722255963987484   -0.002398395707366727
-0.011079223090609817   -0.037383818458407166   -0.002481526471301734
-0.011553090153843827   -0.04805173533553888   -0.002568167042146314
-0.005673632610157255   -0.03727613381395679   -0.0023537367308287455
-0.011042563171653868   -0.037472107105503735   -0.002438524695175434
-0.011553090153843827   -0.04805173533553888   -0.002568167042146314
-0.006245135173787836   -0.04799121935296569   -0.002427033607792971
-0.005673632610157255   -0.03727613381395679   -0.0023537367308287455
-0.006194327207931612   -0.04805667724317284   -0.002406517378376556
-0.011042563171653868   -0.037472107105503735   -0.002438524695175434
-0.005644020419111657   -0.037325087876009695   -0.0023198467907872763
-0.006194327207931612   -0.04805667724317284   -0.002406517378376556
-0.005673632610157255   -0.03727613381395679   -0.0023537367308287455
-0.011042563171653868   -0.037472107105503735   -0.002438524695175434
-0.006194327207931612   -0.04805667724317284   -0.002406517378376556
-0.011490082271613158   -0.04815445182509369   -0.002565653713826626
-0.011553090153843827   -0.04805173533553888   -0.002568167042146314
-0.011042563171653868   -0.037472107105503735   -0.002438524695175434
-0.006194327207931612   -0.04805667724317284   -0.002406517378376556
-0.011553090153843827   -0.04805173533553888   -0.002568167042146314
-0.005673632610157255   -0.03727613381395679   -0.0023537367308287455
-0.005718375417975609   -0.03716418910826179   -0.0024535707147705665
-0.006334020018346782   -0.047890198109675715   -0.0025013819554496213
-0.0004838213699613339   -0.03714458367193576   -0.0023790937611204497
-0.005698277544827063   -0.03722255963987484   -0.002398395707366727
-0.006334020018346782   -0.047890198109675715   -0.0025013819554496213
-0.0011850119344186708   -0.047862096780261876   -0.0024589023019054514
-0.0004838213699613339   -0.03714458367193576   -0.0023790937611204497
-0.0011356642973160249   -0.04787265365547003   -0.0023986062581155413
-0.005698277544827063   -0.03722255963987484   -0.002398395707366727
-0.0004557392339017305   -0.037164178485243136   -0.0023325757209062374
-0.0011356642973160249   -0.04787265365547003   -0.0023986062581155413
-0.0004838213699613339   -0.03714458367193576   -0.0023790937611204497
-0.005698277544827063   -0.03722255963987484   -0.002398395707366727
-0.0011356642973160249   -0.04787265365547003   -0.0023986062581155413
-0.006292284255658253   -0.04793578392201608   -0.0024587727383093925
-0.006334020018346782   -0.047890198109675715   -0.0025013819554496213
-0.005698277544827063   -0.03722255963987484   -0.002398395707366727
-0.0011356642973160249   -0.04787265365547003   -0.0023986062581155413
-0.006334020018346782   -0.047890198109675715   -0.0025013819554496213
-0.0004838213699613339   -0.03714458367193576   -0.0023790937611204497
-0.005698277544827063   -0.03722255963987484   -0.002398395707366727
-0.006292284255658253   -0.04793578392201608   -0.0024587727383093925
-0.0004557392339017305   -0.037164178485243136   -0.0023325757209062374
-0.005673632610157255   -0.03727613381395679   -0.0023537367308287455
-0.006292284255658253   -0.04793578392201608   -0.0024587727383093925
-0.0011356642973160249   -0.04787265365547003   -0.0023986062581155413
-0.0004557392339017305   -0.037164178485243136   -0.0023325757209062374
-0.0010889793661918497   -0.04789228997152354   -0.0023491037185948745
-0.005673632610157255   -0.03727613381395679   -0.0023537367308287455
-0.0004314199849611828   -0.03717863721189868   -0.0022964831700736936
-0.0010889793661918497   -0.04789228997152354   -0.0023491037185948745
-0.0004557392339017305   -0.037164178485243136   -0.0023325757209062374
-0.005673632610157255   -0.03727613381395679   -0.0023537367308287455
-0.0010889793661918497   -0.04789228997152354   -0.0023491037185948745
-0.006245135173787836   -0.04799121935296569   -0.002427033607792971
-0.006292284255658253   -0.04793578392201608   -0.0024587727383093925
-0.005673632610157255   -0.03727613381395679   -0.0023537367308287455
-0.0010889793661918497   -0.04789228997152354   -0.0023491037185948745
-0.006292284255658253   -0.04793578392201608   -0.0024587727383093925
-0.0004557392339017305   -0.037164178485243136   -0.0023325757209062374
-0.005673632610157255   -0.03727613381395679   -0.0023537367308287455
-0.006245135173787836   -0.04799121935296569   -0.002427033607792971
-0.0004314199849611828   -0.03717863721189868   -0.0022964831700736936
-0.005644020419111657   -0.037325087876009695   -0.0023198467907872763
-0.006245135173787836   -0.04799121935296569   -0.002427033607792971
-0.0010889793661918497   -0.04789228997152354   -0.0023491037185948745
-0.0004314199849611828   -0.03717863721189868   -0.0022964831700736936
-0.0010493434106088441   -0.047921453367725214   -0.0023107714917216964
-0.005644020419111657   -0.037325087876009695   -0.0023198467907872763
-0.00041287811591987693   -0.037187885553760604   -0.002271196099657631
-0.0010493434106088441   -0.047921453367725214   -0.0023107714917216964
-0.0004314199849611828   -0.03717863721189868   -0.0022964831700736936
-0.005644020419111657   -0.037325087876009695   -0.0023198467907872763
-0.0010493434106088441   -0.047921453367725214   -0.0023107714917216964
-0.006194327207931612   -0.04805667724317284   -0.002406517378376556
-0.006245135173787836   -0.04799121935296569   -0.002427033607792971
-0.005644020419111657   -0.037325087876009695   -0.0023198467907872763
-0.0010493434106088441   -0.047921453367725214   -0.0023107714917216964
-0.006245135173787836   -0.04799121935296569   -0.002427033607792971
-0.0004314199849611828   -0.03717863721189868   -0.0022964831700736936
-0.0004838213699613339   -0.03714458367193576   -0.0023790937611204497
-0.0011850119344186708   -0.047862096780261876   -0.0024589023019054514
0.004910493678644829   -0.037136208474477864   -0.0023748039150860924
-0.0004557392339017305   -0.037164178485243136   -0.0023325757209062374
-0.0011850119344186708   -0.047862096780261876   -0.0024589023019054514
0.004118981635601825   -0.047799636377869   -0.0024799219082593865
0.004910493678644829   -0.037136208474477864   -0.0023748039150860924
0.004181915580433654   -0.047775046497998415   -0.0024022514615166263
-0.0004557392339017305   -0.037164178485243136   -0.0023325757209062374
0.004947698318040383   -0.037118243272957284   -0.002337376871645728
0.004181915580433654   -0.047775046497998415   -0.0024022514615166263
0.004910493678644829   -0.037136208474477864   -0.0023748039150860924
-0.0004557392339017305   -0.037164178485243136   -0.0023325757209062374
0.004181915580433654   -0.047775046497998415   -0.0024022514615166263
-0.0011356642973160249   -0.04787265365547003   -0.0023986062581155413
-0.0011850119344186708   -0.047862096780261876   -0.0024589023019054514
-0.0004557392339017305   -0.037164178485243136   -0.0023325757209062374
0.004181915580433654   -0.047775046497998415   -0.0024022514615166263
-0.0011850119344186708   -0.047862096780261876   -0.0024589023019054514
0.004910493678644829   -0.037136208474477864   -0.0023748039150860924
-0.0004557392339017305   -0.037164178485243136   -0.0023325757209062374
-0.0011356642973160249   -0.04787265365547003   -0.0023986062581155413
0.004947698318040383   -0.037118243272957284   -0.002337376871645728
-0.0004314199849611828   -0.03717863721189868   -0.0022964831700736936
-0.0011356642973160249   -0.04787265365547003   -0.0023986062581155413
0.004181915580433654   -0.047775046497998415   -0.0024022514615166263
0.004947698318040383   -0.037118243272957284   -0.002337376871645728
0.004240080341039141   -0.04776225880166794   -0.0023353420176387284
-0.0004314199849611828   -0.03717863721189868   -0.0022964831700736936
0.004972616219033209   -0.03709730667047612   -0.0023100763884834163
0.004240080341039141   -0.04776225880166794   -0.0023353420176387284
0.004947698318040383   -0.037118243272957284   -0.002337376871645728
-0.0004314199849611828   -0.03717863721189868   -0.0022964831700736936
0.004240080341039141   -0.04776225880166794   -0.0023353420176387284
-0.0010889793661918497   -0.04789228997152354   -0.0023491037185948745
-0.0011356642973160249   -0.04787265365547003   -0.0023986062581155413
-0.0004314199849611828   -0.03717863721189868   -0.0022964831700736936
0.004240080341039141   -0.04776225880166794   -0.0023353420176387284
-0.0011356642973160249   -0.04787265365547003   -0.0023986062581155413
0.004947698318040383   -0.037118243272957284   -0.002337376871645728
-0.0004314199849611828   -0.03717863721189868   -0.0022964831700736936
-0.0010889793661918497   -0.04789228997152354   -0.0023491037185948745
0.004972616219033209   -0.03709730667047612   -0.0023100763884834163
-0.00041287811591987693   -0.037187885553760604   -0.002271196099657631
-0.0010889793661918497   -0.04789228997152354   -0.0023491037185948745
0.004240080341039141   -0.04776225880166794   -0.0023353420176387284
0.004972616219033209   -0.03709730667047612   -0.0023100763884834163
0.0042713063098995955   -0.04775508392188119   -0.0022784910438074326
-0.00041287811591987693   -0.037187885553760604   -0.002271196099657631
0.004977722842461726   -0.03706653147283236   -0.002292694886451011
0.0042713063098995955   -0.04775508392188119   -0.0022784910438074326
0.004972616219033209   -0.03709730667047612   -0.0023100763884834163
-0.00041287811591987693   -0.037187885553760604   -0.002271196099657631
0.0042713063098995955   -0.04775508392188119   -0.0022784910438074326
-0.0010493434106088441   -0.047921453367725214   -0.0023107714917216964
-0.0010889793661918497   -0.04789228997152354   -0.0023491037185948745
-0.00041287811591987693   -0.037187885553760604   -0.002271196099657631
0.0042713063098995955   -0.04775508392188119   -0.0022784910438074326
-0.0010889793661918497   -0.04789228997152354   -0.0023491037185948745
0.004972616219033209   -0.03709730667047612   -0.0023100763884834163
0.004910493678644829   -0.037136208474477864   -0.0023748039150860924
0.004118981635601825   -0.047799636377869   -0.0024799219082593865
0.010756299198504212   -0.03712460032724483   -0.002433667822848643
0.004947698318040383   -0.037118243272957284   -0.002337376871645728
0.004118981635601825   -0.047799636377869   -0.0024799219082593865
0.00979775694903251   -0.04769467942493403   -0.002567768875425712
0.010756299198504212   -0.03712460032724483   -0.002433667822848643
0.009961965838535867   -0.04763822646512283   -0.002465811097114371
0.004947698318040383   -0.037118243272957284   -0.002337376871645728
0.010829145289868853   -0.03707694897075244   -0.0024029862181106443
0.009961965838535867   -0.04763822646512283   -0.002465811097114371
0.010756299198504212   -0.03712460032724483   -0.002433667822848643
0.004947698318040383   -0.037118243272957284   -0.002337376871645728
0.009961965838535867   -0.04763822646512283   -0.002465811097114371
0.004181915580433654   -0.047775046497998415   -0.0024022514615166263
0.004118981635601825   -0.047799636377869   -0.0024799219082593865
0.004947698318040383   -0.037118243272957284   -0.002337376871645728
0.009961965838535867   -0.04763822646512283   -0.002465811097114371
0.004118981635601825   -0.047799636377869   -0.0024799219082593865
0.010756299198504212   -0.03712460032724483   -0.002433667822848643
0.004947698318040383   -0.037118243272957284   -0.002337376871645728
0.004181915580433654   -0.047775046497998415   -0.0024022514615166263
0.010829145289868853   -0.03707694897075244   -0.0024029862181106443
0.004972616219033209   -0.03709730667047612   -0.0023100763884834163
0.004181915580433654   -0.047775046497998415   -0.0024022514615166263
0.009961965838535867   -0.04763822646512283   -0.002465811097114371
0.010829145289868853   -0.03707694897075244   -0.0024029862181106443
0.010074806701173437   -0.047610849515382254   -0.0023791788110923257
0.004972616219033209   -0.03709730667047612   -0.0023100763884834163
0.0108676752955513   -0.03703931630898456   -0.0023876916004955118
0.010074806701173437   -0.047610849515382254   -0.0023791788110923257
0.010829145289868853   -0.03707694897075244   -0.0024029862181106443
0.004972616219033209   -0.03709730667047612   -0.0023100763884834163
0.010074806701173437   -0.047610849515382254   -0.0023791788110923257
0.004240080341039141   -0.04776225880166794   -0.0023353420176387284
0.004181915580433654   -0.047775046497998415   -0.0024022514615166263
0.004972616219033209   -0.03709730667047612   -0.0023100763884834163
0.010074806701173437   -0.047610849515382254   -0.0023791788110923257
0.004181915580433654   -0.047775046497998415   -0.0024022514615166263
0.010829145289868853   -0.03707694897075244   -0.0024029862181106443
0.004972616219033209   -0.03709730667047612   -0.0023100763884834163
0.004240080341039141   -0.04776225880166794   -0.0023353420176387284
0.0108676752955513   -0.03703931630898456   -0.0023876916004955118
0.004977722842461726   -0.03706653147283236   -0.002292694886451011
0.004240080341039141   -0.04776225880166794   -0.0023353420176387284
0.010074806701173437   -0.047610849515382254   -0.0023791788110923257
0.0108676752955513   -0.03703931630898456   -0.0023876916004955118
0.010175011703881182   -0.04758106606303735   -0.0023085083273679326
0.004977722842461726   -0.03706653147283236   -0.002292694886451011
0.010876997462054812   -0.03697892984971975   -0.002388046171203213
0.010175011703881182   -0.04758106606303735   -0.0023085083273679326
0.0108676752955513   -0.03703931630898456   -0.0023876916004955118
0.004977722842461726   -0.03706653147283236   -0.002292694886451011
0.010175011703881182   -0.04758106606303735   -0.0023085083273679326
0.0042713063098995955   -0.04775508392188119   -0.0022784910438074326
0.004240080341039141   -0.04776225880166794   -0.0023353420176387284
0.004977722842461726   -0.03706653147283236   -0.002292694886451011
0.010175011703881182   -0.04758106606303735   -0.0023085083273679326
0.004240080341039141   -0.04776225880166794   -0.0023353420176387284
0.0108676752955513   -0.03703931630898456   -0.0023876916004955118
-0.017417752111943265   -0.047856486824439146   -0.0027617224059093295
-0.016951009855088205   -0.05797674375081226   -0.002640521807102999
-0.011632933485497498   -0.04788419310033783   -0.0026053294238887695
-0.017397705498574115   -0.047962825586073524   -0.002756745211456363
-0.016951009855088205   -0.05797674375081226   -0.002640521807102999
-0.011585071347067525   -0.05809332130922509   -0.0025463359096319946
-0.011632933485497498   -0.04788419310033783   -0.0026053294238887695
-0.011517168013329587   -0.05815265164324144   -0.0025605794687428986
-0.017397705498574115   -0.047962825586073524   -0.002756745211456363
-0.011601742615626569   -0.04796367050452268   -0.002581333569112604
-0.011517168013329587   -0.05815265164324144   -0.0025605794687428986
-0.011632933485497498   -0.04788419310033783   -0.0026053294238887695
-0.017397705498574115   -0.047962825586073524   -0.002756745211456363
-0.011517168013329587   -0.05815265164324144   -0.0025605794687428986
-0.01682843177980246   -0.05805685219274271   -0.0027077496120823355
-0.016951009855088205   -0.05797674375081226   -0.002640521807102999
-0.017397705498574115   -0.047962825586073524   -0.002756745211456363
-0.011517168013329587   -0.05815265164324144   -0.0025605794687428986
-0.016951009855088205   -0.05797674375081226   -0.002640521807102999
-0.011632933485497498   -0.04788419310033783   -0.0026053294238887695
-0.017397705498574115   -0.047962825586073524   -0.002756745211456363
-0.01682843177980246   -0.05805685219274271   -0.0027077496120823355
-0.011601742615626569   -0.04796367050452268   -0.002581333569112604
-0.017344472391575785   -0.048066084569108866   -0.0027679510455438116
-0.01682843177980246   -0.05805685219274271   -0.0027077496120823355
-0.011517168013329587   -0.05815265164324144   -0.0025605794687428986
-0.011601742615626569   -0.04796367050452268   -0.002581333569112604
-0.011425239077282342   -0.05823712534112568   -0.002585925952513606
-0.017344472391575785   -0.048066084569108866   -0.0027679510455438116
-0.011553090153843827   -0.04805173533553888   -0.002568167042146314
-0.011425239077282342   -0.05823712534112568   -0.002585925952513606
-0.011601742615626569   -0.04796367050452268   -0.002581333569112604
-0.017344472391575785   -0.048066084569108866   -0.0027679510455438116
-0.011425239077282342   -0.05823712534112568   -0.002585925952513606
-0.016688528321502825   -0.05815517689861482   -0.002792439129071712
-0.01682843177980246   -0.05805685219274271   -0.0027077496120823355
-0.017344472391575785   -0.048066084569108866   -0.0027679510455438116
-0.011425239077282342   -0.05823712534112568   -0.002585925952513606
-0.01682843177980246   -0.05805685219274271   -0.0027077496120823355
-0.011601742615626569   -0.04796367050452268   -0.002581333569112604
-0.017344472391575785   -0.048066084569108866   -0.0027679510455438116
-0.016688528321502825   -0.05815517689861482   -0.002792439129071712
-0.011553090153843827   -0.04805173533553888   -0.002568167042146314
-0.017258089103048085   -0.048199105130486676   -0.0027961586994199403
-0.016688528321502825   -0.05815517689861482   -0.002792439129071712
-0.011425239077282342   -0.05823712534112568   -0.002585925952513606
-0.011553090153843827   -0.04805173533553888   -0.002568167042146314
-0.01132660270609739   -0.05835189569804308   -0.0026227024280113275
-0.017258089103048085   -0.048199105130486676   -0.0027961586994199403
-0.011490082271613158   -0.04815445182509369   -0.002565653713826626
-0.01132660270609739   -0.05835189569804308   -0.0026227024280113275
-0.011553090153843827   -0.04805173533553888   -0.002568167042146314
-0.017258089103048085   -0.048199105130486676   -0.0027961586994199403
-0.01132660270609739   -0.05835189569804308   -0.0026227024280113275
-0.016498032554709493   -0.058304849693885046   -0.002894913204070994
-0.016688528321502825   -0.05815517689861482   -0.002792439129071712
-0.017258089103048085   -0.048199105130486676   -0.0027961586994199403
-0.01132660270609739   -0.05835189569804308   -0.0026227024280113275
-0.016688528321502825   -0.05815517689861482   -0.002792439129071712
-0.011553090153843827   -0.04805173533553888   -0.002568167042146314
-0.011632933485497498   -0.04788419310033783   -0.0026053294238887695
-0.011585071347067525   -0.05809332130922509   -0.0025463359096319946
-0.006334020018346782   -0.047890198109675715   -0.0025013819554496213
-0.011601742615626569   -0.04796367050452268   -0.002581333569112604
-0.011585071347067525   -0.05809332130922509   -0.0025463359096319946
-0.006775034666813109   -0.058139439252819655   -0.00248605522439388
-0.006334020018346782   -0.047890198109675715   -0.0025013819554496213
-0.006701093296982354   -0.05817028380124278   -0.002455029466428805
-0.011601742615626569   -0.04796367050452268   -0.002581333569112604
-0.006292284255658253   -0.04793578392201608   -0.0024587727383093925
-0.006701093296982354   -0.05817028380124278   -0.002455029466428805
-0.006334020018346782   -0.047890198109675715   -0.0025013819554496213
-0.011601742615626569   -0.04796367050452268   -0.002581333569112604
-0.006701093296982354   -0.05817028380124278   -0.002455029466428805
-0.011517168013329587   -0.05815265164324144   -0.0025605794687428986
-0.011585071347067525   -0.05809332130922509   -0.0025463359096319946
-0.011601742615626569   -0.04796367050452268   -0.002581333569112604
-0.006701093296982354   -0.05817028380124278   -0.002455029466428805
-0.011585071347067525   -0.05809332130922509   -0.0025463359096319946
-0.006334020018346782   -0.047890198109675715   -0.0025013819554496213
-0.011601742615626569   -0.04796367050452268   -0.002581333569112604
-0.011517168013329587   -0.05815265164324144   -0.0025605794687428986
-0.006292284255658253   -0.04793578392201608   -0.0024587727383093925
-0.011553090153843827   -0.04805173533553888   -0.002568167042146314
-0.011517168013329587   -0.05815265164324144   -0.0025605794687428986
-0.006701093296982354   -0.05817028380124278   -0.002455029466428805
-0.006292284255658253   -0.04793578392201608   -0.0024587727383093925
-0.006621555022076616   -0.05822530305323798   -0.002434971284152674
-0.011553090153843827   -0.04805173533553888   -0.002568167042146314
-0.006245135173787836   -0.04799121935296569   -0.002427033607792971
-0.006621555022076616   -0.05822530305323798   -0.002434971284152674
-0.006292284255658253   -0.04793578392201608   -0.0024587727383093925
-0.011553090153843827   -0.04805173533553888   -0.002568167042146314
-0.006621555022076616   -0.05822530305323798   -0.002434971284152674
-0.011425239077282342   -0.05823712534112568   -0.002585925952513606
-0.011517168013329587   -0.05815265164324144   -0.0025605794687428986
-0.011553090153843827   -0.04805173533553888   -0.002568167042146314
-0.006621555022076616   -0.05822530305323798   -0.002434971284152674
-0.011517168013329587   -0.05815265164324144   -0.0025605794687428986
-0.006292284255658253   -0.04793578392201608   -0.0024587727383093925
-0.011553090153843827   -0.04805173533553888   -0.002568167042146314
-0.011425239077282342   -0.05823712534112568   -0.002585925952513606
-0.006245135173787836   -0.04799121935296569   -0.002427033607792971
-0.011490082271613158   -0.04815445182509369   -0.002565653713826626
-0.011425239077282342   -0.05823712534112568   -0.002585925952513606
-0.006621555022076616   -0.05822530305323798   -0.002434971284152674
-0.006245135173787836   -0.04799121935296569   -0.002427033607792971
-0.006539799180602112   -0.058305192606902395   -0.0024264173515994845
-0.011490082271613158   -0.04815445182509369   -0.002565653713826626
-0.006194327207931612   -0.04805667724317284   -0.002406517378376556
-0.006539799180602112   -0.058305192606902395   -0.0024264173515994845
-0.006245135173787836   -0.04799121935296569   -0.002427033607792971
-0.011490082271613158   -0.04815445182509369   -0.002565653713826626
-0.006539799180602112   -0.058305192606902395   -0.0024264173515994845
-0.01132660270609739   -0.05835189569804308   -0.0026227024280113275
-0.011425239077282342   -0.05823712534112568   -0.002585925952513606
-0.011490082271613158   -0.04815445182509369   -0.002565653713826626
-0.006539799180602112   -0.058305192606902395   -0.0024264173515994845
-0.011425239077282342   -0.05823712534112568   -0.002585925952513606
-0.006245135173787836   -0.04799121935296569   -0.002427033607792971
-0.006334020018346782   -0.047890198109675715   -0.0025013819554496213
-0.006775034666813109   -0.058139439252819655   -0.00248605522439388
-0.0011850119344186708   -0.047862096780261876   -0.0024589023019054514
-0.006292284255658253   -0.04793578392201608   -0.0024587727383093925
-0.006775034666813109   -0.058139439252819655   -0.00248605522439388
-0.002110662538736297   -0.05810401507118388   -0.0024760944701631682
-0.0011850119344186708   -0.047862096780261876   -0.0024589023019054514
-0.002028880006434037   -0.05810472202217436   -0.0024013521802316307
-0.006292284255658253   -0.04793578392201608   -0.0024587727383093925
-0.0011356642973160249   -0.04787265365547003   -0.0023986062581155413
-0.002028880006434037   -0.05810472202217436   -0.0024013521802316307
-0.0011850119344186708   -0.047862096780261876   -0.0024589023019054514
-0.006292284255658253   -0.04793578392201608   -0.0024587727383093925
-0.002028880006434037   -0.05810472202217436   -0.0024013521802316307
-0.006701093296982354   -0.05817028380124278   -0.002455029466428805
-0.006775034666813109   -0.058139439252819655   -0.00248605522439388
-0.006292284255658253   -0.04793578392201608   -0.0024587727383093925
-0.002028880006434037   -0.05810472202217436   -0.0024013521802316307
-0.006775034666813109   -0.058139439252819655   -0.00248605522439388
-0.0011850119344186708   -0.047862096780261876   -0.0024589023019054514
-0.006292284255658253   -0.04793578392201608   -0.0024587727383093925
-0.006701093296982354   -0.05817028380124278   -0.002455029466428805
-0.0011356642973160249   -0.04787265365547003   -0.0023986062581155413
-0.006245135173787836   -0.04799121935296569   -0.002427033607792971
-0.006701093296982354   -0.05817028380124278   -0.002455029466428805
-0.002028880006434037   -0.05810472202217436   -0.0024013521802316307
-0.0011356642973160249   -0.04787265365547003   -0.0023986062581155413
-0.001949239639637384   -0.058127833438940436   -0.0023376048023298047
-0.006245135173787836   -0.04799121935296569   -0.002427033607792971
-0.0010889793661918497   -0.04789228997152354   -0.0023491037185948745
-0.001949239639637384   -0.058127833438940436   -0.0023376048023298047
-0.0011356642973160249   -0.04787265365547003   -0.0023986062581155413
-0.006245135173787836   -0.04799121935296569   -0.002427033607792971
-0.001949239639637384   -0.058127833438940436   -0.0023376048023298047
-0.006621555022076616   -0.05822530305323798   -0.002434971284152674
-0.006701093296982354   -0.05817028380124278   -0.002455029466428805
-0.006245135173787836   -0.04799121935296569   -0.002427033607792971
-0.001949239639637384   -0.058127833438940436   -0.0023376048023298047
-0.006701093296982354   -0.05817028380124278   -0.002455029466428805
-0.0011356642973160249   -0.04787265365547003   -0.0023986062581155413
-0.006245135173787836   -0.04799121935296569   -0.002427033607792971
-0.006621555022076616   -0.05822530305323798   -0.002434971284152674
-0.0010889793661918497   -0.04789228997152354   -0.0023491037185948745
-0.006194327207931612   -0.04805667724317284   -0.002406517378376556
-0.006621555022076616   -0.05822530305323798   -0.002434971284152674
-0.001949239639637384   -0.058127833438940436   -0.0023376048023298047
-0.0010889793661918497   -0.04789228997152354   -0.0023491037185948745
-0.0018781785995605805   -0.058175263693276885   -0.0022852344748320514
-0.006194327207931612   -0.04805667724317284   -0.002406517378376556
-0.0010493434106088441   -0.047921453367725214   -0.0023107714917216964
-0.0018781785995605805   -0.058175263693276885   -0.0022852344748320514
-0.0010889793661918497   -0.04789228997152354   -0.0023491037185948745
-0.006194327207931612   -0.04805667724317284   -0.002406517378376556
-0.0018781785995605805   -0.058175263693276885   -0.0022852344748320514
-0.006539799180602112   -0.058305192606902395   -0.0024264173515994845
-0.006621555022076616   -0.05822530305323798   -0.002434971284152674
-0.006194327207931612   -0.04805667724317284   -0.002406517378376556
-0.0018781785995605805   -0.058175263693276885   -0.0022852344748320514
-0.006621555022076616   -0.05822530305323798   -0.002434971284152674
-0.0010889793661918497   -0.04789228997152354   -0.0023491037185948745
-0.0011850119344186708   -0.047862096780261876   -0.0024589023019054514
-0.002110662538736297   -0.05810401507118388   -0.0024760944701631682
0.004118981635601825   -0.047799636377869   -0.0024799219082593865
-0.0011356642973160249   -0.04787265365547003   -0.0023986062581155413
-0.002110662538736297   -0.05810401507118388   -0.0024760944701631682
0.0027144765434834644   -0.0579894493285193   -0.0025204034128259245
0.004118981635601825   -0.047799636377869   -0.0024799219082593865
0.0028144695871142305   -0.05795798739580971   -0.0024023557610889797
-0.0011356642973160249   -0.04787265365547003   -0.0023986062581155413
0.004181915580433654   -0.047775046497998415   -0.0024022514615166263
0.0028144695871142305   -0.05795798739580971   -0.0024023557610889797
0.004118981635601825   -0.047799636377869   -0.0024799219082593865
-0.0011356642973160249   -0.04787265365547003   -0.0023986062581155413
0.0028144695871142305   -0.05795798739580971   -0.0024023557610889797
-0.002028880006434037   -0.05810472202217436   -0.0024013521802316307
-0.002110662538736297   -0.05810401507118388   -0.0024760944701631682
-0.0011356642973160249   -0.04787265365547003   -0.0023986062581155413
0.0028144695871142305   -0.05795798739580971   -0.0024023557610889797
-0.002110662538736297   -0.05810401507118388   -0.0024760944701631682
0.004118981635601825   -0.047799636377869   -0.0024799219082593865
-0.0011356642973160249   -0.04787265365547003   -0.0023986062581155413
-0.002028880006434037   -0.05810472202217436   -0.0024013521802316307
0.004181915580433654   -0.047775046497998415   -0.0024022514615166263
-0.0010889793661918497   -0.04789228997152354   -0.0023491037185948745
-0.002028880006434037   -0.05810472202217436   -0.0024013521802316307
0.0028144695871142305   -0.05795798739580971   -0.0024023557610889797
0.004181915580433654   -0.047775046497998415   -0.0024022514615166263
0.0029170027309014528   -0.05795212201868519   -0.0022960070800517097
-0.0010889793661918497   -0.04789228997152354   -0.0023491037185948745
0.004240080341039141   -0.04776225880166794   -0.0023353420176387284
0.0029170027309014528   -0.05795212201868519   -0.0022960070800517097
0.004181915580433654   -0.047775046497998415   -0.0024022514615166263
-0.0010889793661918497   -0.04789228997152354   -0.0023491037185948745
0.0029170027309014528   -0.05795212201868519   -0.0022960070800517097
-0.001949239639637384   -0.058127833438940436   -0.0023376048023298047
-0.002028880006434037   -0.05810472202217436   -0.0024013521802316307
-0.0010889793661918497   -0.04789228997152354   -0.0023491037185948745
0.0029170027309014528   -0.05795212201868519   -0.0022960070800517097
-0.002028880006434037   -0.05810472202217436   -0.0024013521802316307
0.004181915580433654   -0.047775046497998415   -0.0024022514615166263
-0.0010889793661918497   -0.04789228997152354   -0.0023491037185948745
-0.001949239639637384   -0.058127833438940436   -0.0023376048023298047
0.004240080341039141   -0.04776225880166794   -0.0023353420176387284
-0.0010493434106088441   -0.047921453367725214   -0.0023107714917216964
-0.001949239639637384   -0.058127833438940436   -0.0023376048023298047
0.0029170027309014528   -0.05795212201868519   -0.0022960070800517097
0.004240080341039141   -0.04776225880166794   -0.0023353420176387284
0.0029851938772349515   -0.05796713063414043   -0.0021998145694804502
-0.0010493434106088441   -0.047921453367725214   -0.0023107714917216964
0.0042713063098995955   -0.04775508392188119   -0.0022784910438074326
0.0029851938772349515   -0.05796713063414043   -0.0021998145694804502
0.004240080341039141   -0.04776225880166794   -0.0023353420176387284
-0.0010493434106088441   -0.047921453367725214   -0.0023107714917216964
0.0029851938772349515   -0.05796713063414043   -0.0021998145694804502
-0.0018781785995605805   -0.058175263693276885   -0.0022852344748320514
-0.001949239639637384   -0.058127833438940436   -0.0023376048023298047
-0.0010493434106088441   -0.047921453367725214   -0.0023107714917216964
0.0029851938772349515   -0.05796713063414043   -0.0021998145694804502
-0.001949239639637384   -0.058127833438940436   -0.0023376048023298047
0.004240080341039141   -0.04776225880166794   -0.0023353420176387284
0.004118981635601825   -0.047799636377869   -0.0024799219082593865
0.0027144765434834644   -0.0579894493285193   -0.0025204034128259245
0.00979775694903251   -0.04769467942493403   -0.002567768875425712
0.004181915580433654   -0.047775046497998415   -0.0024022514615166263
0.0027144765434834644   -0.0579894493285193   -0.0025204034128259245
0.007847517411254997   -0.05779248434950878   -0.002634754910473676
0.00979775694903251   -0.04769467942493403   -0.002567768875425712
0.008113553482662543   -0.05772762508923916   -0.0024629830812812684
0.004181915580433654   -0.047775046497998415   -0.0024022514615166263
0.009961965838535867   -0.04763822646512283   -0.002465811097114371
0.008113553482662543   -0.05772762508923916   -0.0024629830812812684
0.00979775694903251   -0.04769467942493403   -0.002567768875425712
0.004181915580433654   -0.047775046497998415   -0.0024022514615166263
0.008113553482662543   -0.05772762508923916   -0.0024629830812812684
0.0028144695871142305   -0.05795798739580971   -0.0024023557610889797
0.0027144765434834644   -0.0579894493285193   -0.0025204034128259245
0.004181915580433654   -0.047775046497998415   -0.0024022514615166263
0.008113553482662543   -0.05772762508923916   -0.0024629830812812684
0.0027144765434834644   -0.0579894493285193   -0.0025204034128259245
0.00979775694903251   -0.04769467942493403   -0.002567768875425712
0.004181915580433654   -0.047775046497998415   -0.0024022514615166263
0.0028144695871142305   -0.05795798739580971   -0.0024023557610889797
0.009961965838535867   -0.04763822646512283   -0.002465811097114371
0.004240080341039141   -0.04776225880166794   -0.0023353420176387284
0.0028144695871142305   -0.05795798739580971   -0.0024023557610889797
0.008113553482662543   -0.05772762508923916   -0.0024629830812812684
0.009961965838535867   -0.04763822646512283   -0.002465811097114371
0.008310555500617083   -0.05770979333531834   -0.0023067695906284244
0.004240080341039141   -0.04776225880166794   -0.0023353420176387284
0.010074806701173437   -0.047610849515382254   -0.0023791788110923257
0.008310555500617083   -0.05770979333531834   -0.0023067695906284244
0.009961965838535867   -0.04763822646512283   -0.002465811097114371
0.004240080341039141   -0.04776225880166794   -0.0023353420176387284
0.008310555500617083   -0.05770979333531834   -0.0023067695906284244
0.0029170027309014528   -0.05795212201868519   -0.0022960070800517097
0.0028144695871142305   -0.05795798739580971   -0.0024023557610889797
0.004240080341039141   -0.04776225880166794   -0.0023353420176387284
0.008310555500617083   -0.05770979333531834   -0.0023067695906284244
0.0028144695871142305   -0.05795798739580971   -0.0024023557610889797
0.009961965838535867   -0.04763822646512283   -0.002465811097114371
0.004240080341039141   -0.04776225880166794   -0.0023353420176387284
0.0029170027309014528   -0.05795212201868519   -0.0022960070800517097
0.010074806701173437   -0.047610849515382254   -0.0023791788110923257
0.0042713063098995955   -0.04775508392188119   -0.0022784910438074326
0.0029170027309014528   -0.05795212201868519   -0.0022960070800517097
0.008310555500617083   -0.05770979333531834   -0.0023067695906284244
0.010074806701173437   -0.047610849515382254   -0.0023791788110923257
0.008510285936510794   -0.05770962383135238   -0.002166823603203356
0.0042713063098995955   -0.04775508392188119   -0.0022784910438074326
0.010175011703881182   -0.04758106606303735   -0.0023085083273679326
0.008510285936510794   -0.05770962383135238   -0.002166823603203356
0.010074806701173437   -0.047610849515382254   -0.0023791788110923257
0.0042713063098995955   -0.04775508392188119   -0.0022784910438074326
0.008510285936510794   -0.05770962383135238   -0.002166823603203356
0.0029851938772349515   -0.05796713063414043   -0.0021998145694804502
0.0029170027309014528   -0.05795212201868519   -0.0022960070800517097
0.0042713063098995955   -0.04775508392188119   -0.0022784910438074326
0.008510285936510794   -0.05770962383135238   -0.002166823603203356
0.0029170027309014528   -0.05795212201868519   -0.0022960070800517097
0.010074806701173437   -0.047610849515382254   -0.0023791788110923257
-0.016951009855088205   -0.05797674375081226   -0.002640521807102999
-0.015469902352528871   -0.06693147499342085   -0.0024624235504895685
-0.011585071347067525   -0.05809332130922509   -0.0025463359096319946
-0.01682843177980246   -0.05805685219274271   -0.0027077496120823355
-0.015469902352528871   -0.06693147499342085   -0.0024624235504895685
-0.010953793671510595   -0.0671417912540192   -0.002447241904959368
-0.011585071347067525   -0.05809332130922509   -0.0025463359096319946
-0.010841110780523392   -0.06717221147629128   -0.002496973566826777
-0.01682843177980246   -0.05805685219274271   -0.0027077496120823355
-0.011517168013329587   -0.05815265164324144   -0.0025605794687428986
-0.010841110780523392   -0.06717221147629128   -0.002496973566826777
-0.011585071347067525   -0.05809332130922509   -0.0025463359096319946
-0.01682843177980246   -0.05805685219274271   -0.0027077496120823355
-0.010841110780523392   -0.06717221147629128   -0.002496973566826777
-0.015235205484702507   -0.06697661942830249   -0.002601646310691445
-0.015469902352528871   -0.06693147499342085   -0.0024624235504895685
-0.01682843177980246   -0.05805685219274271   -0.0027077496120823355
-0.010841110780523392   -0.06717221147629128   -0.002496973566826777
-0.015469902352528871   -0.06693147499342085   -0.0024624235504895685
-0.011585071347067525   -0.05809332130922509   -0.0025463359096319946
-0.01682843177980246   -0.05805685219274271   -0.0027077496120823355
-0.015235205484702507   -0.06697661942830249   -0.002601646310691445
-0.011517168013329587   -0.05815265164324144   -0.0025605794687428986
-0.016688528321502825   -0.05815517689861482   -0.002792439129071712
-0.015235205484702507   -0.06697661942830249   -0.002601646310691445
-0.010841110780523392   -0.06717221147629128   -0.002496973566826777
-0.011517168013329587   -0.05815265164324144   -0.0025605794687428986
-0.010699578390844622   -0.06724508987591005   -0.0025579725718585375
-0.016688528321502825   -0.05815517689861482   -0.002792439129071712
-0.011425239077282342   -0.05823712534112568   -0.002585925952513606
-0.010699578390844622   -0.06724508987591005   -0.0025579725718585375
-0.011517168013329587   -0.05815265164324144   -0.0025605794687428986
-0.016688528321502825   -0.05815517689861482   -0.002792439129071712
-0.010699578390844622   -0.06724508987591005   -0.0025579725718585375
-0.015001105073877507   -0.0670621472346675   -0.002759215664292043
-0.015235205484702507   -0.06697661942830249   -0.002601646310691445
-0.016688528321502825   -0.05815517689861482   -0.002792439129071712
-0.010699578390844622   -0.06724508987591005   -0.0025579725718585375
-0.015235205484702507   -0.06697661942830249   -0.002601646310691445
-0.011517168013329587   -0.05815265164324144   -0.0025605794687428986
-0.016688528321502825   -0.05815517689861482   -0.002792439129071712
-0.015001105073877507   -0.0670621472346675   -0.002759215664292043
-0.011425239077282342   -0.05823712534112568   -0.002585925952513606
-0.016498032554709493   -0.058304849693885046   -0.002894913204070994
-0.015001105073877507   -0.0670621472346675   -0.002759215664292043
-0.010699578390844622   -0.06724508987591005   -0.0025579725718585375
-0.011425239077282342   -0.05823712534112568   -0.002585925952513606
-0.010559931060123803   -0.06736456584348739   -0.002630133128924477
-0.016498032554709493   -0.058304849693885046   -0.002894913204070994
-0.01132660270609739   -0.05835189569804308   -0.0026227024280113275
-0.010559931060123803   -0.06736456584348739   -0.002630133128924477
-0.011425239077282342   -0.05823712534112568   -0.002585925952513606
-0.016498032554709493   -0.058304849693885046   -0.002894913204070994
-0.010559931060123803   -0.06736456584348739   -0.002630133128924477
-0.014701237656871938   -0.0672216311395267   -0.0029347935161402974
-0.015001105073877507   -0.0670621472346675   -0.002759215664292043
-0.016498032554709493   -0.058304849693885046   -0.002894913204070994
-0.010559931060123803   -0.06736456584348739   -0.002630133128924477
-0.015001105073877507   -0.0670621472346675   -0.002759215664292043
-0.011425239077282342   -0.05823712534112568   -0.002585925952513606
-0.011585071347067525   -0.05809332130922509   -0.0025463359096319946
-0.010953793671510595   -0.0671417912540192   -0.002447241904959368
-0.006775034666813109   -0.058139439252819655   -0.00248605522439388
-0.011517168013329587   -0.05815265164324144   -0.0025605794687428986
-0.010953793671510595   -0.0671417912540192   -0.002447241904959368
-0.007043405736105355   -0.06724030866136632   -0.002441217553437518
-0.006775034666813109   -0.058139439252819655   -0.00248605522439388
-0.006927794441463238   -0.06725028455596198   -0.0024189632976556563
-0.011517168013329587   -0.05815265164324144   -0.0025605794687428986
-0.006701093296982354   -0.05817028380124278   -0.002455029466428805
-0.006927794441463238   -0.06725028455596198   -0.0024189632976556563
-0.006775034666813109   -0.058139439252819655   -0.00248605522439388
-0.011517168013329587   -0.05815265164324144   -0.0025605794687428986
-0.006927794441463238   -0.06725028455596198   -0.0024189632976556563
-0.010841110780523392   -0.06717221147629128   -0.002496973566826777
-0.010953793671510595   -0.0671417912540192   -0.002447241904959368
-0.011517168013329587   -0.05815265164324144   -0.0025605794687428986
-0.006927794441463238   -0.06725028455596198   -0.0024189632976556563
-0.010953793671510595   -0.0671417912540192   -0.002447241904959368
-0.006775034666813109   -0.058139439252819655   -0.00248605522439388
-0.011517168013329587   -0.05815265164324144   -0.0025605794687428986
-0.010841110780523392   -0.06717221147629128   -0.002496973566826777
-0.006701093296982354   -0.05817028380124278   -0.002455029466428805
-0.011425239077282342   -0.05823712534112568   -0.002585925952513606
-0.010841110780523392   -0.06717221147629128   -0.002496973566826777
-0.006927794441463238   -0.06725028455596198   -0.0024189632976556563
-0.006701093296982354   -0.05817028380124278   -0.002455029466428805
-0.006808469770173187   -0.06729817191832144   -0.0024076427926963202
-0.011425239077282342   -0.05823712534112568   -0.002585925952513606
-0.006621555022076616   -0.05822530305323798   -0.002434971284152674
-0.006808469770173187   -0.06729817191832144   -0.0024076427926963202
-0.006701093296982354   -0.05817028380124278   -0.002455029466428805
-0.011425239077282342   -0.05823712534112568   -0.002585925952513606
-0.006808469770173187   -0.06729817191832144   -0.0024076427926963202
-0.010699578390844622   -0.06724508987591005   -0.0025579725718585375
-0.010841110780523392   -0.06717221147629128   -0.002496973566826777
-0.011425239077282342   -0.05823712534112568   -0.002585925952513606
-0.006808469770173187   -0.06729817191832144   -0.0024076427926963202
-0.010841110780523392   -0.06717221147629128   -0.002496973566826777
-0.006701093296982354   -0.05817028380124278   -0.002455029466428805
-0.011425239077282342   -0.05823712534112568   -0.002585925952513606
-0.010699578390844622   -0.06724508987591005   -0.0025579725718585375
-0.006621555022076616   -0.05822530305323798   -0.002434971284152674
-0.01132660270609739   -0.05835189569804308   -0.0026227024280113275
-0.010699578390844622   -0.06724508987591005   -0.0025579725718585375
-0.006808469770173187   -0.06729817191832144   -0.0024076427926963202
-0.006621555022076616   -0.05822530305323798   -0.002434971284152674
-0.006689340284066578   -0.06738620491128418   -0.0024071158292563667
-0.01132660270609739   -0.05835189569804308   -0.0026227024280113275
-0.006539799180602112   -0.058305192606902395   -0.0024264173515994845
-0.006689340284066578   -0.06738620491128418   -0.0024071158292563667
-0.006621555022076616   -0.05822530305323798   -0.002434971284152674
-0.01132660270609739   -0.05835189569804308   -0.0026227024280113275
-0.006689340284066578   -0.06738620491128418   -0.0024071158292563667
-0.010559931060123803   -0.06736456584348739   -0.002630133128924477
-0.010699578390844622   -0.06724508987591005   -0.0025579725718585375
-0.01132660270609739   -0.05835189569804308   -0.0026227024280113275
-0.006689340284066578   -0.06738620491128418   -0.0024071158292563667
-0.010699578390844622   -0.06724508987591005   -0.0025579725718585375
-0.006621555022076616   -0.05822530305323798   -0.002434971284152674
-0.006775034666813109   -0.058139439252819655   -0.00248605522439388
-0.007043405736105355   -0.06724030866136632   -0.002441217553437518
-0.002110662538736297   -0.05810401507118388   -0.0024760944701631682
-0.006701093296982354   -0.05817028380124278   -0.002455029466428805
-0.007043405736105355   -0.06724030866136632   -0.002441217553437518
-0.0032628364337053406   -0.06722242606609673   -0.002469268355093449
-0.002110662538736297   -0.05810401507118388   -0.0024760944701631682
-0.0031362017164896275   -0.06720944114702919   -0.0023775539480844765
-0.006701093296982354   -0.05817028380124278   -0.002455029466428805
-0.002028880006434037   -0.05810472202217436   -0.0024013521802316307
-0.0031362017164896275   -0.06720944114702919   -0.0023775539480844765
-0.002110662538736297   -0.05810401507118388   -0.0024760944701631682
-0.006701093296982354   -0.05817028380124278   -0.002455029466428805
-0.0031362017164896275   -0.06720944114702919   -0.0023775539480844765
-0.006927794441463238   -0.06725028455596198   -0.0024189632976556563
-0.007043405736105355   -0.06724030866136632   -0.002441217553437518
-0.006701093296982354   -0.05817028380124278   -0.002455029466428805
-0.0031362017164896275   -0.06720944114702919   -0.0023775539480844765
-0.007043405736105355   -0.06724030866136632   -0.002441217553437518
-0.002110662538736297   -0.05810401507118388   -0.0024760944701631682
-0.006701093296982354   -0.05817028380124278   -0.002455029466428805
-0.006927794441463238   -0.06725028455596198   -0.0024189632976556563
-0.002028880006434037   -0.05810472202217436   -0.0024013521802316307
-0.006621555022076616   -0.05822530305323798   -0.002434971284152674
-0.006927794441463238   -0.06725028455596198   -0.0024189632976556563
-0.0031362017164896275   -0.06720944114702919   -0.0023775539480844765
-0.002028880006434037   -0.05810472202217436   -0.0024013521802316307
-0.0030133015557615205   -0.06723073758568246   -0.00229749440036953
-0.006621555022076616   -0.05822530305323798   -0.002434971284152674
-0.001949239639637384   -0.058127833438940436   -0.0023376048023298047
-0.0030133015557615205   -0.06723073758568246   -0.00229749440036953
-0.002028880006434037   -0.05810472202217436   -0.0024013521802316307
-0.006621555022076616   -0.05822530305323798   -0.002434971284152674
-0.0030133015557615205   -0.06723073758568246   -0.00229749440036953
-0.006808469770173187   -0.06729817191832144   -0.0024076427926963202
-0.006927794441463238   -0.06725028455596198   -0.0024189632976556563
-0.006621555022076616   -0.05822530305323798   -0.002434971284152674
-0.0030133015557615205   -0.06723073758568246   -0.00229749440036953
-0.006927794441463238   -0.06725028455596198   -0.0024189632976556563
-0.002028880006434037   -0.05810472202217436   -0.0024013521802316307
-0.006621555022076616   -0.05822530305323798   -0.002434971284152674
-0.006808469770173187   -0.06729817191832144   -0.0024076427926963202
-0.001949239639637384   -0.058127833438940436   -0.0023376048023298047
-0.006539799180602112   -0.058305192606902395   -0.0024264173515994845
-0.006808469770173187   -0.06729817191832144   -0.0024076427926963202
-0.0030133015557615205   -0.06723073758568246   -0.00229749440036953
-0.001949239639637384   -0.058127833438940436   -0.0023376048023298047
-0.00290226597451326   -0.06729128939168483   -0.0022280803905046984
-0.006539799180602112   -0.058305192606902395   -0.0024264173515994845
-0.0018781785995605805   -0.058175263693276885   -0.0022852344748320514
-0.00290226597451326   -0.06729128939168483   -0.0022280803905046984
-0.001949239639637384   -0.058127833438940436   -0.0023376048023298047
-0.006539799180602112   -0.058305192606902395   -0.0024264173515994845
-0.00290226597451326   -0.06729128939168483   -0.0022280803905046984
-0.006689340284066578   -0.06738620491128418   -0.0024071158292563667
-0.006808469770173187   -0.06729817191832144   -0.0024076427926963202
-0.006539799180602112   -0.058305192606902395   -0.0024264173515994845
-0.00290226597451326   -0.06729128939168483   -0.0022280803905046984
-0.006808469770173187   -0.06729817191832144   -0.0024076427926963202
-0.001949239639637384   -0.058127833438940436   -0.0023376048023298047
-0.002110662538736297   -0.05810401507118388   -0.0024760944701631682
-0.0032628364337053406   -0.06722242606609673   -0.002469268355093449
0.0027144765434834644   -0.0579894493285193   -0.0025204034128259245
-0.002028880006434037   -0.05810472202217436   -0.0024013521802316307
-0.0032628364337053406   -0.06722242606609673   -0.002469268355093449
0.0006949145277323597   -0.06708397946046342   -0.002537552911780234
0.0027144765434834644   -0.0579894493285193   -0.0025204034128259245
0.0008489658184310476   -0.06704183455179182   -0.002376616934309082
-0.002028880006434037   -0.05810472202217436   -0.0024013521802316307
0.0028144695871142305   -0.05795798739580971   -0.0024023557610889797
0.0008489658184310476   -0.06704183455179182   -0.002376616934309082
0.0027144765434834644   -0.0579894493285193   -0.0025204034128259245
-0.002028880006434037   -0.05810472202217436   -0.0024013521802316307
0.0008489658184310476   -0.06704183455179182   -0.002376616934309082
-0.0031362017164896275   -0.06720944114702919   -0.0023775539480844765
-0.0032628364337053406   -0.06722242606609673   -0.002469268355093449
-0.002028880006434037   -0.05810472202217436   -0.0024013521802316307
0.0008489658184310476   -0.06704183455179182   -0.002376616934309082
-0.0032628364337053406   -0.06722242606609673   -0.002469268355093449
0.0027144765434834644   -0.0579894493285193   -0.0025204034128259245
-0.002028880006434037   -0.05810472202217436   -0.0024013521802316307
-0.0031362017164896275   -0.06720944114702919   -0.0023775539480844765
0.0028144695871142305   -0.05795798739580971   -0.0024023557610889797
-0.001949239639637384   -0.058127833438940436   -0.0023376048023298047
-0.0031362017164896275   -0.06720944114702919   -0.0023775539480844765
0.0008489658184310476   -0.06704183455179182   -0.002376616934309082
0.0028144695871142305   -0.05795798739580971   -0.0024023557610889797
0.001011311054540705   -0.06703801808892408   -0.002230455017228462
-0.001949239639637384   -0.058127833438940436   -0.0023376048023298047
0.0029170027309014528   -0.05795212201868519   -0.0022960070800517097
0.001011311054540705   -0.06703801808892408   -0.002230455017228462
0.0028144695871142305   -0.05795798739580971   -0.0024023557610889797
-0.001949239639637384   -0.058127833438940436   -0.0023376048023298047
0.001011311054540705   -0.06703801808892408   -0.002230455017228462
-0.0030133015557615205   -0.06723073758568246   -0.00229749440036953
-0.0031362017164896275   -0.06720944114702919   -0.0023775539480844765
-0.001949239639637384   -0.058127833438940436   -0.0023376048023298047
0.001011311054540705   -0.06703801808892408   -0.002230455017228462
-0.0031362017164896275   -0.06720944114702919   -0.0023775539480844765
0.0028144695871142305   -0.05795798739580971   -0.0024023557610889797
-0.001949239639637384   -0.058127833438940436   -0.0023376048023298047
-0.0030133015557615205   -0.06723073758568246   -0.00229749440036953
0.0029170027309014528   -0.05795212201868519   -0.0022960070800517097
-0.0018781785995605805   -0.058175263693276885   -0.0022852344748320514
-0.0030133015557615205   -0.06723073758568246   -0.00229749440036953
0.001011311054540705   -0.06703801808892408   -0.002230455017228462
0.0029170027309014528   -0.05795212201868519   -0.0022960070800517097
0.001130044857950248   -0.06707078615104084   -0.002094465864709195
-0.0018781785995605805   -0.058175263693276885   -0.0022852344748320514
0.0029851938772349515   -0.05796713063414043   -0.0021998145694804502
0.001130044857950248   -0.06707078615104084   -0.002094465864709195
0.0029170027309014528   -0.05795212201868519   -0.0022960070800517097
-0.0018781785995605805   -0.058175263693276885   -0.0022852344748320514
0.001130044857950248   -0.06707078615104084   -0.002094465864709195
-0.00290226597451326   -0.06729128939168483   -0.0022280803905046984
-0.0030133015557615205   -0.06723073758568246   -0.00229749440036953
-0.0018781785995605805   -0.058175263693276885   -0.0022852344748320514
0.001130044857950248   -0.06707078615104084   -0.002094465864709195
-0.0030133015557615205   -0.06723073758568246   -0.00229749440036953
0.0029170027309014528   -0.05795212201868519   -0.0022960070800517097
0.0027144765434834644   -0.0579894493285193   -0.0025204034128259245
0.0006949145277323597   -0.06708397946046342   -0.002537552911780234
0.007847517411254997   -0.05779248434950878   -0.002634754910473676
0.0028144695871142305   -0.05795798739580971   -0.0024023557610889797
0.0006949145277323597   -0.06708397946046342   -0.002537552911780234
0.004914379215997771   -0.0668118409568118   -0.0026835563215502015
0.007847517411254997   -0.05779248434950878   -0.002634754910473676
0.005304540239810836   -0.06673095214601851   -0.0024372493653880244
0.0028144695871142305   -0.05795798739580971   -0.0024023557610889797
0.008113553482662543   -0.05772762508923916   -0.0024629830812812684
0.005304540239810836   -0.06673095214601851   -0.0024372493653880244
0.007847517411254997   -0.05779248434950878   -0.002634754910473676
0.0028144695871142305   -0.05795798739580971   -0.0024023557610889797
0.005304540239810836   -0.06673095214601851   -0.0024372493653880244
0.0008489658184310476   -0.06704183455179182   -0.002376616934309082
0.0006949145277323597   -0.06708397946046342   -0.002537552911780234
0.0028144695871142305   -0.05795798739580971   -0.0024023557610889797
0.005304540239810836   -0.06673095214601851   -0.0024372493653880244
0.0006949145277323597   -0.06708397946046342   -0.002537552911780234
0.007847517411254997   -0.05779248434950878   -0.002634754910473676
0.0028144695871142305   -0.05795798739580971   -0.0024023557610889797
0.0008489658184310476   -0.06704183455179182   -0.002376616934309082
0.008113553482662543   -0.05772762508923916   -0.0024629830812812684
0.0029170027309014528   -0.05795212201868519   -0.0022960070800517097
0.0008489658184310476   -0.06704183455179182   -0.002376616934309082
0.005304540239810836   -0.06673095214601851   -0.0024372493653880244
0.008113553482662543   -0.05772762508923916   -0.0024629830812812684
0.005603684406124636   -0.06671694579401402   -0.0022092635586367366
0.0029170027309014528   -0.05795212201868519   -0.0022960070800517097
0.008310555500617083   -0.05770979333531834   -0.0023067695906284244
0.005603684406124636   -0.06671694579401402   -0.0022092635586367366
0.008113553482662543   -0.05772762508923916   -0.0024629830812812684
0.0029170027309014528   -0.05795212201868519   -0.0022960070800517097
0.005603684406124636   -0.06671694579401402   -0.0022092635586367366
0.001011311054540705   -0.06703801808892408   -0.002230455017228462
0.0008489658184310476   -0.06704183455179182   -0.002376616934309082
0.0029170027309014528   -0.05795212201868519   -0.0022960070800517097
0.005603684406124636   -0.06671694579401402   -0.0022092635586367366
0.0008489658184310476   -0.06704183455179182   -0.002376616934309082
0.008113553482662543   -0.05772762508923916   -0.0024629830812812684
0.0029170027309014528   -0.05795212201868519   -0.0022960070800517097
0.001011311054540705   -0.06703801808892408   -0.002230455017228462
0.008310555500617083   -0.05770979333531834   -0.0023067695906284244
0.0029851938772349515   -0.05796713063414043   -0.0021998145694804502
0.001011311054540705   -0.06703801808892408   -0.002230455017228462
0.005603684406124636   -0.06671694579401402   -0.0022092635586367366
0.008310555500617083   -0.05770979333531834   -0.0023067695906284244
0.005913599420774493   -0.06674093095100336   -0.002001461796263612
0.0029851938772349515   -0.05796713063414043   -0.0021998145694804502
0.008510285936510794   -0.05770962383135238   -0.002166823603203356
0.005913599420774493   -0.06674093095100336   -0.002001461796263612
0.008310555500617083   -0.05770979333531834   -0.0023067695906284244
0.0029851938772349515   -0.05796713063414043   -0.0021998145694804502
0.005913599420774493   -0.06674093095100336   -0.002001461796263612
0.001130044857950248   -0.06707078615104084   -0.002094465864709195
0.001011311054540705   -0.06703801808892408   -0.002230455017228462
0.0029851938772349515   -0.05796713063414043   -0.0021998145694804502
0.005913599420774493   -0.06674093095100336   -0.002001461796263612
0.001011311054540705   -0.06703801808892408   -0.002230455017228462
0.008310555500617083   -0.05770979333531834   -0.0023067695906284244
-0.015469902352528871   -0.06693147499342085   -0.0024624235504895685
-0.01295628014012523   -0.07396037974014627   -0.002234133964007659
-0.010953793671510595   -0.0671417912540192   -0.002447241904959368
-0.015235205484702507   -0.06697661942830249   -0.002601646310691445
-0.01295628014012523   -0.07396037974014627   -0.002234133964007659
-0.009742351930197962   -0.0742718330464129   -0.0023275559498074894
-0.010953793671510595   -0.0671417912540192   -0.002447241904959368
-0.009580039328621158   -0.07425578418268426   -0.002404092504462755
-0.015235205484702507   -0.06697661942830249   -0.002601646310691445
-0.010841110780523392   -0.06717221147629128   -0.002496973566826777
-0.009580039328621158   -0.07425578418268426   -0.002404092504462755
-0.010953793671510595   -0.0671417912540192   -0.002447241904959368
-0.015235205484702507   -0.06697661942830249   -0.002601646310691445
-0.009580039328621158   -0.07425578418268426   -0.002404092504462755
-0.012606401560036274   -0.0739516087667578   -0.002440496235440526
-0.01295628014012523   -0.07396037974014627   -0.002234133964007659
-0.015235205484702507   -0.06697661942830249   -0.002601646310691445
-0.009580039328621158   -0.07425578418268426   -0.002404092504462755
-0.01295628014012523   -0.07396037974014627   -0.002234133964007659
-0.010953793671510595   -0.0671417912540192   -0.002447241904959368
-0.015235205484702507   -0.06697661942830249   -0.002601646310691445
-0.012606401560036274   -0.0739516087667578   -0.002440496235440526
-0.010841110780523392   -0.06717221147629128   -0.002496973566826777
-0.015001105073877507   -0.0670621472346675   -0.002759215664292043
-0.012606401560036274   -0.0739516087667578   -0.002440496235440526
-0.009580039328621158   -0.07425578418268426   -0.002404092504462755
-0.010841110780523392   -0.06717221147629128   -0.002496973566826777
-0.009389137135386586   -0.07430060152447918   -0.0024921412237966186
-0.015001105073877507   -0.0670621472346675   -0.002759215664292043
-0.010699578390844622   -0.06724508987591005   -0.0025579725718585375
-0.009389137135386586   -0.07430060152447918   -0.0024921412237966186
-0.010841110780523392   -0.06717221147629128   -0.002496973566826777
-0.015001105073877507   -0.0670621472346675   -0.002759215664292043
-0.009389137135386586   -0.07430060152447918   -0.0024921412237966186
-0.01228388464130596   -0.07400698475006975   -0.00266307152458208
-0.012606401560036274   -0.0739516087667578   -0.002440496235440526
-0.015001105073877507   -0.0670621472346675   -0.002759215664292043
-0.009389137135386586   -0.07430060152447918   -0.0024921412237966186
-0.012606401560036274   -0.0739516087667578   -0.002440496235440526
-0.010841110780523392   -0.06717221147629128   -0.002496973566826777
-0.015001105073877507   -0.0670621472346675   -0.002759215664292043
-0.01228388464130596   -0.07400698475006975   -0.00266307152458208
-0.010699578390844622   -0.06724508987591005   -0.0025579725718585375
-0.014701237656871938   -0.0672216311395267   -0.0029347935161402974
-0.01228388464130596   -0.07400698475006975   -0.00266307152458208
-0.009389137135386586   -0.07430060152447918   -0.0024921412237966186
-0.010699578390844622   -0.06724508987591005   -0.0025579725718585375
-0.009215951241088245   -0.07440730577803527   -0.002590965726859424
-0.014701237656871938   -0.0672216311395267   -0.0029347935161402974
-0.010559931060123803   -0.06736456584348739   -0.002630133128924477
-0.009215951241088245   -0.07440730577803527   -0.002590965726859424
-0.010699578390844622   -0.06724508987591005   -0.0025579725718585375
-0.014701237656871938   -0.0672216311395267   -0.0029347935161402974
-0.009215951241088245   -0.07440730577803527   -0.002590965726859424
-0.011890524655884235   -0.07415487799695276   -0.0029009043784112777
-0.01228388464130596   -0.07400698475006975   -0.00266307152458208
-0.014701237656871938   -0.0672216311395267   -0.0029347935161402974
-0.009215951241088245   -0.07440730577803527   -0.002590965726859424
-0.01228388464130596   -0.07400698475006975   -0.00266307152458208
-0.010699578390844622   -0.06724508987591005   -0.0025579725718585375
-0.010953793671510595   -0.0671417912540192   -0.002447241904959368
-0.009742351930197962   -0.0742718330464129   -0.0023275559498074894
-0.007043405736105355   -0.06724030866136632   -0.002441217553437518
-0.010841110780523392   -0.06717221147629128   -0.002496973566826777
-0.009742351930197962   -0.0742718330464129   -0.0023275559498074894
-0.00711653566406114   -0.07447374263950247   -0.002400666554248555
-0.007043405736105355   -0.06724030866136632   -0.002441217553437518
-0.00694997559179263   -0.07444803803094611   -0.0023772536912962557
-0.010841110780523392   -0.06717221147629128   -0.002496973566826777
-0.006927794441463238   -0.06725028455596198   -0.0024189632976556563
-0.00694997559179263   -0.07444803803094611   -0.0023772536912962557
-0.007043405736105355   -0.06724030866136632   -0.002441217553437518
-0.010841110780523392   -0.06717221147629128   -0.002496973566826777
-0.00694997559179263   -0.07444803803094611   -0.0023772536912962557
-0.009580039328621158   -0.07425578418268426   -0.002404092504462755
-0.009742351930197962   -0.0742718330464129   -0.0023275559498074894
-0.010841110780523392   -0.06717221147629128   -0.002496973566826777
-0.00694997559179263   -0.07444803803094611   -0.0023772536912962557
-0.009742351930197962   -0.0742718330464129   -0.0023275559498074894
-0.007043405736105355   -0.06724030866136632   -0.002441217553437518
-0.010841110780523392   -0.06717221147629128   -0.002496973566826777
-0.009580039328621158   -0.07425578418268426   -0.002404092504462755
-0.006927794441463238   -0.06725028455596198   -0.0024189632976556563
-0.010699578390844622   -0.06724508987591005   -0.0025579725718585375
-0.009580039328621158   -0.07425578418268426   -0.002404092504462755
-0.00694997559179263   -0.07444803803094611   -0.0023772536912962557
-0.006927794441463238   -0.06725028455596198   -0.0024189632976556563
-0.006785760280182791   -0.07447487078110551   -0.0023650220331855143
-0.010699578390844622   -0.06724508987591005   -0.0025579725718585375
-0.006808469770173187   -0.06729817191832144   -0.0024076427926963202
-0.006785760280182791   -0.07447487078110551   -0.0023650220331855143
-0.006927794441463238   -0.06725028455596198   -0.0024189632976556563
-0.010699578390844622   -0.06724508987591005   -0.0025579725718585375
-0.006785760280182791   -0.07447487078110551   -0.0023650220331855143
-0.009389137135386586   -0.07430060152447918   -0.0024921412237966186
-0.009580039328621158   -0.07425578418268426   -0.002404092504462755
-0.010699578390844622   -0.06724508987591005   -0.0025579725718585375
-0.006785760280182791   -0.07447487078110551   -0.0023650220331855143
-0.009580039328621158   -0.07425578418268426   -0.002404092504462755
-0.006927794441463238   -0.06725028455596198   -0.0024189632976556563
-0.010699578390844622   -0.06724508987591005   -0.0025579725718585375
-0.009389137135386586   -0.07430060152447918   -0.0024921412237966186
-0.006808469770173187   -0.06729817191832144   -0.0024076427926963202
-0.010559931060123803   -0.06736456584348739   -0.002630133128924477
-0.009389137135386586   -0.07430060152447918   -0.0024921412237966186
-0.006785760280182791   -0.07447487078110551   -0.0023650220331855143
-0.006808469770173187   -0.06729817191832144   -0.0024076427926963202
-0.006634664752411697   -0.07455598763033901   -0.002366314247490723
-0.010559931060123803   -0.06736456584348739   -0.002630133128924477
-0.006689340284066578   -0.06738620491128418   -0.0024071158292563667
-0.006634664752411697   -0.07455598763033901   -0.002366314247490723
-0.006808469770173187   -0.06729817191832144   -0.0024076427926963202
-0.010559931060123803   -0.06736456584348739   -0.002630133128924477
-0.006634664752411697   -0.07455598763033901   -0.002366314247490723
-0.009215951241088245   -0.07440730577803527   -0.002590965726859424
-0.009389137135386586   -0.07430060152447918   -0.0024921412237966186
-0.010559931060123803   -0.06736456584348739   -0.002630133128924477
-0.006634664752411697   -0.07455598763033901   -0.002366314247490723
-0.009389137135386586   -0.07430060152447918   -0.0024921412237966186
-0.006808469770173187   -0.06729817191832144   -0.0024076427926963202
-0.007043405736105355   -0.06724030866136632   -0.002441217553437518
-0.00711653566406114   -0.07447374263950247   -0.002400666554248555
-0.0032628364337053406   -0.06722242606609673   -0.002469268355093449
-0.006927794441463238   -0.06725028455596198   -0.0024189632976556563
-0.00711653566406114   -0.07447374263950247   -0.002400666554248555
-0.004601561348692344   -0.07457988440788614   -0.0024870479759411448
-0.0032628364337053406   -0.06722242606609673   -0.002469268355093449
-0.004413799296565855   -0.07454280623075688   -0.00236937877661497
-0.006927794441463238   -0.06725028455596198   -0.0024189632976556563
-0.0031362017164896275   -0.06720944114702919   -0.0023775539480844765
-0.004413799296565855   -0.07454280623075688   -0.00236937877661497
-0.0032628364337053406   -0.06722242606609673   -0.002469268355093449
-0.006927794441463238   -0.06725028455596198   -0.0024189632976556563
-0.004413799296565855   -0.07454280623075688   -0.00236937877661497
-0.00694997559179263   -0.07444803803094611   -0.0023772536912962557
-0.00711653566406114   -0.07447374263950247   -0.002400666554248555
-0.006927794441463238   -0.06725028455596198   -0.0024189632976556563
-0.004413799296565855   -0.07454280623075688   -0.00236937877661497
-0.00711653566406114   -0.07447374263950247   -0.002400666554248555
-0.0032628364337053406   -0.06722242606609673   -0.002469268355093449
-0.006927794441463238   -0.06725028455596198   -0.0024189632976556563
-0.00694997559179263   -0.07444803803094611   -0.0023772536912962557
-0.0031362017164896275   -0.06720944114702919   -0.0023775539480844765
-0.006808469770173187   -0.06729817191832144   -0.0024076427926963202
-0.00694997559179263   -0.07444803803094611   -0.0023772536912962557
-0.004413799296565855   -0.07454280623075688   -0.00236937877661497
-0.0031362017164896275   -0.06720944114702919   -0.0023775539480844765
-0.004234817732138627   -0.07455192191156017   -0.002261591461420174
-0.006808469770173187   -0.06729817191832144   -0.0024076427926963202
-0.0030133015557615205   -0.06723073758568246   -0.00229749440036953
-0.004234817732138627   -0.07455192191156017   -0.002261591461420174
-0.0031362017164896275   -0.06720944114702919   -0.0023775539480844765
-0.006808469770173187   -0.06729817191832144   -0.0024076427926963202
-0.004234817732138627   -0.07455192191156017   -0.002261591461420174
-0.006785760280182791   -0.07447487078110551   -0.0023650220331855143
-0.00694997559179263   -0.07444803803094611   -0.0023772536912962557
-0.006808469770173187   -0.06729817191832144   -0.0024076427926963202
-0.004234817732138627   -0.07455192191156017   -0.002261591461420174
-0.00694997559179263   -0.07444803803094611   -0.0023772536912962557
-0.0031362017164896275   -0.06720944114702919   -0.0023775539480844765
-0.006808469770173187   -0.06729817191832144   -0.0024076427926963202
-0.006785760280182791   -0.07447487078110551   -0.0023650220331855143
-0.0030133015557615205   -0.06723073758568246   -0.00229749440036953
-0.006689340284066578   -0.06738620491128418   -0.0024071158292563667
-0.006785760280182791   -0.07447487078110551   -0.0023650220331855143
-0.004234817732138627   -0.07455192191156017   -0.002261591461420174
-0.0030133015557615205   -0.06723073758568246   -0.00229749440036953
-0.004085967424031289   -0.07461623939671672   -0.002169864159393382
-0.006689340284066578   -0.06738620491128418   -0.0024071158292563667
-0.00290226597451326   -0.06729128939168483   -0.0022280803905046984
-0.004085967424031289   -0.07461623939671672   -0.002169864159393382
-0.0030133015557615205   -0.06723073758568246   -0.00229749440036953
-0.006689340284066578   -0.06738620491128418   -0.0024071158292563667
-0.004085967424031289   -0.07461623939671672   -0.002169864159393382
-0.006634664752411697   -0.07455598763033901   -0.002366314247490723
-0.006785760280182791   -0.07447487078110551   -0.0023650220331855143
-0.006689340284066578   -0.06738620491128418   -0.0024071158292563667
-0.004085967424031289   -0.07461623939671672   -0.002169864159393382
-0.006785760280182791   -0.07447487078110551   -0.0023650220331855143
-0.0030133015557615205   -0.06723073758568246   -0.00229749440036953
-0.0032628364337053406   -0.06722242606609673   -0.002469268355093449
-0.004601561348692344   -0.07457988440788614   -0.0024870479759411448
0.0006949145277323597   -0.06708397946046342   -0.002537552911780234
-0.0031362017164896275   -0.06720944114702919   -0.0023775539480844765
-0.004601561348692344   -0.07457988440788614   -0.0024870479759411448
-0.0019270252478076149   -0.07455320035524418   -0.0025887884374801444
0.0006949145277323597   -0.06708397946046342   -0.002537552911780234
-0.0016859544179895988   -0.07449507484185255   -0.0023809502631202866
-0.0031362017164896275   -0.06720944114702919   -0.0023775539480844765
0.0008489658184310476   -0.06704183455179182   -0.002376616934309082
-0.0016859544179895988   -0.07449507484185255   -0.0023809502631202866
0.0006949145277323597   -0.06708397946046342   -0.002537552911780234
-0.0031362017164896275   -0.06720944114702919   -0.0023775539480844765
-0.0016859544179895988   -0.07449507484185255   -0.0023809502631202866
-0.004413799296565855   -0.07454280623075688   -0.00236937877661497
-0.004601561348692344   -0.07457988440788614   -0.0024870479759411448
-0.0031362017164896275   -0.06720944114702919   -0.0023775539480844765
-0.0016859544179895988   -0.07449507484185255   -0.0023809502631202866
-0.004601561348692344   -0.07457988440788614   -0.0024870479759411448
0.0006949145277323597   -0.06708397946046342   -0.002537552911780234
-0.0031362017164896275   -0.06720944114702919   -0.0023775539480844765
-0.004413799296565855   -0.07454280623075688   -0.00236937877661497
0.0008489658184310476   -0.06704183455179182   -0.002376616934309082
-0.0030133015557615205   -0.06723073758568246   -0.00229749440036953
-0.004413799296565855   -0.07454280623075688   -0.00236937877661497
-0.0016859544179895988   -0.07449507484185255   -0.0023809502631202866
0.0008489658184310476   -0.06704183455179182   -0.002376616934309082
-0.0014394967815356957   -0.07448481337136845   -0.0021836844110684423
-0.0030133015557615205   -0.06723073758568246   -0.00229749440036953
0.001011311054540705   -0.06703801808892408   -0.002230455017228462
-0.0014394967815356957   -0.07448481337136845   -0.0021836844110684423
0.0008489658184310476   -0.06704183455179182   -0.002376616934309082
-0.0030133015557615205   -0.06723073758568246   -0.00229749440036953
-0.0014394967815356957   -0.07448481337136845   -0.0021836844110684423
-0.004234817732138627   -0.07455192191156017   -0.002261591461420174
-0.004413799296565855   -0.07454280623075688   -0.00236937877661497
-0.0030133015557615205   -0.06723073758568246   -0.00229749440036953
-0.0014394967815356957   -0.07448481337136845   -0.0021836844110684423
-0.004413799296565855   -0.07454280623075688   -0.00236937877661497
0.0008489658184310476   -0.06704183455179182   -0.002376616934309082
-0.0030133015557615205   -0.06723073758568246   -0.00229749440036953
-0.004234817732138627   -0.07455192191156017   -0.002261591461420174
0.001011311054540705   -0.06703801808892408   -0.002230455017228462
-0.00290226597451326   -0.06729128939168483   -0.0022280803905046984
-0.004234817732138627   -0.07455192191156017   -0.002261591461420174
-0.0014394967815356957   -0.07448481337136845   -0.0021836844110684423
0.001011311054540705   -0.06703801808892408   -0.002230455017228462
-0.001256944925603421   -0.07453273607935071   -0.002004529800833332
-0.00290226597451326   -0.06729128939168483   -0.0022280803905046984
0.001130044857950248   -0.06707078615104084   -0.002094465864709195
-0.001256944925603421   -0.07453273607935071   -0.002004529800833332
0.001011311054540705   -0.06703801808892408   -0.002230455017228462
-0.00290226597451326   -0.06729128939168483   -0.0022280803905046984
-0.001256944925603421   -0.07453273607935071   -0.002004529800833332
-0.004085967424031289   -0.07461623939671672   -0.002169864159393382
-0.004234817732138627   -0.07455192191156017   -0.002261591461420174
-0.00290226597451326   -0.06729128939168483   -0.0022280803905046984
-0.001256944925603421   -0.07453273607935071   -0.002004529800833332
-0.004234817732138627   -0.07455192191156017   -0.002261591461420174
0.001011311054540705   -0.06703801808892408   -0.002230455017228462
0.0006949145277323597   -0.06708397946046342   -0.002537552911780234
-0.0019270252478076149   -0.07455320035524418   -0.0025887884374801444
0.004914379215997771   -0.0668118409568118   -0.0026835563215502015
0.0008489658184310476   -0.06704183455179182   -0.002376616934309082
-0.0019270252478076149   -0.07455320035524418   -0.0025887884374801444
0.0009518286310910756   -0.07429632970479297   -0.002797326600500472
0.004914379215997771   -0.0668118409568118   -0.0026835563215502015
0.00151358759222755   -0.07416983029095513   -0.0024573403100055908
0.0008489658184310476   -0.06704183455179182   -0.002376616934309082
0.005304540239810836   -0.06673095214601851   -0.0024372493653880244
0.00151358759222755   -0.07416983029095513   -0.0024573403100055908
0.004914379215997771   -0.0668118409568118   -0.0026835563215502015
0.0008489658184310476   -0.06704183455179182   -0.002376616934309082
0.00151358759222755   -0.07416983029095513   -0.0024573403100055908
-0.0016859544179895988   -0.07449507484185255   -0.0023809502631202866
-0.0019270252478076149   -0.07455320035524418   -0.0025887884374801444
0.0008489658184310476   -0.06704183455179182   -0.002376616934309082
0.00151358759222755   -0.07416983029095513   -0.0024573403100055908
-0.0019270252478076149   -0.07455320035524418   -0.0025887884374801444
0.004914379215997771   -0.0668118409568118   -0.0026835563215502015
0.0008489658184310476   -0.06704183455179182   -0.002376616934309082
-0.0016859544179895988   -0.07449507484185255   -0.0023809502631202866
0.005304540239810836   -0.06673095214601851   -0.0024372493653880244
0.001011311054540705   -0.06703801808892408   -0.002230455017228462
-0.0016859544179895988   -0.07449507484185255   -0.0023809502631202866
0.00151358759222755   -0.07416983029095513   -0.0024573403100055908
0.005304540239810836   -0.06673095214601851   -0.0024372493653880244
0.001955064478309541   -0.07414420541450244   -0.002138121856435552
0.001011311054540705   -0.06703801808892408   -0.002230455017228462
0.005603684406124636   -0.06671694579401402   -0.0022092635586367366
0.001955064478309541   -0.07414420541450244   -0.002138121856435552
0.005304540239810836   -0.06673095214601851   -0.0024372493653880244
0.001011311054540705   -0.06703801808892408   -0.002230455017228462
0.001955064478309541   -0.07414420541450244   -0.002138121856435552
-0.0014394967815356957   -0.07448481337136845   -0.0021836844110684423
-0.0016859544179895988   -0.07449507484185255   -0.0023809502631202866
0.001011311054540705   -0.06703801808892408   -0.002230455017228462
0.001955064478309541   -0.07414420541450244   -0.002138121856435552
-0.0016859544179895988   -0.07449507484185255   -0.0023809502631202866
0.005304540239810836   -0.06673095214601851   -0.0024372493653880244
0.001011311054540705   -0.06703801808892408   -0.002230455017228462
-0.0014394967815356957   -0.07448481337136845   -0.0021836844110684423
0.005603684406124636   -0.06671694579401402   -0.0022092635586367366
0.001130044857950248   -0.06707078615104084   -0.002094465864709195
-0.0014394967815356957   -0.07448481337136845   -0.0021836844110684423
0.001955064478309541   -0.07414420541450244   -0.002138121856435552
0.005603684406124636   -0.06671694579401402   -0.0022092635586367366
0.0024138279659584147   -0.07416572315235692   -0.0018465961243969808
0.001130044857950248   -0.06707078615104084   -0.002094465864709195
0.005913599420774493   -0.06674093095100336   -0.002001461796263612
0.0024138279659584147   -0.07416572315235692   -0.0018465961243969808
0.005603684406124636   -0.06671694579401402   -0.0022092635586367366
0.001130044857950248   -0.06707078615104084   -0.002094465864709195
0.0024138279659584147   -0.07416572315235692   -0.0018465961243969808
-0.001256944925603421   -0.07453273607935071   -0.002004529800833332
-0.0014394967815356957   -0.07448481337136845   -0.0021836844110684423
0.001130044857950248   -0.06707078615104084   -0.002094465864709195
0.0024138279659584147   -0.07416572315235692   -0.0018465961243969808
-0.0014394967815356957   -0.07448481337136845   -0.0021836844110684423
0.005603684406124636   -0.06671694579401402   -0.0022092635586367366
-0.01295628014012523   -0.07396037974014627   -0.002234133964007659
-0.009500537417319686   -0.07813832233552596   -0.001966024534658394
-0.009742351930197962   -0.0742718330464129   -0.0023275559498074894
-0.012606401560036274   -0.0739516087667578   -0.002440496235440526
-0.009500537417319686   -0.07813832233552596   -0.001966024534658394
-0.008005184627114331   -0.07853223452846606   -0.0022027593255295077
-0.009742351930197962   -0.0742718330464129   -0.0023275559498074894
-0.007800393038331529   -0.07845438375456706   -0.0022841912988129398
-0.012606401560036274   -0.0739516087667578   -0.002440496235440526
-0.009580039328621158   -0.07425578418268426   -0.002404092504462755
-0.007800393038331529   -0.07845438375456706   -0.0022841912988129398
-0.009742351930197962   -0.0742718330464129   -0.0023275559498074894
-0.012606401560036274   -0.0739516087667578   -0.002440496235440526
-0.007800393038331529   -0.07845438375456706   -0.0022841912988129398
-0.009064500621607728   -0.07805061763783358   -0.002213606899371549
-0.009500537417319686   -0.07813832233552596   -0.001966024534658394
-0.012606401560036274   -0.0739516087667578   -0.002440496235440526
-0.007800393038331529   -0.07845438375456706   -0.0022841912988129398
-0.009500537417319686   -0.07813832233552596   -0.001966024534658394
-0.009742351930197962   -0.0742718330464129   -0.0023275559498074894
-0.012606401560036274   -0.0739516087667578   -0.002440496235440526
-0.009064500621607728   -0.07805061763783358   -0.002213606899371549
-0.009580039328621158   -0.07425578418268426   -0.002404092504462755
-0.01228388464130596   -0.07400698475006975   -0.00266307152458208
-0.009064500621607728   -0.07805061763783358   -0.002213606899371549
-0.007800393038331529   -0.07845438375456706   -0.0022841912988129398
-0.009580039328621158   -0.07425578418268426   -0.002404092504462755
-0.0075735848056019284   -0.07845821149766141   -0.0023664482303622585
-0.01228388464130596   -0.07400698475006975   -0.00266307152458208
-0.009389137135386586   -0.07430060152447918   -0.0024921412237966186
-0.0075735848056019284   -0.07845821149766141   -0.0023664482303622585
-0.009580039328621158   -0.07425578418268426   -0.002404092504462755
-0.01228388464130596   -0.07400698475006975   -0.00266307152458208
-0.0075735848056019284   -0.07845821149766141   -0.0023664482303622585
-0.008688285485637031   -0.07805809918504986   -0.002460234022763352
-0.009064500621607728   -0.07805061763783358   -0.002213606899371549
-0.01228388464130596   -0.07400698475006975   -0.00266307152458208
-0.0075735848056019284   -0.07845821149766141   -0.0023664482303622585
-0.009064500621607728   -0.07805061763783358   -0.002213606899371549
-0.009580039328621158   -0.07425578418268426   -0.002404092504462755
-0.01228388464130596   -0.07400698475006975   -0.00266307152458208
-0.008688285485637031   -0.07805809918504986   -0.002460234022763352
-0.009389137135386586   -0.07430060152447918   -0.0024921412237966186
-0.011890524655884235   -0.07415487799695276   -0.0029009043784112777
-0.008688285485637031   -0.07805809918504986   -0.002460234022763352
-0.0075735848056019284   -0.07845821149766141   -0.0023664482303622585
-0.009389137135386586   -0.07430060152447918   -0.0024921412237966186
-0.007362880235369511   -0.07854409616939773   -0.0024498745732016497
-0.011890524655884235   -0.07415487799695276   -0.0029009043784112777
-0.009215951241088245   -0.07440730577803527   -0.002590965726859424
-0.007362880235369511   -0.07854409616939773   -0.0024498745732016497
-0.009389137135386586   -0.07430060152447918   -0.0024921412237966186
-0.011890524655884235   -0.07415487799695276   -0.0029009043784112777
-0.007362880235369511   -0.07854409616939773   -0.0024498745732016497
-0.00824205165553565   -0.07816623059819316   -0.0027121739527378743
-0.008688285485637031   -0.07805809918504986   -0.002460234022763352
-0.011890524655884235   -0.07415487799695276   -0.0029009043784112777
-0.007362880235369511   -0.07854409616939773   -0.0024498745732016497
-0.008688285485637031   -0.07805809918504986   -0.002460234022763352
-0.009389137135386586   -0.07430060152447918   -0.0024921412237966186
-0.009742351930197962   -0.0742718330464129   -0.0023275559498074894
-0.008005184627114331   -0.07853223452846606   -0.0022027593255295077
-0.00711653566406114   -0.07447374263950247   -0.002400666554248555
-0.009580039328621158   -0.07425578418268426   -0.002404092504462755
-0.008005184627114331   -0.07853223452846606   -0.0022027593255295077
-0.006910127419160225   -0.0789276182522122   -0.0024119895085898038
-0.00711653566406114   -0.07447374263950247   -0.002400666554248555
-0.00669405481588106   -0.07884774326557582   -0.0023549217416155427
-0.009580039328621158   -0.07425578418268426   -0.002404092504462755
-0.00694997559179263   -0.07444803803094611   -0.0023772536912962557
-0.00669405481588106   -0.07884774326557582   -0.0023549217416155427
-0.00711653566406114   -0.07447374263950247   -0.002400666554248555
-0.009580039328621158   -0.07425578418268426   -0.002404092504462755
-0.00669405481588106   -0.07884774326557582   -0.0023549217416155427
-0.007800393038331529   -0.07845438375456706   -0.0022841912988129398
-0.008005184627114331   -0.07853223452846606   -0.0022027593255295077
-0.009580039328621158   -0.07425578418268426   -0.002404092504462755
-0.00669405481588106   -0.07884774326557582   -0.0023549217416155427
-0.008005184627114331   -0.07853223452846606   -0.0022027593255295077
-0.00711653566406114   -0.07447374263950247   -0.002400666554248555
-0.009580039328621158   -0.07425578418268426   -0.002404092504462755
-0.007800393038331529   -0.07845438375456706   -0.0022841912988129398
-0.00694997559179263   -0.07444803803094611   -0.0023772536912962557
-0.009389137135386586   -0.07430060152447918   -0.0024921412237966186
-0.007800393038331529   -0.07845438375456706   -0.0022841912988129398
-0.00669405481588106   -0.07884774326557582   -0.0023549217416155427
-0.00694997559179263   -0.07444803803094611   -0.0023772536912962557
-0.006485145849660432   -0.07884629644059406   -0.002297144087058123
-0.009389137135386586   -0.07430060152447918   -0.0024921412237966186
-0.006785760280182791   -0.07447487078110551   -0.0023650220331855143
-0.006485145849660432   -0.07884629644059406   -0.002297144087058123
-0.00694997559179263   -0.07444803803094611   -0.0023772536912962557
-0.009389137135386586   -0.07430060152447918   -0.0024921412237966186
-0.006485145849660432   -0.07884629644059406   -0.002297144087058123
-0.0075735848056019284   -0.07845821149766141   -0.0023664482303622585
-0.007800393038331529   -0.07845438375456706   -0.0022841912988129398
-0.009389137135386586   -0.07430060152447918   -0.0024921412237966186
-0.006485145849660432   -0.07884629644059406   -0.002297144087058123
-0.007800393038331529   -0.07845438375456706   -0.0022841912988129398
-0.00694997559179263   -0.07444803803094611   -0.0023772536912962557
-0.009389137135386586   -0.07430060152447918   -0.0024921412237966186
-0.0075735848056019284   -0.07845821149766141   -0.0023664482303622585
-0.006785760280182791   -0.07447487078110551   -0.0023650220331855143
-0.009215951241088245   -0.07440730577803527   -0.002590965726859424
-0.0075735848056019284   -0.07845821149766141   -0.0023664482303622585
-0.006485145849660432   -0.07884629644059406   -0.002297144087058123
-0.006785760280182791   -0.07447487078110551   -0.0023650220331855143
-0.0062673490775965734   -0.07892163976165034   -0.0022416477009362078
-0.009215951241088245   -0.07440730577803527   -0.002590965726859424
-0.006634664752411697   -0.07455598763033901   -0.002366314247490723
-0.0062673490775965734   -0.07892163976165034   -0.0022416477009362078
-0.006785760280182791   -0.07447487078110551   -0.0023650220331855143
-0.009215951241088245   -0.07440730577803527   -0.002590965726859424
-0.0062673490775965734   -0.07892163976165034   -0.0022416477009362078
-0.007362880235369511   -0.07854409616939773   -0.0024498745732016497
-0.0075735848056019284   -0.07845821149766141   -0.0023664482303622585
-0.009215951241088245   -0.07440730577803527   -0.002590965726859424
-0.0062673490775965734   -0.07892163976165034   -0.0022416477009362078
-0.0075735848056019284   -0.07845821149766141   -0.0023664482303622585
-0.006785760280182791   -0.07447487078110551   -0.0023650220331855143
-0.00711653566406114   -0.07447374263950247   -0.002400666554248555
-0.006910127419160225   -0.0789276182522122   -0.0024119895085898038
-0.004601561348692344   -0.07457988440788614   -0.0024870479759411448
-0.00694997559179263   -0.07444803803094611   -0.0023772536912962557
-0.006910127419160225   -0.0789276182522122   -0.0024119895085898038
-0.005910096518611556   -0.07940480652243798   -0.0026423917239341375
-0.004601561348692344   -0.07457988440788614   -0.0024870479759411448
-0.005645212354407009   -0.07933549332976385   -0.002439054237802534
-0.00694997559179263   -0.07444803803094611   -0.0023772536912962557
-0.004413799296565855   -0.07454280623075688   -0.00236937877661497
-0.005645212354407009   -0.07933549332976385   -0.002439054237802534
-0.004601561348692344   -0.07457988440788614   -0.0024870479759411448
-0.00694997559179263   -0.07444803803094611   -0.0023772536912962557
-0.005645212354407009   -0.07933549332976385   -0.002439054237802534
-0.00669405481588106   -0.07884774326557582   -0.0023549217416155427
-0.006910127419160225   -0.0789276182522122   -0.0024119895085898038
-0.00694997559179263   -0.07444803803094611   -0.0023772536912962557
-0.005645212354407009   -0.07933549332976385   -0.002439054237802534
-0.006910127419160225   -0.0789276182522122   -0.0024119895085898038
-0.004601561348692344   -0.07457988440788614   -0.0024870479759411448
-0.00694997559179263   -0.07444803803094611   -0.0023772536912962557
-0.00669405481588106   -0.07884774326557582   -0.0023549217416155427
-0.004413799296565855   -0.07454280623075688   -0.00236937877661497
-0.006785760280182791   -0.07447487078110551   -0.0023650220331855143
-0.00669405481588106   -0.07884774326557582   -0.0023549217416155427
-0.005645212354407009   -0.07933549332976385   -0.002439054237802534
-0.004413799296565855   -0.07454280623075688   -0.00236937877661497
-0.005399776524147829   -0.07933177513260359   -0.00223640557810275
-0.006785760280182791   -0.07447487078110551   -0.0023650220331855143
-0.004234817732138627   -0.07455192191156017   -0.002261591461420174
-0.005399776524147829   -0.07933177513260359   -0.00223640557810275
-0.004413799296565855   -0.07454280623075688   -0.00236937877661497
-0.006785760280182791   -0.07447487078110551   -0.0023650220331855143
-0.005399776524147829   -0.07933177513260359   -0.00223640557810275
-0.006485145849660432   -0.07884629644059406   -0.002297144087058123
-0.00669405481588106   -0.07884774326557582   -0.0023549217416155427
-0.006785760280182791   -0.07447487078110551   -0.0023650220331855143
-0.005399776524147829   -0.07933177513260359   -0.00223640557810275
-0.00669405481588106   -0.07884774326557582   -0.0023549217416155427
-0.004413799296565855   -0.07454280623075688   -0.00236937877661497
-0.006785760280182791   -0.07447487078110551   -0.0023650220331855143
-0.006485145849660432   -0.07884629644059406   -0.002297144087058123
-0.004234817732138627   -0.07455192191156017   -0.002261591461420174
-0.006634664752411697   -0.07455598763033901   -0.002366314247490723
-0.006485145849660432   -0.07884629644059406   -0.002297144087058123
-0.005399776524147829   -0.07933177513260359   -0.00223640557810275
-0.004234817732138627   -0.07455192191156017   -0.002261591461420174
-0.005136270465087225   -0.07939010719773594   -0.002033302475606725
-0.006634664752411697   -0.07455598763033901   -0.002366314247490723
-0.004085967424031289   -0.07461623939671672   -0.002169864159393382
-0.005136270465087225   -0.07939010719773594   -0.002033302475606725
-0.004234817732138627   -0.07455192191156017   -0.002261591461420174
-0.006634664752411697   -0.07455598763033901   -0.002366314247490723
-0.005136270465087225   -0.07939010719773594   -0.002033302475606725
-0.0062673490775965734   -0.07892163976165034   -0.0022416477009362078
-0.006485145849660432   -0.07884629644059406   -0.002297144087058123
-0.006634664752411697   -0.07455598763033901   -0.002366314247490723
-0.005136270465087225   -0.07939010719773594   -0.002033302475606725
-0.006485145849660432   -0.07884629644059406   -0.002297144087058123
-0.004234817732138627   -0.07455192191156017   -0.002261591461420174
-0.004601561348692344   -0.07457988440788614   -0.0024870479759411448
-0.005910096518611556   -0.07940480652243798   -0.0026423917239341375
-0.0019270252478076149   -0.07455320035524418   -0.0025887884374801444
-0.004413799296565855   -0.07454280623075688   -0.00236937877661497
-0.005910096518611556   -0.07940480652243798   -0.0026423917239341375
-0.00492589063717413   -0.08   -0.002819366698109155
-0.0019270252478076149   -0.07455320035524418   -0.0025887884374801444
-0.004592743482260518   -0.08   -0.0025105564266866584
-0.004413799296565855   -0.07454280623075688   -0.00236937877661497
-0.0016859544179895988   -0.07449507484185255   -0.0023809502631202866
-0.004592743482260518   -0.08   -0.0025105564266866584
-0.0019270252478076149   -0.07455320035524418   -0.0025887884374801444
-0.004413799296565855   -0.07454280623075688   -0.00236937877661497
-0.004592743482260518   -0.08   -0.0025105564266866584
-0.005645212354407009   -0.07933549332976385   -0.002439054237802534
-0.005910096518611556   -0.07940480652243798   -0.0026423917239341375
-0.004413799296565855   -0.07454280623075688   -0.00236937877661497
-0.004592743482260518   -0.08   -0.0025105564266866584
-0.005910096518611556   -0.07940480652243798   -0.0026423917239341375
-0.0019270252478076149   -0.07455320035524418   -0.0025887884374801444
-0.004413799296565855   -0.07454280623075688   -0.00236937877661497
-0.005645212354407009   -0.07933549332976385   -0.002439054237802534
-0.0016859544179895988   -0.07449507484185255   -0.0023809502631202866
-0.004234817732138627   -0.07455192191156017   -0.002261591461420174
-0.005645212354407009   -0.07933549332976385   -0.002439054237802534
-0.004592743482260518   -0.08   -0.0025105564266866584
-0.0016859544179895988   -0.07449507484185255   -0.0023809502631202866
-0.004258019280598721   -0.08   -0.00219808369900682
-0.004234817732138627   -0.07455192191156017   -0.002261591461420174
-0.0014394967815356957   -0.07448481337136845   -0.0021836844110684423
-0.004258019280598721   -0.08   -0.00219808369900682
-0.0016859544179895988   -0.07449507484185255   -0.0023809502631202866
-0.004234817732138627   -0.07455192191156017   -0.002261591461420174
-0.004258019280598721   -0.08   -0.00219808369900682
-0.005399776524147829   -0.07933177513260359   -0.00223640557810275
-0.005645212354407009   -0.07933549332976385   -0.002439054237802534
-0.004234817732138627   -0.07455192191156017   -0.002261591461420174
-0.004258019280598721   -0.08   -0.00219808369900682
-0.005645212354407009   -0.07933549332976385   -0.002439054237802534
-0.0016859544179895988   -0.07449507484185255   -0.0023809502631202866
-0.004234817732138627   -0.07455192191156017   -0.002261591461420174
-0.005399776524147829   -0.07933177513260359   -0.00223640557810275
-0.0014394967815356957   -0.07448481337136845   -0.0021836844110684423
-0.004085967424031289   -0.07461623939671672   -0.002169864159393382
-0.005399776524147829   -0.07933177513260359   -0.00223640557810275
-0.004258019280598721   -0.08   -0.00219808369900682
-0.0014394967815356957   -0.07448481337136845   -0.0021836844110684423
-0.003930810376377517   -0.08   -0.0018897414335419978
-0.004085967424031289   -0.07461623939671672   -0.002169864159393382
-0.001256944925603421   -0.07453273607935071   -0.002004529800833332
-0.003930810376377517   -0.08   -0.0018897414335419978
-0.0014394967815356957   -0.07448481337136845   -0.0021836844110684423
-0.004085967424031289   -0.07461623939671672   -0.002169864159393382
-0.003930810376377517   -0.08   -0.0018897414335419978
-0.005136270465087225   -0.07939010719773594   -0.002033302475606725
-0.005399776524147829   -0.07933177513260359   -0.00223640557810275
-0.004085967424031289   -0.07461623939671672   -0.002169864159393382
-0.003930810376377517   -0.08   -0.0018897414335419978
-0.005399776524147829   -0.07933177513260359   -0.00223640557810275
-0.0014394967815356957   -0.07448481337136845   -0.0021836844110684423
-0.0019270252478076149   -0.07455320035524418   -0.0025887884374801444
-0.00492589063717413   -0.08   -0.002819366698109155
0.0009518286310910756   -0.07429632970479297   -0.002797326600500472
-0.0016859544179895988   -0.07449507484185255   -0.0023809502631202866
-0.00492589063717413   -0.08   -0.002819366698109155
-0.004212035545044985   -0.08   -0.0030337011723058516
0.0009518286310910756   -0.07429632970479297   -0.002797326600500472
-0.0035155314875888488   -0.08   -0.0025869596198416097
-0.0016859544179895988   -0.07449507484185255   -0.0023809502631202866
0.00151358759222755   -0.07416983029095513   -0.0024573403100055908
-0.0035155314875888488   -0.08   -0.0025869596198416097
0.0009518286310910756   -0.07429632970479297   -0.002797326600500472
-0.0016859544179895988   -0.07449507484185255   -0.0023809502631202866
-0.0035155314875888488   -0.08   -0.0025869596198416097
-0.004592743482260518   -0.08   -0.0025105564266866584
-0.00492589063717413   -0.08   -0.002819366698109155
-0.0016859544179895988   -0.07449507484185255   -0.0023809502631202866
-0.0035155314875888488   -0.08   -0.0025869596198416097
-0.00492589063717413   -0.08   -0.002819366698109155
0.0009518286310910756   -0.07429632970479297   -0.002797326600500472
-0.0016859544179895988   -0.07449507484185255   -0.0023809502631202866
-0.004592743482260518   -0.08   -0.0025105564266866584
0.00151358759222755   -0.07416983029095513   -0.0024573403100055908
-0.0014394967815356957   -0.07448481337136845   -0.0021836844110684423
-0.004592743482260518   -0.08   -0.0025105564266866584
-0.0035155314875888488   -0.08   -0.0025869596198416097
0.00151358759222755   -0.07416983029095513   -0.0024573403100055908
-0.002960079183293496   -0.08   -0.0021595947169033586
-0.0014394967815356957   -0.07448481337136845   -0.0021836844110684423
0.001955064478309541   -0.07414420541450244   -0.002138121856435552
-0.002960079183293496   -0.08   -0.0021595947169033586
0.00151358759222755   -0.07416983029095513   -0.0024573403100055908
-0.0014394967815356957   -0.07448481337136845   -0.0021836844110684423
-0.002960079183293496   -0.08   -0.0021595947169033586
-0.004258019280598721   -0.08   -0.00219808369900682
-0.004592743482260518   -0.08   -0.0025105564266866584
-0.0014394967815356957   -0.07448481337136845   -0.0021836844110684423
-0.002960079183293496   -0.08   -0.0021595947169033586
-0.004592743482260518   -0.08   -0.0025105564266866584
0.00151358759222755   -0.07416983029095513   -0.0024573403100055908
-0.0014394967815356957   -0.07448481337136845   -0.0021836844110684423
-0.004258019280598721   -0.08   -0.00219808369900682
0.001955064478309541   -0.07414420541450244   -0.002138121856435552
-0.001256944925603421   -0.07453273607935071   -0.002004529800833332
-0.004258019280598721   -0.08   -0.00219808369900682
-0.002960079183293496   -0.08   -0.0021595947169033586
0.001955064478309541   -0.07414420541450244   -0.002138121856435552
-0.0022739240057374536   -0.08   -0.0017159426889651493
-0.001256944925603421   -0.07453273607935071   -0.002004529800833332
0.0024138279659584147   -0.07416572315235692   -0.0018465961243969808
-0.0022739240057374536   -0.08   -0.0017159426889651493
0.001955064478309541   -0.07414420541450244   -0.002138121856435552
-0.001256944925603421   -0.07453273607935071   -0.002004529800833332
-0.0022739240057374536   -0.08   -0.0017159426889651493
-0.003930810376377517   -0.08   -0.0018897414335419978
-0.004258019280598721   -0.08   -0.00219808369900682
-0.001256944925603421   -0.07453273607935071   -0.002004529800833332
-0.0022739240057374536   -0.08   -0.0017159426889651493
-0.004258019280598721   -0.08   -0.00219808369900682
0.001955064478309541   -0.07414420541450244   -0.002138121856435552
-0.009500537417319686   -0.07813832233552596   -0.001966024534658394
-0.005677305747135769   -0.07834837623202782   -0.0016827301884356062
-0.008005184627114331   -0.07853223452846606   -0.0022027593255295077
-0.009064500621607728   -0.07805061763783358   -0.002213606899371549
-0.005677305747135769   -0.07834837623202782   -0.0016827301884356062
-0.006021516064528969   -0.07865189812502234   -0.001987543416661118
-0.008005184627114331   -0.07853223452846606   -0.0022027593255295077
-0.005866638020098616   -0.07854558698167959   -0.0020986601422227115
-0.009064500621607728   -0.07805061763783358   -0.002213606899371549
-0.007800393038331529   -0.07845438375456706   -0.0022841912988129398
-0.005866638020098616   -0.07854558698167959   -0.0020986601422227115
-0.008005184627114331   -0.07853223452846606   -0.0022027593255295077
-0.009064500621607728   -0.07805061763783358   -0.002213606899371549
-0.005866638020098616   -0.07854558698167959   -0.0020986601422227115
-0.005282172501777281   -0.07821187234173847   -0.0019428551029195904
-0.005677305747135769   -0.07834837623202782   -0.0016827301884356062
-0.009064500621607728   -0.07805061763783358   -0.002213606899371549
-0.005866638020098616   -0.07854558698167959   -0.0020986601422227115
-0.005677305747135769   -0.07834837623202782   -0.0016827301884356062
-0.008005184627114331   -0.07853223452846606   -0.0022027593255295077
-0.009064500621607728   -0.07805061763783358   -0.002213606899371549
-0.005282172501777281   -0.07821187234173847   -0.0019428551029195904
-0.007800393038331529   -0.07845438375456706   -0.0022841912988129398
-0.008688285485637031   -0.07805809918504986   -0.002460234022763352
-0.005282172501777281   -0.07821187234173847   -0.0019428551029195904
-0.005866638020098616   -0.07854558698167959   -0.0020986601422227115
-0.007800393038331529   -0.07845438375456706   -0.0022841912988129398
-0.005684982020492603   -0.07850632066735083   -0.0022011718730429565
-0.008688285485637031   -0.07805809918504986   -0.002460234022763352
-0.0075735848056019284   -0.07845821149766141   -0.0023664482303622585
-0.005684982020492603   -0.07850632066735083   -0.0022011718730429565
-0.007800393038331529   -0.07845438375456706   -0.0022841912988129398
-0.008688285485637031   -0.07805809918504986   -0.002460234022763352
-0.005684982020492603   -0.07850632066735083   -0.0022011718730429565
-0.0049532605656402665   -0.07816982702533416   -0.002192301504018397
-0.005282172501777281   -0.07821187234173847   -0.0019428551029195904
-0.008688285485637031   -0.07805809918504986   -0.002460234022763352
-0.005684982020492603   -0.07850632066735083   -0.0022011718730429565
-0.005282172501777281   -0.07821187234173847   -0.0019428551029195904
-0.007800393038331529   -0.07845438375456706   -0.0022841912988129398
-0.008688285485637031   -0.07805809918504986   -0.002460234022763352
-0.0049532605656402665   -0.07816982702533416   -0.002192301504018397
-0.0075735848056019284   -0.07845821149766141   -0.0023664482303622585
-0.00824205165553565   -0.07816623059819316   -0.0027121739527378743
-0.0049532605656402665   -0.07816982702533416   -0.002192301504018397
-0.005684982020492603   -0.07850632066735083   -0.0022011718730429565
-0.0075735848056019284   -0.07845821149766141   -0.0023664482303622585
-0.005529363978324274   -0.07853466578901697   -0.0022945418714323228
-0.00824205165553565   -0.07816623059819316   -0.0027121739527378743
-0.007362880235369511   -0.07854409616939773   -0.0024498745732016497
-0.005529363978324274   -0.07853466578901697   -0.0022945418714323228
-0.0075735848056019284   -0.07845821149766141   -0.0023664482303622585
-0.00824205165553565   -0.07816623059819316   -0.0027121739527378743
-0.005529363978324274   -0.07853466578901697   -0.0022945418714323228
-0.004581142228359098   -0.07820519077371918   -0.0024299598625759458
-0.0049532605656402665   -0.07816982702533416   -0.002192301504018397
-0.00824205165553565   -0.07816623059819316   -0.0027121739527378743
-0.005529363978324274   -0.07853466578901697   -0.0022945418714323228
-0.0049532605656402665   -0.07816982702533416   -0.002192301504018397
-0.0075735848056019284   -0.07845821149766141   -0.0023664482303622585
-0.008005184627114331   -0.07853223452846606   -0.0022027593255295077
-0.006021516064528969   -0.07865189812502234   -0.001987543416661118
-0.006910127419160225   -0.0789276182522122   -0.0024119895085898038
-0.007800393038331529   -0.07845438375456706   -0.0022841912988129398
-0.006021516064528969   -0.07865189812502234   -0.001987543416661118
-0.00648747350643789   -0.0788395933676891   -0.0022312641080607263
-0.006910127419160225   -0.0789276182522122   -0.0024119895085898038
-0.006350396067208455   -0.07874466554244818   -0.002234180597285723
-0.007800393038331529   -0.07845438375456706   -0.0022841912988129398
-0.00669405481588106   -0.07884774326557582   -0.0023549217416155427
-0.006350396067208455   -0.07874466554244818   -0.002234180597285723
-0.006910127419160225   -0.0789276182522122   -0.0024119895085898038
-0.007800393038331529   -0.07845438375456706   -0.0022841912988129398
-0.006350396067208455   -0.07874466554244818   -0.002234180597285723
-0.005866638020098616   -0.07854558698167959   -0.0020986601422227115
-0.006021516064528969   -0.07865189812502234   -0.001987543416661118
-0.007800393038331529   -0.07845438375456706   -0.0022841912988129398
-0.006350396067208455   -0.07874466554244818   -0.002234180597285723
-0.006021516064528969   -0.07865189812502234   -0.001987543416661118
-0.006910127419160225   -0.0789276182522122   -0.0024119895085898038
-0.007800393038331529   -0.07845438375456706   -0.0022841912988129398
-0.005866638020098616   -0.07854558698167959   -0.0020986601422227115
-0.00669405481588106   -0.07884774326557582   -0.0023549217416155427
-0.0075735848056019284   -0.07845821149766141   -0.0023664482303622585
-0.005866638020098616   -0.07854558698167959   -0.0020986601422227115
-0.006350396067208455   -0.07874466554244818   -0.002234180597285723
-0.00669405481588106   -0.07884774326557582   -0.0023549217416155427
-0.006197818183966106   -0.07871046148248412   -0.0022259408519753696
-0.0075735848056019284   -0.07845821149766141   -0.0023664482303622585
-0.006485145849660432   -0.07884629644059406   -0.002297144087058123
-0.006197818183966106   -0.07871046148248412   -0.0022259408519753696
-0.00669405481588106   -0.07884774326557582   -0.0023549217416155427
-0.0075735848056019284   -0.07845821149766141   -0.0023664482303622585
-0.006197818183966106   -0.07871046148248412   -0.0022259408519753696
-0.005684982020492603   -0.07850632066735083   -0.0022011718730429565
-0.005866638020098616   -0.07854558698167959   -0.0020986601422227115
-0.0075735848056019284   -0.07845821149766141   -0.0023664482303622585
-0.006197818183966106   -0.07871046148248412   -0.0022259408519753696
-0.005866638020098616   -0.07854558698167959   -0.0020986601422227115
-0.00669405481588106   -0.07884774326557582   -0.0023549217416155427
-0.0075735848056019284   -0.07845821149766141   -0.0023664482303622585
-0.005684982020492603   -0.07850632066735083   -0.0022011718730429565
-0.006485145849660432   -0.07884629644059406   -0.002297144087058123
-0.007362880235369511   -0.07854409616939773   -0.0024498745732016497
-0.005684982020492603   -0.07850632066735083   -0.0022011718730429565
-0.006197818183966106   -0.07871046148248412   -0.0022259408519753696
-0.006485145849660432   -0.07884629644059406   -0.002297144087058123
-0.006042684822236343   -0.07873420434352246   -0.0022089470352035603
-0.007362880235369511   -0.07854409616939773   -0.0024498745732016497
-0.0062673490775965734   -0.07892163976165034   -0.0022416477009362078
-0.006042684822236343   -0.07873420434352246   -0.0022089470352035603
-0.006485145849660432   -0.07884629644059406   -0.002297144087058123
-0.007362880235369511   -0.07854409616939773   -0.0024498745732016497
-0.006042684822236343   -0.07873420434352246   -0.0022089470352035603
-0.005529363978324274   -0.07853466578901697   -0.0022945418714323228
-0.005684982020492603   -0.07850632066735083   -0.0022011718730429565
-0.007362880235369511   -0.07854409616939773   -0.0024498745732016497
-0.006042684822236343   -0.07873420434352246   -0.0022089470352035603
-0.005684982020492603   -0.07850632066735083   -0.0022011718730429565
-0.006485145849660432   -0.07884629644059406   -0.002297144087058123
-0.006910127419160225   -0.0789276182522122   -0.0024119895085898038
-0.00648747350643789   -0.0788395933676891   -0.0022312641080607263
-0.005910096518611556   -0.07940480652243798   -0.0026423917239341375
-0.00669405481588106   -0.07884774326557582   -0.0023549217416155427
-0.00648747350643789   -0.0788395933676891   -0.0022312641080607263
-0.006986985364890831   -0.07891855167181021   -0.002471134111382783
-0.005910096518611556   -0.07940480652243798   -0.0026423917239341375
-0.0068449883131586065   -0.07882804222097786   -0.002370009816249068
-0.00669405481588106   -0.07884774326557582   -0.0023549217416155427
-0.005645212354407009   -0.07933549332976385   -0.002439054237802534
-0.0068449883131586065   -0.07882804222097786   -0.002370009816249068
-0.005910096518611556   -0.07940480652243798   -0.0026423917239341375
-0.00669405481588106   -0.07884774326557582   -0.0023549217416155427
-0.0068449883131586065   -0.07882804222097786   -0.002370009816249068
-0.006350396067208455   -0.07874466554244818   -0.002234180597285723
-0.00648747350643789   -0.0788395933676891   -0.0022312641080607263
-0.00669405481588106   -0.07884774326557582   -0.0023549217416155427
-0.0068449883131586065   -0.07882804222097786   -0.002370009816249068
-0.00648747350643789   -0.0788395933676891   -0.0022312641080607263
-0.005910096518611556   -0.07940480652243798   -0.0026423917239341375
-0.00669405481588106   -0.07884774326557582   -0.0023549217416155427
-0.006350396067208455   -0.07874466554244818   -0.002234180597285723
-0.005645212354407009   -0.07933549332976385   -0.002439054237802534
-0.006485145849660432   -0.07884629644059406   -0.002297144087058123
-0.006350396067208455   -0.07874466554244818   -0.002234180597285723
-0.0068449883131586065   -0.07882804222097786   -0.002370009816249068
-0.005645212354407009   -0.07933549332976385   -0.002439054237802534
-0.006674660066546169   -0.07879924972403309   -0.0022552985185094864
-0.006485145849660432   -0.07884629644059406   -0.002297144087058123
-0.005399776524147829   -0.07933177513260359   -0.00223640557810275
-0.006674660066546169   -0.07879924972403309   -0.0022552985185094864
-0.005645212354407009   -0.07933549332976385   -0.002439054237802534
-0.006485145849660432   -0.07884629644059406   -0.002297144087058123
-0.006674660066546169   -0.07879924972403309   -0.0022552985185094864
-0.006197818183966106   -0.07871046148248412   -0.0022259408519753696
-0.006350396067208455   -0.07874466554244818   -0.002234180597285723
-0.006485145849660432   -0.07884629644059406   -0.002297144087058123
-0.006674660066546169   -0.07879924972403309   -0.0022552985185094864
-0.006350396067208455   -0.07874466554244818   -0.002234180597285723
-0.005645212354407009   -0.07933549332976385   -0.002439054237802534
-0.006485145849660432   -0.07884629644059406   -0.002297144087058123
-0.006197818183966106   -0.07871046148248412   -0.0022259408519753696
-0.005399776524147829   -0.07933177513260359   -0.00223640557810275
-0.0062673490775965734   -0.07892163976165034   -0.0022416477009362078
-0.006197818183966106   -0.07871046148248412   -0.0022259408519753696
-0.006674660066546169   -0.07879924972403309   -0.0022552985185094864
-0.005399776524147829   -0.07933177513260359   -0.00223640557810275
-0.006499493173730529   -0.07882246977050505   -0.002133112901037771
-0.0062673490775965734   -0.07892163976165034   -0.0022416477009362078
-0.005136270465087225   -0.07939010719773594   -0.002033302475606725
-0.006499493173730529   -0.07882246977050505   -0.002133112901037771
-0.005399776524147829   -0.07933177513260359   -0.00223640557810275
-0.0062673490775965734   -0.07892163976165034   -0.0022416477009362078
-0.006499493173730529   -0.07882246977050505   -0.002133112901037771
-0.006042684822236343   -0.07873420434352246   -0.0022089470352035603
-0.006197818183966106   -0.07871046148248412   -0.0022259408519753696
-0.0062673490775965734   -0.07892163976165034   -0.0022416477009362078
-0.006499493173730529   -0.07882246977050505   -0.002133112901037771
-0.006197818183966106   -0.07871046148248412   -0.0022259408519753696
-0.005399776524147829   -0.07933177513260359   -0.00223640557810275
-0.005910096518611556   -0.07940480652243798   -0.0026423917239341375
-0.006986985364890831   -0.07891855167181021   -0.002471134111382783
-0.00492589063717413   -0.08   -0.002819366698109155
-0.005645212354407009   -0.07933549332976385   -0.002439054237802534
-0.006986985364890831   -0.07891855167181021   -0.002471134111382783
-0.007710412878723599   -0.07883373359903273   -0.0026990137354618773
-0.00492589063717413   -0.08   -0.002819366698109155
-0.0075249312288625855   -0.07874829654964682   -0.002498838798800821
-0.005645212354407009   -0.07933549332976385   -0.002439054237802534
-0.004592743482260518   -0.08   -0.0025105564266866584
-0.0075249312288625855   -0.07874829654964682   -0.002498838798800821
-0.00492589063717413   -0.08   -0.002819366698109155
-0.005645212354407009   -0.07933549332976385   -0.002439054237802534
-0.0075249312288625855   -0.07874829654964682   -0.002498838798800821
-0.0068449883131586065   -0.07882804222097786   -0.002370009816249068
-0.006986985364890831   -0.07891855167181021   -0.002471134111382783
-0.005645212354407009   -0.07933549332976385   -0.002439054237802534
-0.0075249312288625855   -0.07874829654964682   -0.002498838798800821
-0.006986985364890831   -0.07891855167181021   -0.002471134111382783
-0.00492589063717413   -0.08   -0.002819366698109155
-0.005645212354407009   -0.07933549332976385   -0.002439054237802534
-0.0068449883131586065   -0.07882804222097786   -0.002370009816249068
-0.004592743482260518   -0.08   -0.0025105564266866584
-0.005399776524147829   -0.07933177513260359   -0.00223640557810275
-0.0068449883131586065   -0.07882804222097786   -0.002370009816249068
-0.0075249312288625855   -0.07874829654964682   -0.002498838798800821
-0.004592743482260518   -0.08   -0.0025105564266866584
-0.007280211986818254   -0.07872884846492531   -0.0022835365103496285
-0.005399776524147829   -0.07933177513260359   -0.00223640557810275
-0.004258019280598721   -0.08   -0.00219808369900682
-0.007280211986818254   -0.07872884846492531   -0.0022835365103496285
-0.004592743482260518   -0.08   -0.0025105564266866584
-0.005399776524147829   -0.07933177513260359   -0.00223640557810275
-0.007280211986818254   -0.07872884846492531   -0.0022835365103496285
-0.006674660066546169   -0.07879924972403309   -0.0022552985185094864
-0.0068449883131586065   -0.07882804222097786   -0.002370009816249068
-0.005399776524147829   -0.07933177513260359   -0.00223640557810275
-0.007280211986818254   -0.07872884846492531   -0.0022835365103496285
-0.0068449883131586065   -0.07882804222097786   -0.002370009816249068
-0.004592743482260518   -0.08   -0.0025105564266866584
-0.005399776524147829   -0.07933177513260359   -0.00223640557810275
-0.006674660066546169   -0.07879924972403309   -0.0022552985185094864
-0.004258019280598721   -0.08   -0.00219808369900682
-0.005136270465087225   -0.07939010719773594   -0.002033302475606725
-0.006674660066546169   -0.07879924972403309   -0.0022552985185094864
-0.007280211986818254   -0.07872884846492531   -0.0022835365103496285
-0.004258019280598721   -0.08   -0.00219808369900682
-0.00704997796108628   -0.07876264770277643   -0.0020599152934647367
-0.005136270465087225   -0.07939010719773594   -0.002033302475606725
-0.003930810376377517   -0.08   -0.0018897414335419978
-0.00704997796108628   -0.07876264770277643   -0.0020599152934647367
-0.004258019280598721   -0.08   -0.00219808369900682
-0.005136270465087225   -0.07939010719773594   -0.002033302475606725
-0.00704997796108628   -0.07876264770277643   -0.0020599152934647367
-0.006499493173730529   -0.07882246977050505   -0.002133112901037771
-0.006674660066546169   -0.07879924972403309   -0.0022552985185094864
-0.005136270465087225   -0.07939010719773594   -0.002033302475606725
-0.00704997796108628   -0.07876264770277643   -0.0020599152934647367
-0.006674660066546169   -0.07879924972403309   -0.0022552985185094864
-0.004258019280598721   -0.08   -0.00219808369900682
-0.00492589063717413   -0.08   -0.002819366698109155
-0.007710412878723599   -0.07883373359903273   -0.0026990137354618773
-0.004212035545044985   -0.08   -0.0030337011723058516
-0.004592743482260518   -0.08   -0.0025105564266866584
-0.007710412878723599   -0.07883373359903273   -0.0026990137354618773
-0.009116350791193262   -0.07844791245492935   -0.0029406049286028937
-0.004212035545044985   -0.08   -0.0030337011723058516
-0.00862350498731653   -0.07837592447624281   -0.0026121869308343205
-0.004592743482260518   -0.08   -0.0025105564266866584
-0.0035155314875888488   -0.08   -0.0025869596198416097
-0.00862350498731653   -0.07837592447624281   -0.0026121869308343205
-0.004212035545044985   -0.08   -0.0030337011723058516
-0.004592743482260518   -0.08   -0.0025105564266866584
-0.00862350498731653   -0.07837592447624281   -0.0026121869308343205
-0.0075249312288625855   -0.07874829654964682   -0.002498838798800821
-0.007710412878723599   -0.07883373359903273   -0.0026990137354618773
-0.004592743482260518   -0.08   -0.0025105564266866584
-0.00862350498731653   -0.07837592447624281   -0.0026121869308343205
-0.007710412878723599   -0.07883373359903273   -0.0026990137354618773
-0.004212035545044985   -0.08   -0.0030337011723058516
-0.004592743482260518   -0.08   -0.0025105564266866584
-0.0075249312288625855   -0.07874829654964682   -0.002498838798800821
-0.0035155314875888488   -0.08   -0.0025869596198416097
-0.004258019280598721   -0.08   -0.00219808369900682
-0.0075249312288625855   -0.07874829654964682   -0.002498838798800821
-0.00862350498731653   -0.07837592447624281   -0.0026121869308343205
-0.0035155314875888488   -0.08   -0.0025869596198416097
-0.008170622976379856   -0.07836602845794817   -0.002261613451059788
-0.004258019280598721   -0.08   -0.00219808369900682
-0.002960079183293496   -0.08   -0.0021595947169033586
-0.008170622976379856   -0.07836602845794817   -0.002261613451059788
-0.0035155314875888488   -0.08   -0.0025869596198416097
-0.004258019280598721   -0.08   -0.00219808369900682
-0.008170622976379856   -0.07836602845794817   -0.002261613451059788
-0.007280211986818254   -0.07872884846492531   -0.0022835365103496285
-0.0075249312288625855   -0.07874829654964682   -0.002498838798800821
-0.004258019280598721   -0.08   -0.00219808369900682
-0.008170622976379856   -0.07836602845794817   -0.002261613451059788
-0.0075249312288625855   -0.07874829654964682   -0.002498838798800821
-0.0035155314875888488   -0.08   -0.0025869596198416097
-0.004258019280598721   -0.08   -0.00219808369900682
-0.007280211986818254   -0.07872884846492531   -0.0022835365103496285
-0.002960079183293496   -0.08   -0.0021595947169033586
-0.003930810376377517   -0.08   -0.0018897414335419978
-0.007280211986818254   -0.07872884846492531   -0.0022835365103496285
-0.008170622976379856   -0.07836602845794817   -0.002261613451059788
-0.002960079183293496   -0.08   -0.0021595947169033586
-0.0075986918641641156   -0.07846051126438859   -0.0018949458355275988
-0.003930810376377517   -0.08   -0.0018897414335419978
-0.0022739240057374536   -0.08   -0.0017159426889651493
-0.0075986918641641156   -0.07846051126438859   -0.0018949458355275988
-0.002960079183293496   -0.08   -0.0021595947169033586
-0.003930810376377517   -0.08   -0.0018897414335419978
-0.0075986918641641156   -0.07846051126438859   -0.0018949458355275988
-0.00704997796108628   -0.07876264770277643   -0.0020599152934647367
-0.007280211986818254   -0.07872884846492531   -0.0022835365103496285
-0.003930810376377517   -0.08   -0.0018897414335419978
-0.0075986918641641156   -0.07846051126438859   -0.0018949458355275988
-0.007280211986818254   -0.07872884846492531   -0.0022835365103496285
-0.002960079183293496   -0.08   -0.0021595947169033586
-0.005677305747135769   -0.07834837623202782   -0.0016827301884356062
-0.0023147062086513607   -0.0753872703917791   -0.0014540483201727283
-0.006021516064528969   -0.07865189812502234   -0.001987543416661118
-0.005282172501777281   -0.07821187234173847   -0.0019428551029195904
-0.0023147062086513607   -0.0753872703917791   -0.0014540483201727283
-0.004320822760635648   -0.07561617211994764   -0.0017777964268840178
-0.006021516064528969   -0.07865189812502234   -0.001987543416661118
-0.0042108337126799565   -0.07548753586363023   -0.0018768524089661169
-0.005282172501777281   -0.07821187234173847   -0.0019428551029195904
-0.005866638020098616   -0.07854558698167959   -0.0020986601422227115
-0.0042108337126799565   -0.07548753586363023   -0.0018768524089661169
-0.006021516064528969   -0.07865189812502234   -0.001987543416661118
-0.005282172501777281   -0.07821187234173847   -0.0019428551029195904
-0.0042108337126799565   -0.07548753586363023   -0.0018768524089661169
-0.0019997195124288095   -0.07522809812677411   -0.0016788275982711188
-0.0023147062086513607   -0.0753872703917791   -0.0014540483201727283
-0.005282172501777281   -0.07821187234173847   -0.0019428551029195904
-0.0042108337126799565   -0.07548753586363023   -0.0018768524089661169
-0.0023147062086513607   -0.0753872703917791   -0.0014540483201727283
-0.006021516064528969   -0.07865189812502234   -0.001987543416661118
-0.005282172501777281   -0.07821187234173847   -0.0019428551029195904
-0.0019997195124288095   -0.07522809812677411   -0.0016788275982711188
-0.005866638020098616   -0.07854558698167959   -0.0020986601422227115
-0.0049532605656402665   -0.07816982702533416   -0.002192301504018397
-0.0019997195124288095   -0.07522809812677411   -0.0016788275982711188
-0.0042108337126799565   -0.07548753586363023   -0.0018768524089661169
-0.005866638020098616   -0.07854558698167959   -0.0020986601422227115
-0.004087020064744626   -0.0754162238148639   -0.0019669711908492536
-0.0049532605656402665   -0.07816982702533416   -0.002192301504018397
-0.005684982020492603   -0.07850632066735083   -0.0022011718730429565
-0.004087020064744626   -0.0754162238148639   -0.0019669711908492536
-0.005866638020098616   -0.07854558698167959   -0.0020986601422227115
-0.0049532605656402665   -0.07816982702533416   -0.002192301504018397
-0.004087020064744626   -0.0754162238148639   -0.0019669711908492536
-0.001751863500431944   -0.07515224595088824   -0.0018903591543854602
-0.0019997195124288095   -0.07522809812677411   -0.0016788275982711188
-0.0049532605656402665   -0.07816982702533416   -0.002192301504018397
-0.004087020064744626   -0.0754162238148639   -0.0019669711908492536
-0.0019997195124288095   -0.07522809812677411   -0.0016788275982711188
-0.005866638020098616   -0.07854558698167959   -0.0020986601422227115
-0.0049532605656402665   -0.07816982702533416   -0.002192301504018397
-0.001751863500431944   -0.07515224595088824   -0.0018903591543854602
-0.005684982020492603   -0.07850632066735083   -0.0022011718730429565
-0.004581142228359098   -0.07820519077371918   -0.0024299598625759458
-0.001751863500431944   -0.07515224595088824   -0.0018903591543854602
-0.004087020064744626   -0.0754162238148639   -0.0019669711908492536
-0.005684982020492603   -0.07850632066735083   -0.0022011718730429565
-0.003992088307883257   -0.07540024428409423   -0.0020484378481784903
-0.004581142228359098   -0.07820519077371918   -0.0024299598625759458
-0.005529363978324274   -0.07853466578901697   -0.0022945418714323228
-0.003992088307883257   -0.07540024428409423   -0.0020484378481784903
-0.005684982020492603   -0.07850632066735083   -0.0022011718730429565
-0.004581142228359098   -0.07820519077371918   -0.0024299598625759458
-0.003992088307883257   -0.07540024428409423   -0.0020484378481784903
-0.0014812093337497787   -0.07513793058086941   -0.0020880824043368
-0.001751863500431944   -0.07515224595088824   -0.0018903591543854602
-0.004581142228359098   -0.07820519077371918   -0.0024299598625759458
-0.003992088307883257   -0.07540024428409423   -0.0020484378481784903
-0.001751863500431944   -0.07515224595088824   -0.0018903591543854602
-0.005684982020492603   -0.07850632066735083   -0.0022011718730429565
-0.006021516064528969   -0.07865189812502234   -0.001987543416661118
-0.004320822760635648   -0.07561617211994764   -0.0017777964268840178
-0.00648747350643789   -0.0788395933676891   -0.0022312641080607263
-0.005866638020098616   -0.07854558698167959   -0.0020986601422227115
-0.004320822760635648   -0.07561617211994764   -0.0017777964268840178
-0.006300947998909252   -0.07569694365282276   -0.0020418851170793412
-0.00648747350643789   -0.0788395933676891   -0.0022312641080607263
-0.0062084618326601025   -0.07558471745821554   -0.0020473512097424146
-0.005866638020098616   -0.07854558698167959   -0.0020986601422227115
-0.006350396067208455   -0.07874466554244818   -0.002234180597285723
-0.0062084618326601025   -0.07558471745821554   -0.0020473512097424146
-0.00648747350643789   -0.0788395933676891   -0.0022312641080607263
-0.005866638020098616   -0.07854558698167959   -0.0020986601422227115
-0.0062084618326601025   -0.07558471745821554   -0.0020473512097424146
-0.0042108337126799565   -0.07548753586363023   -0.0018768524089661169
-0.004320822760635648   -0.07561617211994764   -0.0017777964268840178
-0.005866638020098616   -0.07854558698167959   -0.0020986601422227115
-0.0062084618326601025   -0.07558471745821554   -0.0020473512097424146
-0.004320822760635648   -0.07561617211994764   -0.0017777964268840178
-0.00648747350643789   -0.0788395933676891   -0.0022312641080607263
-0.005866638020098616   -0.07854558698167959   -0.0020986601422227115
-0.0042108337126799565   -0.07548753586363023   -0.0018768524089661169
-0.006350396067208455   -0.07874466554244818   -0.002234180597285723
-0.005684982020492603   -0.07850632066735083   -0.0022011718730429565
-0.0042108337126799565   -0.07548753586363023   -0.0018768524089661169
-0.0062084618326601025   -0.07558471745821554   -0.0020473512097424146
-0.006350396067208455   -0.07874466554244818   -0.002234180597285723
-0.006112806973345876   -0.07552416723671754   -0.0020445406118451714
-0.005684982020492603   -0.07850632066735083   -0.0022011718730429565
-0.006197818183966106   -0.07871046148248412   -0.0022259408519753696
-0.006112806973345876   -0.07552416723671754   -0.0020445406118451714
-0.006350396067208455   -0.07874466554244818   -0.002234180597285723
-0.005684982020492603   -0.07850632066735083   -0.0022011718730429565
-0.006112806973345876   -0.07552416723671754   -0.0020445406118451714
-0.004087020064744626   -0.0754162238148639   -0.0019669711908492536
-0.0042108337126799565   -0.07548753586363023   -0.0018768524089661169
-0.005684982020492603   -0.07850632066735083   -0.0022011718730429565
-0.006112806973345876   -0.07552416723671754   -0.0020445406118451714
-0.0042108337126799565   -0.07548753586363023   -0.0018768524089661169
-0.006350396067208455   -0.07874466554244818   -0.002234180597285723
-0.005684982020492603   -0.07850632066735083   -0.0022011718730429565
-0.004087020064744626   -0.0754162238148639   -0.0019669711908492536
-0.006197818183966106   -0.07871046148248412   -0.0022259408519753696
-0.005529363978324274   -0.07853466578901697   -0.0022945418714323228
-0.004087020064744626   -0.0754162238148639   -0.0019669711908492536
-0.006112806973345876   -0.07552416723671754   -0.0020445406118451714
-0.006197818183966106   -0.07871046148248412   -0.0022259408519753696
-0.006020555827330485   -0.0755127997625962   -0.0020333748223362227
-0.005529363978324274   -0.07853466578901697   -0.0022945418714323228
-0.006042684822236343   -0.07873420434352246   -0.0022089470352035603
-0.006020555827330485   -0.0755127997625962   -0.0020333748223362227
-0.006197818183966106   -0.07871046148248412   -0.0022259408519753696
-0.005529363978324274   -0.07853466578901697   -0.0022945418714323228
-0.006020555827330485   -0.0755127997625962   -0.0020333748223362227
-0.003992088307883257   -0.07540024428409423   -0.0020484378481784903
-0.004087020064744626   -0.0754162238148639   -0.0019669711908492536
-0.005529363978324274   -0.07853466578901697   -0.0022945418714323228
-0.006020555827330485   -0.0755127997625962   -0.0020333748223362227
-0.004087020064744626   -0.0754162238148639   -0.0019669711908492536
-0.006197818183966106   -0.07871046148248412   -0.0022259408519753696
-0.00648747350643789   -0.0788395933676891   -0.0022312641080607263
-0.006300947998909252   -0.07569694365282276   -0.0020418851170793412
-0.006986985364890831   -0.07891855167181021   -0.002471134111382783
-0.006350396067208455   -0.07874466554244818   -0.002234180597285723
-0.006300947998909252   -0.07569694365282276   -0.0020418851170793412
-0.008267350775970864   -0.07562516798791623   -0.0022890410820010313
-0.006986985364890831   -0.07891855167181021   -0.002471134111382783
-0.00817559519388108   -0.07552550158116615   -0.002204769294188159
-0.006350396067208455   -0.07874466554244818   -0.002234180597285723
-0.0068449883131586065   -0.07882804222097786   -0.002370009816249068
-0.00817559519388108   -0.07552550158116615   -0.002204769294188159
-0.006986985364890831   -0.07891855167181021   -0.002471134111382783
-0.006350396067208455   -0.07874466554244818   -0.002234180597285723
-0.00817559519388108   -0.07552550158116615   -0.002204769294188159
-0.0062084618326601025   -0.07558471745821554   -0.0020473512097424146
-0.006300947998909252   -0.07569694365282276   -0.0020418851170793412
-0.006350396067208455   -0.07874466554244818   -0.002234180597285723
-0.00817559519388108   -0.07552550158116615   -0.002204769294188159
-0.006300947998909252   -0.07569694365282276   -0.0020418851170793412
-0.006986985364890831   -0.07891855167181021   -0.002471134111382783
-0.006350396067208455   -0.07874466554244818   -0.002234180597285723
-0.0062084618326601025   -0.07558471745821554   -0.0020473512097424146
-0.0068449883131586065   -0.07882804222097786   -0.002370009816249068
-0.006197818183966106   -0.07871046148248412   -0.0022259408519753696
-0.0062084618326601025   -0.07558471745821554   -0.0020473512097424146
-0.00817559519388108   -0.07552550158116615   -0.002204769294188159
-0.0068449883131586065   -0.07882804222097786   -0.002370009816249068
-0.008072624394535516   -0.07547664308290417   -0.0021123429638173607
-0.006197818183966106   -0.07871046148248412   -0.0022259408519753696
-0.006674660066546169   -0.07879924972403309   -0.0022552985185094864
-0.008072624394535516   -0.07547664308290417   -0.0021123429638173607
-0.0068449883131586065   -0.07882804222097786   -0.002370009816249068
-0.006197818183966106   -0.07871046148248412   -0.0022259408519753696
-0.008072624394535516   -0.07547664308290417   -0.0021123429638173607
-0.006112806973345876   -0.07552416723671754   -0.0020445406118451714
-0.0062084618326601025   -0.07558471745821554   -0.0020473512097424146
-0.006197818183966106   -0.07871046148248412   -0.0022259408519753696
-0.008072624394535516   -0.07547664308290417   -0.0021123429638173607
-0.0062084618326601025   -0.07558471745821554   -0.0020473512097424146
-0.0068449883131586065   -0.07882804222097786   -0.002370009816249068
-0.006197818183966106   -0.07871046148248412   -0.0022259408519753696
-0.006112806973345876   -0.07552416723671754   -0.0020445406118451714
-0.006674660066546169   -0.07879924972403309   -0.0022552985185094864
-0.006042684822236343   -0.07873420434352246   -0.0022089470352035603
-0.006112806973345876   -0.07552416723671754   -0.0020445406118451714
-0.008072624394535516   -0.07547664308290417   -0.0021123429638173607
-0.006674660066546169   -0.07879924972403309   -0.0022552985185094864
-0.007969222032871755   -0.07547369703547384   -0.0020107684993879984
-0.006042684822236343   -0.07873420434352246   -0.0022089470352035603
-0.006499493173730529   -0.07882246977050505   -0.002133112901037771
-0.007969222032871755   -0.07547369703547384   -0.0020107684993879984
-0.006674660066546169   -0.07879924972403309   -0.0022552985185094864
-0.006042684822236343   -0.07873420434352246   -0.0022089470352035603
-0.007969222032871755   -0.07547369703547384   -0.0020107684993879984
-0.006020555827330485   -0.0755127997625962   -0.0020333748223362227
-0.006112806973345876   -0.07552416723671754   -0.0020445406118451714
-0.006042684822236343   -0.07873420434352246   -0.0022089470352035603
-0.007969222032871755   -0.07547369703547384   -0.0020107684993879984
-0.006112806973345876   -0.07552416723671754   -0.0020445406118451714
-0.006674660066546169   -0.07879924972403309   -0.0022552985185094864
-0.006986985364890831   -0.07891855167181021   -0.002471134111382783
-0.008267350775970864   -0.07562516798791623   -0.0022890410820010313
-0.007710412878723599   -0.07883373359903273   -0.0026990137354618773
-0.0068449883131586065   -0.07882804222097786   -0.002370009816249068
-0.008267350775970864   -0.07562516798791623   -0.0022890410820010313
-0.010427836908589554   -0.07539133389874401   -0.002516042339149735
-0.007710412878723599   -0.07883373359903273   -0.0026990137354618773
-0.010315530322965543   -0.07530425876022397   -0.002344036993948897
-0.0068449883131586065   -0.07882804222097786   -0.002370009816249068
-0.0075249312288625855   -0.07874829654964682   -0.002498838798800821
-0.010315530322965543   -0.07530425876022397   -0.002344036993948897
-0.007710412878723599   -0.07883373359903273   -0.0026990137354618773
-0.0068449883131586065   -0.07882804222097786   -0.002370009816249068
-0.010315530322965543   -0.07530425876022397   -0.002344036993948897
-0.00817559519388108   -0.07552550158116615   -0.002204769294188159
-0.008267350775970864   -0.07562516798791623   -0.0022890410820010313
-0.0068449883131586065   -0.07882804222097786   -0.002370009816249068
-0.010315530322965543   -0.07530425876022397   -0.002344036993948897
-0.008267350775970864   -0.07562516798791623   -0.0022890410820010313
-0.007710412878723599   -0.07883373359903273   -0.0026990137354618773
-0.0068449883131586065   -0.07882804222097786   -0.002370009816249068
-0.00817559519388108   -0.07552550158116615   -0.002204769294188159
-0.0075249312288625855   -0.07874829654964682   -0.002498838798800821
-0.006674660066546169   -0.07879924972403309   -0.0022552985185094864
-0.00817559519388108   -0.07552550158116615   -0.002204769294188159
-0.010315530322965543   -0.07530425876022397   -0.002344036993948897
-0.0075249312288625855   -0.07874829654964682   -0.002498838798800821
-0.01016048686229881   -0.07526704535906913   -0.0021644741605915028
-0.006674660066546169   -0.07879924972403309   -0.0022552985185094864
-0.007280211986818254   -0.07872884846492531   -0.0022835365103496285
-0.01016048686229881   -0.07526704535906913   -0.0021644741605915028
-0.0075249312288625855   -0.07874829654964682   -0.002498838798800821
-0.006674660066546169   -0.07879924972403309   -0.0022552985185094864
-0.01016048686229881   -0.07526704535906913   -0.0021644741605915028
-0.008072624394535516   -0.07547664308290417   -0.0021123429638173607
-0.00817559519388108   -0.07552550158116615   -0.002204769294188159
-0.006674660066546169   -0.07879924972403309   -0.0022552985185094864
-0.01016048686229881   -0.07526704535906913   -0.0021644741605915028
-0.00817559519388108   -0.07552550158116615   -0.002204769294188159
-0.0075249312288625855   -0.07874829654964682   -0.002498838798800821
-0.006674660066546169   -0.07879924972403309   -0.0022552985185094864
-0.008072624394535516   -0.07547664308290417   -0.0021123429638173607
-0.007280211986818254   -0.07872884846492531   -0.0022835365103496285
-0.006499493173730529   -0.07882246977050505   -0.002133112901037771
-0.008072624394535516   -0.07547664308290417   -0.0021123429638173607
-0.01016048686229881   -0.07526704535906913   -0.0021644741605915028
-0.007280211986818254   -0.07872884846492531   -0.0022835365103496285
-0.010025137978720426   -0.0752797540036662   -0.0019723466809666787
-0.006499493173730529   -0.07882246977050505   -0.002133112901037771
-0.00704997796108628   -0.07876264770277643   -0.0020599152934647367
-0.010025137978720426   -0.0752797540036662   -0.0019723466809666787
-0.007280211986818254   -0.07872884846492531   -0.0022835365103496285
-0.006499493173730529   -0.07882246977050505   -0.002133112901037771
-0.010025137978720426   -0.0752797540036662   -0.0019723466809666787
-0.007969222032871755   -0.07547369703547384   -0.0020107684993879984
-0.008072624394535516   -0.07547664308290417   -0.0021123429638173607
-0.006499493173730529   -0.07882246977050505   -0.002133112901037771
-0.010025137978720426   -0.0752797540036662   -0.0019723466809666787
-0.008072624394535516   -0.07547664308290417   -0.0021123429638173607
-0.007280211986818254   -0.07872884846492531   -0.0022835365103496285
-0.007710412878723599   -0.07883373359903273   -0.0026990137354618773
-0.010427836908589554   -0.07539133389874401   -0.002516042339149735
-0.009116350791193262   -0.07844791245492935   -0.0029406049286028937
-0.0075249312288625855   -0.07874829654964682   -0.002498838798800821
-0.010427836908589554   -0.07539133389874401   -0.002516042339149735
-0.01321004273115645   -0.07501104386259294   -0.0027338463349683506
-0.009116350791193262   -0.07844791245492935   -0.0029406049286028937
-0.012848553480127988   -0.074916673144036   -0.002462287231026733
-0.0075249312288625855   -0.07874829654964682   -0.002498838798800821
-0.00862350498731653   -0.07837592447624281   -0.0026121869308343205
-0.012848553480127988   -0.074916673144036   -0.002462287231026733
-0.009116350791193262   -0.07844791245492935   -0.0029406049286028937
-0.0075249312288625855   -0.07874829654964682   -0.002498838798800821
-0.012848553480127988   -0.074916673144036   -0.002462287231026733
-0.010315530322965543   -0.07530425876022397   -0.002344036993948897
-0.010427836908589554   -0.07539133389874401   -0.002516042339149735
-0.0075249312288625855   -0.07874829654964682   -0.002498838798800821
-0.012848553480127988   -0.074916673144036   -0.002462287231026733
-0.010427836908589554   -0.07539133389874401   -0.002516042339149735
-0.009116350791193262   -0.07844791245492935   -0.0029406049286028937
-0.0075249312288625855   -0.07874829654964682   -0.002498838798800821
-0.010315530322965543   -0.07530425876022397   -0.002344036993948897
-0.00862350498731653   -0.07837592447624281   -0.0026121869308343205
-0.007280211986818254   -0.07872884846492531   -0.0022835365103496285
-0.010315530322965543   -0.07530425876022397   -0.002344036993948897
-0.012848553480127988   -0.074916673144036   -0.002462287231026733
-0.00862350498731653   -0.07837592447624281   -0.0026121869308343205
-0.012524486342554614   -0.07488225188568037   -0.002174882782395573
-0.007280211986818254   -0.07872884846492531   -0.0022835365103496285
-0.008170622976379856   -0.07836602845794817   -0.002261613451059788
-0.012524486342554614   -0.07488225188568037   -0.002174882782395573
-0.00862350498731653   -0.07837592447624281   -0.0026121869308343205
-0.007280211986818254   -0.07872884846492531   -0.0022835365103496285
-0.012524486342554614   -0.07488225188568037   -0.002174882782395573
-0.01016048686229881   -0.07526704535906913   -0.0021644741605915028
-0.010315530322965543   -0.07530425876022397   -0.002344036993948897
-0.007280211986818254   -0.07872884846492531   -0.0022835365103496285
-0.012524486342554614   -0.07488225188568037   -0.002174882782395573
-0.010315530322965543   -0.07530425876022397   -0.002344036993948897
-0.00862350498731653   -0.07837592447624281   -0.0026121869308343205
-0.007280211986818254   -0.07872884846492531   -0.0022835365103496285
-0.01016048686229881   -0.07526704535906913   -0.0021644741605915028
-0.008170622976379856   -0.07836602845794817   -0.002261613451059788
-0.00704997796108628   -0.07876264770277643   -0.0020599152934647367
-0.01016048686229881   -0.07526704535906913   -0.0021644741605915028
-0.012524486342554614   -0.07488225188568037   -0.002174882782395573
-0.008170622976379856   -0.07836602845794817   -0.002261613451059788
-0.012104473517597844   -0.0749255249963894   -0.0018743656658056214
-0.00704997796108628   -0.07876264770277643   -0.0020599152934647367
-0.0075986918641641156   -0.07846051126438859   -0.0018949458355275988
-0.012104473517597844   -0.0749255249963894   -0.0018743656658056214
-0.008170622976379856   -0.07836602845794817   -0.002261613451059788
-0.00704997796108628   -0.07876264770277643   -0.0020599152934647367
-0.012104473517597844   -0.0749255249963894   -0.0018743656658056214
-0.010025137978720426   -0.0752797540036662   -0.0019723466809666787
-0.01016048686229881   -0.07526704535906913   -0.0021644741605915028
-0.00704997796108628   -0.07876264770277643   -0.0020599152934647367
-0.012104473517597844   -0.0749255249963894   -0.0018743656658056214
-0.01016048686229881   -0.07526704535906913   -0.0021644741605915028
-0.008170622976379856   -0.07836602845794817   -0.002261613451059788
-0.0023147062086513607   -0.0753872703917791   -0.0014540483201727283
0.00041227865559739557   -0.06993932150204643   -0.0012028476708793544
-0.004320822760635648   -0.07561617211994764   -0.0017777964268840178
-0.0019997195124288095   -0.07522809812677411   -0.0016788275982711188
0.00041227865559739557   -0.06993932150204643   -0.0012028476708793544
-0.0029706843911031047   -0.07010713266824038   -0.0015206726018530752
-0.004320822760635648   -0.07561617211994764   -0.0017777964268840178
-0.002912403241487863   -0.06997232599725736   -0.0015992373193906236
-0.0019997195124288095   -0.07522809812677411   -0.0016788275982711188
-0.0042108337126799565   -0.07548753586363023   -0.0018768524089661169
-0.002912403241487863   -0.06997232599725736   -0.0015992373193906236
-0.004320822760635648   -0.07561617211994764   -0.0017777964268840178
-0.0019997195124288095   -0.07522809812677411   -0.0016788275982711188
-0.002912403241487863   -0.06997232599725736   -0.0015992373193906236
0.0006321673917815125   -0.06977761386731005   -0.0013817865555595082
0.00041227865559739557   -0.06993932150204643   -0.0012028476708793544
-0.0019997195124288095   -0.07522809812677411   -0.0016788275982711188
-0.002912403241487863   -0.06997232599725736   -0.0015992373193906236
0.00041227865559739557   -0.06993932150204643   -0.0012028476708793544
-0.004320822760635648   -0.07561617211994764   -0.0017777964268840178
-0.0019997195124288095   -0.07522809812677411   -0.0016788275982711188
0.0006321673917815125   -0.06977761386731005   -0.0013817865555595082
-0.0042108337126799565   -0.07548753586363023   -0.0018768524089661169
-0.001751863500431944   -0.07515224595088824   -0.0018903591543854602
0.0006321673917815125   -0.06977761386731005   -0.0013817865555595082
-0.002912403241487863   -0.06997232599725736   -0.0015992373193906236
-0.0042108337126799565   -0.07548753586363023   -0.0018768524089661169
-0.0028460459001220565   -0.06988425211467245   -0.0016686432204051542
-0.001751863500431944   -0.07515224595088824   -0.0018903591543854602
-0.004087020064744626   -0.0754162238148639   -0.0019669711908492536
-0.0028460459001220565   -0.06988425211467245   -0.0016686432204051542
-0.0042108337126799565   -0.07548753586363023   -0.0018768524089661169
-0.001751863500431944   -0.07515224595088824   -0.0018903591543854602
-0.0028460459001220565   -0.06988425211467245   -0.0016686432204051542
0.0007939113681516266   -0.0696841345416571   -0.001547906181442433
0.0006321673917815125   -0.06977761386731005   -0.0013817865555595082
-0.001751863500431944   -0.07515224595088824   -0.0018903591543854602
-0.0028460459001220565   -0.06988425211467245   -0.0016686432204051542
0.0006321673917815125   -0.06977761386731005   -0.0013817865555595082
-0.0042108337126799565   -0.07548753586363023   -0.0018768524089661169
-0.001751863500431944   -0.07515224595088824   -0.0018903591543854602
0.0007939113681516266   -0.0696841345416571   -0.001547906181442433
-0.004087020064744626   -0.0754162238148639   -0.0019669711908492536
-0.0014812093337497787   -0.07513793058086941   -0.0020880824043368
0.0007939113681516266   -0.0696841345416571   -0.001547906181442433
-0.0028460459001220565   -0.06988425211467245   -0.0016686432204051542
-0.004087020064744626   -0.0754162238148639   -0.0019669711908492536
-0.0028063746582380647   -0.06984030582193584   -0.0017297945228345896
-0.0014812093337497787   -0.07513793058086941   -0.0020880824043368
-0.003992088307883257   -0.07540024428409423   -0.0020484378481784903
-0.0028063746582380647   -0.06984030582193584   -0.0017297945228345896
-0.004087020064744626   -0.0754162238148639   -0.0019669711908492536
-0.0014812093337497787   -0.07513793058086941   -0.0020880824043368
-0.0028063746582380647   -0.06984030582193584   -0.0017297945228345896
0.0009670385312204753   -0.0696379973843235   -0.0017011434516374516
0.0007939113681516266   -0.0696841345416571   -0.001547906181442433
-0.0014812093337497787   -0.07513793058086941   -0.0020880824043368
-0.0028063746582380647   -0.06984030582193584   -0.0017297945228345896
0.0007939113681516266   -0.0696841345416571   -0.001547906181442433
-0.004087020064744626   -0.0754162238148639   -0.0019669711908492536
-0.004320822760635648   -0.07561617211994764   -0.0017777964268840178
-0.0029706843911031047   -0.07010713266824038   -0.0015206726018530752
-0.006300947998909252   -0.07569694365282276   -0.0020418851170793412
-0.0042108337126799565   -0.07548753586363023   -0.0018768524089661169
-0.0029706843911031047   -0.07010713266824038   -0.0015206726018530752
-0.006243186790503621   -0.07013922740593985   -0.001782582407071134
-0.006300947998909252   -0.07569694365282276   -0.0020418851170793412
-0.006200337611120515   -0.07002349737934459   -0.0017846118575122712
-0.0042108337126799565   -0.07548753586363023   -0.0018768524089661169
-0.0062084618326601025   -0.07558471745821554   -0.0020473512097424146
-0.006200337611120515   -0.07002349737934459   -0.0017846118575122712
-0.006300947998909252   -0.07569694365282276   -0.0020418851170793412
-0.0042108337126799565   -0.07548753586363023   -0.0018768524089661169
-0.006200337611120515   -0.07002349737934459   -0.0017846118575122712
-0.002912403241487863   -0.06997232599725736   -0.0015992373193906236
-0.0029706843911031047   -0.07010713266824038   -0.0015206726018530752
-0.0042108337126799565   -0.07548753586363023   -0.0018768524089661169
-0.006200337611120515   -0.07002349737934459   -0.0017846118575122712
-0.0029706843911031047   -0.07010713266824038   -0.0015206726018530752
-0.006300947998909252   -0.07569694365282276   -0.0020418851170793412
-0.0042108337126799565   -0.07548753586363023   -0.0018768524089661169
-0.002912403241487863   -0.06997232599725736   -0.0015992373193906236
-0.0062084618326601025   -0.07558471745821554   -0.0020473512097424146
-0.004087020064744626   -0.0754162238148639   -0.0019669711908492536
-0.002912403241487863   -0.06997232599725736   -0.0015992373193906236
-0.006200337611120515   -0.07002349737934459   -0.0017846118575122712
-0.0062084618326601025   -0.07558471745821554   -0.0020473512097424146
-0.006156277160128676   -0.06994959632793595   -0.0017778668483148042
-0.004087020064744626   -0.0754162238148639   -0.0019669711908492536
-0.006112806973345876   -0.07552416723671754   -0.0020445406118451714
-0.006156277160128676   -0.06994959632793595   -0.0017778668483148042
-0.0062084618326601025   -0.07558471745821554   -0.0020473512097424146
-0.004087020064744626   -0.0754162238148639   -0.0019669711908492536
-0.006156277160128676   -0.06994959632793595   -0.0017778668483148042
-0.0028460459001220565   -0.06988425211467245   -0.0016686432204051542
-0.002912403241487863   -0.06997232599725736   -0.0015992373193906236
-0.004087020064744626   -0.0754162238148639   -0.0019669711908492536
-0.006156277160128676   -0.06994959632793595   -0.0017778668483148042
-0.002912403241487863   -0.06997232599725736   -0.0015992373193906236
-0.0062084618326601025   -0.07558471745821554   -0.0020473512097424146
-0.004087020064744626   -0.0754162238148639   -0.0019669711908492536
-0.0028460459001220565   -0.06988425211467245   -0.0016686432204051542
-0.006112806973345876   -0.07552416723671754   -0.0020445406118451714
-0.003992088307883257   -0.07540024428409423   -0.0020484378481784903
-0.0028460459001220565   -0.06988425211467245   -0.0016686432204051542
-0.006156277160128676   -0.06994959632793595   -0.0017778668483148042
-0.006112806973345876   -0.07552416723671754   -0.0020445406118451714
-0.006117739375563965   -0.06991683244830911   -0.001762930718542977
-0.003992088307883257   -0.07540024428409423   -0.0020484378481784903
-0.006020555827330485   -0.0755127997625962   -0.0020333748223362227
-0.006117739375563965   -0.06991683244830911   -0.001762930718542977
-0.006112806973345876   -0.07552416723671754   -0.0020445406118451714
-0.003992088307883257   -0.07540024428409423   -0.0020484378481784903
-0.006117739375563965   -0.06991683244830911   -0.001762930718542977
-0.0028063746582380647   -0.06984030582193584   -0.0017297945228345896
-0.0028460459001220565   -0.06988425211467245   -0.0016686432204051542
-0.003992088307883257   -0.07540024428409423   -0.0020484378481784903
-0.006117739375563965   -0.06991683244830911   -0.001762930718542977
-0.0028460459001220565   -0.06988425211467245   -0.0016686432204051542
-0.006112806973345876   -0.07552416723671754   -0.0020445406118451714
-0.006300947998909252   -0.07569694365282276   -0.0020418851170793412
-0.006243186790503621   -0.07013922740593985   -0.001782582407071134
-0.008267350775970864   -0.07562516798791623   -0.0022890410820010313
-0.0062084618326601025   -0.07558471745821554   -0.0020473512097424146
-0.006243186790503621   -0.07013922740593985   -0.001782582407071134
-0.009464211258798857   -0.07003502926828323   -0.002019003486882373
-0.008267350775970864   -0.07562516798791623   -0.0022890410820010313
-0.009424318010445486   -0.06993517539222771   -0.0019463439019303298
-0.0062084618326601025   -0.07558471745821554   -0.0020473512097424146
-0.00817559519388108   -0.07552550158116615   -0.002204769294188159
-0.009424318010445486   -0.06993517539222771   -0.0019463439019303298
-0.008267350775970864   -0.07562516798791623   -0.0022890410820010313
-0.0062084618326601025   -0.07558471745821554   -0.0020473512097424146
-0.009424318010445486   -0.06993517539222771   -0.0019463439019303298
-0.006200337611120515   -0.07002349737934459   -0.0017846118575122712
-0.006243186790503621   -0.07013922740593985   -0.001782582407071134
-0.0062084618326601025   -0.07558471745821554   -0.0020473512097424146
-0.009424318010445486   -0.06993517539222771   -0.0019463439019303298
-0.006243186790503621   -0.07013922740593985   -0.001782582407071134
-0.008267350775970864   -0.07562516798791623   -0.0022890410820010313
-0.0062084618326601025   -0.07558471745821554   -0.0020473512097424146
-0.006200337611120515   -0.07002349737934459   -0.0017846118575122712
-0.00817559519388108   -0.07552550158116615   -0.002204769294188159
-0.006112806973345876   -0.07552416723671754   -0.0020445406118451714
-0.006200337611120515   -0.07002349737934459   -0.0017846118575122712
-0.009424318010445486   -0.06993517539222771   -0.0019463439019303298
-0.00817559519388108   -0.07552550158116615   -0.002204769294188159
-0.009376113262604745   -0.06987669016043056   -0.0018650997335037012
-0.006112806973345876   -0.07552416723671754   -0.0020445406118451714
-0.008072624394535516   -0.07547664308290417   -0.0021123429638173607
-0.009376113262604745   -0.06987669016043056   -0.0018650997335037012
-0.00817559519388108   -0.07552550158116615   -0.002204769294188159
-0.006112806973345876   -0.07552416723671754   -0.0020445406118451714
-0.009376113262604745   -0.06987669016043056   -0.0018650997335037012
-0.006156277160128676   -0.06994959632793595   -0.0017778668483148042
-0.006200337611120515   -0.07002349737934459   -0.0017846118575122712
-0.006112806973345876   -0.07552416723671754   -0.0020445406118451714
-0.009376113262604745   -0.06987669016043056   -0.0018650997335037012
-0.006200337611120515   -0.07002349737934459   -0.0017846118575122712
-0.00817559519388108   -0.07552550158116615   -0.002204769294188159
-0.006112806973345876   -0.07552416723671754   -0.0020445406118451714
-0.006156277160128676   -0.06994959632793595   -0.0017778668483148042
-0.008072624394535516   -0.07547664308290417   -0.0021123429638173607
-0.006020555827330485   -0.0755127997625962   -0.0020333748223362227
-0.006156277160128676   -0.06994959632793595   -0.0017778668483148042
-0.009376113262604745   -0.06987669016043056   -0.0018650997335037012
-0.008072624394535516   -0.07547664308290417   -0.0021123429638173607
-0.009329225305747913   -0.06985764832695052   -0.0017755354639320694
-0.006020555827330485   -0.0755127997625962   -0.0020333748223362227
-0.007969222032871755   -0.07547369703547384   -0.0020107684993879984
-0.009329225305747913   -0.06985764832695052   -0.0017755354639320694
-0.008072624394535516   -0.07547664308290417   -0.0021123429638173607
-0.006020555827330485   -0.0755127997625962   -0.0020333748223362227
-0.009329225305747913   -0.06985764832695052   -0.0017755354639320694
-0.006117739375563965   -0.06991683244830911   -0.001762930718542977
-0.006156277160128676   -0.06994959632793595   -0.0017778668483148042
-0.006020555827330485   -0.0755127997625962   -0.0020333748223362227
-0.009329225305747913   -0.06985764832695052   -0.0017755354639320694
-0.006156277160128676   -0.06994959632793595   -0.0017778668483148042
-0.008072624394535516   -0.07547664308290417   -0.0021123429638173607
-0.008267350775970864   -0.07562516798791623   -0.0022890410820010313
-0.009464211258798857   -0.07003502926828323   -0.002019003486882373
-0.010427836908589554   -0.07539133389874401   -0.002516042339149735
-0.00817559519388108   -0.07552550158116615   -0.002204769294188159
-0.009464211258798857   -0.07003502926828323   -0.002019003486882373
-0.012839769532690587   -0.06979823607802478   -0.0022290212565398153
-0.010427836908589554   -0.07539133389874401   -0.002516042339149735
-0.012787672057027449   -0.06971354476550883   -0.0020815810065798338
-0.00817559519388108   -0.07552550158116615   -0.002204769294188159
-0.010315530322965543   -0.07530425876022397   -0.002344036993948897
-0.012787672057027449   -0.06971354476550883   -0.0020815810065798338
-0.010427836908589554   -0.07539133389874401   -0.002516042339149735
-0.00817559519388108   -0.07552550158116615   -0.002204769294188159
-0.012787672057027449   -0.06971354476550883   -0.0020815810065798338
-0.009424318010445486   -0.06993517539222771   -0.0019463439019303298
-0.009464211258798857   -0.07003502926828323   -0.002019003486882373
-0.00817559519388108   -0.07552550158116615   -0.002204769294188159
-0.012787672057027449   -0.06971354476550883   -0.0020815810065798338
-0.009464211258798857   -0.07003502926828323   -0.002019003486882373
-0.010427836908589554   -0.07539133389874401   -0.002516042339149735
-0.00817559519388108   -0.07552550158116615   -0.002204769294188159
-0.009424318010445486   -0.06993517539222771   -0.0019463439019303298
-0.010315530322965543   -0.07530425876022397   -0.002344036993948897
-0.008072624394535516   -0.07547664308290417   -0.0021123429638173607
-0.009424318010445486   -0.06993517539222771   -0.0019463439019303298
-0.012787672057027449   -0.06971354476550883   -0.0020815810065798338
-0.010315530322965543   -0.07530425876022397   -0.002344036993948897
-0.012699360877167474   -0.06966903595564794   -0.0019268746163162815
-0.008072624394535516   -0.07547664308290417   -0.0021123429638173607
-0.01016048686229881   -0.07526704535906913   -0.0021644741605915028
-0.012699360877167474   -0.06966903595564794   -0.0019268746163162815
-0.010315530322965543   -0.07530425876022397   -0.002344036993948897
-0.008072624394535516   -0.07547664308290417   -0.0021123429638173607
-0.012699360877167474   -0.06966903595564794   -0.0019268746163162815
-0.009376113262604745   -0.06987669016043056   -0.0018650997335037012
-0.009424318010445486   -0.06993517539222771   -0.0019463439019303298
-0.008072624394535516   -0.07547664308290417   -0.0021123429638173607
-0.012699360877167474   -0.06966903595564794   -0.0019268746163162815
-0.009424318010445486   -0.06993517539222771   -0.0019463439019303298
-0.010315530322965543   -0.07530425876022397   -0.002344036993948897
-0.008072624394535516   -0.07547664308290417   -0.0021123429638173607
-0.009376113262604745   -0.06987669016043056   -0.0018650997335037012
-0.01016048686229881   -0.07526704535906913   -0.0021644741605915028
-0.007969222032871755   -0.07547369703547384   -0.0020107684993879984
-0.009376113262604745   -0.06987669016043056   -0.0018650997335037012
-0.012699360877167474   -0.06966903595564794   -0.0019268746163162815
-0.01016048686229881   -0.07526704535906913   -0.0021644741605915028
-0.012627611693906412   -0.06966706098826822   -0.0017626379904263389
-0.007969222032871755   -0.07547369703547384   -0.0020107684993879984
-0.010025137978720426   -0.0752797540036662   -0.0019723466809666787
-0.012627611693906412   -0.06966706098826822   -0.0017626379904263389
-0.01016048686229881   -0.07526704535906913   -0.0021644741605915028
-0.007969222032871755   -0.07547369703547384   -0.0020107684993879984
-0.012627611693906412   -0.06966706098826822   -0.0017626379904263389
-0.009329225305747913   -0.06985764832695052   -0.0017755354639320694
-0.009376113262604745   -0.06987669016043056   -0.0018650997335037012
-0.007969222032871755   -0.07547369703547384   -0.0020107684993879984
-0.012627611693906412   -0.06966706098826822   -0.0017626379904263389
-0.009376113262604745   -0.06987669016043056   -0.0018650997335037012
-0.01016048686229881   -0.07526704535906913   -0.0021644741605915028
-0.010427836908589554   -0.07539133389874401   -0.002516042339149735
-0.012839769532690587   -0.06979823607802478   -0.0022290212565398153
-0.01321004273115645   -0.07501104386259294   -0.0027338463349683506
-0.010315530322965543   -0.07530425876022397   -0.002344036993948897
-0.012839769532690587   -0.06979823607802478   -0.0022290212565398153
-0.016776475547548478   -0.06945733444823321   -0.002424780563745149
-0.01321004273115645   -0.07501104386259294   -0.0027338463349683506
-0.01650980121937654   -0.06936903550833817   -0.0021940128591619755
-0.010315530322965543   -0.07530425876022397   -0.002344036993948897
-0.012848553480127988   -0.074916673144036   -0.002462287231026733
-0.01650980121937654   -0.06936903550833817   -0.0021940128591619755
-0.01321004273115645   -0.07501104386259294   -0.0027338463349683506
-0.010315530322965543   -0.07530425876022397   -0.002344036993948897
-0.01650980121937654   -0.06936903550833817   -0.0021940128591619755
-0.012787672057027449   -0.06971354476550883   -0.0020815810065798338
-0.012839769532690587   -0.06979823607802478   -0.0022290212565398153
-0.010315530322965543   -0.07530425876022397   -0.002344036993948897
-0.01650980121937654   -0.06936903550833817   -0.0021940128591619755
-0.012839769532690587   -0.06979823607802478   -0.0022290212565398153
-0.01321004273115645   -0.07501104386259294   -0.0027338463349683506
-0.010315530322965543   -0.07530425876022397   -0.002344036993948897
-0.012787672057027449   -0.06971354476550883   -0.0020815810065798338
-0.012848553480127988   -0.074916673144036   -0.002462287231026733
-0.01016048686229881   -0.07526704535906913   -0.0021644741605915028
-0.012787672057027449   -0.06971354476550883   -0.0020815810065798338
-0.01650980121937654   -0.06936903550833817   -0.0021940128591619755
-0.012848553480127988   -0.074916673144036   -0.002462287231026733
-0.01627831827050023   -0.06932832073236779   -0.001951266971870746
-0.01016048686229881   -0.07526704535906913   -0.0021644741605915028
-0.012524486342554614   -0.07488225188568037   -0.002174882782395573
-0.01627831827050023   -0.06932832073236779   -0.001951266971870746
-0.012848553480127988   -0.074916673144036   -0.002462287231026733
-0.01016048686229881   -0.07526704535906913   -0.0021644741605915028
-0.01627831827050023   -0.06932832073236779   -0.001951266971870746
-0.012699360877167474   -0.06966903595564794   -0.0019268746163162815
-0.012787672057027449   -0.06971354476550883   -0.0020815810065798338
-0.01016048686229881   -0.07526704535906913   -0.0021644741605915028
-0.01627831827050023   -0.06932832073236779   -0.001951266971870746
-0.012787672057027449   -0.06971354476550883   -0.0020815810065798338
-0.012848553480127988   -0.074916673144036   -0.002462287231026733
-0.01016048686229881   -0.07526704535906913   -0.0021644741605915028
-0.012699360877167474   -0.06966903595564794   -0.0019268746163162815
-0.012524486342554614   -0.07488225188568037   -0.002174882782395573
-0.010025137978720426   -0.0752797540036662   -0.0019723466809666787
-0.012699360877167474   -0.06966903595564794   -0.0019268746163162815
-0.01627831827050023   -0.06932832073236779   -0.001951266971870746
-0.012524486342554614   -0.07488225188568037   -0.002174882782395573
-0.015966434941394603   -0.06935262345972217   -0.0016980901584683413
-0.010025137978720426   -0.0752797540036662   -0.0019723466809666787
-0.012104473517597844   -0.0749255249963894   -0.0018743656658056214
-0.015966434941394603   -0.06935262345972217   -0.0016980901584683413
-0.012524486342554614   -0.07488225188568037   -0.002174882782395573
-0.010025137978720426   -0.0752797540036662   -0.0019723466809666787
-0.015966434941394603   -0.06935262345972217   -0.0016980901584683413
-0.012627611693906412   -0.06966706098826822   -0.0017626379904263389
-0.012699360877167474   -0.06966903595564794   -0.0019268746163162815
-0.010025137978720426   -0.0752797540036662   -0.0019723466809666787
-0.015966434941394603   -0.06935262345972217   -0.0016980901584683413
-0.012699360877167474   -0.06966903595564794   -0.0019268746163162815
-0.012524486342554614   -0.07488225188568037   -0.002174882782395573
0.00041227865559739557   -0.06993932150204643   -0.0012028476708793544
0.0024821641060697843   -0.06254422639785102   -0.0009166425503227476
-0.0029706843911031047   -0.07010713266824038   -0.0015206726018530752
0.0006321673917815125   -0.06977761386731005   -0.0013817865555595082
0.0024821641060697843   -0.06254422639785102   -0.0009166425503227476
-0.0019962065558090055   -0.06265510748155162   -0.001219999162769802
-0.0029706843911031047   -0.07010713266824038   -0.0015206726018530752
-0.0019841047057998   -0.06252102350176483   -0.0012744460508664307
0.0006321673917815125   -0.06977761386731005   -0.0013817865555595082
-0.002912403241487863   -0.06997232599725736   -0.0015992373193906236
-0.0019841047057998   -0.06252102350176483   -0.0012744460508664307
-0.0029706843911031047   -0.07010713266824038   -0.0015206726018530752
0.0006321673917815125   -0.06977761386731005   -0.0013817865555595082
-0.0019841047057998   -0.06252102350176483   -0.0012744460508664307
0.0026127082861989114   -0.06238643481671535   -0.0010489502268808575
0.0024821641060697843   -0.06254422639785102   -0.0009166425503227476
0.0006321673917815125   -0.06977761386731005   -0.0013817865555595082
-0.0019841047057998   -0.06252102350176483   -0.0012744460508664307
0.0024821641060697843   -0.06254422639785102   -0.0009166425503227476
-0.0029706843911031047   -0.07010713266824038   -0.0015206726018530752
0.0006321673917815125   -0.06977761386731005   -0.0013817865555595082
0.0026127082861989114   -0.06238643481671535   -0.0010489502268808575
-0.002912403241487863   -0.06997232599725736   -0.0015992373193906236
0.0007939113681516266   -0.0696841345416571   -0.001547906181442433
0.0026127082861989114   -0.06238643481671535   -0.0010489502268808575
-0.0019841047057998   -0.06252102350176483   -0.0012744460508664307
-0.002912403241487863   -0.06997232599725736   -0.0015992373193906236
-0.00196871482634119   -0.06242379517027868   -0.001320525155063355
0.0007939113681516266   -0.0696841345416571   -0.001547906181442433
-0.0028460459001220565   -0.06988425211467245   -0.0016686432204051542
-0.00196871482634119   -0.06242379517027868   -0.001320525155063355
-0.002912403241487863   -0.06997232599725736   -0.0015992373193906236
0.0007939113681516266   -0.0696841345416571   -0.001547906181442433
-0.00196871482634119   -0.06242379517027868   -0.001320525155063355
0.002696155304865378   -0.06228287160714979   -0.0011694334178166677
0.0026127082861989114   -0.06238643481671535   -0.0010489502268808575
0.0007939113681516266   -0.0696841345416571   -0.001547906181442433
-0.00196871482634119   -0.06242379517027868   -0.001320525155063355
0.0026127082861989114   -0.06238643481671535   -0.0010489502268808575
-0.002912403241487863   -0.06997232599725736   -0.0015992373193906236
0.0007939113681516266   -0.0696841345416571   -0.001547906181442433
0.002696155304865378   -0.06228287160714979   -0.0011694334178166677
-0.0028460459001220565   -0.06988425211467245   -0.0016686432204051542
0.0009670385312204753   -0.0696379973843235   -0.0017011434516374516
0.002696155304865378   -0.06228287160714979   -0.0011694334178166677
-0.00196871482634119   -0.06242379517027868   -0.001320525155063355
-0.0028460459001220565   -0.06988425211467245   -0.0016686432204051542
-0.0019761033538163997   -0.06236031262793966   -0.0013588469340057368
0.0009670385312204753   -0.0696379973843235   -0.0017011434516374516
-0.0028063746582380647   -0.06984030582193584   -0.0017297945228345896
-0.0019761033538163997   -0.06236031262793966   -0.0013588469340057368
-0.0028460459001220565   -0.06988425211467245   -0.0016686432204051542
0.0009670385312204753   -0.0696379973843235   -0.0017011434516374516
-0.0019761033538163997   -0.06236031262793966   -0.0013588469340057368
0.002781807647108173   -0.06221346218111368   -0.0012783396131415285
0.002696155304865378   -0.06228287160714979   -0.0011694334178166677
0.0009670385312204753   -0.0696379973843235   -0.0017011434516374516
-0.0019761033538163997   -0.06236031262793966   -0.0013588469340057368
0.002696155304865378   -0.06228287160714979   -0.0011694334178166677
-0.0028460459001220565   -0.06988425211467245   -0.0016686432204051542
-0.0029706843911031047   -0.07010713266824038   -0.0015206726018530752
-0.0019962065558090055   -0.06265510748155162   -0.001219999162769802
-0.006243186790503621   -0.07013922740593985   -0.001782582407071134
-0.002912403241487863   -0.06997232599725736   -0.0015992373193906236
-0.0019962065558090055   -0.06265510748155162   -0.001219999162769802
-0.006305548239661924   -0.0626556638559405   -0.0014702329324535412
-0.006243186790503621   -0.07013922740593985   -0.001782582407071134
-0.006306112230384989   -0.06254220400466452   -0.0014650951699913364
-0.002912403241487863   -0.06997232599725736   -0.0015992373193906236
-0.006200337611120515   -0.07002349737934459   -0.0017846118575122712
-0.006306112230384989   -0.06254220400466452   -0.0014650951699913364
-0.006243186790503621   -0.07013922740593985   -0.001782582407071134
-0.002912403241487863   -0.06997232599725736   -0.0015992373193906236
-0.006306112230384989   -0.06254220400466452   -0.0014650951699913364
-0.0019841047057998   -0.06252102350176483   -0.0012744460508664307
-0.0019962065558090055   -0.06265510748155162   -0.001219999162769802
-0.002912403241487863   -0.06997232599725736   -0.0015992373193906236
-0.006306112230384989   -0.06254220400466452   -0.0014650951699913364
-0.0019962065558090055   -0.06265510748155162   -0.001219999162769802
-0.006243186790503621   -0.07013922740593985   -0.001782582407071134
-0.002912403241487863   -0.06997232599725736   -0.0015992373193906236
-0.0019841047057998   -0.06252102350176483   -0.0012744460508664307
-0.006200337611120515   -0.07002349737934459   -0.0017846118575122712
-0.0028460459001220565   -0.06988425211467245   -0.0016686432204051542
-0.0019841047057998   -0.06252102350176483   -0.0012744460508664307
-0.006306112230384989   -0.06254220400466452   -0.0014650951699913364
-0.006200337611120515   -0.07002349737934459   -0.0017846118575122712
-0.006306387869349135   -0.06246123559114306   -0.0014516228725504118
-0.0028460459001220565   -0.06988425211467245   -0.0016686432204051542
-0.006156277160128676   -0.06994959632793595   -0.0017778668483148042
-0.006306387869349135   -0.06246123559114306   -0.0014516228725504118
-0.006200337611120515   -0.07002349737934459   -0.0017846118575122712
-0.0028460459001220565   -0.06988425211467245   -0.0016686432204051542
-0.006306387869349135   -0.06246123559114306   -0.0014516228725504118
-0.00196871482634119   -0.06242379517027868   -0.001320525155063355
-0.0019841047057998   -0.06252102350176483   -0.0012744460508664307
-0.0028460459001220565   -0.06988425211467245   -0.0016686432204051542
-0.006306387869349135   -0.06246123559114306   -0.0014516228725504118
-0.0019841047057998   -0.06252102350176483   -0.0012744460508664307
-0.006200337611120515   -0.07002349737934459   -0.0017846118575122712
-0.0028460459001220565   -0.06988425211467245   -0.0016686432204051542
-0.00196871482634119   -0.06242379517027868   -0.001320525155063355
-0.006156277160128676   -0.06994959632793595   -0.0017778668483148042
-0.0028063746582380647   -0.06984030582193584   -0.0017297945228345896
-0.00196871482634119   -0.06242379517027868   -0.001320525155063355
-0.006306387869349135   -0.06246123559114306   -0.0014516228725504118
-0.006156277160128676   -0.06994959632793595   -0.0017778668483148042
-0.006312426248766023   -0.06241281575746777   -0.001430247539910414
-0.0028063746582380647   -0.06984030582193584   -0.0017297945228345896
-0.006117739375563965   -0.06991683244830911   -0.001762930718542977
-0.006312426248766023   -0.06241281575746777   -0.001430247539910414
-0.006156277160128676   -0.06994959632793595   -0.0017778668483148042
-0.0028063746582380647   -0.06984030582193584   -0.0017297945228345896
-0.006312426248766023   -0.06241281575746777   -0.001430247539910414
-0.0019761033538163997   -0.06236031262793966   -0.0013588469340057368
-0.00196871482634119   -0.06242379517027868   -0.001320525155063355
-0.0028063746582380647   -0.06984030582193584   -0.0017297945228345896
-0.006312426248766023   -0.06241281575746777   -0.001430247539910414
-0.00196871482634119   -0.06242379517027868   -0.001320525155063355
-0.006156277160128676   -0.06994959632793595   -0.0017778668483148042
-0.006243186790503621   -0.07013922740593985   -0.001782582407071134
-0.006305548239661924   -0.0626556638559405   -0.0014702329324535412
-0.009464211258798857   -0.07003502926828323   -0.002019003486882373
-0.006200337611120515   -0.07002349737934459   -0.0017846118575122712
-0.006305548239661924   -0.0626556638559405   -0.0014702329324535412
-0.010541659447103021   -0.06254841937510189   -0.0016894454184082502
-0.009464211258798857   -0.07003502926828323   -0.002019003486882373
-0.01054541131480711   -0.06245308498530583   -0.0016254413107360472
-0.006200337611120515   -0.07002349737934459   -0.0017846118575122712
-0.009424318010445486   -0.06993517539222771   -0.0019463439019303298
-0.01054541131480711   -0.06245308498530583   -0.0016254413107360472
-0.009464211258798857   -0.07003502926828323   -0.002019003486882373
-0.006200337611120515   -0.07002349737934459   -0.0017846118575122712
-0.01054541131480711   -0.06245308498530583   -0.0016254413107360472
-0.006306112230384989   -0.06254220400466452   -0.0014650951699913364
-0.006305548239661924   -0.0626556638559405   -0.0014702329324535412
-0.006200337611120515   -0.07002349737934459   -0.0017846118575122712
-0.01054541131480711   -0.06245308498530583   -0.0016254413107360472
-0.006305548239661924   -0.0626556638559405   -0.0014702329324535412
-0.009464211258798857   -0.07003502926828323   -0.002019003486882373
-0.006200337611120515   -0.07002349737934459   -0.0017846118575122712
-0.006306112230384989   -0.06254220400466452   -0.0014650951699913364
-0.009424318010445486   -0.06993517539222771   -0.0019463439019303298
-0.006156277160128676   -0.06994959632793595   -0.0017778668483148042
-0.006306112230384989   -0.06254220400466452   -0.0014650951699913364
-0.01054541131480711   -0.06245308498530583   -0.0016254413107360472
-0.009424318010445486   -0.06993517539222771   -0.0019463439019303298
-0.010541942539823651   -0.06238995451841405   -0.0015532639678872513
-0.006156277160128676   -0.06994959632793595   -0.0017778668483148042
-0.009376113262604745   -0.06987669016043056   -0.0018650997335037012
-0.010541942539823651   -0.06238995451841405   -0.0015532639678872513
-0.009424318010445486   -0.06993517539222771   -0.0019463439019303298
-0.006156277160128676   -0.06994959632793595   -0.0017778668483148042
-0.010541942539823651   -0.06238995451841405   -0.0015532639678872513
-0.006306387869349135   -0.06246123559114306   -0.0014516228725504118
-0.006306112230384989   -0.06254220400466452   -0.0014650951699913364
-0.006156277160128676   -0.06994959632793595   -0.0017778668483148042
-0.010541942539823651   -0.06238995451841405   -0.0015532639678872513
-0.006306112230384989   -0.06254220400466452   -0.0014650951699913364
-0.009424318010445486   -0.06993517539222771   -0.0019463439019303298
-0.006156277160128676   -0.06994959632793595   -0.0017778668483148042
-0.006306387869349135   -0.06246123559114306   -0.0014516228725504118
-0.009376113262604745   -0.06987669016043056   -0.0018650997335037012
-0.006117739375563965   -0.06991683244830911   -0.001762930718542977
-0.006306387869349135   -0.06246123559114306   -0.0014516228725504118
-0.010541942539823651   -0.06238995451841405   -0.0015532639678872513
-0.009376113262604745   -0.06987669016043056   -0.0018650997335037012
-0.010539773624694939   -0.06235846166874131   -0.0014731519427918782
-0.006117739375563965   -0.06991683244830911   -0.001762930718542977
-0.009329225305747913   -0.06985764832695052   -0.0017755354639320694
-0.010539773624694939   -0.06235846166874131   -0.0014731519427918782
-0.009376113262604745   -0.06987669016043056   -0.0018650997335037012
-0.006117739375563965   -0.06991683244830911   -0.001762930718542977
-0.010539773624694939   -0.06235846166874131   -0.0014731519427918782
-0.006312426248766023   -0.06241281575746777   -0.001430247539910414
-0.006306387869349135   -0.06246123559114306   -0.0014516228725504118
-0.006117739375563965   -0.06991683244830911   -0.001762930718542977
-0.010539773624694939   -0.06235846166874131   -0.0014731519427918782
-0.006306387869349135   -0.06246123559114306   -0.0014516228725504118
-0.009376113262604745   -0.06987669016043056   -0.0018650997335037012
-0.009464211258798857   -0.07003502926828323   -0.002019003486882373
-0.010541659447103021   -0.06254841937510189   -0.0016894454184082502
-0.012839769532690587   -0.06979823607802478   -0.0022290212565398153
-0.009424318010445486   -0.06993517539222771   -0.0019463439019303298
-0.010541659447103021   -0.06254841937510189   -0.0016894454184082502
-0.014909833639612095   -0.062337439682165194   -0.0018780413804663253
-0.012839769532690587   -0.06979823607802478   -0.0022290212565398153
-0.014904697707761734   -0.06225946718296092   -0.0017544752061194311
-0.009424318010445486   -0.06993517539222771   -0.0019463439019303298
-0.012787672057027449   -0.06971354476550883   -0.0020815810065798338
-0.014904697707761734   -0.06225946718296092   -0.0017544752061194311
-0.012839769532690587   -0.06979823607802478   -0.0022290212565398153
-0.009424318010445486   -0.06993517539222771   -0.0019463439019303298
-0.014904697707761734   -0.06225946718296092   -0.0017544752061194311
-0.01054541131480711   -0.06245308498530583   -0.0016254413107360472
-0.010541659447103021   -0.06254841937510189   -0.0016894454184082502
-0.009424318010445486   -0.06993517539222771   -0.0019463439019303298
-0.014904697707761734   -0.06225946718296092   -0.0017544752061194311
-0.010541659447103021   -0.06254841937510189   -0.0016894454184082502
-0.012839769532690587   -0.06979823607802478   -0.0022290212565398153
-0.009424318010445486   -0.06993517539222771   -0.0019463439019303298
-0.01054541131480711   -0.06245308498530583   -0.0016254413107360472
-0.012787672057027449   -0.06971354476550883   -0.0020815810065798338
-0.009376113262604745   -0.06987669016043056   -0.0018650997335037012
-0.01054541131480711   -0.06245308498530583   -0.0016254413107360472
-0.014904697707761734   -0.06225946718296092   -0.0017544752061194311
-0.012787672057027449   -0.06971354476550883   -0.0020815810065798338
-0.014868086605525728   -0.06221251057756862   -0.001623967525493049
-0.009376113262604745   -0.06987669016043056   -0.0018650997335037012
-0.012699360877167474   -0.06966903595564794   -0.0019268746163162815
-0.014868086605525728   -0.06221251057756862   -0.001623967525493049
-0.012787672057027449   -0.06971354476550883   -0.0020815810065798338
-0.009376113262604745   -0.06987669016043056   -0.0018650997335037012
-0.014868086605525728   -0.06221251057756862   -0.001623967525493049
-0.010541942539823651   -0.06238995451841405   -0.0015532639678872513
-0.01054541131480711   -0.06245308498530583   -0.0016254413107360472
-0.009376113262604745   -0.06987669016043056   -0.0018650997335037012
-0.014868086605525728   -0.06221251057756862   -0.001623967525493049
-0.01054541131480711   -0.06245308498530583   -0.0016254413107360472
-0.012787672057027449   -0.06971354476550883   -0.0020815810065798338
-0.009376113262604745   -0.06987669016043056   -0.0018650997335037012
-0.010541942539823651   -0.06238995451841405   -0.0015532639678872513
-0.012699360877167474   -0.06966903595564794   -0.0019268746163162815
-0.009329225305747913   -0.06985764832695052   -0.0017755354639320694
-0.010541942539823651   -0.06238995451841405   -0.0015532639678872513
-0.014868086605525728   -0.06221251057756862   -0.001623967525493049
-0.012699360877167474   -0.06966903595564794   -0.0019268746163162815
-0.014843612934341183   -0.062199849447025515   -0.001484888067009954
-0.009329225305747913   -0.06985764832695052   -0.0017755354639320694
-0.012627611693906412   -0.06966706098826822   -0.0017626379904263389
-0.014843612934341183   -0.062199849447025515   -0.001484888067009954
-0.012699360877167474   -0.06966903595564794   -0.0019268746163162815
-0.009329225305747913   -0.06985764832695052   -0.0017755354639320694
-0.014843612934341183   -0.062199849447025515   -0.001484888067009954
-0.010539773624694939   -0.06235846166874131   -0.0014731519427918782
-0.010541942539823651   -0.06238995451841405   -0.0015532639678872513
-0.009329225305747913   -0.06985764832695052   -0.0017755354639320694
-0.014843612934341183   -0.062199849447025515   -0.001484888067009954
-0.010541942539823651   -0.06238995451841405   -0.0015532639678872513
-0.012699360877167474   -0.06966903595564794   -0.0019268746163162815
-0.012839769532690587   -0.06979823607802478   -0.0022290212565398153
-0.014909833639612095   -0.062337439682165194   -0.0018780413804663253
-0.016776475547548478   -0.06945733444823321   -0.002424780563745149
-0.012787672057027449   -0.06971354476550883   -0.0020815810065798338
-0.014909833639612095   -0.062337439682165194   -0.0018780413804663253
-0.01978900703182113   -0.06204671909367845   -0.0020480692691891636
-0.016776475547548478   -0.06945733444823321   -0.002424780563745149
-0.01960672444626316   -0.06197021336028502   -0.0018590595858258307
-0.012787672057027449   -0.06971354476550883   -0.0020815810065798338
-0.01650980121937654   -0.06936903550833817   -0.0021940128591619755
-0.01960672444626316   -0.06197021336028502   -0.0018590595858258307
-0.016776475547548478   -0.06945733444823321   -0.002424780563745149
-0.012787672057027449   -0.06971354476550883   -0.0020815810065798338
-0.01960672444626316   -0.06197021336028502   -0.0018590595858258307
-0.014904697707761734   -0.06225946718296092   -0.0017544752061194311
-0.014909833639612095   -0.062337439682165194   -0.0018780413804663253
-0.012787672057027449   -0.06971354476550883   -0.0020815810065798338
-0.01960672444626316   -0.06197021336028502   -0.0018590595858258307
-0.014909833639612095   -0.062337439682165194   -0.0018780413804663253
-0.016776475547548478   -0.06945733444823321   -0.002424780563745149
-0.012787672057027449   -0.06971354476550883   -0.0020815810065798338
-0.014904697707761734   -0.06225946718296092   -0.0017544752061194311
-0.01650980121937654   -0.06936903550833817   -0.0021940128591619755
-0.012699360877167474   -0.06966903595564794   -0.0019268746163162815
-0.014904697707761734   -0.06225946718296092   -0.0017544752061194311
-0.01960672444626316   -0.06197021336028502   -0.0018590595858258307
-0.01650980121937654   -0.06936903550833817   -0.0021940128591619755
-0.019450808126880943   -0.061929155561654174   -0.0016583848573444046
-0.012699360877167474   -0.06966903595564794   -0.0019268746163162815
-0.01627831827050023   -0.06932832073236779   -0.001951266971870746
-0.019450808126880943   -0.061929155561654174   -0.0016583848573444046
-0.01650980121937654   -0.06936903550833817   -0.0021940128591619755
-0.012699360877167474   -0.06966903595564794   -0.0019268746163162815
-0.019450808126880943   -0.061929155561654174   -0.0016583848573444046
-0.014868086605525728   -0.06221251057756862   -0.001623967525493049
-0.014904697707761734   -0.06225946718296092   -0.0017544752061194311
-0.012699360877167474   -0.06966903595564794   -0.0019268746163162815
-0.019450808126880943   -0.061929155561654174   -0.0016583848573444046
-0.014904697707761734   -0.06225946718296092   -0.0017544752061194311
-0.01650980121937654   -0.06936903550833817   -0.0021940128591619755
-0.012699360877167474   -0.06966903595564794   -0.0019268746163162815
-0.014868086605525728   -0.06221251057756862   -0.001623967525493049
-0.01627831827050023   -0.06932832073236779   -0.001951266971870746
-0.012627611693906412   -0.06966706098826822   -0.0017626379904263389
-0.014868086605525728   -0.06221251057756862   -0.001623967525493049
-0.019450808126880943   -0.061929155561654174   -0.0016583848573444046
-0.01627831827050023   -0.06932832073236779   -0.001951266971870746
-0.01922576066324285   -0.061942504642322156   -0.001447642954183442
-0.012627611693906412   -0.06966706098826822   -0.0017626379904263389
-0.015966434941394603   -0.06935262345972217   -0.0016980901584683413
-0.01922576066324285   -0.061942504642322156   -0.001447642954183442
-0.01627831827050023   -0.06932832073236779   -0.001951266971870746
-0.012627611693906412   -0.06966706098826822   -0.0017626379904263389
-0.01922576066324285   -0.061942504642322156   -0.001447642954183442
-0.014843612934341183   -0.062199849447025515   -0.001484888067009954
-0.014868086605525728   -0.06221251057756862   -0.001623967525493049
-0.012627611693906412   -0.06966706098826822   -0.0017626379904263389
-0.01922576066324285   -0.061942504642322156   -0.001447642954183442
-0.014868086605525728   -0.06221251057756862   -0.001623967525493049
-0.01627831827050023   -0.06932832073236779   -0.001951266971870746
0.0024821641060697843   -0.06254422639785102   -0.0009166425503227476
0.003907964897301454   -0.05365028928567085   -0.0006105877422216106
-0.0019962065558090055   -0.06265510748155162   -0.001219999162769802
0.0026127082861989114   -0.06238643481671535   -0.0010489502268808575
0.003907964897301454   -0.05365028928567085   -0.0006105877422216106
-0.0014046043945302046   -0.05370476996577473   -0.0008959983000983878
-0.0019962065558090055   -0.06265510748155162   -0.001219999162769802
-0.0014296395890003757   -0.05357394960843964   -0.0009253227826532137
0.0026127082861989114   -0.06238643481671535   -0.0010489502268808575
-0.0019841047057998   -0.06252102350176483   -0.0012744460508664307
-0.0014296395890003757   -0.05357394960843964   -0.0009253227826532137
-0.0019962065558090055   -0.06265510748155162   -0.001219999162769802
0.0026127082861989114   -0.06238643481671535   -0.0010489502268808575
-0.0014296395890003757   -0.05357394960843964   -0.0009253227826532137
0.003959464721748845   -0.053498267805644324   -0.0006972305550235401
0.003907964897301454   -0.05365028928567085   -0.0006105877422216106
0.0026127082861989114   -0.06238643481671535   -0.0010489502268808575
-0.0014296395890003757   -0.05357394960843964   -0.0009253227826532137
0.003907964897301454   -0.05365028928567085   -0.0006105877422216106
-0.0019962065558090055   -0.06265510748155162   -0.001219999162769802
0.0026127082861989114   -0.06238643481671535   -0.0010489502268808575
0.003959464721748845   -0.053498267805644324   -0.0006972305550235401
-0.0019841047057998   -0.06252102350176483   -0.0012744460508664307
0.002696155304865378   -0.06228287160714979   -0.0011694334178166677
0.003959464721748845   -0.053498267805644324   -0.0006972305550235401
-0.0014296395890003757   -0.05357394960843964   -0.0009253227826532137
-0.0019841047057998   -0.06252102350176483   -0.0012744460508664307
-0.001455956230619088   -0.0534704323984854   -0.0009471795757373402
0.002696155304865378   -0.06228287160714979   -0.0011694334178166677
-0.00196871482634119   -0.06242379517027868   -0.001320525155063355
-0.001455956230619088   -0.0534704323984854   -0.0009471795757373402
-0.0019841047057998   -0.06252102350176483   -0.0012744460508664307
0.002696155304865378   -0.06228287160714979   -0.0011694334178166677
-0.001455956230619088   -0.0534704323984854   -0.0009471795757373402
0.003975061455639984   -0.05338744933192595   -0.0007728568595687719
0.003959464721748845   -0.053498267805644324   -0.0006972305550235401
0.002696155304865378   -0.06228287160714979   -0.0011694334178166677
-0.001455956230619088   -0.0534704323984854   -0.0009471795757373402
0.003959464721748845   -0.053498267805644324   -0.0006972305550235401
-0.0019841047057998   -0.06252102350176483   -0.0012744460508664307
0.002696155304865378   -0.06228287160714979   -0.0011694334178166677
0.003975061455639984   -0.05338744933192595   -0.0007728568595687719
-0.00196871482634119   -0.06242379517027868   -0.001320525155063355
0.002781807647108173   -0.06221346218111368   -0.0012783396131415285
0.003975061455639984   -0.05338744933192595   -0.0007728568595687719
-0.001455956230619088   -0.0534704323984854   -0.0009471795757373402
-0.00196871482634119   -0.06242379517027868   -0.001320525155063355
-0.0015007287325308938   -0.05339096932919227   -0.0009618213141733854
0.002781807647108173   -0.06221346218111368   -0.0012783396131415285
-0.0019761033538163997   -0.06236031262793966   -0.0013588469340057368
-0.0015007287325308938   -0.05339096932919227   -0.0009618213141733854
-0.00196871482634119   -0.06242379517027868   -0.001320525155063355
0.002781807647108173   -0.06221346218111368   -0.0012783396131415285
-0.0015007287325308938   -0.05339096932919227   -0.0009618213141733854
0.003983763864635295   -0.053298325569789196   -0.0008379877021641246
0.003975061455639984   -0.05338744933192595   -0.0007728568595687719
0.002781807647108173   -0.06221346218111368   -0.0012783396131415285
-0.0015007287325308938   -0.05339096932919227   -0.0009618213141733854
0.003975061455639984   -0.05338744933192595   -0.0007728568595687719
-0.00196871482634119   -0.06242379517027868   -0.001320525155063355
-0.0019962065558090055   -0.06265510748155162   -0.001219999162769802
-0.0014046043945302046   -0.05370476996577473   -0.0008959983000983878
-0.006305548239661924   -0.0626556638559405   -0.0014702329324535412
-0.0019841047057998   -0.06252102350176483   -0.0012744460508664307
-0.0014046043945302046   -0.05370476996577473   -0.0008959983000983878
-0.00649678322032881   -0.053676700747808656   -0.0011310813293824598
-0.006305548239661924   -0.0626556638559405   -0.0014702329324535412
-0.006531469320314245   -0.05356734852930648   -0.0011173502154507322
-0.0019841047057998   -0.06252102350176483   -0.0012744460508664307
-0.006306112230384989   -0.06254220400466452   -0.0014650951699913364
-0.006531469320314245   -0.05356734852930648   -0.0011173502154507322
-0.006305548239661924   -0.0626556638559405   -0.0014702329324535412
-0.0019841047057998   -0.06252102350176483   -0.0012744460508664307
-0.006531469320314245   -0.05356734852930648   -0.0011173502154507322
-0.0014296395890003757   -0.05357394960843964   -0.0009253227826532137
-0.0014046043945302046   -0.05370476996577473   -0.0008959983000983878
-0.0019841047057998   -0.06252102350176483   -0.0012744460508664307
-0.006531469320314245   -0.05356734852930648   -0.0011173502154507322
-0.0014046043945302046   -0.05370476996577473   -0.0008959983000983878
-0.006305548239661924   -0.0626556638559405   -0.0014702329324535412
-0.0019841047057998   -0.06252102350176483   -0.0012744460508664307
-0.0014296395890003757   -0.05357394960843964   -0.0009253227826532137
-0.006306112230384989   -0.06254220400466452   -0.0014650951699913364
-0.00196871482634119   -0.06242379517027868   -0.001320525155063355
-0.0014296395890003757   -0.05357394960843964   -0.0009253227826532137
-0.006531469320314245   -0.05356734852930648   -0.0011173502154507322
-0.006306112230384989   -0.06254220400466452   -0.0014650951699913364
-0.006566631426911408   -0.05348140139440422   -0.0010959319562622877
-0.00196871482634119   -0.06242379517027868   -0.001320525155063355
-0.006306387869349135   -0.06246123559114306   -0.0014516228725504118
-0.006566631426911408   -0.05348140139440422   -0.0010959319562622877
-0.006306112230384989   -0.06254220400466452   -0.0014650951699913364
-0.00196871482634119   -0.06242379517027868   -0.001320525155063355
-0.006566631426911408   -0.05348140139440422   -0.0010959319562622877
-0.001455956230619088   -0.0534704323984854   -0.0009471795757373402
-0.0014296395890003757   -0.05357394960843964   -0.0009253227826532137
-0.00196871482634119   -0.06242379517027868   -0.001320525155063355
-0.006566631426911408   -0.05348140139440422   -0.0010959319562622877
-0.0014296395890003757   -0.05357394960843964   -0.0009253227826532137
-0.006306112230384989   -0.06254220400466452   -0.0014650951699913364
-0.00196871482634119   -0.06242379517027868   -0.001320525155063355
-0.001455956230619088   -0.0534704323984854   -0.0009471795757373402
-0.006306387869349135   -0.06246123559114306   -0.0014516228725504118
-0.0019761033538163997   -0.06236031262793966   -0.0013588469340057368
-0.001455956230619088   -0.0534704323984854   -0.0009471795757373402
-0.006566631426911408   -0.05348140139440422   -0.0010959319562622877
-0.006306387869349135   -0.06246123559114306   -0.0014516228725504118
-0.006607262479739929   -0.053419257147835436   -0.0010671963247624715
-0.0019761033538163997   -0.06236031262793966   -0.0013588469340057368
-0.006312426248766023   -0.06241281575746777   -0.001430247539910414
-0.006607262479739929   -0.053419257147835436   -0.0010671963247624715
-0.006306387869349135   -0.06246123559114306   -0.0014516228725504118
-0.0019761033538163997   -0.06236031262793966   -0.0013588469340057368
-0.006607262479739929   -0.053419257147835436   -0.0010671963247624715
-0.0015007287325308938   -0.05339096932919227   -0.0009618213141733854
-0.001455956230619088   -0.0534704323984854   -0.0009471795757373402
-0.0019761033538163997   -0.06236031262793966   -0.0013588469340057368
-0.006607262479739929   -0.053419257147835436   -0.0010671963247624715
-0.001455956230619088   -0.0534704323984854   -0.0009471795757373402
-0.006306387869349135   -0.06246123559114306   -0.0014516228725504118
-0.006305548239661924   -0.0626556638559405   -0.0014702329324535412
-0.00649678322032881   -0.053676700747808656   -0.0011310813293824598
-0.010541659447103021   -0.06254841937510189   -0.0016894454184082502
-0.006306112230384989   -0.06254220400466452   -0.0014650951699913364
-0.00649678322032881   -0.053676700747808656   -0.0011310813293824598
-0.011502849796828587   -0.05357117451803293   -0.0013322570644592373
-0.010541659447103021   -0.06254841937510189   -0.0016894454184082502
-0.011540263891325585   -0.05348133409458033   -0.001275676876659928
-0.006306112230384989   -0.06254220400466452   -0.0014650951699913364
-0.01054541131480711   -0.06245308498530583   -0.0016254413107360472
-0.011540263891325585   -0.05348133409458033   -0.001275676876659928
-0.010541659447103021   -0.06254841937510189   -0.0016894454184082502
-0.006306112230384989   -0.06254220400466452   -0.0014650951699913364
-0.011540263891325585   -0.05348133409458033   -0.001275676876659928
-0.006531469320314245   -0.05356734852930648   -0.0011173502154507322
-0.00649678322032881   -0.053676700747808656   -0.0011310813293824598
-0.006306112230384989   -0.06254220400466452   -0.0014650951699913364
-0.011540263891325585   -0.05348133409458033   -0.001275676876659928
-0.00649678322032881   -0.053676700747808656   -0.0011310813293824598
-0.010541659447103021   -0.06254841937510189   -0.0016894454184082502
-0.006306112230384989   -0.06254220400466452   -0.0014650951699913364
-0.006531469320314245   -0.05356734852930648   -0.0011173502154507322
-0.01054541131480711   -0.06245308498530583   -0.0016254413107360472
-0.006306387869349135   -0.06246123559114306   -0.0014516228725504118
-0.006531469320314245   -0.05356734852930648   -0.0011173502154507322
-0.011540263891325585   -0.05348133409458033   -0.001275676876659928
-0.01054541131480711   -0.06245308498530583   -0.0016254413107360472
-0.011571267862805374   -0.05341467505625607   -0.0012115450897598385
-0.006306387869349135   -0.06246123559114306   -0.0014516228725504118
-0.010541942539823651   -0.06238995451841405   -0.0015532639678872513
-0.011571267862805374   -0.05341467505625607   -0.0012115450897598385
-0.01054541131480711   -0.06245308498530583   -0.0016254413107360472
-0.006306387869349135   -0.06246123559114306   -0.0014516228725504118
-0.011571267862805374   -0.05341467505625607   -0.0012115450897598385
-0.006566631426911408   -0.05348140139440422   -0.0010959319562622877
-0.006531469320314245   -0.05356734852930648   -0.0011173502154507322
-0.006306387869349135   -0.06246123559114306   -0.0014516228725504118
-0.011571267862805374   -0.05341467505625607   -0.0012115450897598385
-0.006531469320314245   -0.05356734852930648   -0.0011173502154507322
-0.01054541131480711   -0.06245308498530583   -0.0016254413107360472
-0.006306387869349135   -0.06246123559114306   -0.0014516228725504118
-0.006566631426911408   -0.05348140139440422   -0.0010959319562622877
-0.010541942539823651   -0.06238995451841405   -0.0015532639678872513
-0.006312426248766023   -0.06241281575746777   -0.001430247539910414
-0.006566631426911408   -0.05348140139440422   -0.0010959319562622877
-0.011571267862805374   -0.05341467505625607   -0.0012115450897598385
-0.010541942539823651   -0.06238995451841405   -0.0015532639678872513
-0.011603171299324843   -0.05337110062562753   -0.0011400843058998818
-0.006312426248766023   -0.06241281575746777   -0.001430247539910414
-0.010539773624694939   -0.06235846166874131   -0.0014731519427918782
-0.011603171299324843   -0.05337110062562753   -0.0011400843058998818
-0.010541942539823651   -0.06238995451841405   -0.0015532639678872513
-0.006312426248766023   -0.06241281575746777   -0.001430247539910414
-0.011603171299324843   -0.05337110062562753   -0.0011400843058998818
-0.006607262479739929   -0.053419257147835436   -0.0010671963247624715
-0.006566631426911408   -0.05348140139440422   -0.0010959319562622877
-0.006312426248766023   -0.06241281575746777   -0.001430247539910414
-0.011603171299324843   -0.05337110062562753   -0.0011400843058998818
-0.006566631426911408   -0.05348140139440422   -0.0010959319562622877
-0.010541942539823651   -0.06238995451841405   -0.0015532639678872513
-0.010541659447103021   -0.06254841937510189   -0.0016894454184082502
-0.011502849796828587   -0.05357117451803293   -0.0013322570644592373
-0.014909833639612095   -0.062337439682165194   -0.0018780413804663253
-0.01054541131480711   -0.06245308498530583   -0.0016254413107360472
-0.011502849796828587   -0.05357117451803293   -0.0013322570644592373
-0.016627990504014218   -0.05339029825211878   -0.0015002848785151948
-0.014909833639612095   -0.062337439682165194   -0.0018780413804663253
-0.01665896054163829   -0.05331952181043839   -0.0014002731234324648
-0.01054541131480711   -0.06245308498530583   -0.0016254413107360472
-0.014904697707761734   -0.06225946718296092   -0.0017544752061194311
-0.01665896054163829   -0.05331952181043839   -0.0014002731234324648
-0.014909833639612095   -0.062337439682165194   -0.0018780413804663253
-0.01054541131480711   -0.06245308498530583   -0.0016254413107360472
-0.01665896054163829   -0.05331952181043839   -0.0014002731234324648
-0.011540263891325585   -0.05348133409458033   -0.001275676876659928
-0.011502849796828587   -0.05357117451803293   -0.0013322570644592373
-0.01054541131480711   -0.06245308498530583   -0.0016254413107360472
-0.01665896054163829   -0.05331952181043839   -0.0014002731234324648
-0.011502849796828587   -0.05357117451803293   -0.0013322570644592373
-0.014909833639612095   -0.062337439682165194   -0.0018780413804663253
-0.01054541131480711   -0.06245308498530583   -0.0016254413107360472
-0.011540263891325585   -0.05348133409458033   -0.001275676876659928
-0.014904697707761734   -0.06225946718296092   -0.0017544752061194311
-0.010541942539823651   -0.06238995451841405   -0.0015532639678872513
-0.011540263891325585   -0.05348133409458033   -0.001275676876659928
-0.01665896054163829   -0.05331952181043839   -0.0014002731234324648
-0.014904697707761734   -0.06225946718296092   -0.0017544752061194311
-0.016662986755395723   -0.05327049913440919   -0.0012937548656195604
-0.010541942539823651   -0.06238995451841405   -0.0015532639678872513
-0.014868086605525728   -0.06221251057756862   -0.001623967525493049
-0.016662986755395723   -0.05327049913440919   -0.0012937548656195604
-0.014904697707761734   -0.06225946718296092   -0.0017544752061194311
-0.010541942539823651   -0.06238995451841405   -0.0015532639678872513
-0.016662986755395723   -0.05327049913440919   -0.0012937548656195604
-0.011571267862805374   -0.05341467505625607   -0.0012115450897598385
-0.011540263891325585   -0.05348133409458033   -0.001275676876659928
-0.010541942539823651   -0.06238995451841405   -0.0015532639678872513
-0.016662986755395723   -0.05327049913440919   -0.0012937548656195604
-0.011540263891325585   -0.05348133409458033   -0.001275676876659928
-0.014904697707761734   -0.06225946718296092   -0.0017544752061194311
-0.010541942539823651   -0.06238995451841405   -0.0015532639678872513
-0.011571267862805374   -0.05341467505625607   -0.0012115450897598385
-0.014868086605525728   -0.06221251057756862   -0.001623967525493049
-0.010539773624694939   -0.06235846166874131   -0.0014731519427918782
-0.011571267862805374   -0.05341467505625607   -0.0012115450897598385
-0.016662986755395723   -0.05327049913440919   -0.0012937548656195604
-0.014868086605525728   -0.06221251057756862   -0.001623967525493049
-0.016674647597890443   -0.053246636434085434   -0.0011793525575952005
-0.010539773624694939   -0.06235846166874131   -0.0014731519427918782
-0.014843612934341183   -0.062199849447025515   -0.001484888067009954
-0.016674647597890443   -0.053246636434085434   -0.0011793525575952005
-0.014868086605525728   -0.06221251057756862   -0.001623967525493049
-0.010539773624694939   -0.06235846166874131   -0.0014731519427918782
-0.016674647597890443   -0.053246636434085434   -0.0011793525575952005
-0.011603171299324843   -0.05337110062562753   -0.0011400843058998818
-0.011571267862805374   -0.05341467505625607   -0.0012115450897598385
-0.010539773624694939   -0.06235846166874131   -0.0014731519427918782
-0.016674647597890443   -0.053246636434085434   -0.0011793525575952005
-0.011571267862805374   -0.05341467505625607   -0.0012115450897598385
-0.014868086605525728   -0.06221251057756862   -0.001623967525493049
-0.014909833639612095   -0.062337439682165194   -0.0018780413804663253
-0.016627990504014218   -0.05339029825211878   -0.0015002848785151948
-0.01978900703182113   -0.06204671909367845   -0.0020480692691891636
-0.014904697707761734   -0.06225946718296092   -0.0017544752061194311
-0.016627990504014218   -0.05339029825211878   -0.0015002848785151948
-0.022216770651063755   -0.05315309535403588   -0.0016438175457904852
-0.01978900703182113   -0.06204671909367845   -0.0020480692691891636
-0.0221099684149997   -0.05308844446189983   -0.0014979002085291017
-0.014904697707761734   -0.06225946718296092   -0.0017544752061194311
-0.01960672444626316   -0.06197021336028502   -0.0018590595858258307
-0.0221099684149997   -0.05308844446189983   -0.0014979002085291017
-0.01978900703182113   -0.06204671909367845   -0.0020480692691891636
-0.014904697707761734   -0.06225946718296092   -0.0017544752061194311
-0.0221099684149997   -0.05308844446189983   -0.0014979002085291017
-0.01665896054163829   -0.05331952181043839   -0.0014002731234324648
-0.016627990504014218   -0.05339029825211878   -0.0015002848785151948
-0.014904697707761734   -0.06225946718296092   -0.0017544752061194311
-0.0221099684149997   -0.05308844446189983   -0.0014979002085291017
-0.016627990504014218   -0.05339029825211878   -0.0015002848785151948
-0.01978900703182113   -0.06204671909367845   -0.0020480692691891636
-0.014904697707761734   -0.06225946718296092   -0.0017544752061194311
-0.01665896054163829   -0.05331952181043839   -0.0014002731234324648
-0.01960672444626316   -0.06197021336028502   -0.0018590595858258307
-0.014868086605525728   -0.06221251057756862   -0.001623967525493049
-0.01665896054163829   -0.05331952181043839   -0.0014002731234324648
-0.0221099684149997   -0.05308844446189983   -0.0014979002085291017
-0.01960672444626316   -0.06197021336028502   -0.0018590595858258307
-0.022019915538687908   -0.05304689762113523   -0.0013406242174363828
-0.014868086605525728   -0.06221251057756862   -0.001623967525493049
-0.019450808126880943   -0.061929155561654174   -0.0016583848573444046
-0.022019915538687908   -0.05304689762113523   -0.0013406242174363828
-0.01960672444626316   -0.06197021336028502   -0.0018590595858258307
-0.014868086605525728   -0.06221251057756862   -0.001623967525493049
-0.022019915538687908   -0.05304689762113523   -0.0013406242174363828
-0.016662986755395723   -0.05327049913440919   -0.0012937548656195604
-0.01665896054163829   -0.05331952181043839   -0.0014002731234324648
-0.014868086605525728   -0.06221251057756862   -0.001623967525493049
-0.022019915538687908   -0.05304689762113523   -0.0013406242174363828
-0.01665896054163829   -0.05331952181043839   -0.0014002731234324648
-0.01960672444626316   -0.06197021336028502   -0.0018590595858258307
-0.014868086605525728   -0.06221251057756862   -0.001623967525493049
-0.016662986755395723   -0.05327049913440919   -0.0012937548656195604
-0.019450808126880943   -0.061929155561654174   -0.0016583848573444046
-0.014843612934341183   -0.062199849447025515   -0.001484888067009954
-0.016662986755395723   -0.05327049913440919   -0.0012937548656195604
-0.022019915538687908   -0.05304689762113523   -0.0013406242174363828
-0.019450808126880943   -0.061929155561654174   -0.0016583848573444046
-0.021871276653009555   -0.05304811294102066   -0.0011734051424146102
-0.014843612934341183   -0.062199849447025515   -0.001484888067009954
-0.01922576066324285   -0.061942504642322156   -0.001447642954183442
-0.021871276653009555   -0.05304811294102066   -0.0011734051424146102
-0.019450808126880943   -0.061929155561654174   -0.0016583848573444046
-0.014843612934341183   -0.062199849447025515   -0.001484888067009954
-0.021871276653009555   -0.05304811294102066   -0.0011734051424146102
-0.016674647597890443   -0.053246636434085434   -0.0011793525575952005
-0.016662986755395723   -0.05327049913440919   -0.0012937548656195604
-0.014843612934341183   -0.062199849447025515   -0.001484888067009954
-0.021871276653009555   -0.05304811294102066   -0.0011734051424146102
-0.016662986755395723   -0.05327049913440919   -0.0012937548656195604
-0.019450808126880943   -0.061929155561654174   -0.0016583848573444046
0.003907964897301454   -0.05365028928567085   -0.0006105877422216106
0.004699341583607659   -0.04367111350000709   -0.0003109123958462838
-0.0014046043945302046   -0.05370476996577473   -0.0008959983000983878
0.003959464721748845   -0.053498267805644324   -0.0006972305550235401
0.004699341583607659   -0.04367111350000709   -0.0003109123958462838
-0.0011978435742264408   -0.04366978736363261   -0.0005755959163022062
-0.0014046043945302046   -0.05370476996577473   -0.0008959983000983878
-0.0012506494663128255   -0.04354324193428217   -0.0005794859356989056
0.003959464721748845   -0.053498267805644324   -0.0006972305550235401
-0.0014296395890003757   -0.05357394960843964   -0.0009253227826532137
-0.0012506494663128255   -0.04354324193428217   -0.0005794859356989056
-0.0014046043945302046   -0.05370476996577473   -0.0008959983000983878
0.003959464721748845   -0.053498267805644324   -0.0006972305550235401
-0.0012506494663128255   -0.04354324193428217   -0.0005794859356989056
0.004682202808248311   -0.04352557291313483   -0.0003524140316836876
0.004699341583607659   -0.04367111350000709   -0.0003109123958462838
0.003959464721748845   -0.053498267805644324   -0.0006972305550235401
-0.0012506494663128255   -0.04354324193428217   -0.0005794859356989056
0.004699341583607659   -0.04367111350000709   -0.0003109123958462838
-0.0014046043945302046   -0.05370476996577473   -0.0008959983000983878
0.003959464721748845   -0.053498267805644324   -0.0006972305550235401
0.004682202808248311   -0.04352557291313483   -0.0003524140316836876
-0.0014296395890003757   -0.05357394960843964   -0.0009253227826532137
0.003975061455639984   -0.05338744933192595   -0.0007728568595687719
0.004682202808248311   -0.04352557291313483   -0.0003524140316836876
-0.0012506494663128255   -0.04354324193428217   -0.0005794859356989056
-0.0014296395890003757   -0.05357394960843964   -0.0009253227826532137
-0.0013093252256690536   -0.04343428530777758   -0.0005767566706994965
0.003975061455639984   -0.05338744933192595   -0.0007728568595687719
-0.001455956230619088   -0.0534704323984854   -0.0009471795757373402
-0.0013093252256690536   -0.04343428530777758   -0.0005767566706994965
-0.0014296395890003757   -0.05357394960843964   -0.0009253227826532137
0.003975061455639984   -0.05338744933192595   -0.0007728568595687719
-0.0013093252256690536   -0.04343428530777758   -0.0005767566706994965
0.004639690341615665   -0.04340842202651679   -0.00038330614194223323
0.004682202808248311   -0.04352557291313483   -0.0003524140316836876
0.003975061455639984   -0.05338744933192595   -0.0007728568595687719
-0.0013093252256690536   -0.04343428530777758   -0.0005767566706994965
0.004682202808248311   -0.04352557291313483   -0.0003524140316836876
-0.0014296395890003757   -0.05357394960843964   -0.0009253227826532137
0.003975061455639984   -0.05338744933192595   -0.0007728568595687719
0.004639690341615665   -0.04340842202651679   -0.00038330614194223323
-0.001455956230619088   -0.0534704323984854   -0.0009471795757373402
0.003983763864635295   -0.053298325569789196   -0.0008379877021641246
0.004639690341615665   -0.04340842202651679   -0.00038330614194223323
-0.0013093252256690536   -0.04343428530777758   -0.0005767566706994965
-0.001455956230619088   -0.0534704323984854   -0.0009471795757373402
-0.0013821313155324558   -0.0433400980121223   -0.0005671471679383944
0.003983763864635295   -0.053298325569789196   -0.0008379877021641246
-0.0015007287325308938   -0.05339096932919227   -0.0009618213141733854
-0.0013821313155324558   -0.0433400980121223   -0.0005671471679383944
-0.001455956230619088   -0.0534704323984854   -0.0009471795757373402
0.003983763864635295   -0.053298325569789196   -0.0008379877021641246
-0.0013821313155324558   -0.0433400980121223   -0.0005671471679383944
0.004580356013348357   -0.043300577227893836   -0.0004043296209491745
0.004639690341615665   -0.04340842202651679   -0.00038330614194223323
0.003983763864635295   -0.053298325569789196   -0.0008379877021641246
-0.0013821313155324558   -0.0433400980121223   -0.0005671471679383944
0.004639690341615665   -0.04340842202651679   -0.00038330614194223323
-0.001455956230619088   -0.0534704323984854   -0.0009471795757373402
-0.0014046043945302046   -0.05370476996577473   -0.0008959983000983878
-0.0011978435742264408   -0.04366978736363261   -0.0005755959163022062
-0.00649678322032881   -0.053676700747808656   -0.0011310813293824598
-0.0014296395890003757   -0.05357394960843964   -0.0009253227826532137
-0.0011978435742264408   -0.04366978736363261   -0.0005755959163022062
-0.006822661925250807   -0.04361645767736651   -0.0007941090145609439
-0.00649678322032881   -0.053676700747808656   -0.0011310813293824598
-0.006881740762762243   -0.04351138262511792   -0.0007710706478351654
-0.0014296395890003757   -0.05357394960843964   -0.0009253227826532137
-0.006531469320314245   -0.05356734852930648   -0.0011173502154507322
-0.006881740762762243   -0.04351138262511792   -0.0007710706478351654
-0.00649678322032881   -0.053676700747808656   -0.0011310813293824598
-0.0014296395890003757   -0.05357394960843964   -0.0009253227826532137
-0.006881740762762243   -0.04351138262511792   -0.0007710706478351654
-0.0012506494663128255   -0.04354324193428217   -0.0005794859356989056
-0.0011978435742264408   -0.04366978736363261   -0.0005755959163022062
-0.0014296395890003757   -0.05357394960843964   -0.0009253227826532137
-0.006881740762762243   -0.04351138262511792   -0.0007710706478351654
-0.0011978435742264408   -0.04366978736363261   -0.0005755959163022062
-0.00649678322032881   -0.053676700747808656   -0.0011310813293824598
-0.0014296395890003757   -0.05357394960843964   -0.0009253227826532137
-0.0012506494663128255   -0.04354324193428217   -0.0005794859356989056
-0.006531469320314245   -0.05356734852930648   -0.0011173502154507322
-0.001455956230619088   -0.0534704323984854   -0.0009471795757373402
-0.0012506494663128255   -0.04354324193428217   -0.0005794859356989056
-0.006881740762762243   -0.04351138262511792   -0.0007710706478351654
-0.006531469320314245   -0.05356734852930648   -0.0011173502154507322
-0.006942006580911994   -0.04342062625114255   -0.0007411379890162258
-0.001455956230619088   -0.0534704323984854   -0.0009471795757373402
-0.006566631426911408   -0.05348140139440422   -0.0010959319562622877
-0.006942006580911994   -0.04342062625114255   -0.0007411379890162258
-0.006531469320314245   -0.05356734852930648   -0.0011173502154507322
-0.001455956230619088   -0.0534704323984854   -0.0009471795757373402
-0.006942006580911994   -0.04342062625114255   -0.0007411379890162258
-0.0013093252256690536   -0.04343428530777758   -0.0005767566706994965
-0.0012506494663128255   -0.04354324193428217   -0.0005794859356989056
-0.001455956230619088   -0.0534704323984854   -0.0009471795757373402
-0.006942006580911994   -0.04342062625114255   -0.0007411379890162258
-0.0012506494663128255   -0.04354324193428217   -0.0005794859356989056
-0.006531469320314245   -0.05356734852930648   -0.0011173502154507322
-0.001455956230619088   -0.0534704323984854   -0.0009471795757373402
-0.0013093252256690536   -0.04343428530777758   -0.0005767566706994965
-0.006566631426911408   -0.05348140139440422   -0.0010959319562622877
-0.0015007287325308938   -0.05339096932919227   -0.0009618213141733854
-0.0013093252256690536   -0.04343428530777758   -0.0005767566706994965
-0.006942006580911994   -0.04342062625114255   -0.0007411379890162258
-0.006566631426911408   -0.05348140139440422   -0.0010959319562622877
-0.007007365306995863   -0.043345043267625206   -0.000704633462645591
-0.0015007287325308938   -0.05339096932919227   -0.0009618213141733854
-0.006607262479739929   -0.053419257147835436   -0.0010671963247624715
-0.007007365306995863   -0.043345043267625206   -0.000704633462645591
-0.006566631426911408   -0.05348140139440422   -0.0010959319562622877
-0.0015007287325308938   -0.05339096932919227   -0.0009618213141733854
-0.007007365306995863   -0.043345043267625206   -0.000704633462645591
-0.0013821313155324558   -0.0433400980121223   -0.0005671471679383944
-0.0013093252256690536   -0.04343428530777758   -0.0005767566706994965
-0.0015007287325308938   -0.05339096932919227   -0.0009618213141733854
-0.007007365306995863   -0.043345043267625206   -0.000704633462645591
-0.0013093252256690536   -0.04343428530777758   -0.0005767566706994965
-0.006566631426911408   -0.05348140139440422   -0.0010959319562622877
-0.00649678322032881   -0.053676700747808656   -0.0011310813293824598
-0.006822661925250807   -0.04361645767736651   -0.0007941090145609439
-0.011502849796828587   -0.05357117451803293   -0.0013322570644592373
-0.006531469320314245   -0.05356734852930648   -0.0011173502154507322
-0.006822661925250807   -0.04361645767736651   -0.0007941090145609439
-0.012352370340307534   -0.0435169942155568   -0.000978492430246411
-0.011502849796828587   -0.05357117451803293   -0.0013322570644592373
-0.01241318612317175   -0.04343171758058279   -0.000928571792260693
-0.006531469320314245   -0.05356734852930648   -0.0011173502154507322
-0.011540263891325585   -0.05348133409458033   -0.001275676876659928
-0.01241318612317175   -0.04343171758058279   -0.000928571792260693
-0.011502849796828587   -0.05357117451803293   -0.0013322570644592373
-0.006531469320314245   -0.05356734852930648   -0.0011173502154507322
-0.01241318612317175   -0.04343171758058279   -0.000928571792260693
-0.006881740762762243   -0.04351138262511792   -0.0007710706478351654
-0.006822661925250807   -0.04361645767736651   -0.0007941090145609439
-0.006531469320314245   -0.05356734852930648   -0.0011173502154507322
-0.01241318612317175   -0.04343171758058279   -0.000928571792260693
-0.006822661925250807   -0.04361645767736651   -0.0007941090145609439
-0.011502849796828587   -0.05357117451803293   -0.0013322570644592373
-0.006531469320314245   -0.05356734852930648   -0.0011173502154507322
-0.006881740762762243   -0.04351138262511792   -0.0007710706478351654
-0.011540263891325585   -0.05348133409458033   -0.001275676876659928
-0.006566631426911408   -0.05348140139440422   -0.0010959319562622877
-0.006881740762762243   -0.04351138262511792   -0.0007710706478351654
-0.01241318612317175   -0.04343171758058279   -0.000928571792260693
-0.011540263891325585   -0.05348133409458033   -0.001275676876659928
-0.012468360184288634   -0.04336065837489477   -0.0008719172705648822
-0.006566631426911408   -0.05348140139440422   -0.0010959319562622877
-0.011571267862805374   -0.05341467505625607   -0.0012115450897598385
-0.012468360184288634   -0.04336065837489477   -0.0008719172705648822
-0.011540263891325585   -0.05348133409458033   -0.001275676876659928
-0.006566631426911408   -0.05348140139440422   -0.0010959319562622877
-0.012468360184288634   -0.04336065837489477   -0.0008719172705648822
-0.006942006580911994   -0.04342062625114255   -0.0007411379890162258
-0.006881740762762243   -0.04351138262511792   -0.0007710706478351654
-0.006566631426911408   -0.05348140139440422   -0.0010959319562622877
-0.012468360184288634   -0.04336065837489477   -0.0008719172705648822
-0.006881740762762243   -0.04351138262511792   -0.0007710706478351654
-0.011540263891325585   -0.05348133409458033   -0.001275676876659928
-0.006566631426911408   -0.05348140139440422   -0.0010959319562622877
-0.006942006580911994   -0.04342062625114255   -0.0007411379890162258
-0.011571267862805374   -0.05341467505625607   -0.0012115450897598385
-0.006607262479739929   -0.053419257147835436   -0.0010671963247624715
-0.006942006580911994   -0.04342062625114255   -0.0007411379890162258
-0.012468360184288634   -0.04336065837489477   -0.0008719172705648822
-0.011571267862805374   -0.05341467505625607   -0.0012115450897598385
-0.012524056982183002   -0.04330393715991032   -0.0008087859519836395
-0.006607262479739929   -0.053419257147835436   -0.0010671963247624715
-0.011603171299324843   -0.05337110062562753   -0.0011400843058998818
-0.012524056982183002   -0.04330393715991032   -0.0008087859519836395
-0.011571267862805374   -0.05341467505625607   -0.0012115450897598385
-0.006607262479739929   -0.053419257147835436   -0.0010671963247624715
-0.012524056982183002   -0.04330393715991032   -0.0008087859519836395
-0.007007365306995863   -0.043345043267625206   -0.000704633462645591
-0.006942006580911994   -0.04342062625114255   -0.0007411379890162258
-0.006607262479739929   -0.053419257147835436   -0.0010671963247624715
-0.012524056982183002   -0.04330393715991032   -0.0008087859519836395
-0.006942006580911994   -0.04342062625114255   -0.0007411379890162258
-0.011571267862805374   -0.05341467505625607   -0.0012115450897598385
-0.011502849796828587   -0.05357117451803293   -0.0013322570644592373
-0.012352370340307534   -0.0435169942155568   -0.000978492430246411
-0.016627990504014218   -0.05339029825211878   -0.0015002848785151948
-0.011540263891325585   -0.05348133409458033   -0.001275676876659928
-0.012352370340307534   -0.0435169942155568   -0.000978492430246411
-0.017991585092212218   -0.04336928026084349   -0.0011291558604801875
-0.016627990504014218   -0.05339029825211878   -0.0015002848785151948
-0.018048059068917894   -0.04330397228084817   -0.0010521478828034276
-0.011540263891325585   -0.05348133409458033   -0.001275676876659928
-0.01665896054163829   -0.05331952181043839   -0.0014002731234324648
-0.018048059068917894   -0.04330397228084817   -0.0010521478828034276
-0.016627990504014218   -0.05339029825211878   -0.0015002848785151948
-0.011540263891325585   -0.05348133409458033   -0.001275676876659928
-0.018048059068917894   -0.04330397228084817   -0.0010521478828034276
-0.01241318612317175   -0.04343171758058279   -0.000928571792260693
-0.012352370340307534   -0.0435169942155568   -0.000978492430246411
-0.011540263891325585   -0.05348133409458033   -0.001275676876659928
-0.018048059068917894   -0.04330397228084817   -0.0010521478828034276
-0.012352370340307534   -0.0435169942155568   -0.000978492430246411
-0.016627990504014218   -0.05339029825211878   -0.0015002848785151948
-0.011540263891325585   -0.05348133409458033   -0.001275676876659928
-0.01241318612317175   -0.04343171758058279   -0.000928571792260693
-0.01665896054163829   -0.05331952181043839   -0.0014002731234324648
-0.011571267862805374   -0.05341467505625607   -0.0012115450897598385
-0.01241318612317175   -0.04343171758058279   -0.000928571792260693
-0.018048059068917894   -0.04330397228084817   -0.0010521478828034276
-0.01665896054163829   -0.05331952181043839   -0.0014002731234324648
-0.0180822932829435   -0.043251064114565106   -0.0009693154147068351
-0.011571267862805374   -0.05341467505625607   -0.0012115450897598385
-0.016662986755395723   -0.05327049913440919   -0.0012937548656195604
-0.0180822932829435   -0.043251064114565106   -0.0009693154147068351
-0.01665896054163829   -0.05331952181043839   -0.0014002731234324648
-0.011571267862805374   -0.05341467505625607   -0.0012115450897598385
-0.0180822932829435   -0.043251064114565106   -0.0009693154147068351
-0.012468360184288634   -0.04336065837489477   -0.0008719172705648822
-0.01241318612317175   -0.04343171758058279   -0.000928571792260693
-0.011571267862805374   -0.05341467505625607   -0.0012115450897598385
-0.0180822932829435   -0.043251064114565106   -0.0009693154147068351
-0.01241318612317175   -0.04343171758058279   -0.000928571792260693
-0.01665896054163829   -0.05331952181043839   -0.0014002731234324648
-0.011571267862805374   -0.05341467505625607   -0.0012115450897598385
-0.012468360184288634   -0.04336065837489477   -0.0008719172705648822
-0.016662986755395723   -0.05327049913440919   -0.0012937548656195604
-0.011603171299324843   -0.05337110062562753   -0.0011400843058998818
-0.012468360184288634   -0.04336065837489477   -0.0008719172705648822
-0.0180822932829435   -0.043251064114565106   -0.0009693154147068351
-0.016662986755395723   -0.05327049913440919   -0.0012937548656195604
-0.018119881575070034   -0.043213736179284534   -0.0008794538180501136
-0.011603171299324843   -0.05337110062562753   -0.0011400843058998818
-0.016674647597890443   -0.053246636434085434   -0.0011793525575952005
-0.018119881575070034   -0.043213736179284534   -0.0008794538180501136
-0.016662986755395723   -0.05327049913440919   -0.0012937548656195604
-0.011603171299324843   -0.05337110062562753   -0.0011400843058998818
-0.018119881575070034   -0.043213736179284534   -0.0008794538180501136
-0.012524056982183002   -0.04330393715991032   -0.0008087859519836395
-0.012468360184288634   -0.04336065837489477   -0.0008719172705648822
-0.011603171299324843   -0.05337110062562753   -0.0011400843058998818
-0.018119881575070034   -0.043213736179284534   -0.0008794538180501136
-0.012468360184288634   -0.04336065837489477   -0.0008719172705648822
-0.016662986755395723   -0.05327049913440919   -0.0012937548656195604
-0.016627990504014218   -0.05339029825211878   -0.0015002848785151948
-0.017991585092212218   -0.04336928026084349   -0.0011291558604801875
-0.022216770651063755   -0.05315309535403588   -0.0016438175457904852
-0.01665896054163829   -0.05331952181043839   -0.0014002731234324648
-0.017991585092212218   -0.04336928026084349   -0.0011291558604801875
-0.024043773742158447   -0.043187610033104264   -0.0012489659744852216
-0.022216770651063755   -0.05315309535403588   -0.0016438175457904852
-0.024002343911556766   -0.04313254516330067   -0.0011464052524622268
-0.01665896054163829   -0.05331952181043839   -0.0014002731234324648
-0.0221099684149997   -0.05308844446189983   -0.0014979002085291017
-0.024002343911556766   -0.04313254516330067   -0.0011464052524622268
-0.022216770651063755   -0.05315309535403588   -0.0016438175457904852
-0.01665896054163829   -0.05331952181043839   -0.0014002731234324648
-0.024002343911556766   -0.04313254516330067   -0.0011464052524622268
-0.018048059068917894   -0.04330397228084817   -0.0010521478828034276
-0.017991585092212218   -0.04336928026084349   -0.0011291558604801875
-0.01665896054163829   -0.05331952181043839   -0.0014002731234324648
-0.024002343911556766   -0.04313254516330067   -0.0011464052524622268
-0.017991585092212218   -0.04336928026084349   -0.0011291558604801875
-0.022216770651063755   -0.05315309535403588   -0.0016438175457904852
-0.01665896054163829   -0.05331952181043839   -0.0014002731234324648
-0.018048059068917894   -0.04330397228084817   -0.0010521478828034276
-0.0221099684149997   -0.05308844446189983   -0.0014979002085291017
-0.016662986755395723   -0.05327049913440919   -0.0012937548656195604
-0.018048059068917894   -0.04330397228084817   -0.0010521478828034276
-0.024002343911556766   -0.04313254516330067   -0.0011464052524622268
-0.0221099684149997   -0.05308844446189983   -0.0014979002085291017
-0.02396858466184589   -0.04308818717997003   -0.0010331570351648843
-0.016662986755395723   -0.05327049913440919   -0.0012937548656195604
-0.022019915538687908   -0.05304689762113523   -0.0013406242174363828
-0.02396858466184589   -0.04308818717997003   -0.0010331570351648843
-0.0221099684149997   -0.05308844446189983   -0.0014979002085291017
-0.016662986755395723   -0.05327049913440919   -0.0012937548656195604
-0.02396858466184589   -0.04308818717997003   -0.0010331570351648843
-0.0180822932829435   -0.043251064114565106   -0.0009693154147068351
-0.018048059068917894   -0.04330397228084817   -0.0010521478828034276
-0.016662986755395723   -0.05327049913440919   -0.0012937548656195604
-0.02396858466184589   -0.04308818717997003   -0.0010331570351648843
-0.018048059068917894   -0.04330397228084817   -0.0010521478828034276
-0.0221099684149997   -0.05308844446189983   -0.0014979002085291017
-0.016662986755395723   -0.05327049913440919   -0.0012937548656195604
-0.0180822932829435   -0.043251064114565106   -0.0009693154147068351
-0.022019915538687908   -0.05304689762113523   -0.0013406242174363828
-0.016674647597890443   -0.053246636434085434   -0.0011793525575952005
-0.0180822932829435   -0.043251064114565106   -0.0009693154147068351
-0.02396858466184589   -0.04308818717997003   -0.0010331570351648843
-0.022019915538687908   -0.05304689762113523   -0.0013406242174363828
-0.023887330121582884   -0.04307410157562729   -0.0009104405582455668
-0.016674647597890443   -0.053246636434085434   -0.0011793525575952005
-0.021871276653009555   -0.05304811294102066   -0.0011734051424146102
-0.023887330121582884   -0.04307410157562729   -0.0009104405582455668
-0.022019915538687908   -0.05304689762113523   -0.0013406242174363828
-0.016674647597890443   -0.053246636434085434   -0.0011793525575952005
-0.023887330121582884   -0.04307410157562729   -0.0009104405582455668
-0.018119881575070034   -0.043213736179284534   -0.0008794538180501136
-0.0180822932829435   -0.043251064114565106   -0.0009693154147068351
-0.016674647597890443   -0.053246636434085434   -0.0011793525575952005
-0.023887330121582884   -0.04307410157562729   -0.0009104405582455668
-0.0180822932829435   -0.043251064114565106   -0.0009693154147068351
-0.022019915538687908   -0.05304689762113523   -0.0013406242174363828
0.004699341583607659   -0.04367111350000709   -0.0003109123958462838
0.004856742380208526   -0.03300339314549113   -4.84383894849594e-05
-0.0011978435742264408   -0.04366978736363261   -0.0005755959163022062
0.004682202808248311   -0.04352557291313483   -0.0003524140316836876
0.004856742380208526   -0.03300339314549113   -4.84383894849594e-05
-0.0013746170971233797   -0.03294850493763865   -0.00028644194634234885
-0.0011978435742264408   -0.04366978736363261   -0.0005755959163022062
-0.0014470727391184847   -0.03282738314506844   -0.0002649123146692484
0.004682202808248311   -0.04352557291313483   -0.0003524140316836876
-0.0012506494663128255   -0.04354324193428217   -0.0005794859356989056
-0.0014470727391184847   -0.03282738314506844   -0.0002649123146692484
-0.0011978435742264408   -0.04366978736363261   -0.0005755959163022062
0.004682202808248311   -0.04352557291313483   -0.0003524140316836876
-0.0014470727391184847   -0.03282738314506844   -0.0002649123146692484
0.0047797866462135595   -0.03286455202874408   -4.402522593899206e-05
0.004856742380208526   -0.03300339314549113   -4.84383894849594e-05
0.004682202808248311   -0.04352557291313483   -0.0003524140316836876
-0.0014470727391184847   -0.03282738314506844   -0.0002649123146692484
0.004856742380208526   -0.03300339314549113   -4.84383894849594e-05
-0.0011978435742264408   -0.04366978736363261   -0.0005755959163022062
0.004682202808248311   -0.04352557291313483   -0.0003524140316836876
0.0047797866462135595   -0.03286455202874408   -4.402522593899206e-05
-0.0012506494663128255   -0.04354324193428217   -0.0005794859356989056
0.004639690341615665   -0.04340842202651679   -0.00038330614194223323
0.0047797866462135595   -0.03286455202874408   -4.402522593899206e-05
-0.0014470727391184847   -0.03282738314506844   -0.0002649123146692484
-0.0012506494663128255   -0.04354324193428217   -0.0005794859356989056
-0.0015300191471366875   -0.0327130380687238   -0.00023738306112778618
0.004639690341615665   -0.04340842202651679   -0.00038330614194223323
-0.0013093252256690536   -0.04343428530777758   -0.0005767566706994965
-0.0015300191471366875   -0.0327130380687238   -0.00023738306112778618
-0.0012506494663128255   -0.04354324193428217   -0.0005794859356989056
0.004639690341615665   -0.04340842202651679   -0.00038330614194223323
-0.0015300191471366875   -0.0327130380687238   -0.00023738306112778618
0.004685376368751361   -0.03274044668838452   -2.7351502251947954e-05
0.0047797866462135595   -0.03286455202874408   -4.402522593899206e-05
0.004639690341615665   -0.04340842202651679   -0.00038330614194223323
-0.0015300191471366875   -0.0327130380687238   -0.00023738306112778618
0.0047797866462135595   -0.03286455202874408   -4.402522593899206e-05
-0.0012506494663128255   -0.04354324193428217   -0.0005794859356989056
0.004639690341615665   -0.04340842202651679   -0.00038330614194223323
0.004685376368751361   -0.03274044668838452   -2.7351502251947954e-05
-0.0013093252256690536   -0.04343428530777758   -0.0005767566706994965
0.004580356013348357   -0.043300577227893836   -0.0004043296209491745
0.004685376368751361   -0.03274044668838452   -2.7351502251947954e-05
-0.0015300191471366875   -0.0327130380687238   -0.00023738306112778618
-0.0013093252256690536   -0.04343428530777758   -0.0005767566706994965
-0.0016231044775861755   -0.03260390619900291   -0.00020234990354541427
0.004580356013348357   -0.043300577227893836   -0.0004043296209491745
-0.0013821313155324558   -0.0433400980121223   -0.0005671471679383944
-0.0016231044775861755   -0.03260390619900291   -0.00020234990354541427
-0.0013093252256690536   -0.04343428530777758   -0.0005767566706994965
0.004580356013348357   -0.043300577227893836   -0.0004043296209491745
-0.0016231044775861755   -0.03260390619900291   -0.00020234990354541427
0.004560939172992944   -0.032610607488769504   1.0274544940454827e-06
0.004685376368751361   -0.03274044668838452   -2.7351502251947954e-05
0.004580356013348357   -0.043300577227893836   -0.0004043296209491745
-0.0016231044775861755   -0.03260390619900291   -0.00020234990354541427
0.004685376368751361   -0.03274044668838452   -2.7351502251947954e-05
-0.0013093252256690536   -0.04343428530777758   -0.0005767566706994965
-0.0011978435742264408   -0.04366978736363261   -0.0005755959163022062
-0.0013746170971233797   -0.03294850493763865   -0.00028644194634234885
-0.006822661925250807   -0.04361645767736651   -0.0007941090145609439
-0.0012506494663128255   -0.04354324193428217   -0.0005794859356989056
-0.0013746170971233797   -0.03294850493763865   -0.00028644194634234885
-0.007279164799650075   -0.03288461981123759   -0.0004879255273716012
-0.006822661925250807   -0.04361645767736651   -0.0007941090145609439
-0.007353056106130329   -0.032783289427730046   -0.0004549944485682643
-0.0012506494663128255   -0.04354324193428217   -0.0005794859356989056
-0.006881740762762243   -0.04351138262511792   -0.0007710706478351654
-0.007353056106130329   -0.032783289427730046   -0.0004549944485682643
-0.006822661925250807   -0.04361645767736651   -0.0007941090145609439
-0.0012506494663128255   -0.04354324193428217   -0.0005794859356989056
-0.007353056106130329   -0.032783289427730046   -0.0004549944485682643
-0.0014470727391184847   -0.03282738314506844   -0.0002649123146692484
-0.0013746170971233797   -0.03294850493763865   -0.00028644194634234885
-0.0012506494663128255   -0.04354324193428217   -0.0005794859356989056
-0.007353056106130329   -0.032783289427730046   -0.0004549944485682643
-0.0013746170971233797   -0.03294850493763865   -0.00028644194634234885
-0.006822661925250807   -0.04361645767736651   -0.0007941090145609439
-0.0012506494663128255   -0.04354324193428217   -0.0005794859356989056
-0.0014470727391184847   -0.03282738314506844   -0.0002649123146692484
-0.006881740762762243   -0.04351138262511792   -0.0007710706478351654
-0.0013093252256690536   -0.04343428530777758   -0.0005767566706994965
-0.0014470727391184847   -0.03282738314506844   -0.0002649123146692484
-0.007353056106130329   -0.032783289427730046   -0.0004549944485682643
-0.006881740762762243   -0.04351138262511792   -0.0007710706478351654
-0.007428599216478832   -0.03268721986842698   -0.0004163474142946019
-0.0013093252256690536   -0.04343428530777758   -0.0005767566706994965
-0.006942006580911994   -0.04342062625114255   -0.0007411379890162258
-0.007428599216478832   -0.03268721986842698   -0.0004163474142946019
-0.006881740762762243   -0.04351138262511792   -0.0007710706478351654
-0.0013093252256690536   -0.04343428530777758   -0.0005767566706994965
-0.007428599216478832   -0.03268721986842698   -0.0004163474142946019
-0.0015300191471366875   -0.0327130380687238   -0.00023738306112778618
-0.0014470727391184847   -0.03282738314506844   -0.0002649123146692484
-0.0013093252256690536   -0.04343428530777758   -0.0005767566706994965
-0.007428599216478832   -0.03268721986842698   -0.0004163474142946019
-0.0014470727391184847   -0.03282738314506844   -0.0002649123146692484
-0.006881740762762243   -0.04351138262511792   -0.0007710706478351654
-0.0013093252256690536   -0.04343428530777758   -0.0005767566706994965
-0.0015300191471366875   -0.0327130380687238   -0.00023738306112778618
-0.006942006580911994   -0.04342062625114255   -0.0007411379890162258
-0.0013821313155324558   -0.0433400980121223   -0.0005671471679383944
-0.0015300191471366875   -0.0327130380687238   -0.00023738306112778618
-0.007428599216478832   -0.03268721986842698   -0.0004163474142946019
-0.006942006580911994   -0.04342062625114255   -0.0007411379890162258
-0.007508941670229666   -0.032597893978882055   -0.0003719214407018283
-0.0013821313155324558   -0.0433400980121223   -0.0005671471679383944
-0.007007365306995863   -0.043345043267625206   -0.000704633462645591
-0.007508941670229666   -0.032597893978882055   -0.0003719214407018283
-0.006942006580911994   -0.04342062625114255   -0.0007411379890162258
-0.0013821313155324558   -0.0433400980121223   -0.0005671471679383944
-0.007508941670229666   -0.032597893978882055   -0.0003719214407018283
-0.0016231044775861755   -0.03260390619900291   -0.00020234990354541427
-0.0015300191471366875   -0.0327130380687238   -0.00023738306112778618
-0.0013821313155324558   -0.0433400980121223   -0.0005671471679383944
-0.007508941670229666   -0.032597893978882055   -0.0003719214407018283
-0.0015300191471366875   -0.0327130380687238   -0.00023738306112778618
-0.006942006580911994   -0.04342062625114255   -0.0007411379890162258
-0.006822661925250807   -0.04361645767736651   -0.0007941090145609439
-0.007279164799650075   -0.03288461981123759   -0.0004879255273716012
-0.012352370340307534   -0.0435169942155568   -0.000978492430246411
-0.006881740762762243   -0.04351138262511792   -0.0007710706478351654
-0.007279164799650075   -0.03288461981123759   -0.0004879255273716012
-0.013087701731695182   -0.03280804993418133   -0.0006590716468990168
-0.012352370340307534   -0.0435169942155568   -0.000978492430246411
-0.013161049709300396   -0.03272506512380716   -0.0006147437337077025
-0.006881740762762243   -0.04351138262511792   -0.0007710706478351654
-0.01241318612317175   -0.04343171758058279   -0.000928571792260693
-0.013161049709300396   -0.03272506512380716   -0.0006147437337077025
-0.012352370340307534   -0.0435169942155568   -0.000978492430246411
-0.006881740762762243   -0.04351138262511792   -0.0007710706478351654
-0.013161049709300396   -0.03272506512380716   -0.0006147437337077025
-0.007353056106130329   -0.032783289427730046   -0.0004549944485682643
-0.007279164799650075   -0.03288461981123759   -0.0004879255273716012
-0.006881740762762243   -0.04351138262511792   -0.0007710706478351654
-0.013161049709300396   -0.03272506512380716   -0.0006147437337077025
-0.007279164799650075   -0.03288461981123759   -0.0004879255273716012
-0.012352370340307534   -0.0435169942155568   -0.000978492430246411
-0.006881740762762243   -0.04351138262511792   -0.0007710706478351654
-0.007353056106130329   -0.032783289427730046   -0.0004549944485682643
-0.01241318612317175   -0.04343171758058279   -0.000928571792260693
-0.006942006580911994   -0.04342062625114255   -0.0007411379890162258
-0.007353056106130329   -0.032783289427730046   -0.0004549944485682643
-0.013161049709300396   -0.03272506512380716   -0.0006147437337077025
-0.01241318612317175   -0.04343171758058279   -0.000928571792260693
-0.0132296545173896   -0.032647641554564566   -0.0005648953751877441
-0.006942006580911994   -0.04342062625114255   -0.0007411379890162258
-0.012468360184288634   -0.04336065837489477   -0.0008719172705648822
-0.0132296545173896   -0.032647641554564566   -0.0005648953751877441
-0.01241318612317175   -0.04343171758058279   -0.000928571792260693
-0.006942006580911994   -0.04342062625114255   -0.0007411379890162258
-0.0132296545173896   -0.032647641554564566   -0.0005648953751877441
-0.007428599216478832   -0.03268721986842698   -0.0004163474142946019
-0.007353056106130329   -0.032783289427730046   -0.0004549944485682643
-0.006942006580911994   -0.04342062625114255   -0.0007411379890162258
-0.0132296545173896   -0.032647641554564566   -0.0005648953751877441
-0.007353056106130329   -0.032783289427730046   -0.0004549944485682643
-0.01241318612317175   -0.04343171758058279   -0.000928571792260693
-0.006942006580911994   -0.04342062625114255   -0.0007411379890162258
-0.007428599216478832   -0.03268721986842698   -0.0004163474142946019
-0.012468360184288634   -0.04336065837489477   -0.0008719172705648822
-0.007007365306995863   -0.043345043267625206   -0.000704633462645591
-0.007428599216478832   -0.03268721986842698   -0.0004163474142946019
-0.0132296545173896   -0.032647641554564566   -0.0005648953751877441
-0.012468360184288634   -0.04336065837489477   -0.0008719172705648822
-0.013298504642733584   -0.03257599451161438   -0.0005098003660431648
-0.007007365306995863   -0.043345043267625206   -0.000704633462645591
-0.012524056982183002   -0.04330393715991032   -0.0008087859519836395
-0.013298504642733584   -0.03257599451161438   -0.0005098003660431648
-0.012468360184288634   -0.04336065837489477   -0.0008719172705648822
-0.007007365306995863   -0.043345043267625206   -0.000704633462645591
-0.013298504642733584   -0.03257599451161438   -0.0005098003660431648
-0.007508941670229666   -0.032597893978882055   -0.0003719214407018283
-0.007428599216478832   -0.03268721986842698   -0.0004163474142946019
-0.007007365306995863   -0.043345043267625206   -0.000704633462645591
-0.013298504642733584   -0.03257599451161438   -0.0005098003660431648
-0.007428599216478832   -0.03268721986842698   -0.0004163474142946019
-0.012468360184288634   -0.04336065837489477   -0.0008719172705648822
-0.012352370340307534   -0.0435169942155568   -0.000978492430246411
-0.013087701731695182   -0.03280804993418133   -0.0006590716468990168
-0.017991585092212218   -0.04336928026084349   -0.0011291558604801875
-0.01241318612317175   -0.04343171758058279   -0.000928571792260693
-0.013087701731695182   -0.03280804993418133   -0.0006590716468990168
-0.019001127477393145   -0.03270456149848666   -0.0007984182675569485
-0.017991585092212218   -0.04336928026084349   -0.0011291558604801875
-0.019071370081536608   -0.03264087837781915   -0.0007428288283539771
-0.01241318612317175   -0.04343171758058279   -0.000928571792260693
-0.018048059068917894   -0.04330397228084817   -0.0010521478828034276
-0.019071370081536608   -0.03264087837781915   -0.0007428288283539771
-0.017991585092212218   -0.04336928026084349   -0.0011291558604801875
-0.01241318612317175   -0.04343171758058279   -0.000928571792260693
-0.019071370081536608   -0.03264087837781915   -0.0007428288283539771
-0.013161049709300396   -0.03272506512380716   -0.0006147437337077025
-0.013087701731695182   -0.03280804993418133   -0.0006590716468990168
-0.01241318612317175   -0.04343171758058279   -0.000928571792260693
-0.019071370081536608   -0.03264087837781915   -0.0007428288283539771
-0.013087701731695182   -0.03280804993418133   -0.0006590716468990168
-0.017991585092212218   -0.04336928026084349   -0.0011291558604801875
-0.01241318612317175   -0.04343171758058279   -0.000928571792260693
-0.013161049709300396   -0.03272506512380716   -0.0006147437337077025
-0.018048059068917894   -0.04330397228084817   -0.0010521478828034276
-0.012468360184288634   -0.04336065837489477   -0.0008719172705648822
-0.013161049709300396   -0.03272506512380716   -0.0006147437337077025
-0.019071370081536608   -0.03264087837781915   -0.0007428288283539771
-0.018048059068917894   -0.04330397228084817   -0.0010521478828034276
-0.019124640212992438   -0.03258062330928341   -0.0006826316892197978
-0.012468360184288634   -0.04336065837489477   -0.0008719172705648822
-0.0180822932829435   -0.043251064114565106   -0.0009693154147068351
-0.019124640212992438   -0.03258062330928341   -0.0006826316892197978
-0.018048059068917894   -0.04330397228084817   -0.0010521478828034276
-0.012468360184288634   -0.04336065837489477   -0.0008719172705648822
-0.019124640212992438   -0.03258062330928341   -0.0006826316892197978
-0.0132296545173896   -0.032647641554564566   -0.0005648953751877441
-0.013161049709300396   -0.03272506512380716   -0.0006147437337077025
-0.012468360184288634   -0.04336065837489477   -0.0008719172705648822
-0.019124640212992438   -0.03258062330928341   -0.0006826316892197978
-0.013161049709300396   -0.03272506512380716   -0.0006147437337077025
-0.018048059068917894   -0.04330397228084817   -0.0010521478828034276
-0.012468360184288634   -0.04336065837489477   -0.0008719172705648822
-0.0132296545173896   -0.032647641554564566   -0.0005648953751877441
-0.0180822932829435   -0.043251064114565106   -0.0009693154147068351
-0.012524056982183002   -0.04330393715991032   -0.0008087859519836395
-0.0132296545173896   -0.032647641554564566   -0.0005648953751877441
-0.019124640212992438   -0.03258062330928341   -0.0006826316892197978
-0.0180822932829435   -0.043251064114565106   -0.0009693154147068351
-0.01917749099961663   -0.032526462766983295   -0.000616623211255112
-0.012524056982183002   -0.04330393715991032   -0.0008087859519836395
-0.018119881575070034   -0.043213736179284534   -0.0008794538180501136
-0.01917749099961663   -0.032526462766983295   -0.000616623211255112
-0.0180822932829435   -0.043251064114565106   -0.0009693154147068351
-0.012524056982183002   -0.04330393715991032   -0.0008087859519836395
-0.01917749099961663   -0.032526462766983295   -0.000616623211255112
-0.013298504642733584   -0.03257599451161438   -0.0005098003660431648
-0.0132296545173896   -0.032647641554564566   -0.0005648953751877441
-0.012524056982183002   -0.04330393715991032   -0.0008087859519836395
-0.01917749099961663   -0.032526462766983295   -0.000616623211255112
-0.0132296545173896   -0.032647641554564566   -0.0005648953751877441
-0.0180822932829435   -0.043251064114565106   -0.0009693154147068351
-0.017991585092212218   -0.04336928026084349   -0.0011291558604801875
-0.019001127477393145   -0.03270456149848666   -0.0007984182675569485
-0.024043773742158447   -0.043187610033104264   -0.0012489659744852216
-0.018048059068917894   -0.04330397228084817   -0.0010521478828034276
-0.019001127477393145   -0.03270456149848666   -0.0007984182675569485
-0.025268355964397443   -0.032582339119596994   -0.0009018531602123837
-0.024043773742158447   -0.043187610033104264   -0.0012489659744852216
-0.02527920143695793   -0.03253150058896333   -0.0008404727356350076
-0.018048059068917894   -0.04330397228084817   -0.0010521478828034276
-0.024002343911556766   -0.04313254516330067   -0.0011464052524622268
-0.02527920143695793   -0.03253150058896333   -0.0008404727356350076
-0.024043773742158447   -0.043187610033104264   -0.0012489659744852216
-0.018048059068917894   -0.04330397228084817   -0.0010521478828034276
-0.02527920143695793   -0.03253150058896333   -0.0008404727356350076
-0.019071370081536608   -0.03264087837781915   -0.0007428288283539771
-0.019001127477393145   -0.03270456149848666   -0.0007984182675569485
-0.018048059068917894   -0.04330397228084817   -0.0010521478828034276
-0.02527920143695793   -0.03253150058896333   -0.0008404727356350076
-0.019001127477393145   -0.03270456149848666   -0.0007984182675569485
-0.024043773742158447   -0.043187610033104264   -0.0012489659744852216
-0.018048059068917894   -0.04330397228084817   -0.0010521478828034276
-0.019071370081536608   -0.03264087837781915   -0.0007428288283539771
-0.024002343911556766   -0.04313254516330067   -0.0011464052524622268
-0.0180822932829435   -0.043251064114565106   -0.0009693154147068351
-0.019071370081536608   -0.03264087837781915   -0.0007428288283539771
-0.02527920143695793   -0.03253150058896333   -0.0008404727356350076
-0.024002343911556766   -0.04313254516330067   -0.0011464052524622268
-0.025290329069556076   -0.03248006315067477   -0.0007698130368404936
-0.0180822932829435   -0.043251064114565106   -0.0009693154147068351
-0.02396858466184589   -0.04308818717997003   -0.0010331570351648843
-0.025290329069556076   -0.03248006315067477   -0.0007698130368404936
-0.024002343911556766   -0.04313254516330067   -0.0011464052524622268
-0.0180822932829435   -0.043251064114565106   -0.0009693154147068351
-0.025290329069556076   -0.03248006315067477   -0.0007698130368404936
-0.019124640212992438   -0.03258062330928341   -0.0006826316892197978
-0.019071370081536608   -0.03264087837781915   -0.0007428288283539771
-0.0180822932829435   -0.043251064114565106   -0.0009693154147068351
-0.025290329069556076   -0.03248006315067477   -0.0007698130368404936
-0.019071370081536608   -0.03264087837781915   -0.0007428288283539771
-0.024002343911556766   -0.04313254516330067   -0.0011464052524622268
-0.0180822932829435   -0.043251064114565106   -0.0009693154147068351
-0.019124640212992438   -0.03258062330928341   -0.0006826316892197978
-0.02396858466184589   -0.04308818717997003   -0.0010331570351648843
-0.018119881575070034   -0.043213736179284534   -0.0008794538180501136
-0.019124640212992438   -0.03258062330928341   -0.0006826316892197978
-0.025290329069556076   -0.03248006315067477   -0.0007698130368404936
-0.02396858466184589   -0.04308818717997003   -0.0010331570351648843
-0.02526624452578968   -0.0324461323126386   -0.0006909760638482152
-0.018119881575070034   -0.043213736179284534   -0.0008794538180501136
-0.023887330121582884   -0.04307410157562729   -0.0009104405582455668
-0.02526624452578968   -0.0324461323126386   -0.0006909760638482152
-0.02396858466184589   -0.04308818717997003   -0.0010331570351648843
-0.018119881575070034   -0.043213736179284534   -0.0008794538180501136
-0.02526624452578968   -0.0324461323126386   -0.0006909760638482152
-0.01917749099961663   -0.032526462766983295   -0.000616623211255112
-0.019124640212992438   -0.03258062330928341   -0.0006826316892197978
-0.018119881575070034   -0.043213736179284534   -0.0008794538180501136
-0.02526624452578968   -0.0324461323126386   -0.0006909760638482152
-0.019124640212992438   -0.03258062330928341   -0.0006826316892197978
-0.02396858466184589   -0.04308818717997003   -0.0010331570351648843
0.004856742380208526   -0.03300339314549113   -4.84383894849594e-05
0.004352889180447919   -0.022019548751326997   0.0001327137853816318
-0.0013746170971233797   -0.03294850493763865   -0.00028644194634234885
0.0047797866462135595   -0.03286455202874408   -4.402522593899206e-05
0.004352889180447919   -0.022019548751326997   0.0001327137853816318
-0.0019245190327230651   -0.021915997971922813   -5.646990241503307e-05
-0.0013746170971233797   -0.03294850493763865   -0.00028644194634234885
-0.002011061496105771   -0.021806333901028936   -1.1554313380757594e-05
0.0047797866462135595   -0.03286455202874408   -4.402522593899206e-05
-0.0014470727391184847   -0.03282738314506844   -0.0002649123146692484
-0.002011061496105771   -0.021806333901028936   -1.1554313380757594e-05
-0.0013746170971233797   -0.03294850493763865   -0.00028644194634234885
0.0047797866462135595   -0.03286455202874408   -4.402522593899206e-05
-0.002011061496105771   -0.021806333901028936   -1.1554313380757594e-05
0.004216540854771535   -0.021887258841100102   0.00018865127315082053
0.004352889180447919   -0.022019548751326997   0.0001327137853816318
0.0047797866462135595   -0.03286455202874408   -4.402522593899206e-05
-0.002011061496105771   -0.021806333901028936   -1.1554313380757594e-05
0.004352889180447919   -0.022019548751326997   0.0001327137853816318
-0.0013746170971233797   -0.03294850493763865   -0.00028644194634234885
0.0047797866462135595   -0.03286455202874408   -4.402522593899206e-05
0.004216540854771535   -0.021887258841100102   0.00018865127315082053
-0.0014470727391184847   -0.03282738314506844   -0.0002649123146692484
0.004685376368751361   -0.03274044668838452   -2.7351502251947954e-05
0.004216540854771535   -0.021887258841100102   0.00018865127315082053
-0.002011061496105771   -0.021806333901028936   -1.1554313380757594e-05
-0.0014470727391184847   -0.03282738314506844   -0.0002649123146692484
-0.002112293338138487   -0.021690584177689105   4.134628659460982e-05
0.004685376368751361   -0.03274044668838452   -2.7351502251947954e-05
-0.0015300191471366875   -0.0327130380687238   -0.00023738306112778618
-0.002112293338138487   -0.021690584177689105   4.134628659460982e-05
-0.0014470727391184847   -0.03282738314506844   -0.0002649123146692484
0.004685376368751361   -0.03274044668838452   -2.7351502251947954e-05
-0.002112293338138487   -0.021690584177689105   4.134628659460982e-05
0.0040643786239685   -0.021755858460525086   0.0002689657826555604
0.004216540854771535   -0.021887258841100102   0.00018865127315082053
0.004685376368751361   -0.03274044668838452   -2.7351502251947954e-05
-0.002112293338138487   -0.021690584177689105   4.134628659460982e-05
0.004216540854771535   -0.021887258841100102   0.00018865127315082053
-0.0014470727391184847   -0.03282738314506844   -0.0002649123146692484
0.004685376368751361   -0.03274044668838452   -2.7351502251947954e-05
0.0040643786239685   -0.021755858460525086   0.0002689657826555604
-0.0015300191471366875   -0.0327130380687238   -0.00023738306112778618
0.004560939172992944   -0.032610607488769504   1.0274544940454827e-06
0.0040643786239685   -0.021755858460525086   0.0002689657826555604
-0.002112293338138487   -0.021690584177689105   4.134628659460982e-05
-0.0015300191471366875   -0.0327130380687238   -0.00023738306112778618
-0.0022169965161997264   -0.02156767468446582   0.00010212407884074345
0.004560939172992944   -0.032610607488769504   1.0274544940454827e-06
-0.0016231044775861755   -0.03260390619900291   -0.00020234990354541427
-0.0022169965161997264   -0.02156767468446582   0.00010212407884074345
-0.0015300191471366875   -0.0327130380687238   -0.00023738306112778618
0.004560939172992944   -0.032610607488769504   1.0274544940454827e-06
-0.0022169965161997264   -0.02156767468446582   0.00010212407884074345
0.003878459610576359   -0.02159444951349967   0.00035733602694851735
0.0040643786239685   -0.021755858460525086   0.0002689657826555604
0.004560939172992944   -0.032610607488769504   1.0274544940454827e-06
-0.0022169965161997264   -0.02156767468446582   0.00010212407884074345
0.0040643786239685   -0.021755858460525086   0.0002689657826555604
-0.0015300191471366875   -0.0327130380687238   -0.00023738306112778618
-0.0013746170971233797   -0.03294850493763865   -0.00028644194634234885
-0.0019245190327230651   -0.021915997971922813   -5.646990241503307e-05
-0.007279164799650075   -0.03288461981123759   -0.0004879255273716012
-0.0014470727391184847   -0.03282738314506844   -0.0002649123146692484
-0.0019245190327230651   -0.021915997971922813   -5.646990241503307e-05
-0.007835888832256149   -0.021889201032641716   -0.00023883927908934522
-0.007279164799650075   -0.03288461981123759   -0.0004879255273716012
-0.007914104682124508   -0.021793473079974014   -0.00019706508247190112
-0.0014470727391184847   -0.03282738314506844   -0.0002649123146692484
-0.007353056106130329   -0.032783289427730046   -0.0004549944485682643
-0.007914104682124508   -0.021793473079974014   -0.00019706508247190112
-0.007279164799650075   -0.03288461981123759   -0.0004879255273716012
-0.0014470727391184847   -0.03282738314506844   -0.0002649123146692484
-0.007914104682124508   -0.021793473079974014   -0.00019706508247190112
-0.002011061496105771   -0.021806333901028936   -1.1554313380757594e-05
-0.0019245190327230651   -0.021915997971922813   -5.646990241503307e-05
-0.0014470727391184847   -0.03282738314506844   -0.0002649123146692484
-0.007914104682124508   -0.021793473079974014   -0.00019706508247190112
-0.0019245190327230651   -0.021915997971922813   -5.646990241503307e-05
-0.007279164799650075   -0.03288461981123759   -0.0004879255273716012
-0.0014470727391184847   -0.03282738314506844   -0.0002649123146692484
-0.002011061496105771   -0.021806333901028936   -1.1554313380757594e-05
-0.007353056106130329   -0.032783289427730046   -0.0004549944485682643
-0.0015300191471366875   -0.0327130380687238   -0.00023738306112778618
-0.002011061496105771   -0.021806333901028936   -1.1554313380757594e-05
-0.007914104682124508   -0.021793473079974014   -0.00019706508247190112
-0.007353056106130329   -0.032783289427730046   -0.0004549944485682643
-0.00799501191886737   -0.02169389455696485   -0.00015114975737299643
-0.0015300191471366875   -0.0327130380687238   -0.00023738306112778618
-0.007428599216478832   -0.03268721986842698   -0.0004163474142946019
-0.00799501191886737   -0.02169389455696485   -0.00015114975737299643
-0.007353056106130329   -0.032783289427730046   -0.0004549944485682643
-0.0015300191471366875   -0.0327130380687238   -0.00023738306112778618
-0.00799501191886737   -0.02169389455696485   -0.00015114975737299643
-0.002112293338138487   -0.021690584177689105   4.134628659460982e-05
-0.002011061496105771   -0.021806333901028936   -1.1554313380757594e-05
-0.0015300191471366875   -0.0327130380687238   -0.00023738306112778618
-0.00799501191886737   -0.02169389455696485   -0.00015114975737299643
-0.002011061496105771   -0.021806333901028936   -1.1554313380757594e-05
-0.007353056106130329   -0.032783289427730046   -0.0004549944485682643
-0.0015300191471366875   -0.0327130380687238   -0.00023738306112778618
-0.002112293338138487   -0.021690584177689105   4.134628659460982e-05
-0.007428599216478832   -0.03268721986842698   -0.0004163474142946019
-0.0016231044775861755   -0.03260390619900291   -0.00020234990354541427
-0.002112293338138487   -0.021690584177689105   4.134628659460982e-05
-0.00799501191886737   -0.02169389455696485   -0.00015114975737299643
-0.007428599216478832   -0.03268721986842698   -0.0004163474142946019
-0.008079239645554586   -0.021592242319366912   -0.00010026492664579573
-0.0016231044775861755   -0.03260390619900291   -0.00020234990354541427
-0.007508941670229666   -0.032597893978882055   -0.0003719214407018283
-0.008079239645554586   -0.021592242319366912   -0.00010026492664579573
-0.007428599216478832   -0.03268721986842698   -0.0004163474142946019
-0.0016231044775861755   -0.03260390619900291   -0.00020234990354541427
-0.008079239645554586   -0.021592242319366912   -0.00010026492664579573
-0.0022169965161997264   -0.02156767468446582   0.00010212407884074345
-0.002112293338138487   -0.021690584177689105   4.134628659460982e-05
-0.0016231044775861755   -0.03260390619900291   -0.00020234990354541427
-0.008079239645554586   -0.021592242319366912   -0.00010026492664579573
-0.002112293338138487   -0.021690584177689105   4.134628659460982e-05
-0.007428599216478832   -0.03268721986842698   -0.0004163474142946019
-0.007279164799650075   -0.03288461981123759   -0.0004879255273716012
-0.007835888832256149   -0.021889201032641716   -0.00023883927908934522
-0.013087701731695182   -0.03280804993418133   -0.0006590716468990168
-0.007353056106130329   -0.032783289427730046   -0.0004549944485682643
-0.007835888832256149   -0.021889201032641716   -0.00023883927908934522
-0.013686701135655394   -0.0218817542283974   -0.0004036933741828843
-0.013087701731695182   -0.03280804993418133   -0.0006590716468990168
-0.013761469426564012   -0.021797805181239967   -0.0003638557036477202
-0.007353056106130329   -0.032783289427730046   -0.0004549944485682643
-0.013161049709300396   -0.03272506512380716   -0.0006147437337077025
-0.013761469426564012   -0.021797805181239967   -0.0003638557036477202
-0.013087701731695182   -0.03280804993418133   -0.0006590716468990168
-0.007353056106130329   -0.032783289427730046   -0.0004549944485682643
-0.013761469426564012   -0.021797805181239967   -0.0003638557036477202
-0.007914104682124508   -0.021793473079974014   -0.00019706508247190112
-0.007835888832256149   -0.021889201032641716   -0.00023883927908934522
-0.007353056106130329   -0.032783289427730046   -0.0004549944485682643
-0.013761469426564012   -0.021797805181239967   -0.0003638557036477202
-0.007835888832256149   -0.021889201032641716   -0.00023883927908934522
-0.013087701731695182   -0.03280804993418133   -0.0006590716468990168
-0.007353056106130329   -0.032783289427730046   -0.0004549944485682643
-0.007914104682124508   -0.021793473079974014   -0.00019706508247190112
-0.013161049709300396   -0.03272506512380716   -0.0006147437337077025
-0.007428599216478832   -0.03268721986842698   -0.0004163474142946019
-0.007914104682124508   -0.021793473079974014   -0.00019706508247190112
-0.013761469426564012   -0.021797805181239967   -0.0003638557036477202
-0.013161049709300396   -0.03272506512380716   -0.0006147437337077025
-0.013832693799409953   -0.02171233205751209   -0.00032039752027225956
-0.007428599216478832   -0.03268721986842698   -0.0004163474142946019
-0.0132296545173896   -0.032647641554564566   -0.0005648953751877441
-0.013832693799409953   -0.02171233205751209   -0.00032039752027225956
-0.013161049709300396   -0.03272506512380716   -0.0006147437337077025
-0.007428599216478832   -0.03268721986842698   -0.0004163474142946019
-0.013832693799409953   -0.02171233205751209   -0.00032039752027225956
-0.00799501191886737   -0.02169389455696485   -0.00015114975737299643
-0.007914104682124508   -0.021793473079974014   -0.00019706508247190112
-0.007428599216478832   -0.03268721986842698   -0.0004163474142946019
-0.013832693799409953   -0.02171233205751209   -0.00032039752027225956
-0.007914104682124508   -0.021793473079974014   -0.00019706508247190112
-0.013161049709300396   -0.03272506512380716   -0.0006147437337077025
-0.007428599216478832   -0.03268721986842698   -0.0004163474142946019
-0.00799501191886737   -0.02169389455696485   -0.00015114975737299643
-0.0132296545173896   -0.032647641554564566   -0.0005648953751877441
-0.007508941670229666   -0.032597893978882055   -0.0003719214407018283
-0.00799501191886737   -0.02169389455696485   -0.00015114975737299643
-0.013832693799409953   -0.02171233205751209   -0.00032039752027225956
-0.0132296545173896   -0.032647641554564566   -0.0005648953751877441
-0.01390320131846735   -0.021624848212330364   -0.00027352463572684197
-0.007508941670229666   -0.032597893978882055   -0.0003719214407018283
-0.013298504642733584   -0.03257599451161438   -0.0005098003660431648
-0.01390320131846735   -0.021624848212330364   -0.00027352463572684197
-0.0132296545173896   -0.032647641554564566   -0.0005648953751877441
-0.007508941670229666   -0.032597893978882055   -0.0003719214407018283
-0.01390320131846735   -0.021624848212330364   -0.00027352463572684197
-0.008079239645554586   -0.021592242319366912   -0.00010026492664579573
-0.00799501191886737   -0.02169389455696485   -0.00015114975737299643
-0.007508941670229666   -0.032597893978882055   -0.0003719214407018283
-0.01390320131846735   -0.021624848212330364   -0.00027352463572684197
-0.00799501191886737   -0.02169389455696485   -0.00015114975737299643
-0.0132296545173896   -0.032647641554564566   -0.0005648953751877441
-0.013087701731695182   -0.03280804993418133   -0.0006590716468990168
-0.013686701135655394   -0.0218817542283974   -0.0004036933741828843
-0.019001127477393145   -0.03270456149848666   -0.0007984182675569485
-0.013161049709300396   -0.03272506512380716   -0.0006147437337077025
-0.013686701135655394   -0.0218817542283974   -0.0004036933741828843
-0.019661447984396844   -0.021847782791345277   -0.0005421876622119767
-0.019001127477393145   -0.03270456149848666   -0.0007984182675569485
-0.01973272643510764   -0.021779349774200037   -0.0005044857753267671
-0.013161049709300396   -0.03272506512380716   -0.0006147437337077025
-0.019071370081536608   -0.03264087837781915   -0.0007428288283539771
-0.01973272643510764   -0.021779349774200037   -0.0005044857753267671
-0.019001127477393145   -0.03270456149848666   -0.0007984182675569485
-0.013161049709300396   -0.03272506512380716   -0.0006147437337077025
-0.01973272643510764   -0.021779349774200037   -0.0005044857753267671
-0.013761469426564012   -0.021797805181239967   -0.0003638557036477202
-0.013686701135655394   -0.0218817542283974   -0.0004036933741828843
-0.013161049709300396   -0.03272506512380716   -0.0006147437337077025
-0.01973272643510764   -0.021779349774200037   -0.0005044857753267671
-0.013686701135655394   -0.0218817542283974   -0.0004036933741828843
-0.019001127477393145   -0.03270456149848666   -0.0007984182675569485
-0.013161049709300396   -0.03272506512380716   -0.0006147437337077025
-0.013761469426564012   -0.021797805181239967   -0.0003638557036477202
-0.019071370081536608   -0.03264087837781915   -0.0007428288283539771
-0.0132296545173896   -0.032647641554564566   -0.0005648953751877441
-0.013761469426564012   -0.021797805181239967   -0.0003638557036477202
-0.01973272643510764   -0.021779349774200037   -0.0005044857753267671
-0.019071370081536608   -0.03264087837781915   -0.0007428288283539771
-0.01979312848004233   -0.021707161201710776   -0.00046421471810681616
-0.0132296545173896   -0.032647641554564566   -0.0005648953751877441
-0.019124640212992438   -0.03258062330928341   -0.0006826316892197978
-0.01979312848004233   -0.021707161201710776   -0.00046421471810681616
-0.019071370081536608   -0.03264087837781915   -0.0007428288283539771
-0.0132296545173896   -0.032647641554564566   -0.0005648953751877441
-0.01979312848004233   -0.021707161201710776   -0.00046421471810681616
-0.013832693799409953   -0.02171233205751209   -0.00032039752027225956
-0.013761469426564012   -0.021797805181239967   -0.0003638557036477202
-0.0132296545173896   -0.032647641554564566   -0.0005648953751877441
-0.01979312848004233   -0.021707161201710776   -0.00046421471810681616
-0.013761469426564012   -0.021797805181239967   -0.0003638557036477202
-0.019071370081536608   -0.03264087837781915   -0.0007428288283539771
-0.0132296545173896   -0.032647641554564566   -0.0005648953751877441
-0.013832693799409953   -0.02171233205751209   -0.00032039752027225956
-0.019124640212992438   -0.03258062330928341   -0.0006826316892197978
-0.013298504642733584   -0.03257599451161438   -0.0005098003660431648
-0.013832693799409953   -0.02171233205751209   -0.00032039752027225956
-0.01979312848004233   -0.021707161201710776   -0.00046421471810681616
-0.019124640212992438   -0.03258062330928341   -0.0006826316892197978
-0.01985021772633308   -0.021633068033087663   -0.0004202537256111129
-0.013298504642733584   -0.03257599451161438   -0.0005098003660431648
-0.01917749099961663   -0.032526462766983295   -0.000616623211255112
-0.01985021772633308   -0.021633068033087663   -0.0004202537256111129
-0.019124640212992438   -0.03258062330928341   -0.0006826316892197978
-0.013298504642733584   -0.03257599451161438   -0.0005098003660431648
-0.01985021772633308   -0.021633068033087663   -0.0004202537256111129
-0.01390320131846735   -0.021624848212330364   -0.00027352463572684197
-0.013832693799409953   -0.02171233205751209   -0.00032039752027225956
-0.013298504642733584   -0.03257599451161438   -0.0005098003660431648
-0.01985021772633308   -0.021633068033087663   -0.0004202537256111129
-0.013832693799409953   -0.02171233205751209   -0.00032039752027225956
-0.019124640212992438   -0.03258062330928341   -0.0006826316892197978
-0.019001127477393145   -0.03270456149848666   -0.0007984182675569485
-0.019661447984396844   -0.021847782791345277   -0.0005421876622119767
-0.025268355964397443   -0.032582339119596994   -0.0009018531602123837
-0.019071370081536608   -0.03264087837781915   -0.0007428288283539771
-0.019661447984396844   -0.021847782791345277   -0.0005421876622119767
-0.02591983325665259   -0.021791838599374246   -0.0006446869248963536
-0.025268355964397443   -0.032582339119596994   -0.0009018531602123837
-0.025964175743544586   -0.021734380308579573   -0.0006164334995101083
-0.019071370081536608   -0.03264087837781915   -0.0007428288283539771
-0.02527920143695793   -0.03253150058896333   -0.0008404727356350076
-0.025964175743544586   -0.021734380308579573   -0.0006164334995101083
-0.025268355964397443   -0.032582339119596994   -0.0009018531602123837
-0.019071370081536608   -0.03264087837781915   -0.0007428288283539771
-0.025964175743544586   -0.021734380308579573   -0.0006164334995101083
-0.01973272643510764   -0.021779349774200037   -0.0005044857753267671
-0.019661447984396844   -0.021847782791345277   -0.0005421876622119767
-0.019071370081536608   -0.03264087837781915   -0.0007428288283539771
-0.025964175743544586   -0.021734380308579573   -0.0006164334995101083
-0.019661447984396844   -0.021847782791345277   -0.0005421876622119767
-0.025268355964397443   -0.032582339119596994   -0.0009018531602123837
-0.019071370081536608   -0.03264087837781915   -0.0007428288283539771
-0.01973272643510764   -0.021779349774200037   -0.0005044857753267671
-0.02527920143695793   -0.03253150058896333   -0.0008404727356350076
-0.019124640212992438   -0.03258062330928341   -0.0006826316892197978
-0.01973272643510764   -0.021779349774200037   -0.0005044857753267671
-0.025964175743544586   -0.021734380308579573   -0.0006164334995101083
-0.02527920143695793   -0.03253150058896333   -0.0008404727356350076
-0.02600472181096807   -0.02166936933990576   -0.0005818736695261676
-0.019124640212992438   -0.03258062330928341   -0.0006826316892197978
-0.025290329069556076   -0.03248006315067477   -0.0007698130368404936
-0.02600472181096807   -0.02166936933990576   -0.0005818736695261676
-0.02527920143695793   -0.03253150058896333   -0.0008404727356350076
-0.019124640212992438   -0.03258062330928341   -0.0006826316892197978
-0.02600472181096807   -0.02166936933990576   -0.0005818736695261676
-0.01979312848004233   -0.021707161201710776   -0.00046421471810681616
-0.01973272643510764   -0.021779349774200037   -0.0005044857753267671
-0.019124640212992438   -0.03258062330928341   -0.0006826316892197978
-0.02600472181096807   -0.02166936933990576   -0.0005818736695261676
-0.01973272643510764   -0.021779349774200037   -0.0005044857753267671
-0.02527920143695793   -0.03253150058896333   -0.0008404727356350076
-0.019124640212992438   -0.03258062330928341   -0.0006826316892197978
-0.01979312848004233   -0.021707161201710776   -0.00046421471810681616
-0.025290329069556076   -0.03248006315067477   -0.0007698130368404936
-0.01917749099961663   -0.032526462766983295   -0.000616623211255112
-0.01979312848004233   -0.021707161201710776   -0.00046421471810681616
-0.02600472181096807   -0.02166936933990576   -0.0005818736695261676
-0.025290329069556076   -0.03248006315067477   -0.0007698130368404936
-0.026024419912762754   -0.02160969502446569   -0.0005425860515077811
-0.01917749099961663   -0.032526462766983295   -0.000616623211255112
-0.02526624452578968   -0.0324461323126386   -0.0006909760638482152
-0.026024419912762754   -0.02160969502446569   -0.0005425860515077811
-0.025290329069556076   -0.03248006315067477   -0.0007698130368404936
-0.01917749099961663   -0.032526462766983295   -0.000616623211255112
-0.026024419912762754   -0.02160969502446569   -0.0005425860515077811
-0.01985021772633308   -0.021633068033087663   -0.0004202537256111129
-0.01979312848004233   -0.021707161201710776   -0.00046421471810681616
-0.01917749099961663   -0.032526462766983295   -0.000616623211255112
-0.026024419912762754   -0.02160969502446569   -0.0005425860515077811
-0.01979312848004233   -0.021707161201710776   -0.00046421471810681616
-0.025290329069556076   -0.03248006315067477   -0.0007698130368404936
0.004352889180447919   -0.022019548751326997   0.0001327137853816318
0.0030494297557007444   -0.011057221975770495   0.00014254388121371113
-0.0019245190327230651   -0.021915997971922813   -5.646990241503307e-05
0.004216540854771535   -0.021887258841100102   0.00018865127315082053
0.0030494297557007444   -0.011057221975770495   0.00014254388121371113
-0.002803828685055231   -0.010913787075867754   7.238931158936369e-05
-0.0019245190327230651   -0.021915997971922813   -5.646990241503307e-05
-0.0028899022123355642   -0.010858386630691387   0.000134774378801569
0.004216540854771535   -0.021887258841100102   0.00018865127315082053
-0.002011061496105771   -0.021806333901028936   -1.1554313380757594e-05
-0.0028899022123355642   -0.010858386630691387   0.000134774378801569
-0.0019245190327230651   -0.021915997971922813   -5.646990241503307e-05
0.004216540854771535   -0.021887258841100102   0.00018865127315082053
-0.0028899022123355642   -0.010858386630691387   0.000134774378801569
0.002781164128681482   -0.010916711945861671   0.0002969947504895886
0.0030494297557007444   -0.011057221975770495   0.00014254388121371113
0.004216540854771535   -0.021887258841100102   0.00018865127315082053
-0.0028899022123355642   -0.010858386630691387   0.000134774378801569
0.0030494297557007444   -0.011057221975770495   0.00014254388121371113
-0.0019245190327230651   -0.021915997971922813   -5.646990241503307e-05
0.004216540854771535   -0.021887258841100102   0.00018865127315082053
0.002781164128681482   -0.010916711945861671   0.0002969947504895886
-0.002011061496105771   -0.021806333901028936   -1.1554313380757594e-05
0.0040643786239685   -0.021755858460525086   0.0002689657826555604
0.002781164128681482   -0.010916711945861671   0.0002969947504895886
-0.0028899022123355642   -0.010858386630691387   0.000134774378801569
-0.002011061496105771   -0.021806333901028936   -1.1554313380757594e-05
-0.0030029990230489795   -0.010759808871366799   0.0002105203116769265
0.0040643786239685   -0.021755858460525086   0.0002689657826555604
-0.002112293338138487   -0.021690584177689105   4.134628659460982e-05
-0.0030029990230489795   -0.010759808871366799   0.0002105203116769265
-0.002011061496105771   -0.021806333901028936   -1.1554313380757594e-05
0.0040643786239685   -0.021755858460525086   0.0002689657826555604
-0.0030029990230489795   -0.010759808871366799   0.0002105203116769265
0.002624062170417811   -0.010801739627336736   0.00041227010160738793
0.002781164128681482   -0.010916711945861671   0.0002969947504895886
0.0040643786239685   -0.021755858460525086   0.0002689657826555604
-0.0030029990230489795   -0.010759808871366799   0.0002105203116769265
0.002781164128681482   -0.010916711945861671   0.0002969947504895886
-0.002011061496105771   -0.021806333901028936   -1.1554313380757594e-05
0.0040643786239685   -0.021755858460525086   0.0002689657826555604
0.002624062170417811   -0.010801739627336736   0.00041227010160738793
-0.002112293338138487   -0.021690584177689105   4.134628659460982e-05
0.003878459610576359   -0.02159444951349967   0.00035733602694851735
0.002624062170417811   -0.010801739627336736   0.00041227010160738793
-0.0030029990230489795   -0.010759808871366799   0.0002105203116769265
-0.002112293338138487   -0.021690584177689105   4.134628659460982e-05
-0.003098072406835393   -0.010653800338845332   0.0002772001155806309
0.003878459610576359   -0.02159444951349967   0.00035733602694851735
-0.0022169965161997264   -0.02156767468446582   0.00010212407884074345
-0.003098072406835393   -0.010653800338845332   0.0002772001155806309
-0.002112293338138487   -0.021690584177689105   4.134628659460982e-05
0.003878459610576359   -0.02159444951349967   0.00035733602694851735
-0.003098072406835393   -0.010653800338845332   0.0002772001155806309
0.002422748327940022   -0.01062605711047358   0.0005442581436496389
0.002624062170417811   -0.010801739627336736   0.00041227010160738793
0.003878459610576359   -0.02159444951349967   0.00035733602694851735
-0.003098072406835393   -0.010653800338845332   0.0002772001155806309
0.002624062170417811   -0.010801739627336736   0.00041227010160738793
-0.002112293338138487   -0.021690584177689105   4.134628659460982e-05
-0.0019245190327230651   -0.021915997971922813   -5.646990241503307e-05
-0.002803828685055231   -0.010913787075867754   7.238931158936369e-05
-0.007835888832256149   -0.021889201032641716   -0.00023883927908934522
-0.002011061496105771   -0.021806333901028936   -1.1554313380757594e-05
-0.002803828685055231   -0.010913787075867754   7.238931158936369e-05
-0.008375099988858907   -0.011075052385836864   -7.276247794701662e-05
-0.007835888832256149   -0.021889201032641716   -0.00023883927908934522
-0.008454332332652583   -0.010990394575498223   -2.8581686201778403e-05
-0.002011061496105771   -0.021806333901028936   -1.1554313380757594e-05
-0.007914104682124508   -0.021793473079974014   -0.00019706508247190112
-0.008454332332652583   -0.010990394575498223   -2.8581686201778403e-05
-0.007835888832256149   -0.021889201032641716   -0.00023883927908934522
-0.002011061496105771   -0.021806333901028936   -1.1554313380757594e-05
-0.008454332332652583   -0.010990394575498223   -2.8581686201778403e-05
-0.0028899022123355642   -0.010858386630691387   0.000134774378801569
-0.002803828685055231   -0.010913787075867754   7.238931158936369e-05
-0.002011061496105771   -0.021806333901028936   -1.1554313380757594e-05
-0.008454332332652583   -0.010990394575498223   -2.8581686201778403e-05
-0.002803828685055231   -0.010913787075867754   7.238931158936369e-05
-0.007835888832256149   -0.021889201032641716   -0.00023883927908934522
-0.002011061496105771   -0.021806333901028936   -1.1554313380757594e-05
-0.0028899022123355642   -0.010858386630691387   0.000134774378801569
-0.007914104682124508   -0.021793473079974014   -0.00019706508247190112
-0.002112293338138487   -0.021690584177689105   4.134628659460982e-05
-0.0028899022123355642   -0.010858386630691387   0.000134774378801569
-0.008454332332652583   -0.010990394575498223   -2.8581686201778403e-05
-0.007914104682124508   -0.021793473079974014   -0.00019706508247190112
-0.008537254567797649   -0.010894823895835728   1.816930149994992e-05
-0.002112293338138487   -0.021690584177689105   4.134628659460982e-05
-0.00799501191886737   -0.02169389455696485   -0.00015114975737299643
-0.008537254567797649   -0.010894823895835728   1.816930149994992e-05
-0.007914104682124508   -0.021793473079974014   -0.00019706508247190112
-0.002112293338138487   -0.021690584177689105   4.134628659460982e-05
-0.008537254567797649   -0.010894823895835728   1.816930149994992e-05
-0.0030029990230489795   -0.010759808871366799   0.0002105203116769265
-0.0028899022123355642   -0.010858386630691387   0.000134774378801569
-0.002112293338138487   -0.021690584177689105   4.134628659460982e-05
-0.008537254567797649   -0.010894823895835728   1.816930149994992e-05
-0.0028899022123355642   -0.010858386630691387   0.000134774378801569
-0.007914104682124508   -0.021793473079974014   -0.00019706508247190112
-0.002112293338138487   -0.021690584177689105   4.134628659460982e-05
-0.0030029990230489795   -0.010759808871366799   0.0002105203116769265
-0.00799501191886737   -0.02169389455696485   -0.00015114975737299643
-0.0022169965161997264   -0.02156767468446582   0.00010212407884074345
-0.0030029990230489795   -0.010759808871366799   0.0002105203116769265
-0.008537254567797649   -0.010894823895835728   1.816930149994992e-05
-0.00799501191886737   -0.02169389455696485   -0.00015114975737299643
-0.008616060969144414   -0.010790078669780316   6.972462104399016e-05
-0.0022169965161997264   -0.02156767468446582   0.00010212407884074345
-0.008079239645554586   -0.021592242319366912   -0.00010026492664579573
-0.008616060969144414   -0.010790078669780316   6.972462104399016e-05
-0.00799501191886737   -0.02169389455696485   -0.00015114975737299643
-0.0022169965161997264   -0.02156767468446582   0.00010212407884074345
-0.008616060969144414   -0.010790078669780316   6.972462104399016e-05
-0.003098072406835393   -0.010653800338845332   0.0002772001155806309
-0.0030029990230489795   -0.010759808871366799   0.0002105203116769265
-0.0022169965161997264   -0.02156767468446582   0.00010212407884074345
-0.008616060969144414   -0.010790078669780316   6.972462104399016e-05
-0.0030029990230489795   -0.010759808871366799   0.0002105203116769265
-0.00799501191886737   -0.02169389455696485   -0.00015114975737299643
-0.007835888832256149   -0.021889201032641716   -0.00023883927908934522
-0.008375099988858907   -0.011075052385836864   -7.276247794701662e-05
-0.013686701135655394   -0.0218817542283974   -0.0004036933741828843
-0.007914104682124508   -0.021793473079974014   -0.00019706508247190112
-0.008375099988858907   -0.011075052385836864   -7.276247794701662e-05
-0.014083152012769898   -0.011201027692104964   -0.0002335968762859395
-0.013686701135655394   -0.0218817542283974   -0.0004036933741828843
-0.014154303975518215   -0.011114116842616236   -0.00019937052526083332
-0.007914104682124508   -0.021793473079974014   -0.00019706508247190112
-0.013761469426564012   -0.021797805181239967   -0.0003638557036477202
-0.014154303975518215   -0.011114116842616236   -0.00019937052526083332
-0.013686701135655394   -0.0218817542283974   -0.0004036933741828843
-0.007914104682124508   -0.021793473079974014   -0.00019706508247190112
-0.014154303975518215   -0.011114116842616236   -0.00019937052526083332
-0.008454332332652583   -0.010990394575498223   -2.8581686201778403e-05
-0.008375099988858907   -0.011075052385836864   -7.276247794701662e-05
-0.007914104682124508   -0.021793473079974014   -0.00019706508247190112
-0.014154303975518215   -0.011114116842616236   -0.00019937052526083332
-0.008375099988858907   -0.011075052385836864   -7.276247794701662e-05
-0.013686701135655394   -0.0218817542283974   -0.0004036933741828843
-0.007914104682124508   -0.021793473079974014   -0.00019706508247190112
-0.008454332332652583   -0.010990394575498223   -2.8581686201778403e-05
-0.013761469426564012   -0.021797805181239967   -0.0003638557036477202
-0.00799501191886737   -0.02169389455696485   -0.00015114975737299643
-0.008454332332652583   -0.010990394575498223   -2.8581686201778403e-05
-0.014154303975518215   -0.011114116842616236   -0.00019937052526083332
-0.013761469426564012   -0.021797805181239967   -0.0003638557036477202
-0.014222401355585973   -0.01102233159226301   -0.00016526052388683718
-0.00799501191886737   -0.02169389455696485   -0.00015114975737299643
-0.013832693799409953   -0.02171233205751209   -0.00032039752027225956
-0.014222401355585973   -0.01102233159226301   -0.00016526052388683718
-0.013761469426564012   -0.021797805181239967   -0.0003638557036477202
-0.00799501191886737   -0.02169389455696485   -0.00015114975737299643
-0.014222401355585973   -0.01102233159226301   -0.00016526052388683718
-0.008537254567797649   -0.010894823895835728   1.816930149994992e-05
-0.008454332332652583   -0.010990394575498223   -2.8581686201778403e-05
-0.00799501191886737   -0.02169389455696485   -0.00015114975737299643
-0.014222401355585973   -0.01102233159226301   -0.00016526052388683718
-0.008454332332652583   -0.010990394575498223   -2.8581686201778403e-05
-0.013761469426564012   -0.021797805181239967   -0.0003638557036477202
-0.00799501191886737   -0.02169389455696485   -0.00015114975737299643
-0.008537254567797649   -0.010894823895835728   1.816930149994992e-05
-0.013832693799409953   -0.02171233205751209   -0.00032039752027225956
-0.008079239645554586   -0.021592242319366912   -0.00010026492664579573
-0.008537254567797649   -0.010894823895835728   1.816930149994992e-05
-0.014222401355585973   -0.01102233159226301   -0.00016526052388683718
-0.013832693799409953   -0.02171233205751209   -0.00032039752027225956
-0.014285163580919535   -0.01092296149558396   -0.00012813041919531752
-0.008079239645554586   -0.021592242319366912   -0.00010026492664579573
-0.01390320131846735   -0.021624848212330364   -0.00027352463572684197
-0.014285163580919535   -0.01092296149558396   -0.00012813041919531752
-0.013832693799409953   -0.02171233205751209   -0.00032039752027225956
-0.008079239645554586   -0.021592242319366912   -0.00010026492664579573
-0.014285163580919535   -0.01092296149558396   -0.00012813041919531752
-0.008616060969144414   -0.010790078669780316   6.972462104399016e-05
-0.008537254567797649   -0.010894823895835728   1.816930149994992e-05
-0.008079239645554586   -0.021592242319366912   -0.00010026492664579573
-0.014285163580919535   -0.01092296149558396   -0.00012813041919531752
-0.008537254567797649   -0.010894823895835728   1.816930149994992e-05
-0.013832693799409953   -0.02171233205751209   -0.00032039752027225956
-0.013686701135655394   -0.0218817542283974   -0.0004036933741828843
-0.014083152012769898   -0.011201027692104964   -0.0002335968762859395
-0.019661447984396844   -0.021847782791345277   -0.0005421876622119767
-0.013761469426564012   -0.021797805181239967   -0.0003638557036477202
-0.014083152012769898   -0.011201027692104964   -0.0002335968762859395
-0.019991699559837366   -0.011252704832048776   -0.0003820875780554502
-0.019661447984396844   -0.021847782791345277   -0.0005421876622119767
-0.020055799236099427   -0.011174623704910567   -0.00035714701478720113
-0.013761469426564012   -0.021797805181239967   -0.0003638557036477202
-0.01973272643510764   -0.021779349774200037   -0.0005044857753267671
-0.020055799236099427   -0.011174623704910567   -0.00035714701478720113
-0.019661447984396844   -0.021847782791345277   -0.0005421876622119767
-0.013761469426564012   -0.021797805181239967   -0.0003638557036477202
-0.020055799236099427   -0.011174623704910567   -0.00035714701478720113
-0.014154303975518215   -0.011114116842616236   -0.00019937052526083332
-0.014083152012769898   -0.011201027692104964   -0.0002335968762859395
-0.013761469426564012   -0.021797805181239967   -0.0003638557036477202
-0.020055799236099427   -0.011174623704910567   -0.00035714701478720113
-0.014083152012769898   -0.011201027692104964   -0.0002335968762859395
-0.019661447984396844   -0.021847782791345277   -0.0005421876622119767
-0.013761469426564012   -0.021797805181239967   -0.0003638557036477202
-0.014154303975518215   -0.011114116842616236   -0.00019937052526083332
-0.01973272643510764   -0.021779349774200037   -0.0005044857753267671
-0.013832693799409953   -0.02171233205751209   -0.00032039752027225956
-0.014154303975518215   -0.011114116842616236   -0.00019937052526083332
-0.020055799236099427   -0.011174623704910567   -0.00035714701478720113
-0.01973272643510764   -0.021779349774200037   -0.0005044857753267671
-0.02011291847264055   -0.011089592825460124   -0.0003329226617440283
-0.013832693799409953   -0.02171233205751209   -0.00032039752027225956
-0.01979312848004233   -0.021707161201710776   -0.00046421471810681616
-0.02011291847264055   -0.011089592825460124   -0.0003329226617440283
-0.01973272643510764   -0.021779349774200037   -0.0005044857753267671
-0.013832693799409953   -0.02171233205751209   -0.00032039752027225956
-0.02011291847264055   -0.011089592825460124   -0.0003329226617440283
-0.014222401355585973   -0.01102233159226301   -0.00016526052388683718
-0.014154303975518215   -0.011114116842616236   -0.00019937052526083332
-0.013832693799409953   -0.02171233205751209   -0.00032039752027225956
-0.02011291847264055   -0.011089592825460124   -0.0003329226617440283
-0.014154303975518215   -0.011114116842616236   -0.00019937052526083332
-0.01973272643510764   -0.021779349774200037   -0.0005044857753267671
-0.013832693799409953   -0.02171233205751209   -0.00032039752027225956
-0.014222401355585973   -0.01102233159226301   -0.00016526052388683718
-0.01979312848004233   -0.021707161201710776   -0.00046421471810681616
-0.01390320131846735   -0.021624848212330364   -0.00027352463572684197
-0.014222401355585973   -0.01102233159226301   -0.00016526052388683718
-0.02011291847264055   -0.011089592825460124   -0.0003329226617440283
-0.01979312848004233   -0.021707161201710776   -0.00046421471810681616
-0.020164639271993953   -0.010999084656784557   -0.0003079850998303459
-0.01390320131846735   -0.021624848212330364   -0.00027352463572684197
-0.01985021772633308   -0.021633068033087663   -0.0004202537256111129
-0.020164639271993953   -0.010999084656784557   -0.0003079850998303459
-0.01979312848004233   -0.021707161201710776   -0.00046421471810681616
-0.01390320131846735   -0.021624848212330364   -0.00027352463572684197
-0.020164639271993953   -0.010999084656784557   -0.0003079850998303459
-0.014285163580919535   -0.01092296149558396   -0.00012813041919531752
-0.014222401355585973   -0.01102233159226301   -0.00016526052388683718
-0.01390320131846735   -0.021624848212330364   -0.00027352463572684197
-0.020164639271993953   -0.010999084656784557   -0.0003079850998303459
-0.014222401355585973   -0.01102233159226301   -0.00016526052388683718
-0.01979312848004233   -0.021707161201710776   -0.00046421471810681616
-0.019661447984396844   -0.021847782791345277   -0.0005421876622119767
-0.019991699559837366   -0.011252704832048776   -0.0003820875780554502
-0.02591983325665259   -0.021791838599374246   -0.0006446869248963536
-0.01973272643510764   -0.021779349774200037   -0.0005044857753267671
-0.019991699559837366   -0.011252704832048776   -0.0003820875780554502
-0.026110385645369626   -0.011258512522502907   -0.0005054043513373082
-0.02591983325665259   -0.021791838599374246   -0.0006446869248963536
-0.026165484352813545   -0.011182710628949806   -0.0004947165384094984
-0.01973272643510764   -0.021779349774200037   -0.0005044857753267671
-0.025964175743544586   -0.021734380308579573   -0.0006164334995101083
-0.026165484352813545   -0.011182710628949806   -0.0004947165384094984
-0.02591983325665259   -0.021791838599374246   -0.0006446869248963536
-0.01973272643510764   -0.021779349774200037   -0.0005044857753267671
-0.026165484352813545   -0.011182710628949806   -0.0004947165384094984
-0.020055799236099427   -0.011174623704910567   -0.00035714701478720113
-0.019991699559837366   -0.011252704832048776   -0.0003820875780554502
-0.01973272643510764   -0.021779349774200037   -0.0005044857753267671
-0.026165484352813545   -0.011182710628949806   -0.0004947165384094984
-0.019991699559837366   -0.011252704832048776   -0.0003820875780554502
-0.02591983325665259   -0.021791838599374246   -0.0006446869248963536
-0.01973272643510764   -0.021779349774200037   -0.0005044857753267671
-0.020055799236099427   -0.011174623704910567   -0.00035714701478720113
-0.025964175743544586   -0.021734380308579573   -0.0006164334995101083
-0.01979312848004233   -0.021707161201710776   -0.00046421471810681616
-0.020055799236099427   -0.011174623704910567   -0.00035714701478720113
-0.026165484352813545   -0.011182710628949806   -0.0004947165384094984
-0.025964175743544586   -0.021734380308579573   -0.0006164334995101083
-0.026214847938657707   -0.0111007686999738   -0.0004822202139929431
-0.01979312848004233   -0.021707161201710776   -0.00046421471810681616
-0.02600472181096807   -0.02166936933990576   -0.0005818736695261676
-0.026214847938657707   -0.0111007686999738   -0.0004822202139929431
-0.025964175743544586   -0.021734380308579573   -0.0006164334995101083
-0.01979312848004233   -0.021707161201710776   -0.00046421471810681616
-0.026214847938657707   -0.0111007686999738   -0.0004822202139929431
-0.02011291847264055   -0.011089592825460124   -0.0003329226617440283
-0.020055799236099427   -0.011174623704910567   -0.00035714701478720113
-0.01979312848004233   -0.021707161201710776   -0.00046421471810681616
-0.026214847938657707   -0.0111007686999738   -0.0004822202139929431
-0.020055799236099427   -0.011174623704910567   -0.00035714701478720113
-0.025964175743544586   -0.021734380308579573   -0.0006164334995101083
-0.01979312848004233   -0.021707161201710776   -0.00046421471810681616
-0.02011291847264055   -0.011089592825460124   -0.0003329226617440283
-0.02600472181096807   -0.02166936933990576   -0.0005818736695261676
-0.01985021772633308   -0.021633068033087663   -0.0004202537256111129
-0.02011291847264055   -0.011089592825460124   -0.0003329226617440283
-0.026214847938657707   -0.0111007686999738   -0.0004822202139929431
-0.02600472181096807   -0.02166936933990576   -0.0005818736695261676
-0.026256390067323665   -0.011013997169078719   -0.0004706106588014615
-0.01985021772633308   -0.021633068033087663   -0.0004202537256111129
-0.026024419912762754   -0.02160969502446569   -0.0005425860515077811
-0.026256390067323665   -0.011013997169078719   -0.0004706106588014615
-0.02600472181096807   -0.02166936933990576   -0.0005818736695261676
-0.01985021772633308   -0.021633068033087663   -0.0004202537256111129
-0.026256390067323665   -0.011013997169078719   -0.0004706106588014615
-0.020164639271993953   -0.010999084656784557   -0.0003079850998303459
-0.02011291847264055   -0.011089592825460124   -0.0003329226617440283
-0.01985021772633308   -0.021633068033087663   -0.0004202537256111129
-0.026256390067323665   -0.011013997169078719   -0.0004706106588014615
-0.02011291847264055   -0.011089592825460124   -0.0003329226617440283
-0.02600472181096807   -0.02166936933990576   -0.0005818736695261676
0.0030494297557007444   -0.011057221975770495   0.00014254388121371113
0.0   0.0   0.0
-0.002803828685055231   -0.010913787075867754   7.238931158936369e-05
0.002781164128681482   -0.010916711945861671   0.0002969947504895886
0.0   0.0   0.0
-0.0035212899757673262   -0.0008904057877315162   -3.0240114052621465e-05
-0.002803828685055231   -0.010913787075867754   7.238931158936369e-05
-0.0037316265742847487   -0.0006915141741443002   9.081377667561862e-05
0.002781164128681482   -0.010916711945861671   0.0002969947504895886
-0.0028899022123355642   -0.010858386630691387   0.000134774378801569
-0.0037316265742847487   -0.0006915141741443002   9.081377667561862e-05
-0.002803828685055231   -0.010913787075867754   7.238931158936369e-05
0.002781164128681482   -0.010916711945861671   0.0002969947504895886
-0.0037316265742847487   -0.0006915141741443002   9.081377667561862e-05
0.0   0.0   0.0
0.0   0.0   0.0
0.002781164128681482   -0.010916711945861671   0.0002969947504895886
-0.0037316265742847487   -0.0006915141741443002   9.081377667561862e-05
0.0   0.0   0.0
-0.002803828685055231   -0.010913787075867754   7.238931158936369e-05
0.002781164128681482   -0.010916711945861671   0.0002969947504895886
0.0   0.0   0.0
-0.0028899022123355642   -0.010858386630691387   0.000134774378801569
0.002624062170417811   -0.010801739627336736   0.00041227010160738793
0.0   0.0   0.0
-0.0037316265742847487   -0.0006915141741443002   9.081377667561862e-05
-0.0028899022123355642   -0.010858386630691387   0.000134774378801569
-0.0038635605018942864   -0.000595603403626115   0.00016061270379312976
0.002624062170417811   -0.010801739627336736   0.00041227010160738793
-0.0030029990230489795   -0.010759808871366799   0.0002105203116769265
-0.0038635605018942864   -0.000595603403626115   0.00016061270379312976
-0.0028899022123355642   -0.010858386630691387   0.000134774378801569
0.002624062170417811   -0.010801739627336736   0.00041227010160738793
-0.0038635605018942864   -0.000595603403626115   0.00016061270379312976
0.0   0.0   0.0
0.0   0.0   0.0
0.002624062170417811   -0.010801739627336736   0.00041227010160738793
-0.0038635605018942864   -0.000595603403626115   0.00016061270379312976
0.0   0.0   0.0
-0.0028899022123355642   -0.010858386630691387   0.000134774378801569
0.002624062170417811   -0.010801739627336736   0.00041227010160738793
0.0   0.0   0.0
-0.0030029990230489795   -0.010759808871366799   0.0002105203116769265
0.002422748327940022   -0.01062605711047358   0.0005442581436496389
0.0   0.0   0.0
-0.0038635605018942864   -0.000595603403626115   0.00016061270379312976
-0.0030029990230489795   -0.010759808871366799   0.0002105203116769265
-0.004040321959172559   -0.0004682818529257596   0.00024071493283893538
0.002422748327940022   -0.01062605711047358   0.0005442581436496389
-0.003098072406835393   -0.010653800338845332   0.0002772001155806309
-0.004040321959172559   -0.0004682818529257596   0.00024071493283893538
-0.0030029990230489795   -0.010759808871366799   0.0002105203116769265
0.002422748327940022   -0.01062605711047358   0.0005442581436496389
-0.004040321959172559   -0.0004682818529257596   0.00024071493283893538
0.0   0.0   0.0
0.0   0.0   0.0
0.002422748327940022   -0.01062605711047358   0.0005442581436496389
-0.004040321959172559   -0.0004682818529257596   0.00024071493283893538
0.0   0.0   0.0
-0.0030029990230489795   -0.010759808871366799   0.0002105203116769265
-0.002803828685055231   -0.010913787075867754   7.238931158936369e-05
-0.0035212899757673262   -0.0008904057877315162   -3.0240114052621465e-05
-0.008375099988858907   -0.011075052385836864   -7.276247794701662e-05
-0.0028899022123355642   -0.010858386630691387   0.000134774378801569
-0.0035212899757673262   -0.0008904057877315162   -3.0240114052621465e-05
-0.008625189003697568   -0.0011654182350429316   -2.93779212423032e-05
-0.008375099988858907   -0.011075052385836864   -7.276247794701662e-05
-0.008733476978890825   -0.0010565561337145624   1.5275525626495316e-06
-0.0028899022123355642   -0.010858386630691387   0.000134774378801569
-0.008454332332652583   -0.010990394575498223   -2.8581686201778403e-05
-0.008733476978890825   -0.0010565561337145624   1.5275525626495316e-06
-0.008375099988858907   -0.011075052385836864   -7.276247794701662e-05
-0.0028899022123355642   -0.010858386630691387   0.000134774378801569
-0.008733476978890825   -0.0010565561337145624   1.5275525626495316e-06
-0.0037316265742847487   -0.0006915141741443002   9.081377667561862e-05
-0.0035212899757673262   -0.0008904057877315162   -3.0240114052621465e-05
-0.0028899022123355642   -0.010858386630691387   0.000134774378801569
-0.008733476978890825   -0.0010565561337145624   1.5275525626495316e-06
-0.0035212899757673262   -0.0008904057877315162   -3.0240114052621465e-05
-0.008375099988858907   -0.011075052385836864   -7.276247794701662e-05
-0.0028899022123355642   -0.010858386630691387   0.000134774378801569
-0.0037316265742847487   -0.0006915141741443002   9.081377667561862e-05
-0.008454332332652583   -0.010990394575498223   -2.8581686201778403e-05
-0.0030029990230489795   -0.010759808871366799   0.0002105203116769265
-0.0037316265742847487   -0.0006915141741443002   9.081377667561862e-05
-0.008733476978890825   -0.0010565561337145624   1.5275525626495316e-06
-0.008454332332652583   -0.010990394575498223   -2.8581686201778403e-05
-0.00884127495890188   -0.0009292264326081438   5.698280680435144e-05
-0.0030029990230489795   -0.010759808871366799   0.0002105203116769265
-0.008537254567797649   -0.010894823895835728   1.816930149994992e-05
-0.00884127495890188   -0.0009292264326081438   5.698280680435144e-05
-0.008454332332652583   -0.010990394575498223   -2.8581686201778403e-05
-0.0030029990230489795   -0.010759808871366799   0.0002105203116769265
-0.00884127495890188   -0.0009292264326081438   5.698280680435144e-05
-0.0038635605018942864   -0.000595603403626115   0.00016061270379312976
-0.0037316265742847487   -0.0006915141741443002   9.081377667561862e-05
-0.0030029990230489795   -0.010759808871366799   0.0002105203116769265
-0.00884127495890188   -0.0009292264326081438   5.698280680435144e-05
-0.0037316265742847487   -0.0006915141741443002   9.081377667561862e-05
-0.008454332332652583   -0.010990394575498223   -2.8581686201778403e-05
-0.0030029990230489795   -0.010759808871366799   0.0002105203116769265
-0.0038635605018942864   -0.000595603403626115   0.00016061270379312976
-0.008537254567797649   -0.010894823895835728   1.816930149994992e-05
-0.003098072406835393   -0.010653800338845332   0.0002772001155806309
-0.0038635605018942864   -0.000595603403626115   0.00016061270379312976
-0.00884127495890188   -0.0009292264326081438   5.698280680435144e-05
-0.008537254567797649   -0.010894823895835728   1.816930149994992e-05
-0.008960507467428774   -0.0007821128046149905   0.00011002132934404198
-0.003098072406835393   -0.010653800338845332   0.0002772001155806309
-0.008616060969144414   -0.010790078669780316   6.972462104399016e-05
-0.008960507467428774   -0.0007821128046149905   0.00011002132934404198
-0.008537254567797649   -0.010894823895835728   1.816930149994992e-05
-0.003098072406835393   -0.010653800338845332   0.0002772001155806309
-0.008960507467428774   -0.0007821128046149905   0.00011002132934404198
-0.004040321959172559   -0.0004682818529257596   0.00024071493283893538
-0.0038635605018942864   -0.000595603403626115   0.00016061270379312976
-0.003098072406835393   -0.010653800338845332   0.0002772001155806309
-0.008960507467428774   -0.0007821128046149905   0.00011002132934404198
-0.0038635605018942864   -0.000595603403626115   0.00016061270379312976
-0.008537254567797649   -0.010894823895835728   1.816930149994992e-05
-0.008375099988858907   -0.011075052385836864   -7.276247794701662e-05
-0.008625189003697568   -0.0011654182350429316   -2.93779212423032e-05
-0.014083152012769898   -0.011201027692104964   -0.0002335968762859395
-0.008454332332652583   -0.010990394575498223   -2.8581686201778403e-05
-0.008625189003697568   -0.0011654182350429316   -2.93779212423032e-05
-0.014222579256765747   -0.0012416796798589793   -0.0001315227748133246
-0.014083152012769898   -0.011201027692104964   -0.0002335968762859395
-0.014288203770047712   -0.0011565670811334418   -0.00012305165077821444
-0.008454332332652583   -0.010990394575498223   -2.8581686201778403e-05
-0.014154303975518215   -0.011114116842616236   -0.00019937052526083332
-0.014288203770047712   -0.0011565670811334418   -0.00012305165077821444
-0.014083152012769898   -0.011201027692104964   -0.0002335968762859395
-0.008454332332652583   -0.010990394575498223   -2.8581686201778403e-05
-0.014288203770047712   -0.0011565670811334418   -0.00012305165077821444
-0.008733476978890825   -0.0010565561337145624   1.5275525626495316e-06
-0.008625189003697568   -0.0011654182350429316   -2.93779212423032e-05
-0.008454332332652583   -0.010990394575498223   -2.8581686201778403e-05
-0.014288203770047712   -0.0011565670811334418   -0.00012305165077821444
-0.008625189003697568   -0.0011654182350429316   -2.93779212423032e-05
-0.014083152012769898   -0.011201027692104964   -0.0002335968762859395
-0.008454332332652583   -0.010990394575498223   -2.8581686201778403e-05
-0.008733476978890825   -0.0010565561337145624   1.5275525626495316e-06
-0.014154303975518215   -0.011114116842616236   -0.00019937052526083332
-0.008537254567797649   -0.010894823895835728   1.816930149994992e-05
-0.008733476978890825   -0.0010565561337145624   1.5275525626495316e-06
-0.014288203770047712   -0.0011565670811334418   -0.00012305165077821444
-0.014154303975518215   -0.011114116842616236   -0.00019937052526083332
-0.014356426673292313   -0.0010578924575403814   -0.00010813374412990643
-0.008537254567797649   -0.010894823895835728   1.816930149994992e-05
-0.014222401355585973   -0.01102233159226301   -0.00016526052388683718
-0.014356426673292313   -0.0010578924575403814   -0.00010813374412990643
-0.014154303975518215   -0.011114116842616236   -0.00019937052526083332
-0.008537254567797649   -0.010894823895835728   1.816930149994992e-05
-0.014356426673292313   -0.0010578924575403814   -0.00010813374412990643
-0.00884127495890188   -0.0009292264326081438   5.698280680435144e-05
-0.008733476978890825   -0.0010565561337145624   1.5275525626495316e-06
-0.008537254567797649   -0.010894823895835728   1.816930149994992e-05
-0.014356426673292313   -0.0010578924575403814   -0.00010813374412990643
-0.008733476978890825   -0.0010565561337145624   1.5275525626495316e-06
-0.014154303975518215   -0.011114116842616236   -0.00019937052526083332
-0.008537254567797649   -0.010894823895835728   1.816930149994992e-05
-0.00884127495890188   -0.0009292264326081438   5.698280680435144e-05
-0.014222401355585973   -0.01102233159226301   -0.00016526052388683718
-0.008616060969144414   -0.010790078669780316   6.972462104399016e-05
-0.00884127495890188   -0.0009292264326081438   5.698280680435144e-05
-0.014356426673292313   -0.0010578924575403814   -0.00010813374412990643
-0.014222401355585973   -0.01102233159226301   -0.00016526052388683718
-0.01442104557917119   -0.0009380207840274817   -8.839597802258949e-05
-0.008616060969144414   -0.010790078669780316   6.972462104399016e-05
-0.014285163580919535   -0.01092296149558396   -0.00012813041919531752
-0.01442104557917119   -0.0009380207840274817   -8.839597802258949e-05
-0.014222401355585973   -0.01102233159226301   -0.00016526052388683718
-0.008616060969144414   -0.010790078669780316   6.972462104399016e-05
-0.01442104557917119   -0.0009380207840274817   -8.839597802258949e-05
-0.008960507467428774   -0.0007821128046149905   0.00011002132934404198
-0.00884127495890188   -0.0009292264326081438   5.698280680435144e-05
-0.008616060969144414   -0.010790078669780316   6.972462104399016e-05
-0.01442104557917119   -0.0009380207840274817   -8.839597802258949e-05
-0.00884127495890188   -0.0009292264326081438   5.698280680435144e-05
-0.014222401355585973   -0.01102233159226301   -0.00016526052388683718
-0.014083152012769898   -0.011201027692104964   -0.0002335968762859395
-0.014222579256765747   -0.0012416796798589793   -0.0001315227748133246
-0.019991699559837366   -0.011252704832048776   -0.0003820875780554502
-0.014154303975518215   -0.011114116842616236   -0.00019937052526083332
-0.014222579256765747   -0.0012416796798589793   -0.0001315227748133246
-0.020095043393081956   -0.0012279038017424663   -0.00027786291766675316
-0.019991699559837366   -0.011252704832048776   -0.0003820875780554502
-0.020139347032984384   -0.0011512540401712645   -0.00027424968133753154
-0.014154303975518215   -0.011114116842616236   -0.00019937052526083332
-0.020055799236099427   -0.011174623704910567   -0.00035714701478720113
-0.020139347032984384   -0.0011512540401712645   -0.00027424968133753154
-0.019991699559837366   -0.011252704832048776   -0.0003820875780554502
-0.014154303975518215   -0.011114116842616236   -0.00019937052526083332
-0.020139347032984384   -0.0011512540401712645   -0.00027424968133753154
-0.014288203770047712   -0.0011565670811334418   -0.00012305165077821444
-0.014222579256765747   -0.0012416796798589793   -0.0001315227748133246
-0.014154303975518215   -0.011114116842616236   -0.00019937052526083332
-0.020139347032984384   -0.0011512540401712645   -0.00027424968133753154
-0.014222579256765747   -0.0012416796798589793   -0.0001315227748133246
-0.019991699559837366   -0.011252704832048776   -0.0003820875780554502
-0.014154303975518215   -0.011114116842616236   -0.00019937052526083332
-0.014288203770047712   -0.0011565670811334418   -0.00012305165077821444
-0.020055799236099427   -0.011174623704910567   -0.00035714701478720113
-0.014222401355585973   -0.01102233159226301   -0.00016526052388683718
-0.014288203770047712   -0.0011565670811334418   -0.00012305165077821444
-0.020139347032984384   -0.0011512540401712645   -0.00027424968133753154
-0.020055799236099427   -0.011174623704910567   -0.00035714701478720113
-0.020185573432819168   -0.0010660460816036507   -0.0002718118121817083
-0.014222401355585973   -0.01102233159226301   -0.00016526052388683718
-0.02011291847264055   -0.011089592825460124   -0.0003329226617440283
-0.020185573432819168   -0.0010660460816036507   -0.0002718118121817083
-0.020055799236099427   -0.011174623704910567   -0.00035714701478720113
-0.014222401355585973   -0.01102233159226301   -0.00016526052388683718
-0.020185573432819168   -0.0010660460816036507   -0.0002718118121817083
-0.014356426673292313   -0.0010578924575403814   -0.00010813374412990643
-0.014288203770047712   -0.0011565670811334418   -0.00012305165077821444
-0.014222401355585973   -0.01102233159226301   -0.00016526052388683718
-0.020185573432819168   -0.0010660460816036507   -0.0002718118121817083
-0.014288203770047712   -0.0011565670811334418   -0.00012305165077821444
-0.020055799236099427   -0.011174623704910567   -0.00035714701478720113
-0.014222401355585973   -0.01102233159226301   -0.00016526052388683718
-0.014356426673292313   -0.0010578924575403814   -0.00010813374412990643
-0.02011291847264055   -0.011089592825460124   -0.0003329226617440283
-0.014285163580919535   -0.01092296149558396   -0.00012813041919531752
-0.014356426673292313   -0.0010578924575403814   -0.00010813374412990643
-0.020185573432819168   -0.0010660460816036507   -0.0002718118121817083
-0.02011291847264055   -0.011089592825460124   -0.0003329226617440283
-0.020220581560831796   -0.0009738969580239314   -0.00027075323025180643
-0.014285163580919535   -0.01092296149558396   -0.00012813041919531752
-0.020164639271993953   -0.010999084656784557   -0.0003079850998303459
-0.020220581560831796   -0.0009738969580239314   -0.00027075323025180643
-0.02011291847264055   -0.011089592825460124   -0.0003329226617440283
-0.014285163580919535   -0.01092296149558396   -0.00012813041919531752
-0.020220581560831796   -0.0009738969580239314   -0.00027075323025180643
-0.01442104557917119   -0.0009380207840274817   -8.839597802258949e-05
-0.014356426673292313   -0.0010578924575403814   -0.00010813374412990643
-0.014285163580919535   -0.01092296149558396   -0.00012813041919531752
-0.020220581560831796   -0.0009738969580239314   -0.00027075323025180643
-0.014356426673292313   -0.0010578924575403814   -0.00010813374412990643
-0.02011291847264055   -0.011089592825460124   -0.0003329226617440283
-0.019991699559837366   -0.011252704832048776   -0.0003820875780554502
-0.020095043393081956   -0.0012279038017424663   -0.00027786291766675316
-0.026110385645369626   -0.011258512522502907   -0.0005054043513373082
-0.020055799236099427   -0.011174623704910567   -0.00035714701478720113
-0.020095043393081956   -0.0012279038017424663   -0.00027786291766675316
-0.026129402908433397   -0.0012189756076322832   -0.0004218746876300828
-0.026110385645369626   -0.011258512522502907   -0.0005054043513373082
-0.026165054807692545   -0.001135788340899285   -0.00042184337578234104
-0.020055799236099427   -0.011174623704910567   -0.00035714701478720113
-0.026165484352813545   -0.011182710628949806   -0.0004947165384094984
-0.026165054807692545   -0.001135788340899285   -0.00042184337578234104
-0.026110385645369626   -0.011258512522502907   -0.0005054043513373082
-0.020055799236099427   -0.011174623704910567   -0.00035714701478720113
-0.026165054807692545   -0.001135788340899285   -0.00042184337578234104
-0.020139347032984384   -0.0011512540401712645   -0.00027424968133753154
-0.020095043393081956   -0.0012279038017424663   -0.00027786291766675316
-0.020055799236099427   -0.011174623704910567   -0.00035714701478720113
-0.026165054807692545   -0.001135788340899285   -0.00042184337578234104
-0.020095043393081956   -0.0012279038017424663   -0.00027786291766675316
-0.026110385645369626   -0.011258512522502907   -0.0005054043513373082
-0.020055799236099427   -0.011174623704910567   -0.00035714701478720113
-0.020139347032984384   -0.0011512540401712645   -0.00027424968133753154
-0.026165484352813545   -0.011182710628949806   -0.0004947165384094984
-0.02011291847264055   -0.011089592825460124   -0.0003329226617440283
-0.020139347032984384   -0.0011512540401712645   -0.00027424968133753154
-0.026165054807692545   -0.001135788340899285   -0.00042184337578234104
-0.026165484352813545   -0.011182710628949806   -0.0004947165384094984
-0.026204200350122372   -0.0010527555326528943   -0.0004282992994418507
-0.02011291847264055   -0.011089592825460124   -0.0003329226617440283
-0.026214847938657707   -0.0111007686999738   -0.0004822202139929431
-0.026204200350122372   -0.0010527555326528943   -0.0004282992994418507
-0.026165484352813545   -0.011182710628949806   -0.0004947165384094984
-0.02011291847264055   -0.011089592825460124   -0.0003329226617440283
-0.026204200350122372   -0.0010527555326528943   -0.0004282992994418507
-0.020185573432819168   -0.0010660460816036507   -0.0002718118121817083
-0.020139347032984384   -0.0011512540401712645   -0.00027424968133753154
-0.02011291847264055   -0.011089592825460124   -0.0003329226617440283
-0.026204200350122372   -0.0010527555326528943   -0.0004282992994418507
-0.020139347032984384   -0.0011512540401712645   -0.00027424968133753154
-0.026165484352813545   -0.011182710628949806   -0.0004947165384094984
-0.02011291847264055   -0.011089592825460124   -0.0003329226617440283
-0.020185573432819168   -0.0010660460816036507   -0.0002718118121817083
-0.026214847938657707   -0.0111007686999738   -0.0004822202139929431
-0.020164639271993953   -0.010999084656784557   -0.0003079850998303459
-0.020185573432819168   -0.0010660460816036507   -0.0002718118121817083
-0.026204200350122372   -0.0010527555326528943   -0.0004282992994418507
-0.026214847938657707   -0.0111007686999738   -0.0004822202139929431
-0.026233006706623034   -0.0009624068314660183   -0.0004351805405082623
-0.020164639271993953   -0.010999084656784557   -0.0003079850998303459
-0.026256390067323665   -0.011013997169078719   -0.0004706106588014615
-0.026233006706623034   -0.0009624068314660183   -0.0004351805405082623
-0.026214847938657707   -0.0111007686999738   -0.0004822202139929431
-0.020164639271993953   -0.010999084656784557   -0.0003079850998303459
-0.026233006706623034   -0.0009624068314660183   -0.0004351805405082623
-0.020220581560831796   -0.0009738969580239314   -0.00027075323025180643
-0.020185573432819168   -0.0010660460816036507   -0.0002718118121817083
-0.020164639271993953   -0.010999084656784557   -0.0003079850998303459
-0.026233006706623034   -0.0009624068314660183   -0.0004351805405082623
-0.020185573432819168   -0.0010660460816036507   -0.0002718118121817083
-0.026214847938657707   -0.0111007686999738   -0.0004822202139929431
              </DataArray>   
          </PointData>  
       </Piece>  
   </UnstructuredGrid> 
</VTKFile> 
