<?xml version="1.0"?> 
<VTKFile type="UnstructuredGrid"> 
   <UnstructuredGrid> 
      <Piece NumberOfPoints="6000"  NumberOfCells="1500">  
          <Points>  
             <DataArray type="Float64" NumberOfComponents="3" format="ascii">   
-500.0   0.0   0.0
-450.0   0.0   0.0
-500.0   30.0   0.0
-500.0   0.0   16.666666666666668
-450.0   0.0   0.0
-450.0   30.0   0.0
-500.0   30.0   0.0
-450.0   30.0   16.666666666666668
-500.0   0.0   16.666666666666668
-500.0   30.0   16.666666666666668
-450.0   30.0   16.666666666666668
-500.0   30.0   0.0
-500.0   0.0   16.666666666666668
-450.0   30.0   16.666666666666668
-450.0   0.0   16.666666666666668
-450.0   0.0   0.0
-500.0   0.0   16.666666666666668
-450.0   30.0   16.666666666666668
-450.0   0.0   0.0
-500.0   30.0   0.0
-500.0   0.0   16.666666666666668
-450.0   0.0   16.666666666666668
-500.0   30.0   16.666666666666668
-500.0   0.0   33.333333333333336
-450.0   0.0   16.666666666666668
-450.0   30.0   16.666666666666668
-500.0   30.0   16.666666666666668
-450.0   30.0   33.333333333333336
-500.0   0.0   33.333333333333336
-500.0   30.0   33.333333333333336
-450.0   30.0   33.333333333333336
-500.0   30.0   16.666666666666668
-500.0   0.0   33.333333333333336
-450.0   30.0   33.333333333333336
-450.0   0.0   33.333333333333336
-450.0   0.0   16.666666666666668
-500.0   0.0   33.333333333333336
-450.0   30.0   33.333333333333336
-450.0   0.0   16.666666666666668
-500.0   30.0   16.666666666666668
-500.0   0.0   33.333333333333336
-450.0   0.0   33.333333333333336
-500.0   30.0   33.333333333333336
-500.0   0.0   50.0
-450.0   0.0   33.333333333333336
-450.0   30.0   33.333333333333336
-500.0   30.0   33.333333333333336
-450.0   30.0   50.0
-500.0   0.0   50.0
-500.0   30.0   50.0
-450.0   30.0   50.0
-500.0   30.0   33.333333333333336
-500.0   0.0   50.0
-450.0   30.0   50.0
-450.0   0.0   50.0
-450.0   0.0   33.333333333333336
-500.0   0.0   50.0
-450.0   30.0   50.0
-450.0   0.0   33.333333333333336
-500.0   30.0   33.333333333333336
-500.0   30.0   0.0
-450.0   30.0   0.0
-500.0   60.0   0.0
-500.0   30.0   16.666666666666668
-450.0   30.0   0.0
-450.0   60.0   0.0
-500.0   60.0   0.0
-450.0   60.0   16.666666666666668
-500.0   30.0   16.666666666666668
-500.0   60.0   16.666666666666668
-450.0   60.0   16.666666666666668
-500.0   60.0   0.0
-500.0   30.0   16.666666666666668
-450.0   60.0   16.666666666666668
-450.0   30.0   16.666666666666668
-450.0   30.0   0.0
-500.0   30.0   16.666666666666668
-450.0   60.0   16.666666666666668
-450.0   30.0   0.0
-500.0   60.0   0.0
-500.0   30.0   16.666666666666668
-450.0   30.0   16.666666666666668
-500.0   60.0   16.666666666666668
-500.0   30.0   33.333333333333336
-450.0   30.0   16.666666666666668
-450.0   60.0   16.666666666666668
-500.0   60.0   16.666666666666668
-450.0   60.0   33.333333333333336
-500.0   30.0   33.333333333333336
-500.0   60.0   33.333333333333336
-450.0   60.0   33.333333333333336
-500.0   60.0   16.666666666666668
-500.0   30.0   33.333333333333336
-450.0   60.0   33.333333333333336
-450.0   30.0   33.333333333333336
-450.0   30.0   16.666666666666668
-500.0   30.0   33.333333333333336
-450.0   60.0   33.333333333333336
-450.0   30.0   16.666666666666668
-500.0   60.0   16.666666666666668
-500.0   30.0   33.333333333333336
-450.0   30.0   33.333333333333336
-500.0   60.0   33.333333333333336
-500.0   30.0   50.0
-450.0   30.0   33.333333333333336
-450.0   60.0   33.333333333333336
-500.0   60.0   33.333333333333336
-450.0   60.0   50.0
-500.0   30.0   50.0
-500.0   60.0   50.0
-450.0   60.0   50.0
-500.0   60.0   33.333333333333336
-500.0   30.0   50.0
-450.0   60.0   50.0
-450.0   30.0   50.0
-450.0   30.0   33.333333333333336
-500.0   30.0   50.0
-450.0   60.0   50.0
-450.0   30.0   33.333333333333336
-500.0   60.0   33.333333333333336
-500.0   60.0   0.0
-450.0   60.0   0.0
-500.0   90.0   0.0
-500.0   60.0   16.666666666666668
-450.0   60.0   0.0
-450.0   90.0   0.0
-500.0   90.0   0.0
-450.0   90.0   16.666666666666668
-500.0   60.0   16.666666666666668
-500.0   90.0   16.666666666666668
-450.0   90.0   16.666666666666668
-500.0   90.0   0.0
-500.0   60.0   16.666666666666668
-450.0   90.0   16.666666666666668
-450.0   60.0   16.666666666666668
-450.0   60.0   0.0
-500.0   60.0   16.666666666666668
-450.0   90.0   16.666666666666668
-450.0   60.0   0.0
-500.0   90.0   0.0
-500.0   60.0   16.666666666666668
-450.0   60.0   16.666666666666668
-500.0   90.0   16.666666666666668
-500.0   60.0   33.333333333333336
-450.0   60.0   16.666666666666668
-450.0   90.0   16.666666666666668
-500.0   90.0   16.666666666666668
-450.0   90.0   33.333333333333336
-500.0   60.0   33.333333333333336
-500.0   90.0   33.333333333333336
-450.0   90.0   33.333333333333336
-500.0   90.0   16.666666666666668
-500.0   60.0   33.333333333333336
-450.0   90.0   33.333333333333336
-450.0   60.0   33.333333333333336
-450.0   60.0   16.666666666666668
-500.0   60.0   33.333333333333336
-450.0   90.0   33.333333333333336
-450.0   60.0   16.666666666666668
-500.0   90.0   16.666666666666668
-500.0   60.0   33.333333333333336
-450.0   60.0   33.333333333333336
-500.0   90.0   33.333333333333336
-500.0   60.0   50.0
-450.0   60.0   33.333333333333336
-450.0   90.0   33.333333333333336
-500.0   90.0   33.333333333333336
-450.0   90.0   50.0
-500.0   60.0   50.0
-500.0   90.0   50.0
-450.0   90.0   50.0
-500.0   90.0   33.333333333333336
-500.0   60.0   50.0
-450.0   90.0   50.0
-450.0   60.0   50.0
-450.0   60.0   33.333333333333336
-500.0   60.0   50.0
-450.0   90.0   50.0
-450.0   60.0   33.333333333333336
-500.0   90.0   33.333333333333336
-500.0   90.0   0.0
-450.0   90.0   0.0
-500.0   120.0   0.0
-500.0   90.0   16.666666666666668
-450.0   90.0   0.0
-450.0   120.0   0.0
-500.0   120.0   0.0
-450.0   120.0   16.666666666666668
-500.0   90.0   16.666666666666668
-500.0   120.0   16.666666666666668
-450.0   120.0   16.666666666666668
-500.0   120.0   0.0
-500.0   90.0   16.666666666666668
-450.0   120.0   16.666666666666668
-450.0   90.0   16.666666666666668
-450.0   90.0   0.0
-500.0   90.0   16.666666666666668
-450.0   120.0   16.666666666666668
-450.0   90.0   0.0
-500.0   120.0   0.0
-500.0   90.0   16.666666666666668
-450.0   90.0   16.666666666666668
-500.0   120.0   16.666666666666668
-500.0   90.0   33.333333333333336
-450.0   90.0   16.666666666666668
-450.0   120.0   16.666666666666668
-500.0   120.0   16.666666666666668
-450.0   120.0   33.333333333333336
-500.0   90.0   33.333333333333336
-500.0   120.0   33.333333333333336
-450.0   120.0   33.333333333333336
-500.0   120.0   16.666666666666668
-500.0   90.0   33.333333333333336
-450.0   120.0   33.333333333333336
-450.0   90.0   33.333333333333336
-450.0   90.0   16.666666666666668
-500.0   90.0   33.333333333333336
-450.0   120.0   33.333333333333336
-450.0   90.0   16.666666666666668
-500.0   120.0   16.666666666666668
-500.0   90.0   33.333333333333336
-450.0   90.0   33.333333333333336
-500.0   120.0   33.333333333333336
-500.0   90.0   50.0
-450.0   90.0   33.333333333333336
-450.0   120.0   33.333333333333336
-500.0   120.0   33.333333333333336
-450.0   120.0   50.0
-500.0   90.0   50.0
-500.0   120.0   50.0
-450.0   120.0   50.0
-500.0   120.0   33.333333333333336
-500.0   90.0   50.0
-450.0   120.0   50.0
-450.0   90.0   50.0
-450.0   90.0   33.333333333333336
-500.0   90.0   50.0
-450.0   120.0   50.0
-450.0   90.0   33.333333333333336
-500.0   120.0   33.333333333333336
-500.0   120.0   0.0
-450.0   120.0   0.0
-500.0   150.0   0.0
-500.0   120.0   16.666666666666668
-450.0   120.0   0.0
-450.0   150.0   0.0
-500.0   150.0   0.0
-450.0   150.0   16.666666666666668
-500.0   120.0   16.666666666666668
-500.0   150.0   16.666666666666668
-450.0   150.0   16.666666666666668
-500.0   150.0   0.0
-500.0   120.0   16.666666666666668
-450.0   150.0   16.666666666666668
-450.0   120.0   16.666666666666668
-450.0   120.0   0.0
-500.0   120.0   16.666666666666668
-450.0   150.0   16.666666666666668
-450.0   120.0   0.0
-500.0   150.0   0.0
-500.0   120.0   16.666666666666668
-450.0   120.0   16.666666666666668
-500.0   150.0   16.666666666666668
-500.0   120.0   33.333333333333336
-450.0   120.0   16.666666666666668
-450.0   150.0   16.666666666666668
-500.0   150.0   16.666666666666668
-450.0   150.0   33.333333333333336
-500.0   120.0   33.333333333333336
-500.0   150.0   33.333333333333336
-450.0   150.0   33.333333333333336
-500.0   150.0   16.666666666666668
-500.0   120.0   33.333333333333336
-450.0   150.0   33.333333333333336
-450.0   120.0   33.333333333333336
-450.0   120.0   16.666666666666668
-500.0   120.0   33.333333333333336
-450.0   150.0   33.333333333333336
-450.0   120.0   16.666666666666668
-500.0   150.0   16.666666666666668
-500.0   120.0   33.333333333333336
-450.0   120.0   33.333333333333336
-500.0   150.0   33.333333333333336
-500.0   120.0   50.0
-450.0   120.0   33.333333333333336
-450.0   150.0   33.333333333333336
-500.0   150.0   33.333333333333336
-450.0   150.0   50.0
-500.0   120.0   50.0
-500.0   150.0   50.0
-450.0   150.0   50.0
-500.0   150.0   33.333333333333336
-500.0   120.0   50.0
-450.0   150.0   50.0
-450.0   120.0   50.0
-450.0   120.0   33.333333333333336
-500.0   120.0   50.0
-450.0   150.0   50.0
-450.0   120.0   33.333333333333336
-500.0   150.0   33.333333333333336
-450.0   0.0   0.0
-400.0   0.0   0.0
-450.0   30.0   0.0
-450.0   0.0   16.666666666666668
-400.0   0.0   0.0
-400.0   30.0   0.0
-450.0   30.0   0.0
-400.0   30.0   16.666666666666668
-450.0   0.0   16.666666666666668
-450.0   30.0   16.666666666666668
-400.0   30.0   16.666666666666668
-450.0   30.0   0.0
-450.0   0.0   16.666666666666668
-400.0   30.0   16.666666666666668
-400.0   0.0   16.666666666666668
-400.0   0.0   0.0
-450.0   0.0   16.666666666666668
-400.0   30.0   16.666666666666668
-400.0   0.0   0.0
-450.0   30.0   0.0
-450.0   0.0   16.666666666666668
-400.0   0.0   16.666666666666668
-450.0   30.0   16.666666666666668
-450.0   0.0   33.333333333333336
-400.0   0.0   16.666666666666668
-400.0   30.0   16.666666666666668
-450.0   30.0   16.666666666666668
-400.0   30.0   33.333333333333336
-450.0   0.0   33.333333333333336
-450.0   30.0   33.333333333333336
-400.0   30.0   33.333333333333336
-450.0   30.0   16.666666666666668
-450.0   0.0   33.333333333333336
-400.0   30.0   33.333333333333336
-400.0   0.0   33.333333333333336
-400.0   0.0   16.666666666666668
-450.0   0.0   33.333333333333336
-400.0   30.0   33.333333333333336
-400.0   0.0   16.666666666666668
-450.0   30.0   16.666666666666668
-450.0   0.0   33.333333333333336
-400.0   0.0   33.333333333333336
-450.0   30.0   33.333333333333336
-450.0   0.0   50.0
-400.0   0.0   33.333333333333336
-400.0   30.0   33.333333333333336
-450.0   30.0   33.333333333333336
-400.0   30.0   50.0
-450.0   0.0   50.0
-450.0   30.0   50.0
-400.0   30.0   50.0
-450.0   30.0   33.333333333333336
-450.0   0.0   50.0
-400.0   30.0   50.0
-400.0   0.0   50.0
-400.0   0.0   33.333333333333336
-450.0   0.0   50.0
-400.0   30.0   50.0
-400.0   0.0   33.333333333333336
-450.0   30.0   33.333333333333336
-450.0   30.0   0.0
-400.0   30.0   0.0
-450.0   60.0   0.0
-450.0   30.0   16.666666666666668
-400.0   30.0   0.0
-400.0   60.0   0.0
-450.0   60.0   0.0
-400.0   60.0   16.666666666666668
-450.0   30.0   16.666666666666668
-450.0   60.0   16.666666666666668
-400.0   60.0   16.666666666666668
-450.0   60.0   0.0
-450.0   30.0   16.666666666666668
-400.0   60.0   16.666666666666668
-400.0   30.0   16.666666666666668
-400.0   30.0   0.0
-450.0   30.0   16.666666666666668
-400.0   60.0   16.666666666666668
-400.0   30.0   0.0
-450.0   60.0   0.0
-450.0   30.0   16.666666666666668
-400.0   30.0   16.666666666666668
-450.0   60.0   16.666666666666668
-450.0   30.0   33.333333333333336
-400.0   30.0   16.666666666666668
-400.0   60.0   16.666666666666668
-450.0   60.0   16.666666666666668
-400.0   60.0   33.333333333333336
-450.0   30.0   33.333333333333336
-450.0   60.0   33.333333333333336
-400.0   60.0   33.333333333333336
-450.0   60.0   16.666666666666668
-450.0   30.0   33.333333333333336
-400.0   60.0   33.333333333333336
-400.0   30.0   33.333333333333336
-400.0   30.0   16.666666666666668
-450.0   30.0   33.333333333333336
-400.0   60.0   33.333333333333336
-400.0   30.0   16.666666666666668
-450.0   60.0   16.666666666666668
-450.0   30.0   33.333333333333336
-400.0   30.0   33.333333333333336
-450.0   60.0   33.333333333333336
-450.0   30.0   50.0
-400.0   30.0   33.333333333333336
-400.0   60.0   33.333333333333336
-450.0   60.0   33.333333333333336
-400.0   60.0   50.0
-450.0   30.0   50.0
-450.0   60.0   50.0
-400.0   60.0   50.0
-450.0   60.0   33.333333333333336
-450.0   30.0   50.0
-400.0   60.0   50.0
-400.0   30.0   50.0
-400.0   30.0   33.333333333333336
-450.0   30.0   50.0
-400.0   60.0   50.0
-400.0   30.0   33.333333333333336
-450.0   60.0   33.333333333333336
-450.0   60.0   0.0
-400.0   60.0   0.0
-450.0   90.0   0.0
-450.0   60.0   16.666666666666668
-400.0   60.0   0.0
-400.0   90.0   0.0
-450.0   90.0   0.0
-400.0   90.0   16.666666666666668
-450.0   60.0   16.666666666666668
-450.0   90.0   16.666666666666668
-400.0   90.0   16.666666666666668
-450.0   90.0   0.0
-450.0   60.0   16.666666666666668
-400.0   90.0   16.666666666666668
-400.0   60.0   16.666666666666668
-400.0   60.0   0.0
-450.0   60.0   16.666666666666668
-400.0   90.0   16.666666666666668
-400.0   60.0   0.0
-450.0   90.0   0.0
-450.0   60.0   16.666666666666668
-400.0   60.0   16.666666666666668
-450.0   90.0   16.666666666666668
-450.0   60.0   33.333333333333336
-400.0   60.0   16.666666666666668
-400.0   90.0   16.666666666666668
-450.0   90.0   16.666666666666668
-400.0   90.0   33.333333333333336
-450.0   60.0   33.333333333333336
-450.0   90.0   33.333333333333336
-400.0   90.0   33.333333333333336
-450.0   90.0   16.666666666666668
-450.0   60.0   33.333333333333336
-400.0   90.0   33.333333333333336
-400.0   60.0   33.333333333333336
-400.0   60.0   16.666666666666668
-450.0   60.0   33.333333333333336
-400.0   90.0   33.333333333333336
-400.0   60.0   16.666666666666668
-450.0   90.0   16.666666666666668
-450.0   60.0   33.333333333333336
-400.0   60.0   33.333333333333336
-450.0   90.0   33.333333333333336
-450.0   60.0   50.0
-400.0   60.0   33.333333333333336
-400.0   90.0   33.333333333333336
-450.0   90.0   33.333333333333336
-400.0   90.0   50.0
-450.0   60.0   50.0
-450.0   90.0   50.0
-400.0   90.0   50.0
-450.0   90.0   33.333333333333336
-450.0   60.0   50.0
-400.0   90.0   50.0
-400.0   60.0   50.0
-400.0   60.0   33.333333333333336
-450.0   60.0   50.0
-400.0   90.0   50.0
-400.0   60.0   33.333333333333336
-450.0   90.0   33.333333333333336
-450.0   90.0   0.0
-400.0   90.0   0.0
-450.0   120.0   0.0
-450.0   90.0   16.666666666666668
-400.0   90.0   0.0
-400.0   120.0   0.0
-450.0   120.0   0.0
-400.0   120.0   16.666666666666668
-450.0   90.0   16.666666666666668
-450.0   120.0   16.666666666666668
-400.0   120.0   16.666666666666668
-450.0   120.0   0.0
-450.0   90.0   16.666666666666668
-400.0   120.0   16.666666666666668
-400.0   90.0   16.666666666666668
-400.0   90.0   0.0
-450.0   90.0   16.666666666666668
-400.0   120.0   16.666666666666668
-400.0   90.0   0.0
-450.0   120.0   0.0
-450.0   90.0   16.666666666666668
-400.0   90.0   16.666666666666668
-450.0   120.0   16.666666666666668
-450.0   90.0   33.333333333333336
-400.0   90.0   16.666666666666668
-400.0   120.0   16.666666666666668
-450.0   120.0   16.666666666666668
-400.0   120.0   33.333333333333336
-450.0   90.0   33.333333333333336
-450.0   120.0   33.333333333333336
-400.0   120.0   33.333333333333336
-450.0   120.0   16.666666666666668
-450.0   90.0   33.333333333333336
-400.0   120.0   33.333333333333336
-400.0   90.0   33.333333333333336
-400.0   90.0   16.666666666666668
-450.0   90.0   33.333333333333336
-400.0   120.0   33.333333333333336
-400.0   90.0   16.666666666666668
-450.0   120.0   16.666666666666668
-450.0   90.0   33.333333333333336
-400.0   90.0   33.333333333333336
-450.0   120.0   33.333333333333336
-450.0   90.0   50.0
-400.0   90.0   33.333333333333336
-400.0   120.0   33.333333333333336
-450.0   120.0   33.333333333333336
-400.0   120.0   50.0
-450.0   90.0   50.0
-450.0   120.0   50.0
-400.0   120.0   50.0
-450.0   120.0   33.333333333333336
-450.0   90.0   50.0
-400.0   120.0   50.0
-400.0   90.0   50.0
-400.0   90.0   33.333333333333336
-450.0   90.0   50.0
-400.0   120.0   50.0
-400.0   90.0   33.333333333333336
-450.0   120.0   33.333333333333336
-450.0   120.0   0.0
-400.0   120.0   0.0
-450.0   150.0   0.0
-450.0   120.0   16.666666666666668
-400.0   120.0   0.0
-400.0   150.0   0.0
-450.0   150.0   0.0
-400.0   150.0   16.666666666666668
-450.0   120.0   16.666666666666668
-450.0   150.0   16.666666666666668
-400.0   150.0   16.666666666666668
-450.0   150.0   0.0
-450.0   120.0   16.666666666666668
-400.0   150.0   16.666666666666668
-400.0   120.0   16.666666666666668
-400.0   120.0   0.0
-450.0   120.0   16.666666666666668
-400.0   150.0   16.666666666666668
-400.0   120.0   0.0
-450.0   150.0   0.0
-450.0   120.0   16.666666666666668
-400.0   120.0   16.666666666666668
-450.0   150.0   16.666666666666668
-450.0   120.0   33.333333333333336
-400.0   120.0   16.666666666666668
-400.0   150.0   16.666666666666668
-450.0   150.0   16.666666666666668
-400.0   150.0   33.333333333333336
-450.0   120.0   33.333333333333336
-450.0   150.0   33.333333333333336
-400.0   150.0   33.333333333333336
-450.0   150.0   16.666666666666668
-450.0   120.0   33.333333333333336
-400.0   150.0   33.333333333333336
-400.0   120.0   33.333333333333336
-400.0   120.0   16.666666666666668
-450.0   120.0   33.333333333333336
-400.0   150.0   33.333333333333336
-400.0   120.0   16.666666666666668
-450.0   150.0   16.666666666666668
-450.0   120.0   33.333333333333336
-400.0   120.0   33.333333333333336
-450.0   150.0   33.333333333333336
-450.0   120.0   50.0
-400.0   120.0   33.333333333333336
-400.0   150.0   33.333333333333336
-450.0   150.0   33.333333333333336
-400.0   150.0   50.0
-450.0   120.0   50.0
-450.0   150.0   50.0
-400.0   150.0   50.0
-450.0   150.0   33.333333333333336
-450.0   120.0   50.0
-400.0   150.0   50.0
-400.0   120.0   50.0
-400.0   120.0   33.333333333333336
-450.0   120.0   50.0
-400.0   150.0   50.0
-400.0   120.0   33.333333333333336
-450.0   150.0   33.333333333333336
-400.0   0.0   0.0
-350.0   0.0   0.0
-400.0   30.0   0.0
-400.0   0.0   16.666666666666668
-350.0   0.0   0.0
-350.0   30.0   0.0
-400.0   30.0   0.0
-350.0   30.0   16.666666666666668
-400.0   0.0   16.666666666666668
-400.0   30.0   16.666666666666668
-350.0   30.0   16.666666666666668
-400.0   30.0   0.0
-400.0   0.0   16.666666666666668
-350.0   30.0   16.666666666666668
-350.0   0.0   16.666666666666668
-350.0   0.0   0.0
-400.0   0.0   16.666666666666668
-350.0   30.0   16.666666666666668
-350.0   0.0   0.0
-400.0   30.0   0.0
-400.0   0.0   16.666666666666668
-350.0   0.0   16.666666666666668
-400.0   30.0   16.666666666666668
-400.0   0.0   33.333333333333336
-350.0   0.0   16.666666666666668
-350.0   30.0   16.666666666666668
-400.0   30.0   16.666666666666668
-350.0   30.0   33.333333333333336
-400.0   0.0   33.333333333333336
-400.0   30.0   33.333333333333336
-350.0   30.0   33.333333333333336
-400.0   30.0   16.666666666666668
-400.0   0.0   33.333333333333336
-350.0   30.0   33.333333333333336
-350.0   0.0   33.333333333333336
-350.0   0.0   16.666666666666668
-400.0   0.0   33.333333333333336
-350.0   30.0   33.333333333333336
-350.0   0.0   16.666666666666668
-400.0   30.0   16.666666666666668
-400.0   0.0   33.333333333333336
-350.0   0.0   33.333333333333336
-400.0   30.0   33.333333333333336
-400.0   0.0   50.0
-350.0   0.0   33.333333333333336
-350.0   30.0   33.333333333333336
-400.0   30.0   33.333333333333336
-350.0   30.0   50.0
-400.0   0.0   50.0
-400.0   30.0   50.0
-350.0   30.0   50.0
-400.0   30.0   33.333333333333336
-400.0   0.0   50.0
-350.0   30.0   50.0
-350.0   0.0   50.0
-350.0   0.0   33.333333333333336
-400.0   0.0   50.0
-350.0   30.0   50.0
-350.0   0.0   33.333333333333336
-400.0   30.0   33.333333333333336
-400.0   30.0   0.0
-350.0   30.0   0.0
-400.0   60.0   0.0
-400.0   30.0   16.666666666666668
-350.0   30.0   0.0
-350.0   60.0   0.0
-400.0   60.0   0.0
-350.0   60.0   16.666666666666668
-400.0   30.0   16.666666666666668
-400.0   60.0   16.666666666666668
-350.0   60.0   16.666666666666668
-400.0   60.0   0.0
-400.0   30.0   16.666666666666668
-350.0   60.0   16.666666666666668
-350.0   30.0   16.666666666666668
-350.0   30.0   0.0
-400.0   30.0   16.666666666666668
-350.0   60.0   16.666666666666668
-350.0   30.0   0.0
-400.0   60.0   0.0
-400.0   30.0   16.666666666666668
-350.0   30.0   16.666666666666668
-400.0   60.0   16.666666666666668
-400.0   30.0   33.333333333333336
-350.0   30.0   16.666666666666668
-350.0   60.0   16.666666666666668
-400.0   60.0   16.666666666666668
-350.0   60.0   33.333333333333336
-400.0   30.0   33.333333333333336
-400.0   60.0   33.333333333333336
-350.0   60.0   33.333333333333336
-400.0   60.0   16.666666666666668
-400.0   30.0   33.333333333333336
-350.0   60.0   33.333333333333336
-350.0   30.0   33.333333333333336
-350.0   30.0   16.666666666666668
-400.0   30.0   33.333333333333336
-350.0   60.0   33.333333333333336
-350.0   30.0   16.666666666666668
-400.0   60.0   16.666666666666668
-400.0   30.0   33.333333333333336
-350.0   30.0   33.333333333333336
-400.0   60.0   33.333333333333336
-400.0   30.0   50.0
-350.0   30.0   33.333333333333336
-350.0   60.0   33.333333333333336
-400.0   60.0   33.333333333333336
-350.0   60.0   50.0
-400.0   30.0   50.0
-400.0   60.0   50.0
-350.0   60.0   50.0
-400.0   60.0   33.333333333333336
-400.0   30.0   50.0
-350.0   60.0   50.0
-350.0   30.0   50.0
-350.0   30.0   33.333333333333336
-400.0   30.0   50.0
-350.0   60.0   50.0
-350.0   30.0   33.333333333333336
-400.0   60.0   33.333333333333336
-400.0   60.0   0.0
-350.0   60.0   0.0
-400.0   90.0   0.0
-400.0   60.0   16.666666666666668
-350.0   60.0   0.0
-350.0   90.0   0.0
-400.0   90.0   0.0
-350.0   90.0   16.666666666666668
-400.0   60.0   16.666666666666668
-400.0   90.0   16.666666666666668
-350.0   90.0   16.666666666666668
-400.0   90.0   0.0
-400.0   60.0   16.666666666666668
-350.0   90.0   16.666666666666668
-350.0   60.0   16.666666666666668
-350.0   60.0   0.0
-400.0   60.0   16.666666666666668
-350.0   90.0   16.666666666666668
-350.0   60.0   0.0
-400.0   90.0   0.0
-400.0   60.0   16.666666666666668
-350.0   60.0   16.666666666666668
-400.0   90.0   16.666666666666668
-400.0   60.0   33.333333333333336
-350.0   60.0   16.666666666666668
-350.0   90.0   16.666666666666668
-400.0   90.0   16.666666666666668
-350.0   90.0   33.333333333333336
-400.0   60.0   33.333333333333336
-400.0   90.0   33.333333333333336
-350.0   90.0   33.333333333333336
-400.0   90.0   16.666666666666668
-400.0   60.0   33.333333333333336
-350.0   90.0   33.333333333333336
-350.0   60.0   33.333333333333336
-350.0   60.0   16.666666666666668
-400.0   60.0   33.333333333333336
-350.0   90.0   33.333333333333336
-350.0   60.0   16.666666666666668
-400.0   90.0   16.666666666666668
-400.0   60.0   33.333333333333336
-350.0   60.0   33.333333333333336
-400.0   90.0   33.333333333333336
-400.0   60.0   50.0
-350.0   60.0   33.333333333333336
-350.0   90.0   33.333333333333336
-400.0   90.0   33.333333333333336
-350.0   90.0   50.0
-400.0   60.0   50.0
-400.0   90.0   50.0
-350.0   90.0   50.0
-400.0   90.0   33.333333333333336
-400.0   60.0   50.0
-350.0   90.0   50.0
-350.0   60.0   50.0
-350.0   60.0   33.333333333333336
-400.0   60.0   50.0
-350.0   90.0   50.0
-350.0   60.0   33.333333333333336
-400.0   90.0   33.333333333333336
-400.0   90.0   0.0
-350.0   90.0   0.0
-400.0   120.0   0.0
-400.0   90.0   16.666666666666668
-350.0   90.0   0.0
-350.0   120.0   0.0
-400.0   120.0   0.0
-350.0   120.0   16.666666666666668
-400.0   90.0   16.666666666666668
-400.0   120.0   16.666666666666668
-350.0   120.0   16.666666666666668
-400.0   120.0   0.0
-400.0   90.0   16.666666666666668
-350.0   120.0   16.666666666666668
-350.0   90.0   16.666666666666668
-350.0   90.0   0.0
-400.0   90.0   16.666666666666668
-350.0   120.0   16.666666666666668
-350.0   90.0   0.0
-400.0   120.0   0.0
-400.0   90.0   16.666666666666668
-350.0   90.0   16.666666666666668
-400.0   120.0   16.666666666666668
-400.0   90.0   33.333333333333336
-350.0   90.0   16.666666666666668
-350.0   120.0   16.666666666666668
-400.0   120.0   16.666666666666668
-350.0   120.0   33.333333333333336
-400.0   90.0   33.333333333333336
-400.0   120.0   33.333333333333336
-350.0   120.0   33.333333333333336
-400.0   120.0   16.666666666666668
-400.0   90.0   33.333333333333336
-350.0   120.0   33.333333333333336
-350.0   90.0   33.333333333333336
-350.0   90.0   16.666666666666668
-400.0   90.0   33.333333333333336
-350.0   120.0   33.333333333333336
-350.0   90.0   16.666666666666668
-400.0   120.0   16.666666666666668
-400.0   90.0   33.333333333333336
-350.0   90.0   33.333333333333336
-400.0   120.0   33.333333333333336
-400.0   90.0   50.0
-350.0   90.0   33.333333333333336
-350.0   120.0   33.333333333333336
-400.0   120.0   33.333333333333336
-350.0   120.0   50.0
-400.0   90.0   50.0
-400.0   120.0   50.0
-350.0   120.0   50.0
-400.0   120.0   33.333333333333336
-400.0   90.0   50.0
-350.0   120.0   50.0
-350.0   90.0   50.0
-350.0   90.0   33.333333333333336
-400.0   90.0   50.0
-350.0   120.0   50.0
-350.0   90.0   33.333333333333336
-400.0   120.0   33.333333333333336
-400.0   120.0   0.0
-350.0   120.0   0.0
-400.0   150.0   0.0
-400.0   120.0   16.666666666666668
-350.0   120.0   0.0
-350.0   150.0   0.0
-400.0   150.0   0.0
-350.0   150.0   16.666666666666668
-400.0   120.0   16.666666666666668
-400.0   150.0   16.666666666666668
-350.0   150.0   16.666666666666668
-400.0   150.0   0.0
-400.0   120.0   16.666666666666668
-350.0   150.0   16.666666666666668
-350.0   120.0   16.666666666666668
-350.0   120.0   0.0
-400.0   120.0   16.666666666666668
-350.0   150.0   16.666666666666668
-350.0   120.0   0.0
-400.0   150.0   0.0
-400.0   120.0   16.666666666666668
-350.0   120.0   16.666666666666668
-400.0   150.0   16.666666666666668
-400.0   120.0   33.333333333333336
-350.0   120.0   16.666666666666668
-350.0   150.0   16.666666666666668
-400.0   150.0   16.666666666666668
-350.0   150.0   33.333333333333336
-400.0   120.0   33.333333333333336
-400.0   150.0   33.333333333333336
-350.0   150.0   33.333333333333336
-400.0   150.0   16.666666666666668
-400.0   120.0   33.333333333333336
-350.0   150.0   33.333333333333336
-350.0   120.0   33.333333333333336
-350.0   120.0   16.666666666666668
-400.0   120.0   33.333333333333336
-350.0   150.0   33.333333333333336
-350.0   120.0   16.666666666666668
-400.0   150.0   16.666666666666668
-400.0   120.0   33.333333333333336
-350.0   120.0   33.333333333333336
-400.0   150.0   33.333333333333336
-400.0   120.0   50.0
-350.0   120.0   33.333333333333336
-350.0   150.0   33.333333333333336
-400.0   150.0   33.333333333333336
-350.0   150.0   50.0
-400.0   120.0   50.0
-400.0   150.0   50.0
-350.0   150.0   50.0
-400.0   150.0   33.333333333333336
-400.0   120.0   50.0
-350.0   150.0   50.0
-350.0   120.0   50.0
-350.0   120.0   33.333333333333336
-400.0   120.0   50.0
-350.0   150.0   50.0
-350.0   120.0   33.333333333333336
-400.0   150.0   33.333333333333336
-350.0   0.0   0.0
-300.0   0.0   0.0
-350.0   30.0   0.0
-350.0   0.0   16.666666666666668
-300.0   0.0   0.0
-300.0   30.0   0.0
-350.0   30.0   0.0
-300.0   30.0   16.666666666666668
-350.0   0.0   16.666666666666668
-350.0   30.0   16.666666666666668
-300.0   30.0   16.666666666666668
-350.0   30.0   0.0
-350.0   0.0   16.666666666666668
-300.0   30.0   16.666666666666668
-300.0   0.0   16.666666666666668
-300.0   0.0   0.0
-350.0   0.0   16.666666666666668
-300.0   30.0   16.666666666666668
-300.0   0.0   0.0
-350.0   30.0   0.0
-350.0   0.0   16.666666666666668
-300.0   0.0   16.666666666666668
-350.0   30.0   16.666666666666668
-350.0   0.0   33.333333333333336
-300.0   0.0   16.666666666666668
-300.0   30.0   16.666666666666668
-350.0   30.0   16.666666666666668
-300.0   30.0   33.333333333333336
-350.0   0.0   33.333333333333336
-350.0   30.0   33.333333333333336
-300.0   30.0   33.333333333333336
-350.0   30.0   16.666666666666668
-350.0   0.0   33.333333333333336
-300.0   30.0   33.333333333333336
-300.0   0.0   33.333333333333336
-300.0   0.0   16.666666666666668
-350.0   0.0   33.333333333333336
-300.0   30.0   33.333333333333336
-300.0   0.0   16.666666666666668
-350.0   30.0   16.666666666666668
-350.0   0.0   33.333333333333336
-300.0   0.0   33.333333333333336
-350.0   30.0   33.333333333333336
-350.0   0.0   50.0
-300.0   0.0   33.333333333333336
-300.0   30.0   33.333333333333336
-350.0   30.0   33.333333333333336
-300.0   30.0   50.0
-350.0   0.0   50.0
-350.0   30.0   50.0
-300.0   30.0   50.0
-350.0   30.0   33.333333333333336
-350.0   0.0   50.0
-300.0   30.0   50.0
-300.0   0.0   50.0
-300.0   0.0   33.333333333333336
-350.0   0.0   50.0
-300.0   30.0   50.0
-300.0   0.0   33.333333333333336
-350.0   30.0   33.333333333333336
-350.0   30.0   0.0
-300.0   30.0   0.0
-350.0   60.0   0.0
-350.0   30.0   16.666666666666668
-300.0   30.0   0.0
-300.0   60.0   0.0
-350.0   60.0   0.0
-300.0   60.0   16.666666666666668
-350.0   30.0   16.666666666666668
-350.0   60.0   16.666666666666668
-300.0   60.0   16.666666666666668
-350.0   60.0   0.0
-350.0   30.0   16.666666666666668
-300.0   60.0   16.666666666666668
-300.0   30.0   16.666666666666668
-300.0   30.0   0.0
-350.0   30.0   16.666666666666668
-300.0   60.0   16.666666666666668
-300.0   30.0   0.0
-350.0   60.0   0.0
-350.0   30.0   16.666666666666668
-300.0   30.0   16.666666666666668
-350.0   60.0   16.666666666666668
-350.0   30.0   33.333333333333336
-300.0   30.0   16.666666666666668
-300.0   60.0   16.666666666666668
-350.0   60.0   16.666666666666668
-300.0   60.0   33.333333333333336
-350.0   30.0   33.333333333333336
-350.0   60.0   33.333333333333336
-300.0   60.0   33.333333333333336
-350.0   60.0   16.666666666666668
-350.0   30.0   33.333333333333336
-300.0   60.0   33.333333333333336
-300.0   30.0   33.333333333333336
-300.0   30.0   16.666666666666668
-350.0   30.0   33.333333333333336
-300.0   60.0   33.333333333333336
-300.0   30.0   16.666666666666668
-350.0   60.0   16.666666666666668
-350.0   30.0   33.333333333333336
-300.0   30.0   33.333333333333336
-350.0   60.0   33.333333333333336
-350.0   30.0   50.0
-300.0   30.0   33.333333333333336
-300.0   60.0   33.333333333333336
-350.0   60.0   33.333333333333336
-300.0   60.0   50.0
-350.0   30.0   50.0
-350.0   60.0   50.0
-300.0   60.0   50.0
-350.0   60.0   33.333333333333336
-350.0   30.0   50.0
-300.0   60.0   50.0
-300.0   30.0   50.0
-300.0   30.0   33.333333333333336
-350.0   30.0   50.0
-300.0   60.0   50.0
-300.0   30.0   33.333333333333336
-350.0   60.0   33.333333333333336
-350.0   60.0   0.0
-300.0   60.0   0.0
-350.0   90.0   0.0
-350.0   60.0   16.666666666666668
-300.0   60.0   0.0
-300.0   90.0   0.0
-350.0   90.0   0.0
-300.0   90.0   16.666666666666668
-350.0   60.0   16.666666666666668
-350.0   90.0   16.666666666666668
-300.0   90.0   16.666666666666668
-350.0   90.0   0.0
-350.0   60.0   16.666666666666668
-300.0   90.0   16.666666666666668
-300.0   60.0   16.666666666666668
-300.0   60.0   0.0
-350.0   60.0   16.666666666666668
-300.0   90.0   16.666666666666668
-300.0   60.0   0.0
-350.0   90.0   0.0
-350.0   60.0   16.666666666666668
-300.0   60.0   16.666666666666668
-350.0   90.0   16.666666666666668
-350.0   60.0   33.333333333333336
-300.0   60.0   16.666666666666668
-300.0   90.0   16.666666666666668
-350.0   90.0   16.666666666666668
-300.0   90.0   33.333333333333336
-350.0   60.0   33.333333333333336
-350.0   90.0   33.333333333333336
-300.0   90.0   33.333333333333336
-350.0   90.0   16.666666666666668
-350.0   60.0   33.333333333333336
-300.0   90.0   33.333333333333336
-300.0   60.0   33.333333333333336
-300.0   60.0   16.666666666666668
-350.0   60.0   33.333333333333336
-300.0   90.0   33.333333333333336
-300.0   60.0   16.666666666666668
-350.0   90.0   16.666666666666668
-350.0   60.0   33.333333333333336
-300.0   60.0   33.333333333333336
-350.0   90.0   33.333333333333336
-350.0   60.0   50.0
-300.0   60.0   33.333333333333336
-300.0   90.0   33.333333333333336
-350.0   90.0   33.333333333333336
-300.0   90.0   50.0
-350.0   60.0   50.0
-350.0   90.0   50.0
-300.0   90.0   50.0
-350.0   90.0   33.333333333333336
-350.0   60.0   50.0
-300.0   90.0   50.0
-300.0   60.0   50.0
-300.0   60.0   33.333333333333336
-350.0   60.0   50.0
-300.0   90.0   50.0
-300.0   60.0   33.333333333333336
-350.0   90.0   33.333333333333336
-350.0   90.0   0.0
-300.0   90.0   0.0
-350.0   120.0   0.0
-350.0   90.0   16.666666666666668
-300.0   90.0   0.0
-300.0   120.0   0.0
-350.0   120.0   0.0
-300.0   120.0   16.666666666666668
-350.0   90.0   16.666666666666668
-350.0   120.0   16.666666666666668
-300.0   120.0   16.666666666666668
-350.0   120.0   0.0
-350.0   90.0   16.666666666666668
-300.0   120.0   16.666666666666668
-300.0   90.0   16.666666666666668
-300.0   90.0   0.0
-350.0   90.0   16.666666666666668
-300.0   120.0   16.666666666666668
-300.0   90.0   0.0
-350.0   120.0   0.0
-350.0   90.0   16.666666666666668
-300.0   90.0   16.666666666666668
-350.0   120.0   16.666666666666668
-350.0   90.0   33.333333333333336
-300.0   90.0   16.666666666666668
-300.0   120.0   16.666666666666668
-350.0   120.0   16.666666666666668
-300.0   120.0   33.333333333333336
-350.0   90.0   33.333333333333336
-350.0   120.0   33.333333333333336
-300.0   120.0   33.333333333333336
-350.0   120.0   16.666666666666668
-350.0   90.0   33.333333333333336
-300.0   120.0   33.333333333333336
-300.0   90.0   33.333333333333336
-300.0   90.0   16.666666666666668
-350.0   90.0   33.333333333333336
-300.0   120.0   33.333333333333336
-300.0   90.0   16.666666666666668
-350.0   120.0   16.666666666666668
-350.0   90.0   33.333333333333336
-300.0   90.0   33.333333333333336
-350.0   120.0   33.333333333333336
-350.0   90.0   50.0
-300.0   90.0   33.333333333333336
-300.0   120.0   33.333333333333336
-350.0   120.0   33.333333333333336
-300.0   120.0   50.0
-350.0   90.0   50.0
-350.0   120.0   50.0
-300.0   120.0   50.0
-350.0   120.0   33.333333333333336
-350.0   90.0   50.0
-300.0   120.0   50.0
-300.0   90.0   50.0
-300.0   90.0   33.333333333333336
-350.0   90.0   50.0
-300.0   120.0   50.0
-300.0   90.0   33.333333333333336
-350.0   120.0   33.333333333333336
-350.0   120.0   0.0
-300.0   120.0   0.0
-350.0   150.0   0.0
-350.0   120.0   16.666666666666668
-300.0   120.0   0.0
-300.0   150.0   0.0
-350.0   150.0   0.0
-300.0   150.0   16.666666666666668
-350.0   120.0   16.666666666666668
-350.0   150.0   16.666666666666668
-300.0   150.0   16.666666666666668
-350.0   150.0   0.0
-350.0   120.0   16.666666666666668
-300.0   150.0   16.666666666666668
-300.0   120.0   16.666666666666668
-300.0   120.0   0.0
-350.0   120.0   16.666666666666668
-300.0   150.0   16.666666666666668
-300.0   120.0   0.0
-350.0   150.0   0.0
-350.0   120.0   16.666666666666668
-300.0   120.0   16.666666666666668
-350.0   150.0   16.666666666666668
-350.0   120.0   33.333333333333336
-300.0   120.0   16.666666666666668
-300.0   150.0   16.666666666666668
-350.0   150.0   16.666666666666668
-300.0   150.0   33.333333333333336
-350.0   120.0   33.333333333333336
-350.0   150.0   33.333333333333336
-300.0   150.0   33.333333333333336
-350.0   150.0   16.666666666666668
-350.0   120.0   33.333333333333336
-300.0   150.0   33.333333333333336
-300.0   120.0   33.333333333333336
-300.0   120.0   16.666666666666668
-350.0   120.0   33.333333333333336
-300.0   150.0   33.333333333333336
-300.0   120.0   16.666666666666668
-350.0   150.0   16.666666666666668
-350.0   120.0   33.333333333333336
-300.0   120.0   33.333333333333336
-350.0   150.0   33.333333333333336
-350.0   120.0   50.0
-300.0   120.0   33.333333333333336
-300.0   150.0   33.333333333333336
-350.0   150.0   33.333333333333336
-300.0   150.0   50.0
-350.0   120.0   50.0
-350.0   150.0   50.0
-300.0   150.0   50.0
-350.0   150.0   33.333333333333336
-350.0   120.0   50.0
-300.0   150.0   50.0
-300.0   120.0   50.0
-300.0   120.0   33.333333333333336
-350.0   120.0   50.0
-300.0   150.0   50.0
-300.0   120.0   33.333333333333336
-350.0   150.0   33.333333333333336
-300.0   0.0   0.0
-250.0   0.0   0.0
-300.0   30.0   0.0
-300.0   0.0   16.666666666666668
-250.0   0.0   0.0
-250.0   30.0   0.0
-300.0   30.0   0.0
-250.0   30.0   16.666666666666668
-300.0   0.0   16.666666666666668
-300.0   30.0   16.666666666666668
-250.0   30.0   16.666666666666668
-300.0   30.0   0.0
-300.0   0.0   16.666666666666668
-250.0   30.0   16.666666666666668
-250.0   0.0   16.666666666666668
-250.0   0.0   0.0
-300.0   0.0   16.666666666666668
-250.0   30.0   16.666666666666668
-250.0   0.0   0.0
-300.0   30.0   0.0
-300.0   0.0   16.666666666666668
-250.0   0.0   16.666666666666668
-300.0   30.0   16.666666666666668
-300.0   0.0   33.333333333333336
-250.0   0.0   16.666666666666668
-250.0   30.0   16.666666666666668
-300.0   30.0   16.666666666666668
-250.0   30.0   33.333333333333336
-300.0   0.0   33.333333333333336
-300.0   30.0   33.333333333333336
-250.0   30.0   33.333333333333336
-300.0   30.0   16.666666666666668
-300.0   0.0   33.333333333333336
-250.0   30.0   33.333333333333336
-250.0   0.0   33.333333333333336
-250.0   0.0   16.666666666666668
-300.0   0.0   33.333333333333336
-250.0   30.0   33.333333333333336
-250.0   0.0   16.666666666666668
-300.0   30.0   16.666666666666668
-300.0   0.0   33.333333333333336
-250.0   0.0   33.333333333333336
-300.0   30.0   33.333333333333336
-300.0   0.0   50.0
-250.0   0.0   33.333333333333336
-250.0   30.0   33.333333333333336
-300.0   30.0   33.333333333333336
-250.0   30.0   50.0
-300.0   0.0   50.0
-300.0   30.0   50.0
-250.0   30.0   50.0
-300.0   30.0   33.333333333333336
-300.0   0.0   50.0
-250.0   30.0   50.0
-250.0   0.0   50.0
-250.0   0.0   33.333333333333336
-300.0   0.0   50.0
-250.0   30.0   50.0
-250.0   0.0   33.333333333333336
-300.0   30.0   33.333333333333336
-300.0   30.0   0.0
-250.0   30.0   0.0
-300.0   60.0   0.0
-300.0   30.0   16.666666666666668
-250.0   30.0   0.0
-250.0   60.0   0.0
-300.0   60.0   0.0
-250.0   60.0   16.666666666666668
-300.0   30.0   16.666666666666668
-300.0   60.0   16.666666666666668
-250.0   60.0   16.666666666666668
-300.0   60.0   0.0
-300.0   30.0   16.666666666666668
-250.0   60.0   16.666666666666668
-250.0   30.0   16.666666666666668
-250.0   30.0   0.0
-300.0   30.0   16.666666666666668
-250.0   60.0   16.666666666666668
-250.0   30.0   0.0
-300.0   60.0   0.0
-300.0   30.0   16.666666666666668
-250.0   30.0   16.666666666666668
-300.0   60.0   16.666666666666668
-300.0   30.0   33.333333333333336
-250.0   30.0   16.666666666666668
-250.0   60.0   16.666666666666668
-300.0   60.0   16.666666666666668
-250.0   60.0   33.333333333333336
-300.0   30.0   33.333333333333336
-300.0   60.0   33.333333333333336
-250.0   60.0   33.333333333333336
-300.0   60.0   16.666666666666668
-300.0   30.0   33.333333333333336
-250.0   60.0   33.333333333333336
-250.0   30.0   33.333333333333336
-250.0   30.0   16.666666666666668
-300.0   30.0   33.333333333333336
-250.0   60.0   33.333333333333336
-250.0   30.0   16.666666666666668
-300.0   60.0   16.666666666666668
-300.0   30.0   33.333333333333336
-250.0   30.0   33.333333333333336
-300.0   60.0   33.333333333333336
-300.0   30.0   50.0
-250.0   30.0   33.333333333333336
-250.0   60.0   33.333333333333336
-300.0   60.0   33.333333333333336
-250.0   60.0   50.0
-300.0   30.0   50.0
-300.0   60.0   50.0
-250.0   60.0   50.0
-300.0   60.0   33.333333333333336
-300.0   30.0   50.0
-250.0   60.0   50.0
-250.0   30.0   50.0
-250.0   30.0   33.333333333333336
-300.0   30.0   50.0
-250.0   60.0   50.0
-250.0   30.0   33.333333333333336
-300.0   60.0   33.333333333333336
-300.0   60.0   0.0
-250.0   60.0   0.0
-300.0   90.0   0.0
-300.0   60.0   16.666666666666668
-250.0   60.0   0.0
-250.0   90.0   0.0
-300.0   90.0   0.0
-250.0   90.0   16.666666666666668
-300.0   60.0   16.666666666666668
-300.0   90.0   16.666666666666668
-250.0   90.0   16.666666666666668
-300.0   90.0   0.0
-300.0   60.0   16.666666666666668
-250.0   90.0   16.666666666666668
-250.0   60.0   16.666666666666668
-250.0   60.0   0.0
-300.0   60.0   16.666666666666668
-250.0   90.0   16.666666666666668
-250.0   60.0   0.0
-300.0   90.0   0.0
-300.0   60.0   16.666666666666668
-250.0   60.0   16.666666666666668
-300.0   90.0   16.666666666666668
-300.0   60.0   33.333333333333336
-250.0   60.0   16.666666666666668
-250.0   90.0   16.666666666666668
-300.0   90.0   16.666666666666668
-250.0   90.0   33.333333333333336
-300.0   60.0   33.333333333333336
-300.0   90.0   33.333333333333336
-250.0   90.0   33.333333333333336
-300.0   90.0   16.666666666666668
-300.0   60.0   33.333333333333336
-250.0   90.0   33.333333333333336
-250.0   60.0   33.333333333333336
-250.0   60.0   16.666666666666668
-300.0   60.0   33.333333333333336
-250.0   90.0   33.333333333333336
-250.0   60.0   16.666666666666668
-300.0   90.0   16.666666666666668
-300.0   60.0   33.333333333333336
-250.0   60.0   33.333333333333336
-300.0   90.0   33.333333333333336
-300.0   60.0   50.0
-250.0   60.0   33.333333333333336
-250.0   90.0   33.333333333333336
-300.0   90.0   33.333333333333336
-250.0   90.0   50.0
-300.0   60.0   50.0
-300.0   90.0   50.0
-250.0   90.0   50.0
-300.0   90.0   33.333333333333336
-300.0   60.0   50.0
-250.0   90.0   50.0
-250.0   60.0   50.0
-250.0   60.0   33.333333333333336
-300.0   60.0   50.0
-250.0   90.0   50.0
-250.0   60.0   33.333333333333336
-300.0   90.0   33.333333333333336
-300.0   90.0   0.0
-250.0   90.0   0.0
-300.0   120.0   0.0
-300.0   90.0   16.666666666666668
-250.0   90.0   0.0
-250.0   120.0   0.0
-300.0   120.0   0.0
-250.0   120.0   16.666666666666668
-300.0   90.0   16.666666666666668
-300.0   120.0   16.666666666666668
-250.0   120.0   16.666666666666668
-300.0   120.0   0.0
-300.0   90.0   16.666666666666668
-250.0   120.0   16.666666666666668
-250.0   90.0   16.666666666666668
-250.0   90.0   0.0
-300.0   90.0   16.666666666666668
-250.0   120.0   16.666666666666668
-250.0   90.0   0.0
-300.0   120.0   0.0
-300.0   90.0   16.666666666666668
-250.0   90.0   16.666666666666668
-300.0   120.0   16.666666666666668
-300.0   90.0   33.333333333333336
-250.0   90.0   16.666666666666668
-250.0   120.0   16.666666666666668
-300.0   120.0   16.666666666666668
-250.0   120.0   33.333333333333336
-300.0   90.0   33.333333333333336
-300.0   120.0   33.333333333333336
-250.0   120.0   33.333333333333336
-300.0   120.0   16.666666666666668
-300.0   90.0   33.333333333333336
-250.0   120.0   33.333333333333336
-250.0   90.0   33.333333333333336
-250.0   90.0   16.666666666666668
-300.0   90.0   33.333333333333336
-250.0   120.0   33.333333333333336
-250.0   90.0   16.666666666666668
-300.0   120.0   16.666666666666668
-300.0   90.0   33.333333333333336
-250.0   90.0   33.333333333333336
-300.0   120.0   33.333333333333336
-300.0   90.0   50.0
-250.0   90.0   33.333333333333336
-250.0   120.0   33.333333333333336
-300.0   120.0   33.333333333333336
-250.0   120.0   50.0
-300.0   90.0   50.0
-300.0   120.0   50.0
-250.0   120.0   50.0
-300.0   120.0   33.333333333333336
-300.0   90.0   50.0
-250.0   120.0   50.0
-250.0   90.0   50.0
-250.0   90.0   33.333333333333336
-300.0   90.0   50.0
-250.0   120.0   50.0
-250.0   90.0   33.333333333333336
-300.0   120.0   33.333333333333336
-300.0   120.0   0.0
-250.0   120.0   0.0
-300.0   150.0   0.0
-300.0   120.0   16.666666666666668
-250.0   120.0   0.0
-250.0   150.0   0.0
-300.0   150.0   0.0
-250.0   150.0   16.666666666666668
-300.0   120.0   16.666666666666668
-300.0   150.0   16.666666666666668
-250.0   150.0   16.666666666666668
-300.0   150.0   0.0
-300.0   120.0   16.666666666666668
-250.0   150.0   16.666666666666668
-250.0   120.0   16.666666666666668
-250.0   120.0   0.0
-300.0   120.0   16.666666666666668
-250.0   150.0   16.666666666666668
-250.0   120.0   0.0
-300.0   150.0   0.0
-300.0   120.0   16.666666666666668
-250.0   120.0   16.666666666666668
-300.0   150.0   16.666666666666668
-300.0   120.0   33.333333333333336
-250.0   120.0   16.666666666666668
-250.0   150.0   16.666666666666668
-300.0   150.0   16.666666666666668
-250.0   150.0   33.333333333333336
-300.0   120.0   33.333333333333336
-300.0   150.0   33.333333333333336
-250.0   150.0   33.333333333333336
-300.0   150.0   16.666666666666668
-300.0   120.0   33.333333333333336
-250.0   150.0   33.333333333333336
-250.0   120.0   33.333333333333336
-250.0   120.0   16.666666666666668
-300.0   120.0   33.333333333333336
-250.0   150.0   33.333333333333336
-250.0   120.0   16.666666666666668
-300.0   150.0   16.666666666666668
-300.0   120.0   33.333333333333336
-250.0   120.0   33.333333333333336
-300.0   150.0   33.333333333333336
-300.0   120.0   50.0
-250.0   120.0   33.333333333333336
-250.0   150.0   33.333333333333336
-300.0   150.0   33.333333333333336
-250.0   150.0   50.0
-300.0   120.0   50.0
-300.0   150.0   50.0
-250.0   150.0   50.0
-300.0   150.0   33.333333333333336
-300.0   120.0   50.0
-250.0   150.0   50.0
-250.0   120.0   50.0
-250.0   120.0   33.333333333333336
-300.0   120.0   50.0
-250.0   150.0   50.0
-250.0   120.0   33.333333333333336
-300.0   150.0   33.333333333333336
-250.0   0.0   0.0
-200.0   0.0   0.0
-250.0   30.0   0.0
-250.0   0.0   16.666666666666668
-200.0   0.0   0.0
-200.0   30.0   0.0
-250.0   30.0   0.0
-200.0   30.0   16.666666666666668
-250.0   0.0   16.666666666666668
-250.0   30.0   16.666666666666668
-200.0   30.0   16.666666666666668
-250.0   30.0   0.0
-250.0   0.0   16.666666666666668
-200.0   30.0   16.666666666666668
-200.0   0.0   16.666666666666668
-200.0   0.0   0.0
-250.0   0.0   16.666666666666668
-200.0   30.0   16.666666666666668
-200.0   0.0   0.0
-250.0   30.0   0.0
-250.0   0.0   16.666666666666668
-200.0   0.0   16.666666666666668
-250.0   30.0   16.666666666666668
-250.0   0.0   33.333333333333336
-200.0   0.0   16.666666666666668
-200.0   30.0   16.666666666666668
-250.0   30.0   16.666666666666668
-200.0   30.0   33.333333333333336
-250.0   0.0   33.333333333333336
-250.0   30.0   33.333333333333336
-200.0   30.0   33.333333333333336
-250.0   30.0   16.666666666666668
-250.0   0.0   33.333333333333336
-200.0   30.0   33.333333333333336
-200.0   0.0   33.333333333333336
-200.0   0.0   16.666666666666668
-250.0   0.0   33.333333333333336
-200.0   30.0   33.333333333333336
-200.0   0.0   16.666666666666668
-250.0   30.0   16.666666666666668
-250.0   0.0   33.333333333333336
-200.0   0.0   33.333333333333336
-250.0   30.0   33.333333333333336
-250.0   0.0   50.0
-200.0   0.0   33.333333333333336
-200.0   30.0   33.333333333333336
-250.0   30.0   33.333333333333336
-200.0   30.0   50.0
-250.0   0.0   50.0
-250.0   30.0   50.0
-200.0   30.0   50.0
-250.0   30.0   33.333333333333336
-250.0   0.0   50.0
-200.0   30.0   50.0
-200.0   0.0   50.0
-200.0   0.0   33.333333333333336
-250.0   0.0   50.0
-200.0   30.0   50.0
-200.0   0.0   33.333333333333336
-250.0   30.0   33.333333333333336
-250.0   30.0   0.0
-200.0   30.0   0.0
-250.0   60.0   0.0
-250.0   30.0   16.666666666666668
-200.0   30.0   0.0
-200.0   60.0   0.0
-250.0   60.0   0.0
-200.0   60.0   16.666666666666668
-250.0   30.0   16.666666666666668
-250.0   60.0   16.666666666666668
-200.0   60.0   16.666666666666668
-250.0   60.0   0.0
-250.0   30.0   16.666666666666668
-200.0   60.0   16.666666666666668
-200.0   30.0   16.666666666666668
-200.0   30.0   0.0
-250.0   30.0   16.666666666666668
-200.0   60.0   16.666666666666668
-200.0   30.0   0.0
-250.0   60.0   0.0
-250.0   30.0   16.666666666666668
-200.0   30.0   16.666666666666668
-250.0   60.0   16.666666666666668
-250.0   30.0   33.333333333333336
-200.0   30.0   16.666666666666668
-200.0   60.0   16.666666666666668
-250.0   60.0   16.666666666666668
-200.0   60.0   33.333333333333336
-250.0   30.0   33.333333333333336
-250.0   60.0   33.333333333333336
-200.0   60.0   33.333333333333336
-250.0   60.0   16.666666666666668
-250.0   30.0   33.333333333333336
-200.0   60.0   33.333333333333336
-200.0   30.0   33.333333333333336
-200.0   30.0   16.666666666666668
-250.0   30.0   33.333333333333336
-200.0   60.0   33.333333333333336
-200.0   30.0   16.666666666666668
-250.0   60.0   16.666666666666668
-250.0   30.0   33.333333333333336
-200.0   30.0   33.333333333333336
-250.0   60.0   33.333333333333336
-250.0   30.0   50.0
-200.0   30.0   33.333333333333336
-200.0   60.0   33.333333333333336
-250.0   60.0   33.333333333333336
-200.0   60.0   50.0
-250.0   30.0   50.0
-250.0   60.0   50.0
-200.0   60.0   50.0
-250.0   60.0   33.333333333333336
-250.0   30.0   50.0
-200.0   60.0   50.0
-200.0   30.0   50.0
-200.0   30.0   33.333333333333336
-250.0   30.0   50.0
-200.0   60.0   50.0
-200.0   30.0   33.333333333333336
-250.0   60.0   33.333333333333336
-250.0   60.0   0.0
-200.0   60.0   0.0
-250.0   90.0   0.0
-250.0   60.0   16.666666666666668
-200.0   60.0   0.0
-200.0   90.0   0.0
-250.0   90.0   0.0
-200.0   90.0   16.666666666666668
-250.0   60.0   16.666666666666668
-250.0   90.0   16.666666666666668
-200.0   90.0   16.666666666666668
-250.0   90.0   0.0
-250.0   60.0   16.666666666666668
-200.0   90.0   16.666666666666668
-200.0   60.0   16.666666666666668
-200.0   60.0   0.0
-250.0   60.0   16.666666666666668
-200.0   90.0   16.666666666666668
-200.0   60.0   0.0
-250.0   90.0   0.0
-250.0   60.0   16.666666666666668
-200.0   60.0   16.666666666666668
-250.0   90.0   16.666666666666668
-250.0   60.0   33.333333333333336
-200.0   60.0   16.666666666666668
-200.0   90.0   16.666666666666668
-250.0   90.0   16.666666666666668
-200.0   90.0   33.333333333333336
-250.0   60.0   33.333333333333336
-250.0   90.0   33.333333333333336
-200.0   90.0   33.333333333333336
-250.0   90.0   16.666666666666668
-250.0   60.0   33.333333333333336
-200.0   90.0   33.333333333333336
-200.0   60.0   33.333333333333336
-200.0   60.0   16.666666666666668
-250.0   60.0   33.333333333333336
-200.0   90.0   33.333333333333336
-200.0   60.0   16.666666666666668
-250.0   90.0   16.666666666666668
-250.0   60.0   33.333333333333336
-200.0   60.0   33.333333333333336
-250.0   90.0   33.333333333333336
-250.0   60.0   50.0
-200.0   60.0   33.333333333333336
-200.0   90.0   33.333333333333336
-250.0   90.0   33.333333333333336
-200.0   90.0   50.0
-250.0   60.0   50.0
-250.0   90.0   50.0
-200.0   90.0   50.0
-250.0   90.0   33.333333333333336
-250.0   60.0   50.0
-200.0   90.0   50.0
-200.0   60.0   50.0
-200.0   60.0   33.333333333333336
-250.0   60.0   50.0
-200.0   90.0   50.0
-200.0   60.0   33.333333333333336
-250.0   90.0   33.333333333333336
-250.0   90.0   0.0
-200.0   90.0   0.0
-250.0   120.0   0.0
-250.0   90.0   16.666666666666668
-200.0   90.0   0.0
-200.0   120.0   0.0
-250.0   120.0   0.0
-200.0   120.0   16.666666666666668
-250.0   90.0   16.666666666666668
-250.0   120.0   16.666666666666668
-200.0   120.0   16.666666666666668
-250.0   120.0   0.0
-250.0   90.0   16.666666666666668
-200.0   120.0   16.666666666666668
-200.0   90.0   16.666666666666668
-200.0   90.0   0.0
-250.0   90.0   16.666666666666668
-200.0   120.0   16.666666666666668
-200.0   90.0   0.0
-250.0   120.0   0.0
-250.0   90.0   16.666666666666668
-200.0   90.0   16.666666666666668
-250.0   120.0   16.666666666666668
-250.0   90.0   33.333333333333336
-200.0   90.0   16.666666666666668
-200.0   120.0   16.666666666666668
-250.0   120.0   16.666666666666668
-200.0   120.0   33.333333333333336
-250.0   90.0   33.333333333333336
-250.0   120.0   33.333333333333336
-200.0   120.0   33.333333333333336
-250.0   120.0   16.666666666666668
-250.0   90.0   33.333333333333336
-200.0   120.0   33.333333333333336
-200.0   90.0   33.333333333333336
-200.0   90.0   16.666666666666668
-250.0   90.0   33.333333333333336
-200.0   120.0   33.333333333333336
-200.0   90.0   16.666666666666668
-250.0   120.0   16.666666666666668
-250.0   90.0   33.333333333333336
-200.0   90.0   33.333333333333336
-250.0   120.0   33.333333333333336
-250.0   90.0   50.0
-200.0   90.0   33.333333333333336
-200.0   120.0   33.333333333333336
-250.0   120.0   33.333333333333336
-200.0   120.0   50.0
-250.0   90.0   50.0
-250.0   120.0   50.0
-200.0   120.0   50.0
-250.0   120.0   33.333333333333336
-250.0   90.0   50.0
-200.0   120.0   50.0
-200.0   90.0   50.0
-200.0   90.0   33.333333333333336
-250.0   90.0   50.0
-200.0   120.0   50.0
-200.0   90.0   33.333333333333336
-250.0   120.0   33.333333333333336
-250.0   120.0   0.0
-200.0   120.0   0.0
-250.0   150.0   0.0
-250.0   120.0   16.666666666666668
-200.0   120.0   0.0
-200.0   150.0   0.0
-250.0   150.0   0.0
-200.0   150.0   16.666666666666668
-250.0   120.0   16.666666666666668
-250.0   150.0   16.666666666666668
-200.0   150.0   16.666666666666668
-250.0   150.0   0.0
-250.0   120.0   16.666666666666668
-200.0   150.0   16.666666666666668
-200.0   120.0   16.666666666666668
-200.0   120.0   0.0
-250.0   120.0   16.666666666666668
-200.0   150.0   16.666666666666668
-200.0   120.0   0.0
-250.0   150.0   0.0
-250.0   120.0   16.666666666666668
-200.0   120.0   16.666666666666668
-250.0   150.0   16.666666666666668
-250.0   120.0   33.333333333333336
-200.0   120.0   16.666666666666668
-200.0   150.0   16.666666666666668
-250.0   150.0   16.666666666666668
-200.0   150.0   33.333333333333336
-250.0   120.0   33.333333333333336
-250.0   150.0   33.333333333333336
-200.0   150.0   33.333333333333336
-250.0   150.0   16.666666666666668
-250.0   120.0   33.333333333333336
-200.0   150.0   33.333333333333336
-200.0   120.0   33.333333333333336
-200.0   120.0   16.666666666666668
-250.0   120.0   33.333333333333336
-200.0   150.0   33.333333333333336
-200.0   120.0   16.666666666666668
-250.0   150.0   16.666666666666668
-250.0   120.0   33.333333333333336
-200.0   120.0   33.333333333333336
-250.0   150.0   33.333333333333336
-250.0   120.0   50.0
-200.0   120.0   33.333333333333336
-200.0   150.0   33.333333333333336
-250.0   150.0   33.333333333333336
-200.0   150.0   50.0
-250.0   120.0   50.0
-250.0   150.0   50.0
-200.0   150.0   50.0
-250.0   150.0   33.333333333333336
-250.0   120.0   50.0
-200.0   150.0   50.0
-200.0   120.0   50.0
-200.0   120.0   33.333333333333336
-250.0   120.0   50.0
-200.0   150.0   50.0
-200.0   120.0   33.333333333333336
-250.0   150.0   33.333333333333336
-200.0   0.0   0.0
-150.0   0.0   0.0
-200.0   30.0   0.0
-200.0   0.0   16.666666666666668
-150.0   0.0   0.0
-150.0   30.0   0.0
-200.0   30.0   0.0
-150.0   30.0   16.666666666666668
-200.0   0.0   16.666666666666668
-200.0   30.0   16.666666666666668
-150.0   30.0   16.666666666666668
-200.0   30.0   0.0
-200.0   0.0   16.666666666666668
-150.0   30.0   16.666666666666668
-150.0   0.0   16.666666666666668
-150.0   0.0   0.0
-200.0   0.0   16.666666666666668
-150.0   30.0   16.666666666666668
-150.0   0.0   0.0
-200.0   30.0   0.0
-200.0   0.0   16.666666666666668
-150.0   0.0   16.666666666666668
-200.0   30.0   16.666666666666668
-200.0   0.0   33.333333333333336
-150.0   0.0   16.666666666666668
-150.0   30.0   16.666666666666668
-200.0   30.0   16.666666666666668
-150.0   30.0   33.333333333333336
-200.0   0.0   33.333333333333336
-200.0   30.0   33.333333333333336
-150.0   30.0   33.333333333333336
-200.0   30.0   16.666666666666668
-200.0   0.0   33.333333333333336
-150.0   30.0   33.333333333333336
-150.0   0.0   33.333333333333336
-150.0   0.0   16.666666666666668
-200.0   0.0   33.333333333333336
-150.0   30.0   33.333333333333336
-150.0   0.0   16.666666666666668
-200.0   30.0   16.666666666666668
-200.0   0.0   33.333333333333336
-150.0   0.0   33.333333333333336
-200.0   30.0   33.333333333333336
-200.0   0.0   50.0
-150.0   0.0   33.333333333333336
-150.0   30.0   33.333333333333336
-200.0   30.0   33.333333333333336
-150.0   30.0   50.0
-200.0   0.0   50.0
-200.0   30.0   50.0
-150.0   30.0   50.0
-200.0   30.0   33.333333333333336
-200.0   0.0   50.0
-150.0   30.0   50.0
-150.0   0.0   50.0
-150.0   0.0   33.333333333333336
-200.0   0.0   50.0
-150.0   30.0   50.0
-150.0   0.0   33.333333333333336
-200.0   30.0   33.333333333333336
-200.0   30.0   0.0
-150.0   30.0   0.0
-200.0   60.0   0.0
-200.0   30.0   16.666666666666668
-150.0   30.0   0.0
-150.0   60.0   0.0
-200.0   60.0   0.0
-150.0   60.0   16.666666666666668
-200.0   30.0   16.666666666666668
-200.0   60.0   16.666666666666668
-150.0   60.0   16.666666666666668
-200.0   60.0   0.0
-200.0   30.0   16.666666666666668
-150.0   60.0   16.666666666666668
-150.0   30.0   16.666666666666668
-150.0   30.0   0.0
-200.0   30.0   16.666666666666668
-150.0   60.0   16.666666666666668
-150.0   30.0   0.0
-200.0   60.0   0.0
-200.0   30.0   16.666666666666668
-150.0   30.0   16.666666666666668
-200.0   60.0   16.666666666666668
-200.0   30.0   33.333333333333336
-150.0   30.0   16.666666666666668
-150.0   60.0   16.666666666666668
-200.0   60.0   16.666666666666668
-150.0   60.0   33.333333333333336
-200.0   30.0   33.333333333333336
-200.0   60.0   33.333333333333336
-150.0   60.0   33.333333333333336
-200.0   60.0   16.666666666666668
-200.0   30.0   33.333333333333336
-150.0   60.0   33.333333333333336
-150.0   30.0   33.333333333333336
-150.0   30.0   16.666666666666668
-200.0   30.0   33.333333333333336
-150.0   60.0   33.333333333333336
-150.0   30.0   16.666666666666668
-200.0   60.0   16.666666666666668
-200.0   30.0   33.333333333333336
-150.0   30.0   33.333333333333336
-200.0   60.0   33.333333333333336
-200.0   30.0   50.0
-150.0   30.0   33.333333333333336
-150.0   60.0   33.333333333333336
-200.0   60.0   33.333333333333336
-150.0   60.0   50.0
-200.0   30.0   50.0
-200.0   60.0   50.0
-150.0   60.0   50.0
-200.0   60.0   33.333333333333336
-200.0   30.0   50.0
-150.0   60.0   50.0
-150.0   30.0   50.0
-150.0   30.0   33.333333333333336
-200.0   30.0   50.0
-150.0   60.0   50.0
-150.0   30.0   33.333333333333336
-200.0   60.0   33.333333333333336
-200.0   60.0   0.0
-150.0   60.0   0.0
-200.0   90.0   0.0
-200.0   60.0   16.666666666666668
-150.0   60.0   0.0
-150.0   90.0   0.0
-200.0   90.0   0.0
-150.0   90.0   16.666666666666668
-200.0   60.0   16.666666666666668
-200.0   90.0   16.666666666666668
-150.0   90.0   16.666666666666668
-200.0   90.0   0.0
-200.0   60.0   16.666666666666668
-150.0   90.0   16.666666666666668
-150.0   60.0   16.666666666666668
-150.0   60.0   0.0
-200.0   60.0   16.666666666666668
-150.0   90.0   16.666666666666668
-150.0   60.0   0.0
-200.0   90.0   0.0
-200.0   60.0   16.666666666666668
-150.0   60.0   16.666666666666668
-200.0   90.0   16.666666666666668
-200.0   60.0   33.333333333333336
-150.0   60.0   16.666666666666668
-150.0   90.0   16.666666666666668
-200.0   90.0   16.666666666666668
-150.0   90.0   33.333333333333336
-200.0   60.0   33.333333333333336
-200.0   90.0   33.333333333333336
-150.0   90.0   33.333333333333336
-200.0   90.0   16.666666666666668
-200.0   60.0   33.333333333333336
-150.0   90.0   33.333333333333336
-150.0   60.0   33.333333333333336
-150.0   60.0   16.666666666666668
-200.0   60.0   33.333333333333336
-150.0   90.0   33.333333333333336
-150.0   60.0   16.666666666666668
-200.0   90.0   16.666666666666668
-200.0   60.0   33.333333333333336
-150.0   60.0   33.333333333333336
-200.0   90.0   33.333333333333336
-200.0   60.0   50.0
-150.0   60.0   33.333333333333336
-150.0   90.0   33.333333333333336
-200.0   90.0   33.333333333333336
-150.0   90.0   50.0
-200.0   60.0   50.0
-200.0   90.0   50.0
-150.0   90.0   50.0
-200.0   90.0   33.333333333333336
-200.0   60.0   50.0
-150.0   90.0   50.0
-150.0   60.0   50.0
-150.0   60.0   33.333333333333336
-200.0   60.0   50.0
-150.0   90.0   50.0
-150.0   60.0   33.333333333333336
-200.0   90.0   33.333333333333336
-200.0   90.0   0.0
-150.0   90.0   0.0
-200.0   120.0   0.0
-200.0   90.0   16.666666666666668
-150.0   90.0   0.0
-150.0   120.0   0.0
-200.0   120.0   0.0
-150.0   120.0   16.666666666666668
-200.0   90.0   16.666666666666668
-200.0   120.0   16.666666666666668
-150.0   120.0   16.666666666666668
-200.0   120.0   0.0
-200.0   90.0   16.666666666666668
-150.0   120.0   16.666666666666668
-150.0   90.0   16.666666666666668
-150.0   90.0   0.0
-200.0   90.0   16.666666666666668
-150.0   120.0   16.666666666666668
-150.0   90.0   0.0
-200.0   120.0   0.0
-200.0   90.0   16.666666666666668
-150.0   90.0   16.666666666666668
-200.0   120.0   16.666666666666668
-200.0   90.0   33.333333333333336
-150.0   90.0   16.666666666666668
-150.0   120.0   16.666666666666668
-200.0   120.0   16.666666666666668
-150.0   120.0   33.333333333333336
-200.0   90.0   33.333333333333336
-200.0   120.0   33.333333333333336
-150.0   120.0   33.333333333333336
-200.0   120.0   16.666666666666668
-200.0   90.0   33.333333333333336
-150.0   120.0   33.333333333333336
-150.0   90.0   33.333333333333336
-150.0   90.0   16.666666666666668
-200.0   90.0   33.333333333333336
-150.0   120.0   33.333333333333336
-150.0   90.0   16.666666666666668
-200.0   120.0   16.666666666666668
-200.0   90.0   33.333333333333336
-150.0   90.0   33.333333333333336
-200.0   120.0   33.333333333333336
-200.0   90.0   50.0
-150.0   90.0   33.333333333333336
-150.0   120.0   33.333333333333336
-200.0   120.0   33.333333333333336
-150.0   120.0   50.0
-200.0   90.0   50.0
-200.0   120.0   50.0
-150.0   120.0   50.0
-200.0   120.0   33.333333333333336
-200.0   90.0   50.0
-150.0   120.0   50.0
-150.0   90.0   50.0
-150.0   90.0   33.333333333333336
-200.0   90.0   50.0
-150.0   120.0   50.0
-150.0   90.0   33.333333333333336
-200.0   120.0   33.333333333333336
-200.0   120.0   0.0
-150.0   120.0   0.0
-200.0   150.0   0.0
-200.0   120.0   16.666666666666668
-150.0   120.0   0.0
-150.0   150.0   0.0
-200.0   150.0   0.0
-150.0   150.0   16.666666666666668
-200.0   120.0   16.666666666666668
-200.0   150.0   16.666666666666668
-150.0   150.0   16.666666666666668
-200.0   150.0   0.0
-200.0   120.0   16.666666666666668
-150.0   150.0   16.666666666666668
-150.0   120.0   16.666666666666668
-150.0   120.0   0.0
-200.0   120.0   16.666666666666668
-150.0   150.0   16.666666666666668
-150.0   120.0   0.0
-200.0   150.0   0.0
-200.0   120.0   16.666666666666668
-150.0   120.0   16.666666666666668
-200.0   150.0   16.666666666666668
-200.0   120.0   33.333333333333336
-150.0   120.0   16.666666666666668
-150.0   150.0   16.666666666666668
-200.0   150.0   16.666666666666668
-150.0   150.0   33.333333333333336
-200.0   120.0   33.333333333333336
-200.0   150.0   33.333333333333336
-150.0   150.0   33.333333333333336
-200.0   150.0   16.666666666666668
-200.0   120.0   33.333333333333336
-150.0   150.0   33.333333333333336
-150.0   120.0   33.333333333333336
-150.0   120.0   16.666666666666668
-200.0   120.0   33.333333333333336
-150.0   150.0   33.333333333333336
-150.0   120.0   16.666666666666668
-200.0   150.0   16.666666666666668
-200.0   120.0   33.333333333333336
-150.0   120.0   33.333333333333336
-200.0   150.0   33.333333333333336
-200.0   120.0   50.0
-150.0   120.0   33.333333333333336
-150.0   150.0   33.333333333333336
-200.0   150.0   33.333333333333336
-150.0   150.0   50.0
-200.0   120.0   50.0
-200.0   150.0   50.0
-150.0   150.0   50.0
-200.0   150.0   33.333333333333336
-200.0   120.0   50.0
-150.0   150.0   50.0
-150.0   120.0   50.0
-150.0   120.0   33.333333333333336
-200.0   120.0   50.0
-150.0   150.0   50.0
-150.0   120.0   33.333333333333336
-200.0   150.0   33.333333333333336
-150.0   0.0   0.0
-100.0   0.0   0.0
-150.0   30.0   0.0
-150.0   0.0   16.666666666666668
-100.0   0.0   0.0
-100.0   30.0   0.0
-150.0   30.0   0.0
-100.0   30.0   16.666666666666668
-150.0   0.0   16.666666666666668
-150.0   30.0   16.666666666666668
-100.0   30.0   16.666666666666668
-150.0   30.0   0.0
-150.0   0.0   16.666666666666668
-100.0   30.0   16.666666666666668
-100.0   0.0   16.666666666666668
-100.0   0.0   0.0
-150.0   0.0   16.666666666666668
-100.0   30.0   16.666666666666668
-100.0   0.0   0.0
-150.0   30.0   0.0
-150.0   0.0   16.666666666666668
-100.0   0.0   16.666666666666668
-150.0   30.0   16.666666666666668
-150.0   0.0   33.333333333333336
-100.0   0.0   16.666666666666668
-100.0   30.0   16.666666666666668
-150.0   30.0   16.666666666666668
-100.0   30.0   33.333333333333336
-150.0   0.0   33.333333333333336
-150.0   30.0   33.333333333333336
-100.0   30.0   33.333333333333336
-150.0   30.0   16.666666666666668
-150.0   0.0   33.333333333333336
-100.0   30.0   33.333333333333336
-100.0   0.0   33.333333333333336
-100.0   0.0   16.666666666666668
-150.0   0.0   33.333333333333336
-100.0   30.0   33.333333333333336
-100.0   0.0   16.666666666666668
-150.0   30.0   16.666666666666668
-150.0   0.0   33.333333333333336
-100.0   0.0   33.333333333333336
-150.0   30.0   33.333333333333336
-150.0   0.0   50.0
-100.0   0.0   33.333333333333336
-100.0   30.0   33.333333333333336
-150.0   30.0   33.333333333333336
-100.0   30.0   50.0
-150.0   0.0   50.0
-150.0   30.0   50.0
-100.0   30.0   50.0
-150.0   30.0   33.333333333333336
-150.0   0.0   50.0
-100.0   30.0   50.0
-100.0   0.0   50.0
-100.0   0.0   33.333333333333336
-150.0   0.0   50.0
-100.0   30.0   50.0
-100.0   0.0   33.333333333333336
-150.0   30.0   33.333333333333336
-150.0   30.0   0.0
-100.0   30.0   0.0
-150.0   60.0   0.0
-150.0   30.0   16.666666666666668
-100.0   30.0   0.0
-100.0   60.0   0.0
-150.0   60.0   0.0
-100.0   60.0   16.666666666666668
-150.0   30.0   16.666666666666668
-150.0   60.0   16.666666666666668
-100.0   60.0   16.666666666666668
-150.0   60.0   0.0
-150.0   30.0   16.666666666666668
-100.0   60.0   16.666666666666668
-100.0   30.0   16.666666666666668
-100.0   30.0   0.0
-150.0   30.0   16.666666666666668
-100.0   60.0   16.666666666666668
-100.0   30.0   0.0
-150.0   60.0   0.0
-150.0   30.0   16.666666666666668
-100.0   30.0   16.666666666666668
-150.0   60.0   16.666666666666668
-150.0   30.0   33.333333333333336
-100.0   30.0   16.666666666666668
-100.0   60.0   16.666666666666668
-150.0   60.0   16.666666666666668
-100.0   60.0   33.333333333333336
-150.0   30.0   33.333333333333336
-150.0   60.0   33.333333333333336
-100.0   60.0   33.333333333333336
-150.0   60.0   16.666666666666668
-150.0   30.0   33.333333333333336
-100.0   60.0   33.333333333333336
-100.0   30.0   33.333333333333336
-100.0   30.0   16.666666666666668
-150.0   30.0   33.333333333333336
-100.0   60.0   33.333333333333336
-100.0   30.0   16.666666666666668
-150.0   60.0   16.666666666666668
-150.0   30.0   33.333333333333336
-100.0   30.0   33.333333333333336
-150.0   60.0   33.333333333333336
-150.0   30.0   50.0
-100.0   30.0   33.333333333333336
-100.0   60.0   33.333333333333336
-150.0   60.0   33.333333333333336
-100.0   60.0   50.0
-150.0   30.0   50.0
-150.0   60.0   50.0
-100.0   60.0   50.0
-150.0   60.0   33.333333333333336
-150.0   30.0   50.0
-100.0   60.0   50.0
-100.0   30.0   50.0
-100.0   30.0   33.333333333333336
-150.0   30.0   50.0
-100.0   60.0   50.0
-100.0   30.0   33.333333333333336
-150.0   60.0   33.333333333333336
-150.0   60.0   0.0
-100.0   60.0   0.0
-150.0   90.0   0.0
-150.0   60.0   16.666666666666668
-100.0   60.0   0.0
-100.0   90.0   0.0
-150.0   90.0   0.0
-100.0   90.0   16.666666666666668
-150.0   60.0   16.666666666666668
-150.0   90.0   16.666666666666668
-100.0   90.0   16.666666666666668
-150.0   90.0   0.0
-150.0   60.0   16.666666666666668
-100.0   90.0   16.666666666666668
-100.0   60.0   16.666666666666668
-100.0   60.0   0.0
-150.0   60.0   16.666666666666668
-100.0   90.0   16.666666666666668
-100.0   60.0   0.0
-150.0   90.0   0.0
-150.0   60.0   16.666666666666668
-100.0   60.0   16.666666666666668
-150.0   90.0   16.666666666666668
-150.0   60.0   33.333333333333336
-100.0   60.0   16.666666666666668
-100.0   90.0   16.666666666666668
-150.0   90.0   16.666666666666668
-100.0   90.0   33.333333333333336
-150.0   60.0   33.333333333333336
-150.0   90.0   33.333333333333336
-100.0   90.0   33.333333333333336
-150.0   90.0   16.666666666666668
-150.0   60.0   33.333333333333336
-100.0   90.0   33.333333333333336
-100.0   60.0   33.333333333333336
-100.0   60.0   16.666666666666668
-150.0   60.0   33.333333333333336
-100.0   90.0   33.333333333333336
-100.0   60.0   16.666666666666668
-150.0   90.0   16.666666666666668
-150.0   60.0   33.333333333333336
-100.0   60.0   33.333333333333336
-150.0   90.0   33.333333333333336
-150.0   60.0   50.0
-100.0   60.0   33.333333333333336
-100.0   90.0   33.333333333333336
-150.0   90.0   33.333333333333336
-100.0   90.0   50.0
-150.0   60.0   50.0
-150.0   90.0   50.0
-100.0   90.0   50.0
-150.0   90.0   33.333333333333336
-150.0   60.0   50.0
-100.0   90.0   50.0
-100.0   60.0   50.0
-100.0   60.0   33.333333333333336
-150.0   60.0   50.0
-100.0   90.0   50.0
-100.0   60.0   33.333333333333336
-150.0   90.0   33.333333333333336
-150.0   90.0   0.0
-100.0   90.0   0.0
-150.0   120.0   0.0
-150.0   90.0   16.666666666666668
-100.0   90.0   0.0
-100.0   120.0   0.0
-150.0   120.0   0.0
-100.0   120.0   16.666666666666668
-150.0   90.0   16.666666666666668
-150.0   120.0   16.666666666666668
-100.0   120.0   16.666666666666668
-150.0   120.0   0.0
-150.0   90.0   16.666666666666668
-100.0   120.0   16.666666666666668
-100.0   90.0   16.666666666666668
-100.0   90.0   0.0
-150.0   90.0   16.666666666666668
-100.0   120.0   16.666666666666668
-100.0   90.0   0.0
-150.0   120.0   0.0
-150.0   90.0   16.666666666666668
-100.0   90.0   16.666666666666668
-150.0   120.0   16.666666666666668
-150.0   90.0   33.333333333333336
-100.0   90.0   16.666666666666668
-100.0   120.0   16.666666666666668
-150.0   120.0   16.666666666666668
-100.0   120.0   33.333333333333336
-150.0   90.0   33.333333333333336
-150.0   120.0   33.333333333333336
-100.0   120.0   33.333333333333336
-150.0   120.0   16.666666666666668
-150.0   90.0   33.333333333333336
-100.0   120.0   33.333333333333336
-100.0   90.0   33.333333333333336
-100.0   90.0   16.666666666666668
-150.0   90.0   33.333333333333336
-100.0   120.0   33.333333333333336
-100.0   90.0   16.666666666666668
-150.0   120.0   16.666666666666668
-150.0   90.0   33.333333333333336
-100.0   90.0   33.333333333333336
-150.0   120.0   33.333333333333336
-150.0   90.0   50.0
-100.0   90.0   33.333333333333336
-100.0   120.0   33.333333333333336
-150.0   120.0   33.333333333333336
-100.0   120.0   50.0
-150.0   90.0   50.0
-150.0   120.0   50.0
-100.0   120.0   50.0
-150.0   120.0   33.333333333333336
-150.0   90.0   50.0
-100.0   120.0   50.0
-100.0   90.0   50.0
-100.0   90.0   33.333333333333336
-150.0   90.0   50.0
-100.0   120.0   50.0
-100.0   90.0   33.333333333333336
-150.0   120.0   33.333333333333336
-150.0   120.0   0.0
-100.0   120.0   0.0
-150.0   150.0   0.0
-150.0   120.0   16.666666666666668
-100.0   120.0   0.0
-100.0   150.0   0.0
-150.0   150.0   0.0
-100.0   150.0   16.666666666666668
-150.0   120.0   16.666666666666668
-150.0   150.0   16.666666666666668
-100.0   150.0   16.666666666666668
-150.0   150.0   0.0
-150.0   120.0   16.666666666666668
-100.0   150.0   16.666666666666668
-100.0   120.0   16.666666666666668
-100.0   120.0   0.0
-150.0   120.0   16.666666666666668
-100.0   150.0   16.666666666666668
-100.0   120.0   0.0
-150.0   150.0   0.0
-150.0   120.0   16.666666666666668
-100.0   120.0   16.666666666666668
-150.0   150.0   16.666666666666668
-150.0   120.0   33.333333333333336
-100.0   120.0   16.666666666666668
-100.0   150.0   16.666666666666668
-150.0   150.0   16.666666666666668
-100.0   150.0   33.333333333333336
-150.0   120.0   33.333333333333336
-150.0   150.0   33.333333333333336
-100.0   150.0   33.333333333333336
-150.0   150.0   16.666666666666668
-150.0   120.0   33.333333333333336
-100.0   150.0   33.333333333333336
-100.0   120.0   33.333333333333336
-100.0   120.0   16.666666666666668
-150.0   120.0   33.333333333333336
-100.0   150.0   33.333333333333336
-100.0   120.0   16.666666666666668
-150.0   150.0   16.666666666666668
-150.0   120.0   33.333333333333336
-100.0   120.0   33.333333333333336
-150.0   150.0   33.333333333333336
-150.0   120.0   50.0
-100.0   120.0   33.333333333333336
-100.0   150.0   33.333333333333336
-150.0   150.0   33.333333333333336
-100.0   150.0   50.0
-150.0   120.0   50.0
-150.0   150.0   50.0
-100.0   150.0   50.0
-150.0   150.0   33.333333333333336
-150.0   120.0   50.0
-100.0   150.0   50.0
-100.0   120.0   50.0
-100.0   120.0   33.333333333333336
-150.0   120.0   50.0
-100.0   150.0   50.0
-100.0   120.0   33.333333333333336
-150.0   150.0   33.333333333333336
-100.0   0.0   0.0
-50.0   0.0   0.0
-100.0   30.0   0.0
-100.0   0.0   16.666666666666668
-50.0   0.0   0.0
-50.0   30.0   0.0
-100.0   30.0   0.0
-50.0   30.0   16.666666666666668
-100.0   0.0   16.666666666666668
-100.0   30.0   16.666666666666668
-50.0   30.0   16.666666666666668
-100.0   30.0   0.0
-100.0   0.0   16.666666666666668
-50.0   30.0   16.666666666666668
-50.0   0.0   16.666666666666668
-50.0   0.0   0.0
-100.0   0.0   16.666666666666668
-50.0   30.0   16.666666666666668
-50.0   0.0   0.0
-100.0   30.0   0.0
-100.0   0.0   16.666666666666668
-50.0   0.0   16.666666666666668
-100.0   30.0   16.666666666666668
-100.0   0.0   33.333333333333336
-50.0   0.0   16.666666666666668
-50.0   30.0   16.666666666666668
-100.0   30.0   16.666666666666668
-50.0   30.0   33.333333333333336
-100.0   0.0   33.333333333333336
-100.0   30.0   33.333333333333336
-50.0   30.0   33.333333333333336
-100.0   30.0   16.666666666666668
-100.0   0.0   33.333333333333336
-50.0   30.0   33.333333333333336
-50.0   0.0   33.333333333333336
-50.0   0.0   16.666666666666668
-100.0   0.0   33.333333333333336
-50.0   30.0   33.333333333333336
-50.0   0.0   16.666666666666668
-100.0   30.0   16.666666666666668
-100.0   0.0   33.333333333333336
-50.0   0.0   33.333333333333336
-100.0   30.0   33.333333333333336
-100.0   0.0   50.0
-50.0   0.0   33.333333333333336
-50.0   30.0   33.333333333333336
-100.0   30.0   33.333333333333336
-50.0   30.0   50.0
-100.0   0.0   50.0
-100.0   30.0   50.0
-50.0   30.0   50.0
-100.0   30.0   33.333333333333336
-100.0   0.0   50.0
-50.0   30.0   50.0
-50.0   0.0   50.0
-50.0   0.0   33.333333333333336
-100.0   0.0   50.0
-50.0   30.0   50.0
-50.0   0.0   33.333333333333336
-100.0   30.0   33.333333333333336
-100.0   30.0   0.0
-50.0   30.0   0.0
-100.0   60.0   0.0
-100.0   30.0   16.666666666666668
-50.0   30.0   0.0
-50.0   60.0   0.0
-100.0   60.0   0.0
-50.0   60.0   16.666666666666668
-100.0   30.0   16.666666666666668
-100.0   60.0   16.666666666666668
-50.0   60.0   16.666666666666668
-100.0   60.0   0.0
-100.0   30.0   16.666666666666668
-50.0   60.0   16.666666666666668
-50.0   30.0   16.666666666666668
-50.0   30.0   0.0
-100.0   30.0   16.666666666666668
-50.0   60.0   16.666666666666668
-50.0   30.0   0.0
-100.0   60.0   0.0
-100.0   30.0   16.666666666666668
-50.0   30.0   16.666666666666668
-100.0   60.0   16.666666666666668
-100.0   30.0   33.333333333333336
-50.0   30.0   16.666666666666668
-50.0   60.0   16.666666666666668
-100.0   60.0   16.666666666666668
-50.0   60.0   33.333333333333336
-100.0   30.0   33.333333333333336
-100.0   60.0   33.333333333333336
-50.0   60.0   33.333333333333336
-100.0   60.0   16.666666666666668
-100.0   30.0   33.333333333333336
-50.0   60.0   33.333333333333336
-50.0   30.0   33.333333333333336
-50.0   30.0   16.666666666666668
-100.0   30.0   33.333333333333336
-50.0   60.0   33.333333333333336
-50.0   30.0   16.666666666666668
-100.0   60.0   16.666666666666668
-100.0   30.0   33.333333333333336
-50.0   30.0   33.333333333333336
-100.0   60.0   33.333333333333336
-100.0   30.0   50.0
-50.0   30.0   33.333333333333336
-50.0   60.0   33.333333333333336
-100.0   60.0   33.333333333333336
-50.0   60.0   50.0
-100.0   30.0   50.0
-100.0   60.0   50.0
-50.0   60.0   50.0
-100.0   60.0   33.333333333333336
-100.0   30.0   50.0
-50.0   60.0   50.0
-50.0   30.0   50.0
-50.0   30.0   33.333333333333336
-100.0   30.0   50.0
-50.0   60.0   50.0
-50.0   30.0   33.333333333333336
-100.0   60.0   33.333333333333336
-100.0   60.0   0.0
-50.0   60.0   0.0
-100.0   90.0   0.0
-100.0   60.0   16.666666666666668
-50.0   60.0   0.0
-50.0   90.0   0.0
-100.0   90.0   0.0
-50.0   90.0   16.666666666666668
-100.0   60.0   16.666666666666668
-100.0   90.0   16.666666666666668
-50.0   90.0   16.666666666666668
-100.0   90.0   0.0
-100.0   60.0   16.666666666666668
-50.0   90.0   16.666666666666668
-50.0   60.0   16.666666666666668
-50.0   60.0   0.0
-100.0   60.0   16.666666666666668
-50.0   90.0   16.666666666666668
-50.0   60.0   0.0
-100.0   90.0   0.0
-100.0   60.0   16.666666666666668
-50.0   60.0   16.666666666666668
-100.0   90.0   16.666666666666668
-100.0   60.0   33.333333333333336
-50.0   60.0   16.666666666666668
-50.0   90.0   16.666666666666668
-100.0   90.0   16.666666666666668
-50.0   90.0   33.333333333333336
-100.0   60.0   33.333333333333336
-100.0   90.0   33.333333333333336
-50.0   90.0   33.333333333333336
-100.0   90.0   16.666666666666668
-100.0   60.0   33.333333333333336
-50.0   90.0   33.333333333333336
-50.0   60.0   33.333333333333336
-50.0   60.0   16.666666666666668
-100.0   60.0   33.333333333333336
-50.0   90.0   33.333333333333336
-50.0   60.0   16.666666666666668
-100.0   90.0   16.666666666666668
-100.0   60.0   33.333333333333336
-50.0   60.0   33.333333333333336
-100.0   90.0   33.333333333333336
-100.0   60.0   50.0
-50.0   60.0   33.333333333333336
-50.0   90.0   33.333333333333336
-100.0   90.0   33.333333333333336
-50.0   90.0   50.0
-100.0   60.0   50.0
-100.0   90.0   50.0
-50.0   90.0   50.0
-100.0   90.0   33.333333333333336
-100.0   60.0   50.0
-50.0   90.0   50.0
-50.0   60.0   50.0
-50.0   60.0   33.333333333333336
-100.0   60.0   50.0
-50.0   90.0   50.0
-50.0   60.0   33.333333333333336
-100.0   90.0   33.333333333333336
-100.0   90.0   0.0
-50.0   90.0   0.0
-100.0   120.0   0.0
-100.0   90.0   16.666666666666668
-50.0   90.0   0.0
-50.0   120.0   0.0
-100.0   120.0   0.0
-50.0   120.0   16.666666666666668
-100.0   90.0   16.666666666666668
-100.0   120.0   16.666666666666668
-50.0   120.0   16.666666666666668
-100.0   120.0   0.0
-100.0   90.0   16.666666666666668
-50.0   120.0   16.666666666666668
-50.0   90.0   16.666666666666668
-50.0   90.0   0.0
-100.0   90.0   16.666666666666668
-50.0   120.0   16.666666666666668
-50.0   90.0   0.0
-100.0   120.0   0.0
-100.0   90.0   16.666666666666668
-50.0   90.0   16.666666666666668
-100.0   120.0   16.666666666666668
-100.0   90.0   33.333333333333336
-50.0   90.0   16.666666666666668
-50.0   120.0   16.666666666666668
-100.0   120.0   16.666666666666668
-50.0   120.0   33.333333333333336
-100.0   90.0   33.333333333333336
-100.0   120.0   33.333333333333336
-50.0   120.0   33.333333333333336
-100.0   120.0   16.666666666666668
-100.0   90.0   33.333333333333336
-50.0   120.0   33.333333333333336
-50.0   90.0   33.333333333333336
-50.0   90.0   16.666666666666668
-100.0   90.0   33.333333333333336
-50.0   120.0   33.333333333333336
-50.0   90.0   16.666666666666668
-100.0   120.0   16.666666666666668
-100.0   90.0   33.333333333333336
-50.0   90.0   33.333333333333336
-100.0   120.0   33.333333333333336
-100.0   90.0   50.0
-50.0   90.0   33.333333333333336
-50.0   120.0   33.333333333333336
-100.0   120.0   33.333333333333336
-50.0   120.0   50.0
-100.0   90.0   50.0
-100.0   120.0   50.0
-50.0   120.0   50.0
-100.0   120.0   33.333333333333336
-100.0   90.0   50.0
-50.0   120.0   50.0
-50.0   90.0   50.0
-50.0   90.0   33.333333333333336
-100.0   90.0   50.0
-50.0   120.0   50.0
-50.0   90.0   33.333333333333336
-100.0   120.0   33.333333333333336
-100.0   120.0   0.0
-50.0   120.0   0.0
-100.0   150.0   0.0
-100.0   120.0   16.666666666666668
-50.0   120.0   0.0
-50.0   150.0   0.0
-100.0   150.0   0.0
-50.0   150.0   16.666666666666668
-100.0   120.0   16.666666666666668
-100.0   150.0   16.666666666666668
-50.0   150.0   16.666666666666668
-100.0   150.0   0.0
-100.0   120.0   16.666666666666668
-50.0   150.0   16.666666666666668
-50.0   120.0   16.666666666666668
-50.0   120.0   0.0
-100.0   120.0   16.666666666666668
-50.0   150.0   16.666666666666668
-50.0   120.0   0.0
-100.0   150.0   0.0
-100.0   120.0   16.666666666666668
-50.0   120.0   16.666666666666668
-100.0   150.0   16.666666666666668
-100.0   120.0   33.333333333333336
-50.0   120.0   16.666666666666668
-50.0   150.0   16.666666666666668
-100.0   150.0   16.666666666666668
-50.0   150.0   33.333333333333336
-100.0   120.0   33.333333333333336
-100.0   150.0   33.333333333333336
-50.0   150.0   33.333333333333336
-100.0   150.0   16.666666666666668
-100.0   120.0   33.333333333333336
-50.0   150.0   33.333333333333336
-50.0   120.0   33.333333333333336
-50.0   120.0   16.666666666666668
-100.0   120.0   33.333333333333336
-50.0   150.0   33.333333333333336
-50.0   120.0   16.666666666666668
-100.0   150.0   16.666666666666668
-100.0   120.0   33.333333333333336
-50.0   120.0   33.333333333333336
-100.0   150.0   33.333333333333336
-100.0   120.0   50.0
-50.0   120.0   33.333333333333336
-50.0   150.0   33.333333333333336
-100.0   150.0   33.333333333333336
-50.0   150.0   50.0
-100.0   120.0   50.0
-100.0   150.0   50.0
-50.0   150.0   50.0
-100.0   150.0   33.333333333333336
-100.0   120.0   50.0
-50.0   150.0   50.0
-50.0   120.0   50.0
-50.0   120.0   33.333333333333336
-100.0   120.0   50.0
-50.0   150.0   50.0
-50.0   120.0   33.333333333333336
-100.0   150.0   33.333333333333336
-50.0   0.0   0.0
0.0   0.0   0.0
-50.0   30.0   0.0
-50.0   0.0   16.666666666666668
0.0   0.0   0.0
0.0   30.0   0.0
-50.0   30.0   0.0
0.0   30.0   16.666666666666668
-50.0   0.0   16.666666666666668
-50.0   30.0   16.666666666666668
0.0   30.0   16.666666666666668
-50.0   30.0   0.0
-50.0   0.0   16.666666666666668
0.0   30.0   16.666666666666668
0.0   0.0   16.666666666666668
0.0   0.0   0.0
-50.0   0.0   16.666666666666668
0.0   30.0   16.666666666666668
0.0   0.0   0.0
-50.0   30.0   0.0
-50.0   0.0   16.666666666666668
0.0   0.0   16.666666666666668
-50.0   30.0   16.666666666666668
-50.0   0.0   33.333333333333336
0.0   0.0   16.666666666666668
0.0   30.0   16.666666666666668
-50.0   30.0   16.666666666666668
0.0   30.0   33.333333333333336
-50.0   0.0   33.333333333333336
-50.0   30.0   33.333333333333336
0.0   30.0   33.333333333333336
-50.0   30.0   16.666666666666668
-50.0   0.0   33.333333333333336
0.0   30.0   33.333333333333336
0.0   0.0   33.333333333333336
0.0   0.0   16.666666666666668
-50.0   0.0   33.333333333333336
0.0   30.0   33.333333333333336
0.0   0.0   16.666666666666668
-50.0   30.0   16.666666666666668
-50.0   0.0   33.333333333333336
0.0   0.0   33.333333333333336
-50.0   30.0   33.333333333333336
-50.0   0.0   50.0
0.0   0.0   33.333333333333336
0.0   30.0   33.333333333333336
-50.0   30.0   33.333333333333336
0.0   30.0   50.0
-50.0   0.0   50.0
-50.0   30.0   50.0
0.0   30.0   50.0
-50.0   30.0   33.333333333333336
-50.0   0.0   50.0
0.0   30.0   50.0
0.0   0.0   50.0
0.0   0.0   33.333333333333336
-50.0   0.0   50.0
0.0   30.0   50.0
0.0   0.0   33.333333333333336
-50.0   30.0   33.333333333333336
-50.0   30.0   0.0
0.0   30.0   0.0
-50.0   60.0   0.0
-50.0   30.0   16.666666666666668
0.0   30.0   0.0
0.0   60.0   0.0
-50.0   60.0   0.0
0.0   60.0   16.666666666666668
-50.0   30.0   16.666666666666668
-50.0   60.0   16.666666666666668
0.0   60.0   16.666666666666668
-50.0   60.0   0.0
-50.0   30.0   16.666666666666668
0.0   60.0   16.666666666666668
0.0   30.0   16.666666666666668
0.0   30.0   0.0
-50.0   30.0   16.666666666666668
0.0   60.0   16.666666666666668
0.0   30.0   0.0
-50.0   60.0   0.0
-50.0   30.0   16.666666666666668
0.0   30.0   16.666666666666668
-50.0   60.0   16.666666666666668
-50.0   30.0   33.333333333333336
0.0   30.0   16.666666666666668
0.0   60.0   16.666666666666668
-50.0   60.0   16.666666666666668
0.0   60.0   33.333333333333336
-50.0   30.0   33.333333333333336
-50.0   60.0   33.333333333333336
0.0   60.0   33.333333333333336
-50.0   60.0   16.666666666666668
-50.0   30.0   33.333333333333336
0.0   60.0   33.333333333333336
0.0   30.0   33.333333333333336
0.0   30.0   16.666666666666668
-50.0   30.0   33.333333333333336
0.0   60.0   33.333333333333336
0.0   30.0   16.666666666666668
-50.0   60.0   16.666666666666668
-50.0   30.0   33.333333333333336
0.0   30.0   33.333333333333336
-50.0   60.0   33.333333333333336
-50.0   30.0   50.0
0.0   30.0   33.333333333333336
0.0   60.0   33.333333333333336
-50.0   60.0   33.333333333333336
0.0   60.0   50.0
-50.0   30.0   50.0
-50.0   60.0   50.0
0.0   60.0   50.0
-50.0   60.0   33.333333333333336
-50.0   30.0   50.0
0.0   60.0   50.0
0.0   30.0   50.0
0.0   30.0   33.333333333333336
-50.0   30.0   50.0
0.0   60.0   50.0
0.0   30.0   33.333333333333336
-50.0   60.0   33.333333333333336
-50.0   60.0   0.0
0.0   60.0   0.0
-50.0   90.0   0.0
-50.0   60.0   16.666666666666668
0.0   60.0   0.0
0.0   90.0   0.0
-50.0   90.0   0.0
0.0   90.0   16.666666666666668
-50.0   60.0   16.666666666666668
-50.0   90.0   16.666666666666668
0.0   90.0   16.666666666666668
-50.0   90.0   0.0
-50.0   60.0   16.666666666666668
0.0   90.0   16.666666666666668
0.0   60.0   16.666666666666668
0.0   60.0   0.0
-50.0   60.0   16.666666666666668
0.0   90.0   16.666666666666668
0.0   60.0   0.0
-50.0   90.0   0.0
-50.0   60.0   16.666666666666668
0.0   60.0   16.666666666666668
-50.0   90.0   16.666666666666668
-50.0   60.0   33.333333333333336
0.0   60.0   16.666666666666668
0.0   90.0   16.666666666666668
-50.0   90.0   16.666666666666668
0.0   90.0   33.333333333333336
-50.0   60.0   33.333333333333336
-50.0   90.0   33.333333333333336
0.0   90.0   33.333333333333336
-50.0   90.0   16.666666666666668
-50.0   60.0   33.333333333333336
0.0   90.0   33.333333333333336
0.0   60.0   33.333333333333336
0.0   60.0   16.666666666666668
-50.0   60.0   33.333333333333336
0.0   90.0   33.333333333333336
0.0   60.0   16.666666666666668
-50.0   90.0   16.666666666666668
-50.0   60.0   33.333333333333336
0.0   60.0   33.333333333333336
-50.0   90.0   33.333333333333336
-50.0   60.0   50.0
0.0   60.0   33.333333333333336
0.0   90.0   33.333333333333336
-50.0   90.0   33.333333333333336
0.0   90.0   50.0
-50.0   60.0   50.0
-50.0   90.0   50.0
0.0   90.0   50.0
-50.0   90.0   33.333333333333336
-50.0   60.0   50.0
0.0   90.0   50.0
0.0   60.0   50.0
0.0   60.0   33.333333333333336
-50.0   60.0   50.0
0.0   90.0   50.0
0.0   60.0   33.333333333333336
-50.0   90.0   33.333333333333336
-50.0   90.0   0.0
0.0   90.0   0.0
-50.0   120.0   0.0
-50.0   90.0   16.666666666666668
0.0   90.0   0.0
0.0   120.0   0.0
-50.0   120.0   0.0
0.0   120.0   16.666666666666668
-50.0   90.0   16.666666666666668
-50.0   120.0   16.666666666666668
0.0   120.0   16.666666666666668
-50.0   120.0   0.0
-50.0   90.0   16.666666666666668
0.0   120.0   16.666666666666668
0.0   90.0   16.666666666666668
0.0   90.0   0.0
-50.0   90.0   16.666666666666668
0.0   120.0   16.666666666666668
0.0   90.0   0.0
-50.0   120.0   0.0
-50.0   90.0   16.666666666666668
0.0   90.0   16.666666666666668
-50.0   120.0   16.666666666666668
-50.0   90.0   33.333333333333336
0.0   90.0   16.666666666666668
0.0   120.0   16.666666666666668
-50.0   120.0   16.666666666666668
0.0   120.0   33.333333333333336
-50.0   90.0   33.333333333333336
-50.0   120.0   33.333333333333336
0.0   120.0   33.333333333333336
-50.0   120.0   16.666666666666668
-50.0   90.0   33.333333333333336
0.0   120.0   33.333333333333336
0.0   90.0   33.333333333333336
0.0   90.0   16.666666666666668
-50.0   90.0   33.333333333333336
0.0   120.0   33.333333333333336
0.0   90.0   16.666666666666668
-50.0   120.0   16.666666666666668
-50.0   90.0   33.333333333333336
0.0   90.0   33.333333333333336
-50.0   120.0   33.333333333333336
-50.0   90.0   50.0
0.0   90.0   33.333333333333336
0.0   120.0   33.333333333333336
-50.0   120.0   33.333333333333336
0.0   120.0   50.0
-50.0   90.0   50.0
-50.0   120.0   50.0
0.0   120.0   50.0
-50.0   120.0   33.333333333333336
-50.0   90.0   50.0
0.0   120.0   50.0
0.0   90.0   50.0
0.0   90.0   33.333333333333336
-50.0   90.0   50.0
0.0   120.0   50.0
0.0   90.0   33.333333333333336
-50.0   120.0   33.333333333333336
-50.0   120.0   0.0
0.0   120.0   0.0
-50.0   150.0   0.0
-50.0   120.0   16.666666666666668
0.0   120.0   0.0
0.0   150.0   0.0
-50.0   150.0   0.0
0.0   150.0   16.666666666666668
-50.0   120.0   16.666666666666668
-50.0   150.0   16.666666666666668
0.0   150.0   16.666666666666668
-50.0   150.0   0.0
-50.0   120.0   16.666666666666668
0.0   150.0   16.666666666666668
0.0   120.0   16.666666666666668
0.0   120.0   0.0
-50.0   120.0   16.666666666666668
0.0   150.0   16.666666666666668
0.0   120.0   0.0
-50.0   150.0   0.0
-50.0   120.0   16.666666666666668
0.0   120.0   16.666666666666668
-50.0   150.0   16.666666666666668
-50.0   120.0   33.333333333333336
0.0   120.0   16.666666666666668
0.0   150.0   16.666666666666668
-50.0   150.0   16.666666666666668
0.0   150.0   33.333333333333336
-50.0   120.0   33.333333333333336
-50.0   150.0   33.333333333333336
0.0   150.0   33.333333333333336
-50.0   150.0   16.666666666666668
-50.0   120.0   33.333333333333336
0.0   150.0   33.333333333333336
0.0   120.0   33.333333333333336
0.0   120.0   16.666666666666668
-50.0   120.0   33.333333333333336
0.0   150.0   33.333333333333336
0.0   120.0   16.666666666666668
-50.0   150.0   16.666666666666668
-50.0   120.0   33.333333333333336
0.0   120.0   33.333333333333336
-50.0   150.0   33.333333333333336
-50.0   120.0   50.0
0.0   120.0   33.333333333333336
0.0   150.0   33.333333333333336
-50.0   150.0   33.333333333333336
0.0   150.0   50.0
-50.0   120.0   50.0
-50.0   150.0   50.0
0.0   150.0   50.0
-50.0   150.0   33.333333333333336
-50.0   120.0   50.0
0.0   150.0   50.0
0.0   120.0   50.0
0.0   120.0   33.333333333333336
-50.0   120.0   50.0
0.0   150.0   50.0
0.0   120.0   33.333333333333336
-50.0   150.0   33.333333333333336
0.0   0.0   0.0
50.0   0.0   0.0
0.0   30.0   0.0
0.0   0.0   16.666666666666668
50.0   0.0   0.0
50.0   30.0   0.0
0.0   30.0   0.0
50.0   30.0   16.666666666666668
0.0   0.0   16.666666666666668
0.0   30.0   16.666666666666668
50.0   30.0   16.666666666666668
0.0   30.0   0.0
0.0   0.0   16.666666666666668
50.0   30.0   16.666666666666668
50.0   0.0   16.666666666666668
50.0   0.0   0.0
0.0   0.0   16.666666666666668
50.0   30.0   16.666666666666668
50.0   0.0   0.0
0.0   30.0   0.0
0.0   0.0   16.666666666666668
50.0   0.0   16.666666666666668
0.0   30.0   16.666666666666668
0.0   0.0   33.333333333333336
50.0   0.0   16.666666666666668
50.0   30.0   16.666666666666668
0.0   30.0   16.666666666666668
50.0   30.0   33.333333333333336
0.0   0.0   33.333333333333336
0.0   30.0   33.333333333333336
50.0   30.0   33.333333333333336
0.0   30.0   16.666666666666668
0.0   0.0   33.333333333333336
50.0   30.0   33.333333333333336
50.0   0.0   33.333333333333336
50.0   0.0   16.666666666666668
0.0   0.0   33.333333333333336
50.0   30.0   33.333333333333336
50.0   0.0   16.666666666666668
0.0   30.0   16.666666666666668
0.0   0.0   33.333333333333336
50.0   0.0   33.333333333333336
0.0   30.0   33.333333333333336
0.0   0.0   50.0
50.0   0.0   33.333333333333336
50.0   30.0   33.333333333333336
0.0   30.0   33.333333333333336
50.0   30.0   50.0
0.0   0.0   50.0
0.0   30.0   50.0
50.0   30.0   50.0
0.0   30.0   33.333333333333336
0.0   0.0   50.0
50.0   30.0   50.0
50.0   0.0   50.0
50.0   0.0   33.333333333333336
0.0   0.0   50.0
50.0   30.0   50.0
50.0   0.0   33.333333333333336
0.0   30.0   33.333333333333336
0.0   30.0   0.0
50.0   30.0   0.0
0.0   60.0   0.0
0.0   30.0   16.666666666666668
50.0   30.0   0.0
50.0   60.0   0.0
0.0   60.0   0.0
50.0   60.0   16.666666666666668
0.0   30.0   16.666666666666668
0.0   60.0   16.666666666666668
50.0   60.0   16.666666666666668
0.0   60.0   0.0
0.0   30.0   16.666666666666668
50.0   60.0   16.666666666666668
50.0   30.0   16.666666666666668
50.0   30.0   0.0
0.0   30.0   16.666666666666668
50.0   60.0   16.666666666666668
50.0   30.0   0.0
0.0   60.0   0.0
0.0   30.0   16.666666666666668
50.0   30.0   16.666666666666668
0.0   60.0   16.666666666666668
0.0   30.0   33.333333333333336
50.0   30.0   16.666666666666668
50.0   60.0   16.666666666666668
0.0   60.0   16.666666666666668
50.0   60.0   33.333333333333336
0.0   30.0   33.333333333333336
0.0   60.0   33.333333333333336
50.0   60.0   33.333333333333336
0.0   60.0   16.666666666666668
0.0   30.0   33.333333333333336
50.0   60.0   33.333333333333336
50.0   30.0   33.333333333333336
50.0   30.0   16.666666666666668
0.0   30.0   33.333333333333336
50.0   60.0   33.333333333333336
50.0   30.0   16.666666666666668
0.0   60.0   16.666666666666668
0.0   30.0   33.333333333333336
50.0   30.0   33.333333333333336
0.0   60.0   33.333333333333336
0.0   30.0   50.0
50.0   30.0   33.333333333333336
50.0   60.0   33.333333333333336
0.0   60.0   33.333333333333336
50.0   60.0   50.0
0.0   30.0   50.0
0.0   60.0   50.0
50.0   60.0   50.0
0.0   60.0   33.333333333333336
0.0   30.0   50.0
50.0   60.0   50.0
50.0   30.0   50.0
50.0   30.0   33.333333333333336
0.0   30.0   50.0
50.0   60.0   50.0
50.0   30.0   33.333333333333336
0.0   60.0   33.333333333333336
0.0   60.0   0.0
50.0   60.0   0.0
0.0   90.0   0.0
0.0   60.0   16.666666666666668
50.0   60.0   0.0
50.0   90.0   0.0
0.0   90.0   0.0
50.0   90.0   16.666666666666668
0.0   60.0   16.666666666666668
0.0   90.0   16.666666666666668
50.0   90.0   16.666666666666668
0.0   90.0   0.0
0.0   60.0   16.666666666666668
50.0   90.0   16.666666666666668
50.0   60.0   16.666666666666668
50.0   60.0   0.0
0.0   60.0   16.666666666666668
50.0   90.0   16.666666666666668
50.0   60.0   0.0
0.0   90.0   0.0
0.0   60.0   16.666666666666668
50.0   60.0   16.666666666666668
0.0   90.0   16.666666666666668
0.0   60.0   33.333333333333336
50.0   60.0   16.666666666666668
50.0   90.0   16.666666666666668
0.0   90.0   16.666666666666668
50.0   90.0   33.333333333333336
0.0   60.0   33.333333333333336
0.0   90.0   33.333333333333336
50.0   90.0   33.333333333333336
0.0   90.0   16.666666666666668
0.0   60.0   33.333333333333336
50.0   90.0   33.333333333333336
50.0   60.0   33.333333333333336
50.0   60.0   16.666666666666668
0.0   60.0   33.333333333333336
50.0   90.0   33.333333333333336
50.0   60.0   16.666666666666668
0.0   90.0   16.666666666666668
0.0   60.0   33.333333333333336
50.0   60.0   33.333333333333336
0.0   90.0   33.333333333333336
0.0   60.0   50.0
50.0   60.0   33.333333333333336
50.0   90.0   33.333333333333336
0.0   90.0   33.333333333333336
50.0   90.0   50.0
0.0   60.0   50.0
0.0   90.0   50.0
50.0   90.0   50.0
0.0   90.0   33.333333333333336
0.0   60.0   50.0
50.0   90.0   50.0
50.0   60.0   50.0
50.0   60.0   33.333333333333336
0.0   60.0   50.0
50.0   90.0   50.0
50.0   60.0   33.333333333333336
0.0   90.0   33.333333333333336
0.0   90.0   0.0
50.0   90.0   0.0
0.0   120.0   0.0
0.0   90.0   16.666666666666668
50.0   90.0   0.0
50.0   120.0   0.0
0.0   120.0   0.0
50.0   120.0   16.666666666666668
0.0   90.0   16.666666666666668
0.0   120.0   16.666666666666668
50.0   120.0   16.666666666666668
0.0   120.0   0.0
0.0   90.0   16.666666666666668
50.0   120.0   16.666666666666668
50.0   90.0   16.666666666666668
50.0   90.0   0.0
0.0   90.0   16.666666666666668
50.0   120.0   16.666666666666668
50.0   90.0   0.0
0.0   120.0   0.0
0.0   90.0   16.666666666666668
50.0   90.0   16.666666666666668
0.0   120.0   16.666666666666668
0.0   90.0   33.333333333333336
50.0   90.0   16.666666666666668
50.0   120.0   16.666666666666668
0.0   120.0   16.666666666666668
50.0   120.0   33.333333333333336
0.0   90.0   33.333333333333336
0.0   120.0   33.333333333333336
50.0   120.0   33.333333333333336
0.0   120.0   16.666666666666668
0.0   90.0   33.333333333333336
50.0   120.0   33.333333333333336
50.0   90.0   33.333333333333336
50.0   90.0   16.666666666666668
0.0   90.0   33.333333333333336
50.0   120.0   33.333333333333336
50.0   90.0   16.666666666666668
0.0   120.0   16.666666666666668
0.0   90.0   33.333333333333336
50.0   90.0   33.333333333333336
0.0   120.0   33.333333333333336
0.0   90.0   50.0
50.0   90.0   33.333333333333336
50.0   120.0   33.333333333333336
0.0   120.0   33.333333333333336
50.0   120.0   50.0
0.0   90.0   50.0
0.0   120.0   50.0
50.0   120.0   50.0
0.0   120.0   33.333333333333336
0.0   90.0   50.0
50.0   120.0   50.0
50.0   90.0   50.0
50.0   90.0   33.333333333333336
0.0   90.0   50.0
50.0   120.0   50.0
50.0   90.0   33.333333333333336
0.0   120.0   33.333333333333336
0.0   120.0   0.0
50.0   120.0   0.0
0.0   150.0   0.0
0.0   120.0   16.666666666666668
50.0   120.0   0.0
50.0   150.0   0.0
0.0   150.0   0.0
50.0   150.0   16.666666666666668
0.0   120.0   16.666666666666668
0.0   150.0   16.666666666666668
50.0   150.0   16.666666666666668
0.0   150.0   0.0
0.0   120.0   16.666666666666668
50.0   150.0   16.666666666666668
50.0   120.0   16.666666666666668
50.0   120.0   0.0
0.0   120.0   16.666666666666668
50.0   150.0   16.666666666666668
50.0   120.0   0.0
0.0   150.0   0.0
0.0   120.0   16.666666666666668
50.0   120.0   16.666666666666668
0.0   150.0   16.666666666666668
0.0   120.0   33.333333333333336
50.0   120.0   16.666666666666668
50.0   150.0   16.666666666666668
0.0   150.0   16.666666666666668
50.0   150.0   33.333333333333336
0.0   120.0   33.333333333333336
0.0   150.0   33.333333333333336
50.0   150.0   33.333333333333336
0.0   150.0   16.666666666666668
0.0   120.0   33.333333333333336
50.0   150.0   33.333333333333336
50.0   120.0   33.333333333333336
50.0   120.0   16.666666666666668
0.0   120.0   33.333333333333336
50.0   150.0   33.333333333333336
50.0   120.0   16.666666666666668
0.0   150.0   16.666666666666668
0.0   120.0   33.333333333333336
50.0   120.0   33.333333333333336
0.0   150.0   33.333333333333336
0.0   120.0   50.0
50.0   120.0   33.333333333333336
50.0   150.0   33.333333333333336
0.0   150.0   33.333333333333336
50.0   150.0   50.0
0.0   120.0   50.0
0.0   150.0   50.0
50.0   150.0   50.0
0.0   150.0   33.333333333333336
0.0   120.0   50.0
50.0   150.0   50.0
50.0   120.0   50.0
50.0   120.0   33.333333333333336
0.0   120.0   50.0
50.0   150.0   50.0
50.0   120.0   33.333333333333336
0.0   150.0   33.333333333333336
50.0   0.0   0.0
100.0   0.0   0.0
50.0   30.0   0.0
50.0   0.0   16.666666666666668
100.0   0.0   0.0
100.0   30.0   0.0
50.0   30.0   0.0
100.0   30.0   16.666666666666668
50.0   0.0   16.666666666666668
50.0   30.0   16.666666666666668
100.0   30.0   16.666666666666668
50.0   30.0   0.0
50.0   0.0   16.666666666666668
100.0   30.0   16.666666666666668
100.0   0.0   16.666666666666668
100.0   0.0   0.0
50.0   0.0   16.666666666666668
100.0   30.0   16.666666666666668
100.0   0.0   0.0
50.0   30.0   0.0
50.0   0.0   16.666666666666668
100.0   0.0   16.666666666666668
50.0   30.0   16.666666666666668
50.0   0.0   33.333333333333336
100.0   0.0   16.666666666666668
100.0   30.0   16.666666666666668
50.0   30.0   16.666666666666668
100.0   30.0   33.333333333333336
50.0   0.0   33.333333333333336
50.0   30.0   33.333333333333336
100.0   30.0   33.333333333333336
50.0   30.0   16.666666666666668
50.0   0.0   33.333333333333336
100.0   30.0   33.333333333333336
100.0   0.0   33.333333333333336
100.0   0.0   16.666666666666668
50.0   0.0   33.333333333333336
100.0   30.0   33.333333333333336
100.0   0.0   16.666666666666668
50.0   30.0   16.666666666666668
50.0   0.0   33.333333333333336
100.0   0.0   33.333333333333336
50.0   30.0   33.333333333333336
50.0   0.0   50.0
100.0   0.0   33.333333333333336
100.0   30.0   33.333333333333336
50.0   30.0   33.333333333333336
100.0   30.0   50.0
50.0   0.0   50.0
50.0   30.0   50.0
100.0   30.0   50.0
50.0   30.0   33.333333333333336
50.0   0.0   50.0
100.0   30.0   50.0
100.0   0.0   50.0
100.0   0.0   33.333333333333336
50.0   0.0   50.0
100.0   30.0   50.0
100.0   0.0   33.333333333333336
50.0   30.0   33.333333333333336
50.0   30.0   0.0
100.0   30.0   0.0
50.0   60.0   0.0
50.0   30.0   16.666666666666668
100.0   30.0   0.0
100.0   60.0   0.0
50.0   60.0   0.0
100.0   60.0   16.666666666666668
50.0   30.0   16.666666666666668
50.0   60.0   16.666666666666668
100.0   60.0   16.666666666666668
50.0   60.0   0.0
50.0   30.0   16.666666666666668
100.0   60.0   16.666666666666668
100.0   30.0   16.666666666666668
100.0   30.0   0.0
50.0   30.0   16.666666666666668
100.0   60.0   16.666666666666668
100.0   30.0   0.0
50.0   60.0   0.0
50.0   30.0   16.666666666666668
100.0   30.0   16.666666666666668
50.0   60.0   16.666666666666668
50.0   30.0   33.333333333333336
100.0   30.0   16.666666666666668
100.0   60.0   16.666666666666668
50.0   60.0   16.666666666666668
100.0   60.0   33.333333333333336
50.0   30.0   33.333333333333336
50.0   60.0   33.333333333333336
100.0   60.0   33.333333333333336
50.0   60.0   16.666666666666668
50.0   30.0   33.333333333333336
100.0   60.0   33.333333333333336
100.0   30.0   33.333333333333336
100.0   30.0   16.666666666666668
50.0   30.0   33.333333333333336
100.0   60.0   33.333333333333336
100.0   30.0   16.666666666666668
50.0   60.0   16.666666666666668
50.0   30.0   33.333333333333336
100.0   30.0   33.333333333333336
50.0   60.0   33.333333333333336
50.0   30.0   50.0
100.0   30.0   33.333333333333336
100.0   60.0   33.333333333333336
50.0   60.0   33.333333333333336
100.0   60.0   50.0
50.0   30.0   50.0
50.0   60.0   50.0
100.0   60.0   50.0
50.0   60.0   33.333333333333336
50.0   30.0   50.0
100.0   60.0   50.0
100.0   30.0   50.0
100.0   30.0   33.333333333333336
50.0   30.0   50.0
100.0   60.0   50.0
100.0   30.0   33.333333333333336
50.0   60.0   33.333333333333336
50.0   60.0   0.0
100.0   60.0   0.0
50.0   90.0   0.0
50.0   60.0   16.666666666666668
100.0   60.0   0.0
100.0   90.0   0.0
50.0   90.0   0.0
100.0   90.0   16.666666666666668
50.0   60.0   16.666666666666668
50.0   90.0   16.666666666666668
100.0   90.0   16.666666666666668
50.0   90.0   0.0
50.0   60.0   16.666666666666668
100.0   90.0   16.666666666666668
100.0   60.0   16.666666666666668
100.0   60.0   0.0
50.0   60.0   16.666666666666668
100.0   90.0   16.666666666666668
100.0   60.0   0.0
50.0   90.0   0.0
50.0   60.0   16.666666666666668
100.0   60.0   16.666666666666668
50.0   90.0   16.666666666666668
50.0   60.0   33.333333333333336
100.0   60.0   16.666666666666668
100.0   90.0   16.666666666666668
50.0   90.0   16.666666666666668
100.0   90.0   33.333333333333336
50.0   60.0   33.333333333333336
50.0   90.0   33.333333333333336
100.0   90.0   33.333333333333336
50.0   90.0   16.666666666666668
50.0   60.0   33.333333333333336
100.0   90.0   33.333333333333336
100.0   60.0   33.333333333333336
100.0   60.0   16.666666666666668
50.0   60.0   33.333333333333336
100.0   90.0   33.333333333333336
100.0   60.0   16.666666666666668
50.0   90.0   16.666666666666668
50.0   60.0   33.333333333333336
100.0   60.0   33.333333333333336
50.0   90.0   33.333333333333336
50.0   60.0   50.0
100.0   60.0   33.333333333333336
100.0   90.0   33.333333333333336
50.0   90.0   33.333333333333336
100.0   90.0   50.0
50.0   60.0   50.0
50.0   90.0   50.0
100.0   90.0   50.0
50.0   90.0   33.333333333333336
50.0   60.0   50.0
100.0   90.0   50.0
100.0   60.0   50.0
100.0   60.0   33.333333333333336
50.0   60.0   50.0
100.0   90.0   50.0
100.0   60.0   33.333333333333336
50.0   90.0   33.333333333333336
50.0   90.0   0.0
100.0   90.0   0.0
50.0   120.0   0.0
50.0   90.0   16.666666666666668
100.0   90.0   0.0
100.0   120.0   0.0
50.0   120.0   0.0
100.0   120.0   16.666666666666668
50.0   90.0   16.666666666666668
50.0   120.0   16.666666666666668
100.0   120.0   16.666666666666668
50.0   120.0   0.0
50.0   90.0   16.666666666666668
100.0   120.0   16.666666666666668
100.0   90.0   16.666666666666668
100.0   90.0   0.0
50.0   90.0   16.666666666666668
100.0   120.0   16.666666666666668
100.0   90.0   0.0
50.0   120.0   0.0
50.0   90.0   16.666666666666668
100.0   90.0   16.666666666666668
50.0   120.0   16.666666666666668
50.0   90.0   33.333333333333336
100.0   90.0   16.666666666666668
100.0   120.0   16.666666666666668
50.0   120.0   16.666666666666668
100.0   120.0   33.333333333333336
50.0   90.0   33.333333333333336
50.0   120.0   33.333333333333336
100.0   120.0   33.333333333333336
50.0   120.0   16.666666666666668
50.0   90.0   33.333333333333336
100.0   120.0   33.333333333333336
100.0   90.0   33.333333333333336
100.0   90.0   16.666666666666668
50.0   90.0   33.333333333333336
100.0   120.0   33.333333333333336
100.0   90.0   16.666666666666668
50.0   120.0   16.666666666666668
50.0   90.0   33.333333333333336
100.0   90.0   33.333333333333336
50.0   120.0   33.333333333333336
50.0   90.0   50.0
100.0   90.0   33.333333333333336
100.0   120.0   33.333333333333336
50.0   120.0   33.333333333333336
100.0   120.0   50.0
50.0   90.0   50.0
50.0   120.0   50.0
100.0   120.0   50.0
50.0   120.0   33.333333333333336
50.0   90.0   50.0
100.0   120.0   50.0
100.0   90.0   50.0
100.0   90.0   33.333333333333336
50.0   90.0   50.0
100.0   120.0   50.0
100.0   90.0   33.333333333333336
50.0   120.0   33.333333333333336
50.0   120.0   0.0
100.0   120.0   0.0
50.0   150.0   0.0
50.0   120.0   16.666666666666668
100.0   120.0   0.0
100.0   150.0   0.0
50.0   150.0   0.0
100.0   150.0   16.666666666666668
50.0   120.0   16.666666666666668
50.0   150.0   16.666666666666668
100.0   150.0   16.666666666666668
50.0   150.0   0.0
50.0   120.0   16.666666666666668
100.0   150.0   16.666666666666668
100.0   120.0   16.666666666666668
100.0   120.0   0.0
50.0   120.0   16.666666666666668
100.0   150.0   16.666666666666668
100.0   120.0   0.0
50.0   150.0   0.0
50.0   120.0   16.666666666666668
100.0   120.0   16.666666666666668
50.0   150.0   16.666666666666668
50.0   120.0   33.333333333333336
100.0   120.0   16.666666666666668
100.0   150.0   16.666666666666668
50.0   150.0   16.666666666666668
100.0   150.0   33.333333333333336
50.0   120.0   33.333333333333336
50.0   150.0   33.333333333333336
100.0   150.0   33.333333333333336
50.0   150.0   16.666666666666668
50.0   120.0   33.333333333333336
100.0   150.0   33.333333333333336
100.0   120.0   33.333333333333336
100.0   120.0   16.666666666666668
50.0   120.0   33.333333333333336
100.0   150.0   33.333333333333336
100.0   120.0   16.666666666666668
50.0   150.0   16.666666666666668
50.0   120.0   33.333333333333336
100.0   120.0   33.333333333333336
50.0   150.0   33.333333333333336
50.0   120.0   50.0
100.0   120.0   33.333333333333336
100.0   150.0   33.333333333333336
50.0   150.0   33.333333333333336
100.0   150.0   50.0
50.0   120.0   50.0
50.0   150.0   50.0
100.0   150.0   50.0
50.0   150.0   33.333333333333336
50.0   120.0   50.0
100.0   150.0   50.0
100.0   120.0   50.0
100.0   120.0   33.333333333333336
50.0   120.0   50.0
100.0   150.0   50.0
100.0   120.0   33.333333333333336
50.0   150.0   33.333333333333336
100.0   0.0   0.0
150.0   0.0   0.0
100.0   30.0   0.0
100.0   0.0   16.666666666666668
150.0   0.0   0.0
150.0   30.0   0.0
100.0   30.0   0.0
150.0   30.0   16.666666666666668
100.0   0.0   16.666666666666668
100.0   30.0   16.666666666666668
150.0   30.0   16.666666666666668
100.0   30.0   0.0
100.0   0.0   16.666666666666668
150.0   30.0   16.666666666666668
150.0   0.0   16.666666666666668
150.0   0.0   0.0
100.0   0.0   16.666666666666668
150.0   30.0   16.666666666666668
150.0   0.0   0.0
100.0   30.0   0.0
100.0   0.0   16.666666666666668
150.0   0.0   16.666666666666668
100.0   30.0   16.666666666666668
100.0   0.0   33.333333333333336
150.0   0.0   16.666666666666668
150.0   30.0   16.666666666666668
100.0   30.0   16.666666666666668
150.0   30.0   33.333333333333336
100.0   0.0   33.333333333333336
100.0   30.0   33.333333333333336
150.0   30.0   33.333333333333336
100.0   30.0   16.666666666666668
100.0   0.0   33.333333333333336
150.0   30.0   33.333333333333336
150.0   0.0   33.333333333333336
150.0   0.0   16.666666666666668
100.0   0.0   33.333333333333336
150.0   30.0   33.333333333333336
150.0   0.0   16.666666666666668
100.0   30.0   16.666666666666668
100.0   0.0   33.333333333333336
150.0   0.0   33.333333333333336
100.0   30.0   33.333333333333336
100.0   0.0   50.0
150.0   0.0   33.333333333333336
150.0   30.0   33.333333333333336
100.0   30.0   33.333333333333336
150.0   30.0   50.0
100.0   0.0   50.0
100.0   30.0   50.0
150.0   30.0   50.0
100.0   30.0   33.333333333333336
100.0   0.0   50.0
150.0   30.0   50.0
150.0   0.0   50.0
150.0   0.0   33.333333333333336
100.0   0.0   50.0
150.0   30.0   50.0
150.0   0.0   33.333333333333336
100.0   30.0   33.333333333333336
100.0   30.0   0.0
150.0   30.0   0.0
100.0   60.0   0.0
100.0   30.0   16.666666666666668
150.0   30.0   0.0
150.0   60.0   0.0
100.0   60.0   0.0
150.0   60.0   16.666666666666668
100.0   30.0   16.666666666666668
100.0   60.0   16.666666666666668
150.0   60.0   16.666666666666668
100.0   60.0   0.0
100.0   30.0   16.666666666666668
150.0   60.0   16.666666666666668
150.0   30.0   16.666666666666668
150.0   30.0   0.0
100.0   30.0   16.666666666666668
150.0   60.0   16.666666666666668
150.0   30.0   0.0
100.0   60.0   0.0
100.0   30.0   16.666666666666668
150.0   30.0   16.666666666666668
100.0   60.0   16.666666666666668
100.0   30.0   33.333333333333336
150.0   30.0   16.666666666666668
150.0   60.0   16.666666666666668
100.0   60.0   16.666666666666668
150.0   60.0   33.333333333333336
100.0   30.0   33.333333333333336
100.0   60.0   33.333333333333336
150.0   60.0   33.333333333333336
100.0   60.0   16.666666666666668
100.0   30.0   33.333333333333336
150.0   60.0   33.333333333333336
150.0   30.0   33.333333333333336
150.0   30.0   16.666666666666668
100.0   30.0   33.333333333333336
150.0   60.0   33.333333333333336
150.0   30.0   16.666666666666668
100.0   60.0   16.666666666666668
100.0   30.0   33.333333333333336
150.0   30.0   33.333333333333336
100.0   60.0   33.333333333333336
100.0   30.0   50.0
150.0   30.0   33.333333333333336
150.0   60.0   33.333333333333336
100.0   60.0   33.333333333333336
150.0   60.0   50.0
100.0   30.0   50.0
100.0   60.0   50.0
150.0   60.0   50.0
100.0   60.0   33.333333333333336
100.0   30.0   50.0
150.0   60.0   50.0
150.0   30.0   50.0
150.0   30.0   33.333333333333336
100.0   30.0   50.0
150.0   60.0   50.0
150.0   30.0   33.333333333333336
100.0   60.0   33.333333333333336
100.0   60.0   0.0
150.0   60.0   0.0
100.0   90.0   0.0
100.0   60.0   16.666666666666668
150.0   60.0   0.0
150.0   90.0   0.0
100.0   90.0   0.0
150.0   90.0   16.666666666666668
100.0   60.0   16.666666666666668
100.0   90.0   16.666666666666668
150.0   90.0   16.666666666666668
100.0   90.0   0.0
100.0   60.0   16.666666666666668
150.0   90.0   16.666666666666668
150.0   60.0   16.666666666666668
150.0   60.0   0.0
100.0   60.0   16.666666666666668
150.0   90.0   16.666666666666668
150.0   60.0   0.0
100.0   90.0   0.0
100.0   60.0   16.666666666666668
150.0   60.0   16.666666666666668
100.0   90.0   16.666666666666668
100.0   60.0   33.333333333333336
150.0   60.0   16.666666666666668
150.0   90.0   16.666666666666668
100.0   90.0   16.666666666666668
150.0   90.0   33.333333333333336
100.0   60.0   33.333333333333336
100.0   90.0   33.333333333333336
150.0   90.0   33.333333333333336
100.0   90.0   16.666666666666668
100.0   60.0   33.333333333333336
150.0   90.0   33.333333333333336
150.0   60.0   33.333333333333336
150.0   60.0   16.666666666666668
100.0   60.0   33.333333333333336
150.0   90.0   33.333333333333336
150.0   60.0   16.666666666666668
100.0   90.0   16.666666666666668
100.0   60.0   33.333333333333336
150.0   60.0   33.333333333333336
100.0   90.0   33.333333333333336
100.0   60.0   50.0
150.0   60.0   33.333333333333336
150.0   90.0   33.333333333333336
100.0   90.0   33.333333333333336
150.0   90.0   50.0
100.0   60.0   50.0
100.0   90.0   50.0
150.0   90.0   50.0
100.0   90.0   33.333333333333336
100.0   60.0   50.0
150.0   90.0   50.0
150.0   60.0   50.0
150.0   60.0   33.333333333333336
100.0   60.0   50.0
150.0   90.0   50.0
150.0   60.0   33.333333333333336
100.0   90.0   33.333333333333336
100.0   90.0   0.0
150.0   90.0   0.0
100.0   120.0   0.0
100.0   90.0   16.666666666666668
150.0   90.0   0.0
150.0   120.0   0.0
100.0   120.0   0.0
150.0   120.0   16.666666666666668
100.0   90.0   16.666666666666668
100.0   120.0   16.666666666666668
150.0   120.0   16.666666666666668
100.0   120.0   0.0
100.0   90.0   16.666666666666668
150.0   120.0   16.666666666666668
150.0   90.0   16.666666666666668
150.0   90.0   0.0
100.0   90.0   16.666666666666668
150.0   120.0   16.666666666666668
150.0   90.0   0.0
100.0   120.0   0.0
100.0   90.0   16.666666666666668
150.0   90.0   16.666666666666668
100.0   120.0   16.666666666666668
100.0   90.0   33.333333333333336
150.0   90.0   16.666666666666668
150.0   120.0   16.666666666666668
100.0   120.0   16.666666666666668
150.0   120.0   33.333333333333336
100.0   90.0   33.333333333333336
100.0   120.0   33.333333333333336
150.0   120.0   33.333333333333336
100.0   120.0   16.666666666666668
100.0   90.0   33.333333333333336
150.0   120.0   33.333333333333336
150.0   90.0   33.333333333333336
150.0   90.0   16.666666666666668
100.0   90.0   33.333333333333336
150.0   120.0   33.333333333333336
150.0   90.0   16.666666666666668
100.0   120.0   16.666666666666668
100.0   90.0   33.333333333333336
150.0   90.0   33.333333333333336
100.0   120.0   33.333333333333336
100.0   90.0   50.0
150.0   90.0   33.333333333333336
150.0   120.0   33.333333333333336
100.0   120.0   33.333333333333336
150.0   120.0   50.0
100.0   90.0   50.0
100.0   120.0   50.0
150.0   120.0   50.0
100.0   120.0   33.333333333333336
100.0   90.0   50.0
150.0   120.0   50.0
150.0   90.0   50.0
150.0   90.0   33.333333333333336
100.0   90.0   50.0
150.0   120.0   50.0
150.0   90.0   33.333333333333336
100.0   120.0   33.333333333333336
100.0   120.0   0.0
150.0   120.0   0.0
100.0   150.0   0.0
100.0   120.0   16.666666666666668
150.0   120.0   0.0
150.0   150.0   0.0
100.0   150.0   0.0
150.0   150.0   16.666666666666668
100.0   120.0   16.666666666666668
100.0   150.0   16.666666666666668
150.0   150.0   16.666666666666668
100.0   150.0   0.0
100.0   120.0   16.666666666666668
150.0   150.0   16.666666666666668
150.0   120.0   16.666666666666668
150.0   120.0   0.0
100.0   120.0   16.666666666666668
150.0   150.0   16.666666666666668
150.0   120.0   0.0
100.0   150.0   0.0
100.0   120.0   16.666666666666668
150.0   120.0   16.666666666666668
100.0   150.0   16.666666666666668
100.0   120.0   33.333333333333336
150.0   120.0   16.666666666666668
150.0   150.0   16.666666666666668
100.0   150.0   16.666666666666668
150.0   150.0   33.333333333333336
100.0   120.0   33.333333333333336
100.0   150.0   33.333333333333336
150.0   150.0   33.333333333333336
100.0   150.0   16.666666666666668
100.0   120.0   33.333333333333336
150.0   150.0   33.333333333333336
150.0   120.0   33.333333333333336
150.0   120.0   16.666666666666668
100.0   120.0   33.333333333333336
150.0   150.0   33.333333333333336
150.0   120.0   16.666666666666668
100.0   150.0   16.666666666666668
100.0   120.0   33.333333333333336
150.0   120.0   33.333333333333336
100.0   150.0   33.333333333333336
100.0   120.0   50.0
150.0   120.0   33.333333333333336
150.0   150.0   33.333333333333336
100.0   150.0   33.333333333333336
150.0   150.0   50.0
100.0   120.0   50.0
100.0   150.0   50.0
150.0   150.0   50.0
100.0   150.0   33.333333333333336
100.0   120.0   50.0
150.0   150.0   50.0
150.0   120.0   50.0
150.0   120.0   33.333333333333336
100.0   120.0   50.0
150.0   150.0   50.0
150.0   120.0   33.333333333333336
100.0   150.0   33.333333333333336
150.0   0.0   0.0
200.0   0.0   0.0
150.0   30.0   0.0
150.0   0.0   16.666666666666668
200.0   0.0   0.0
200.0   30.0   0.0
150.0   30.0   0.0
200.0   30.0   16.666666666666668
150.0   0.0   16.666666666666668
150.0   30.0   16.666666666666668
200.0   30.0   16.666666666666668
150.0   30.0   0.0
150.0   0.0   16.666666666666668
200.0   30.0   16.666666666666668
200.0   0.0   16.666666666666668
200.0   0.0   0.0
150.0   0.0   16.666666666666668
200.0   30.0   16.666666666666668
200.0   0.0   0.0
150.0   30.0   0.0
150.0   0.0   16.666666666666668
200.0   0.0   16.666666666666668
150.0   30.0   16.666666666666668
150.0   0.0   33.333333333333336
200.0   0.0   16.666666666666668
200.0   30.0   16.666666666666668
150.0   30.0   16.666666666666668
200.0   30.0   33.333333333333336
150.0   0.0   33.333333333333336
150.0   30.0   33.333333333333336
200.0   30.0   33.333333333333336
150.0   30.0   16.666666666666668
150.0   0.0   33.333333333333336
200.0   30.0   33.333333333333336
200.0   0.0   33.333333333333336
200.0   0.0   16.666666666666668
150.0   0.0   33.333333333333336
200.0   30.0   33.333333333333336
200.0   0.0   16.666666666666668
150.0   30.0   16.666666666666668
150.0   0.0   33.333333333333336
200.0   0.0   33.333333333333336
150.0   30.0   33.333333333333336
150.0   0.0   50.0
200.0   0.0   33.333333333333336
200.0   30.0   33.333333333333336
150.0   30.0   33.333333333333336
200.0   30.0   50.0
150.0   0.0   50.0
150.0   30.0   50.0
200.0   30.0   50.0
150.0   30.0   33.333333333333336
150.0   0.0   50.0
200.0   30.0   50.0
200.0   0.0   50.0
200.0   0.0   33.333333333333336
150.0   0.0   50.0
200.0   30.0   50.0
200.0   0.0   33.333333333333336
150.0   30.0   33.333333333333336
150.0   30.0   0.0
200.0   30.0   0.0
150.0   60.0   0.0
150.0   30.0   16.666666666666668
200.0   30.0   0.0
200.0   60.0   0.0
150.0   60.0   0.0
200.0   60.0   16.666666666666668
150.0   30.0   16.666666666666668
150.0   60.0   16.666666666666668
200.0   60.0   16.666666666666668
150.0   60.0   0.0
150.0   30.0   16.666666666666668
200.0   60.0   16.666666666666668
200.0   30.0   16.666666666666668
200.0   30.0   0.0
150.0   30.0   16.666666666666668
200.0   60.0   16.666666666666668
200.0   30.0   0.0
150.0   60.0   0.0
150.0   30.0   16.666666666666668
200.0   30.0   16.666666666666668
150.0   60.0   16.666666666666668
150.0   30.0   33.333333333333336
200.0   30.0   16.666666666666668
200.0   60.0   16.666666666666668
150.0   60.0   16.666666666666668
200.0   60.0   33.333333333333336
150.0   30.0   33.333333333333336
150.0   60.0   33.333333333333336
200.0   60.0   33.333333333333336
150.0   60.0   16.666666666666668
150.0   30.0   33.333333333333336
200.0   60.0   33.333333333333336
200.0   30.0   33.333333333333336
200.0   30.0   16.666666666666668
150.0   30.0   33.333333333333336
200.0   60.0   33.333333333333336
200.0   30.0   16.666666666666668
150.0   60.0   16.666666666666668
150.0   30.0   33.333333333333336
200.0   30.0   33.333333333333336
150.0   60.0   33.333333333333336
150.0   30.0   50.0
200.0   30.0   33.333333333333336
200.0   60.0   33.333333333333336
150.0   60.0   33.333333333333336
200.0   60.0   50.0
150.0   30.0   50.0
150.0   60.0   50.0
200.0   60.0   50.0
150.0   60.0   33.333333333333336
150.0   30.0   50.0
200.0   60.0   50.0
200.0   30.0   50.0
200.0   30.0   33.333333333333336
150.0   30.0   50.0
200.0   60.0   50.0
200.0   30.0   33.333333333333336
150.0   60.0   33.333333333333336
150.0   60.0   0.0
200.0   60.0   0.0
150.0   90.0   0.0
150.0   60.0   16.666666666666668
200.0   60.0   0.0
200.0   90.0   0.0
150.0   90.0   0.0
200.0   90.0   16.666666666666668
150.0   60.0   16.666666666666668
150.0   90.0   16.666666666666668
200.0   90.0   16.666666666666668
150.0   90.0   0.0
150.0   60.0   16.666666666666668
200.0   90.0   16.666666666666668
200.0   60.0   16.666666666666668
200.0   60.0   0.0
150.0   60.0   16.666666666666668
200.0   90.0   16.666666666666668
200.0   60.0   0.0
150.0   90.0   0.0
150.0   60.0   16.666666666666668
200.0   60.0   16.666666666666668
150.0   90.0   16.666666666666668
150.0   60.0   33.333333333333336
200.0   60.0   16.666666666666668
200.0   90.0   16.666666666666668
150.0   90.0   16.666666666666668
200.0   90.0   33.333333333333336
150.0   60.0   33.333333333333336
150.0   90.0   33.333333333333336
200.0   90.0   33.333333333333336
150.0   90.0   16.666666666666668
150.0   60.0   33.333333333333336
200.0   90.0   33.333333333333336
200.0   60.0   33.333333333333336
200.0   60.0   16.666666666666668
150.0   60.0   33.333333333333336
200.0   90.0   33.333333333333336
200.0   60.0   16.666666666666668
150.0   90.0   16.666666666666668
150.0   60.0   33.333333333333336
200.0   60.0   33.333333333333336
150.0   90.0   33.333333333333336
150.0   60.0   50.0
200.0   60.0   33.333333333333336
200.0   90.0   33.333333333333336
150.0   90.0   33.333333333333336
200.0   90.0   50.0
150.0   60.0   50.0
150.0   90.0   50.0
200.0   90.0   50.0
150.0   90.0   33.333333333333336
150.0   60.0   50.0
200.0   90.0   50.0
200.0   60.0   50.0
200.0   60.0   33.333333333333336
150.0   60.0   50.0
200.0   90.0   50.0
200.0   60.0   33.333333333333336
150.0   90.0   33.333333333333336
150.0   90.0   0.0
200.0   90.0   0.0
150.0   120.0   0.0
150.0   90.0   16.666666666666668
200.0   90.0   0.0
200.0   120.0   0.0
150.0   120.0   0.0
200.0   120.0   16.666666666666668
150.0   90.0   16.666666666666668
150.0   120.0   16.666666666666668
200.0   120.0   16.666666666666668
150.0   120.0   0.0
150.0   90.0   16.666666666666668
200.0   120.0   16.666666666666668
200.0   90.0   16.666666666666668
200.0   90.0   0.0
150.0   90.0   16.666666666666668
200.0   120.0   16.666666666666668
200.0   90.0   0.0
150.0   120.0   0.0
150.0   90.0   16.666666666666668
200.0   90.0   16.666666666666668
150.0   120.0   16.666666666666668
150.0   90.0   33.333333333333336
200.0   90.0   16.666666666666668
200.0   120.0   16.666666666666668
150.0   120.0   16.666666666666668
200.0   120.0   33.333333333333336
150.0   90.0   33.333333333333336
150.0   120.0   33.333333333333336
200.0   120.0   33.333333333333336
150.0   120.0   16.666666666666668
150.0   90.0   33.333333333333336
200.0   120.0   33.333333333333336
200.0   90.0   33.333333333333336
200.0   90.0   16.666666666666668
150.0   90.0   33.333333333333336
200.0   120.0   33.333333333333336
200.0   90.0   16.666666666666668
150.0   120.0   16.666666666666668
150.0   90.0   33.333333333333336
200.0   90.0   33.333333333333336
150.0   120.0   33.333333333333336
150.0   90.0   50.0
200.0   90.0   33.333333333333336
200.0   120.0   33.333333333333336
150.0   120.0   33.333333333333336
200.0   120.0   50.0
150.0   90.0   50.0
150.0   120.0   50.0
200.0   120.0   50.0
150.0   120.0   33.333333333333336
150.0   90.0   50.0
200.0   120.0   50.0
200.0   90.0   50.0
200.0   90.0   33.333333333333336
150.0   90.0   50.0
200.0   120.0   50.0
200.0   90.0   33.333333333333336
150.0   120.0   33.333333333333336
150.0   120.0   0.0
200.0   120.0   0.0
150.0   150.0   0.0
150.0   120.0   16.666666666666668
200.0   120.0   0.0
200.0   150.0   0.0
150.0   150.0   0.0
200.0   150.0   16.666666666666668
150.0   120.0   16.666666666666668
150.0   150.0   16.666666666666668
200.0   150.0   16.666666666666668
150.0   150.0   0.0
150.0   120.0   16.666666666666668
200.0   150.0   16.666666666666668
200.0   120.0   16.666666666666668
200.0   120.0   0.0
150.0   120.0   16.666666666666668
200.0   150.0   16.666666666666668
200.0   120.0   0.0
150.0   150.0   0.0
150.0   120.0   16.666666666666668
200.0   120.0   16.666666666666668
150.0   150.0   16.666666666666668
150.0   120.0   33.333333333333336
200.0   120.0   16.666666666666668
200.0   150.0   16.666666666666668
150.0   150.0   16.666666666666668
200.0   150.0   33.333333333333336
150.0   120.0   33.333333333333336
150.0   150.0   33.333333333333336
200.0   150.0   33.333333333333336
150.0   150.0   16.666666666666668
150.0   120.0   33.333333333333336
200.0   150.0   33.333333333333336
200.0   120.0   33.333333333333336
200.0   120.0   16.666666666666668
150.0   120.0   33.333333333333336
200.0   150.0   33.333333333333336
200.0   120.0   16.666666666666668
150.0   150.0   16.666666666666668
150.0   120.0   33.333333333333336
200.0   120.0   33.333333333333336
150.0   150.0   33.333333333333336
150.0   120.0   50.0
200.0   120.0   33.333333333333336
200.0   150.0   33.333333333333336
150.0   150.0   33.333333333333336
200.0   150.0   50.0
150.0   120.0   50.0
150.0   150.0   50.0
200.0   150.0   50.0
150.0   150.0   33.333333333333336
150.0   120.0   50.0
200.0   150.0   50.0
200.0   120.0   50.0
200.0   120.0   33.333333333333336
150.0   120.0   50.0
200.0   150.0   50.0
200.0   120.0   33.333333333333336
150.0   150.0   33.333333333333336
200.0   0.0   0.0
250.0   0.0   0.0
200.0   30.0   0.0
200.0   0.0   16.666666666666668
250.0   0.0   0.0
250.0   30.0   0.0
200.0   30.0   0.0
250.0   30.0   16.666666666666668
200.0   0.0   16.666666666666668
200.0   30.0   16.666666666666668
250.0   30.0   16.666666666666668
200.0   30.0   0.0
200.0   0.0   16.666666666666668
250.0   30.0   16.666666666666668
250.0   0.0   16.666666666666668
250.0   0.0   0.0
200.0   0.0   16.666666666666668
250.0   30.0   16.666666666666668
250.0   0.0   0.0
200.0   30.0   0.0
200.0   0.0   16.666666666666668
250.0   0.0   16.666666666666668
200.0   30.0   16.666666666666668
200.0   0.0   33.333333333333336
250.0   0.0   16.666666666666668
250.0   30.0   16.666666666666668
200.0   30.0   16.666666666666668
250.0   30.0   33.333333333333336
200.0   0.0   33.333333333333336
200.0   30.0   33.333333333333336
250.0   30.0   33.333333333333336
200.0   30.0   16.666666666666668
200.0   0.0   33.333333333333336
250.0   30.0   33.333333333333336
250.0   0.0   33.333333333333336
250.0   0.0   16.666666666666668
200.0   0.0   33.333333333333336
250.0   30.0   33.333333333333336
250.0   0.0   16.666666666666668
200.0   30.0   16.666666666666668
200.0   0.0   33.333333333333336
250.0   0.0   33.333333333333336
200.0   30.0   33.333333333333336
200.0   0.0   50.0
250.0   0.0   33.333333333333336
250.0   30.0   33.333333333333336
200.0   30.0   33.333333333333336
250.0   30.0   50.0
200.0   0.0   50.0
200.0   30.0   50.0
250.0   30.0   50.0
200.0   30.0   33.333333333333336
200.0   0.0   50.0
250.0   30.0   50.0
250.0   0.0   50.0
250.0   0.0   33.333333333333336
200.0   0.0   50.0
250.0   30.0   50.0
250.0   0.0   33.333333333333336
200.0   30.0   33.333333333333336
200.0   30.0   0.0
250.0   30.0   0.0
200.0   60.0   0.0
200.0   30.0   16.666666666666668
250.0   30.0   0.0
250.0   60.0   0.0
200.0   60.0   0.0
250.0   60.0   16.666666666666668
200.0   30.0   16.666666666666668
200.0   60.0   16.666666666666668
250.0   60.0   16.666666666666668
200.0   60.0   0.0
200.0   30.0   16.666666666666668
250.0   60.0   16.666666666666668
250.0   30.0   16.666666666666668
250.0   30.0   0.0
200.0   30.0   16.666666666666668
250.0   60.0   16.666666666666668
250.0   30.0   0.0
200.0   60.0   0.0
200.0   30.0   16.666666666666668
250.0   30.0   16.666666666666668
200.0   60.0   16.666666666666668
200.0   30.0   33.333333333333336
250.0   30.0   16.666666666666668
250.0   60.0   16.666666666666668
200.0   60.0   16.666666666666668
250.0   60.0   33.333333333333336
200.0   30.0   33.333333333333336
200.0   60.0   33.333333333333336
250.0   60.0   33.333333333333336
200.0   60.0   16.666666666666668
200.0   30.0   33.333333333333336
250.0   60.0   33.333333333333336
250.0   30.0   33.333333333333336
250.0   30.0   16.666666666666668
200.0   30.0   33.333333333333336
250.0   60.0   33.333333333333336
250.0   30.0   16.666666666666668
200.0   60.0   16.666666666666668
200.0   30.0   33.333333333333336
250.0   30.0   33.333333333333336
200.0   60.0   33.333333333333336
200.0   30.0   50.0
250.0   30.0   33.333333333333336
250.0   60.0   33.333333333333336
200.0   60.0   33.333333333333336
250.0   60.0   50.0
200.0   30.0   50.0
200.0   60.0   50.0
250.0   60.0   50.0
200.0   60.0   33.333333333333336
200.0   30.0   50.0
250.0   60.0   50.0
250.0   30.0   50.0
250.0   30.0   33.333333333333336
200.0   30.0   50.0
250.0   60.0   50.0
250.0   30.0   33.333333333333336
200.0   60.0   33.333333333333336
200.0   60.0   0.0
250.0   60.0   0.0
200.0   90.0   0.0
200.0   60.0   16.666666666666668
250.0   60.0   0.0
250.0   90.0   0.0
200.0   90.0   0.0
250.0   90.0   16.666666666666668
200.0   60.0   16.666666666666668
200.0   90.0   16.666666666666668
250.0   90.0   16.666666666666668
200.0   90.0   0.0
200.0   60.0   16.666666666666668
250.0   90.0   16.666666666666668
250.0   60.0   16.666666666666668
250.0   60.0   0.0
200.0   60.0   16.666666666666668
250.0   90.0   16.666666666666668
250.0   60.0   0.0
200.0   90.0   0.0
200.0   60.0   16.666666666666668
250.0   60.0   16.666666666666668
200.0   90.0   16.666666666666668
200.0   60.0   33.333333333333336
250.0   60.0   16.666666666666668
250.0   90.0   16.666666666666668
200.0   90.0   16.666666666666668
250.0   90.0   33.333333333333336
200.0   60.0   33.333333333333336
200.0   90.0   33.333333333333336
250.0   90.0   33.333333333333336
200.0   90.0   16.666666666666668
200.0   60.0   33.333333333333336
250.0   90.0   33.333333333333336
250.0   60.0   33.333333333333336
250.0   60.0   16.666666666666668
200.0   60.0   33.333333333333336
250.0   90.0   33.333333333333336
250.0   60.0   16.666666666666668
200.0   90.0   16.666666666666668
200.0   60.0   33.333333333333336
250.0   60.0   33.333333333333336
200.0   90.0   33.333333333333336
200.0   60.0   50.0
250.0   60.0   33.333333333333336
250.0   90.0   33.333333333333336
200.0   90.0   33.333333333333336
250.0   90.0   50.0
200.0   60.0   50.0
200.0   90.0   50.0
250.0   90.0   50.0
200.0   90.0   33.333333333333336
200.0   60.0   50.0
250.0   90.0   50.0
250.0   60.0   50.0
250.0   60.0   33.333333333333336
200.0   60.0   50.0
250.0   90.0   50.0
250.0   60.0   33.333333333333336
200.0   90.0   33.333333333333336
200.0   90.0   0.0
250.0   90.0   0.0
200.0   120.0   0.0
200.0   90.0   16.666666666666668
250.0   90.0   0.0
250.0   120.0   0.0
200.0   120.0   0.0
250.0   120.0   16.666666666666668
200.0   90.0   16.666666666666668
200.0   120.0   16.666666666666668
250.0   120.0   16.666666666666668
200.0   120.0   0.0
200.0   90.0   16.666666666666668
250.0   120.0   16.666666666666668
250.0   90.0   16.666666666666668
250.0   90.0   0.0
200.0   90.0   16.666666666666668
250.0   120.0   16.666666666666668
250.0   90.0   0.0
200.0   120.0   0.0
200.0   90.0   16.666666666666668
250.0   90.0   16.666666666666668
200.0   120.0   16.666666666666668
200.0   90.0   33.333333333333336
250.0   90.0   16.666666666666668
250.0   120.0   16.666666666666668
200.0   120.0   16.666666666666668
250.0   120.0   33.333333333333336
200.0   90.0   33.333333333333336
200.0   120.0   33.333333333333336
250.0   120.0   33.333333333333336
200.0   120.0   16.666666666666668
200.0   90.0   33.333333333333336
250.0   120.0   33.333333333333336
250.0   90.0   33.333333333333336
250.0   90.0   16.666666666666668
200.0   90.0   33.333333333333336
250.0   120.0   33.333333333333336
250.0   90.0   16.666666666666668
200.0   120.0   16.666666666666668
200.0   90.0   33.333333333333336
250.0   90.0   33.333333333333336
200.0   120.0   33.333333333333336
200.0   90.0   50.0
250.0   90.0   33.333333333333336
250.0   120.0   33.333333333333336
200.0   120.0   33.333333333333336
250.0   120.0   50.0
200.0   90.0   50.0
200.0   120.0   50.0
250.0   120.0   50.0
200.0   120.0   33.333333333333336
200.0   90.0   50.0
250.0   120.0   50.0
250.0   90.0   50.0
250.0   90.0   33.333333333333336
200.0   90.0   50.0
250.0   120.0   50.0
250.0   90.0   33.333333333333336
200.0   120.0   33.333333333333336
200.0   120.0   0.0
250.0   120.0   0.0
200.0   150.0   0.0
200.0   120.0   16.666666666666668
250.0   120.0   0.0
250.0   150.0   0.0
200.0   150.0   0.0
250.0   150.0   16.666666666666668
200.0   120.0   16.666666666666668
200.0   150.0   16.666666666666668
250.0   150.0   16.666666666666668
200.0   150.0   0.0
200.0   120.0   16.666666666666668
250.0   150.0   16.666666666666668
250.0   120.0   16.666666666666668
250.0   120.0   0.0
200.0   120.0   16.666666666666668
250.0   150.0   16.666666666666668
250.0   120.0   0.0
200.0   150.0   0.0
200.0   120.0   16.666666666666668
250.0   120.0   16.666666666666668
200.0   150.0   16.666666666666668
200.0   120.0   33.333333333333336
250.0   120.0   16.666666666666668
250.0   150.0   16.666666666666668
200.0   150.0   16.666666666666668
250.0   150.0   33.333333333333336
200.0   120.0   33.333333333333336
200.0   150.0   33.333333333333336
250.0   150.0   33.333333333333336
200.0   150.0   16.666666666666668
200.0   120.0   33.333333333333336
250.0   150.0   33.333333333333336
250.0   120.0   33.333333333333336
250.0   120.0   16.666666666666668
200.0   120.0   33.333333333333336
250.0   150.0   33.333333333333336
250.0   120.0   16.666666666666668
200.0   150.0   16.666666666666668
200.0   120.0   33.333333333333336
250.0   120.0   33.333333333333336
200.0   150.0   33.333333333333336
200.0   120.0   50.0
250.0   120.0   33.333333333333336
250.0   150.0   33.333333333333336
200.0   150.0   33.333333333333336
250.0   150.0   50.0
200.0   120.0   50.0
200.0   150.0   50.0
250.0   150.0   50.0
200.0   150.0   33.333333333333336
200.0   120.0   50.0
250.0   150.0   50.0
250.0   120.0   50.0
250.0   120.0   33.333333333333336
200.0   120.0   50.0
250.0   150.0   50.0
250.0   120.0   33.333333333333336
200.0   150.0   33.333333333333336
250.0   0.0   0.0
300.0   0.0   0.0
250.0   30.0   0.0
250.0   0.0   16.666666666666668
300.0   0.0   0.0
300.0   30.0   0.0
250.0   30.0   0.0
300.0   30.0   16.666666666666668
250.0   0.0   16.666666666666668
250.0   30.0   16.666666666666668
300.0   30.0   16.666666666666668
250.0   30.0   0.0
250.0   0.0   16.666666666666668
300.0   30.0   16.666666666666668
300.0   0.0   16.666666666666668
300.0   0.0   0.0
250.0   0.0   16.666666666666668
300.0   30.0   16.666666666666668
300.0   0.0   0.0
250.0   30.0   0.0
250.0   0.0   16.666666666666668
300.0   0.0   16.666666666666668
250.0   30.0   16.666666666666668
250.0   0.0   33.333333333333336
300.0   0.0   16.666666666666668
300.0   30.0   16.666666666666668
250.0   30.0   16.666666666666668
300.0   30.0   33.333333333333336
250.0   0.0   33.333333333333336
250.0   30.0   33.333333333333336
300.0   30.0   33.333333333333336
250.0   30.0   16.666666666666668
250.0   0.0   33.333333333333336
300.0   30.0   33.333333333333336
300.0   0.0   33.333333333333336
300.0   0.0   16.666666666666668
250.0   0.0   33.333333333333336
300.0   30.0   33.333333333333336
300.0   0.0   16.666666666666668
250.0   30.0   16.666666666666668
250.0   0.0   33.333333333333336
300.0   0.0   33.333333333333336
250.0   30.0   33.333333333333336
250.0   0.0   50.0
300.0   0.0   33.333333333333336
300.0   30.0   33.333333333333336
250.0   30.0   33.333333333333336
300.0   30.0   50.0
250.0   0.0   50.0
250.0   30.0   50.0
300.0   30.0   50.0
250.0   30.0   33.333333333333336
250.0   0.0   50.0
300.0   30.0   50.0
300.0   0.0   50.0
300.0   0.0   33.333333333333336
250.0   0.0   50.0
300.0   30.0   50.0
300.0   0.0   33.333333333333336
250.0   30.0   33.333333333333336
250.0   30.0   0.0
300.0   30.0   0.0
250.0   60.0   0.0
250.0   30.0   16.666666666666668
300.0   30.0   0.0
300.0   60.0   0.0
250.0   60.0   0.0
300.0   60.0   16.666666666666668
250.0   30.0   16.666666666666668
250.0   60.0   16.666666666666668
300.0   60.0   16.666666666666668
250.0   60.0   0.0
250.0   30.0   16.666666666666668
300.0   60.0   16.666666666666668
300.0   30.0   16.666666666666668
300.0   30.0   0.0
250.0   30.0   16.666666666666668
300.0   60.0   16.666666666666668
300.0   30.0   0.0
250.0   60.0   0.0
250.0   30.0   16.666666666666668
300.0   30.0   16.666666666666668
250.0   60.0   16.666666666666668
250.0   30.0   33.333333333333336
300.0   30.0   16.666666666666668
300.0   60.0   16.666666666666668
250.0   60.0   16.666666666666668
300.0   60.0   33.333333333333336
250.0   30.0   33.333333333333336
250.0   60.0   33.333333333333336
300.0   60.0   33.333333333333336
250.0   60.0   16.666666666666668
250.0   30.0   33.333333333333336
300.0   60.0   33.333333333333336
300.0   30.0   33.333333333333336
300.0   30.0   16.666666666666668
250.0   30.0   33.333333333333336
300.0   60.0   33.333333333333336
300.0   30.0   16.666666666666668
250.0   60.0   16.666666666666668
250.0   30.0   33.333333333333336
300.0   30.0   33.333333333333336
250.0   60.0   33.333333333333336
250.0   30.0   50.0
300.0   30.0   33.333333333333336
300.0   60.0   33.333333333333336
250.0   60.0   33.333333333333336
300.0   60.0   50.0
250.0   30.0   50.0
250.0   60.0   50.0
300.0   60.0   50.0
250.0   60.0   33.333333333333336
250.0   30.0   50.0
300.0   60.0   50.0
300.0   30.0   50.0
300.0   30.0   33.333333333333336
250.0   30.0   50.0
300.0   60.0   50.0
300.0   30.0   33.333333333333336
250.0   60.0   33.333333333333336
250.0   60.0   0.0
300.0   60.0   0.0
250.0   90.0   0.0
250.0   60.0   16.666666666666668
300.0   60.0   0.0
300.0   90.0   0.0
250.0   90.0   0.0
300.0   90.0   16.666666666666668
250.0   60.0   16.666666666666668
250.0   90.0   16.666666666666668
300.0   90.0   16.666666666666668
250.0   90.0   0.0
250.0   60.0   16.666666666666668
300.0   90.0   16.666666666666668
300.0   60.0   16.666666666666668
300.0   60.0   0.0
250.0   60.0   16.666666666666668
300.0   90.0   16.666666666666668
300.0   60.0   0.0
250.0   90.0   0.0
250.0   60.0   16.666666666666668
300.0   60.0   16.666666666666668
250.0   90.0   16.666666666666668
250.0   60.0   33.333333333333336
300.0   60.0   16.666666666666668
300.0   90.0   16.666666666666668
250.0   90.0   16.666666666666668
300.0   90.0   33.333333333333336
250.0   60.0   33.333333333333336
250.0   90.0   33.333333333333336
300.0   90.0   33.333333333333336
250.0   90.0   16.666666666666668
250.0   60.0   33.333333333333336
300.0   90.0   33.333333333333336
300.0   60.0   33.333333333333336
300.0   60.0   16.666666666666668
250.0   60.0   33.333333333333336
300.0   90.0   33.333333333333336
300.0   60.0   16.666666666666668
250.0   90.0   16.666666666666668
250.0   60.0   33.333333333333336
300.0   60.0   33.333333333333336
250.0   90.0   33.333333333333336
250.0   60.0   50.0
300.0   60.0   33.333333333333336
300.0   90.0   33.333333333333336
250.0   90.0   33.333333333333336
300.0   90.0   50.0
250.0   60.0   50.0
250.0   90.0   50.0
300.0   90.0   50.0
250.0   90.0   33.333333333333336
250.0   60.0   50.0
300.0   90.0   50.0
300.0   60.0   50.0
300.0   60.0   33.333333333333336
250.0   60.0   50.0
300.0   90.0   50.0
300.0   60.0   33.333333333333336
250.0   90.0   33.333333333333336
250.0   90.0   0.0
300.0   90.0   0.0
250.0   120.0   0.0
250.0   90.0   16.666666666666668
300.0   90.0   0.0
300.0   120.0   0.0
250.0   120.0   0.0
300.0   120.0   16.666666666666668
250.0   90.0   16.666666666666668
250.0   120.0   16.666666666666668
300.0   120.0   16.666666666666668
250.0   120.0   0.0
250.0   90.0   16.666666666666668
300.0   120.0   16.666666666666668
300.0   90.0   16.666666666666668
300.0   90.0   0.0
250.0   90.0   16.666666666666668
300.0   120.0   16.666666666666668
300.0   90.0   0.0
250.0   120.0   0.0
250.0   90.0   16.666666666666668
300.0   90.0   16.666666666666668
250.0   120.0   16.666666666666668
250.0   90.0   33.333333333333336
300.0   90.0   16.666666666666668
300.0   120.0   16.666666666666668
250.0   120.0   16.666666666666668
300.0   120.0   33.333333333333336
250.0   90.0   33.333333333333336
250.0   120.0   33.333333333333336
300.0   120.0   33.333333333333336
250.0   120.0   16.666666666666668
250.0   90.0   33.333333333333336
300.0   120.0   33.333333333333336
300.0   90.0   33.333333333333336
300.0   90.0   16.666666666666668
250.0   90.0   33.333333333333336
300.0   120.0   33.333333333333336
300.0   90.0   16.666666666666668
250.0   120.0   16.666666666666668
250.0   90.0   33.333333333333336
300.0   90.0   33.333333333333336
250.0   120.0   33.333333333333336
250.0   90.0   50.0
300.0   90.0   33.333333333333336
300.0   120.0   33.333333333333336
250.0   120.0   33.333333333333336
300.0   120.0   50.0
250.0   90.0   50.0
250.0   120.0   50.0
300.0   120.0   50.0
250.0   120.0   33.333333333333336
250.0   90.0   50.0
300.0   120.0   50.0
300.0   90.0   50.0
300.0   90.0   33.333333333333336
250.0   90.0   50.0
300.0   120.0   50.0
300.0   90.0   33.333333333333336
250.0   120.0   33.333333333333336
250.0   120.0   0.0
300.0   120.0   0.0
250.0   150.0   0.0
250.0   120.0   16.666666666666668
300.0   120.0   0.0
300.0   150.0   0.0
250.0   150.0   0.0
300.0   150.0   16.666666666666668
250.0   120.0   16.666666666666668
250.0   150.0   16.666666666666668
300.0   150.0   16.666666666666668
250.0   150.0   0.0
250.0   120.0   16.666666666666668
300.0   150.0   16.666666666666668
300.0   120.0   16.666666666666668
300.0   120.0   0.0
250.0   120.0   16.666666666666668
300.0   150.0   16.666666666666668
300.0   120.0   0.0
250.0   150.0   0.0
250.0   120.0   16.666666666666668
300.0   120.0   16.666666666666668
250.0   150.0   16.666666666666668
250.0   120.0   33.333333333333336
300.0   120.0   16.666666666666668
300.0   150.0   16.666666666666668
250.0   150.0   16.666666666666668
300.0   150.0   33.333333333333336
250.0   120.0   33.333333333333336
250.0   150.0   33.333333333333336
300.0   150.0   33.333333333333336
250.0   150.0   16.666666666666668
250.0   120.0   33.333333333333336
300.0   150.0   33.333333333333336
300.0   120.0   33.333333333333336
300.0   120.0   16.666666666666668
250.0   120.0   33.333333333333336
300.0   150.0   33.333333333333336
300.0   120.0   16.666666666666668
250.0   150.0   16.666666666666668
250.0   120.0   33.333333333333336
300.0   120.0   33.333333333333336
250.0   150.0   33.333333333333336
250.0   120.0   50.0
300.0   120.0   33.333333333333336
300.0   150.0   33.333333333333336
250.0   150.0   33.333333333333336
300.0   150.0   50.0
250.0   120.0   50.0
250.0   150.0   50.0
300.0   150.0   50.0
250.0   150.0   33.333333333333336
250.0   120.0   50.0
300.0   150.0   50.0
300.0   120.0   50.0
300.0   120.0   33.333333333333336
250.0   120.0   50.0
300.0   150.0   50.0
300.0   120.0   33.333333333333336
250.0   150.0   33.333333333333336
300.0   0.0   0.0
350.0   0.0   0.0
300.0   30.0   0.0
300.0   0.0   16.666666666666668
350.0   0.0   0.0
350.0   30.0   0.0
300.0   30.0   0.0
350.0   30.0   16.666666666666668
300.0   0.0   16.666666666666668
300.0   30.0   16.666666666666668
350.0   30.0   16.666666666666668
300.0   30.0   0.0
300.0   0.0   16.666666666666668
350.0   30.0   16.666666666666668
350.0   0.0   16.666666666666668
350.0   0.0   0.0
300.0   0.0   16.666666666666668
350.0   30.0   16.666666666666668
350.0   0.0   0.0
300.0   30.0   0.0
300.0   0.0   16.666666666666668
350.0   0.0   16.666666666666668
300.0   30.0   16.666666666666668
300.0   0.0   33.333333333333336
350.0   0.0   16.666666666666668
350.0   30.0   16.666666666666668
300.0   30.0   16.666666666666668
350.0   30.0   33.333333333333336
300.0   0.0   33.333333333333336
300.0   30.0   33.333333333333336
350.0   30.0   33.333333333333336
300.0   30.0   16.666666666666668
300.0   0.0   33.333333333333336
350.0   30.0   33.333333333333336
350.0   0.0   33.333333333333336
350.0   0.0   16.666666666666668
300.0   0.0   33.333333333333336
350.0   30.0   33.333333333333336
350.0   0.0   16.666666666666668
300.0   30.0   16.666666666666668
300.0   0.0   33.333333333333336
350.0   0.0   33.333333333333336
300.0   30.0   33.333333333333336
300.0   0.0   50.0
350.0   0.0   33.333333333333336
350.0   30.0   33.333333333333336
300.0   30.0   33.333333333333336
350.0   30.0   50.0
300.0   0.0   50.0
300.0   30.0   50.0
350.0   30.0   50.0
300.0   30.0   33.333333333333336
300.0   0.0   50.0
350.0   30.0   50.0
350.0   0.0   50.0
350.0   0.0   33.333333333333336
300.0   0.0   50.0
350.0   30.0   50.0
350.0   0.0   33.333333333333336
300.0   30.0   33.333333333333336
300.0   30.0   0.0
350.0   30.0   0.0
300.0   60.0   0.0
300.0   30.0   16.666666666666668
350.0   30.0   0.0
350.0   60.0   0.0
300.0   60.0   0.0
350.0   60.0   16.666666666666668
300.0   30.0   16.666666666666668
300.0   60.0   16.666666666666668
350.0   60.0   16.666666666666668
300.0   60.0   0.0
300.0   30.0   16.666666666666668
350.0   60.0   16.666666666666668
350.0   30.0   16.666666666666668
350.0   30.0   0.0
300.0   30.0   16.666666666666668
350.0   60.0   16.666666666666668
350.0   30.0   0.0
300.0   60.0   0.0
300.0   30.0   16.666666666666668
350.0   30.0   16.666666666666668
300.0   60.0   16.666666666666668
300.0   30.0   33.333333333333336
350.0   30.0   16.666666666666668
350.0   60.0   16.666666666666668
300.0   60.0   16.666666666666668
350.0   60.0   33.333333333333336
300.0   30.0   33.333333333333336
300.0   60.0   33.333333333333336
350.0   60.0   33.333333333333336
300.0   60.0   16.666666666666668
300.0   30.0   33.333333333333336
350.0   60.0   33.333333333333336
350.0   30.0   33.333333333333336
350.0   30.0   16.666666666666668
300.0   30.0   33.333333333333336
350.0   60.0   33.333333333333336
350.0   30.0   16.666666666666668
300.0   60.0   16.666666666666668
300.0   30.0   33.333333333333336
350.0   30.0   33.333333333333336
300.0   60.0   33.333333333333336
300.0   30.0   50.0
350.0   30.0   33.333333333333336
350.0   60.0   33.333333333333336
300.0   60.0   33.333333333333336
350.0   60.0   50.0
300.0   30.0   50.0
300.0   60.0   50.0
350.0   60.0   50.0
300.0   60.0   33.333333333333336
300.0   30.0   50.0
350.0   60.0   50.0
350.0   30.0   50.0
350.0   30.0   33.333333333333336
300.0   30.0   50.0
350.0   60.0   50.0
350.0   30.0   33.333333333333336
300.0   60.0   33.333333333333336
300.0   60.0   0.0
350.0   60.0   0.0
300.0   90.0   0.0
300.0   60.0   16.666666666666668
350.0   60.0   0.0
350.0   90.0   0.0
300.0   90.0   0.0
350.0   90.0   16.666666666666668
300.0   60.0   16.666666666666668
300.0   90.0   16.666666666666668
350.0   90.0   16.666666666666668
300.0   90.0   0.0
300.0   60.0   16.666666666666668
350.0   90.0   16.666666666666668
350.0   60.0   16.666666666666668
350.0   60.0   0.0
300.0   60.0   16.666666666666668
350.0   90.0   16.666666666666668
350.0   60.0   0.0
300.0   90.0   0.0
300.0   60.0   16.666666666666668
350.0   60.0   16.666666666666668
300.0   90.0   16.666666666666668
300.0   60.0   33.333333333333336
350.0   60.0   16.666666666666668
350.0   90.0   16.666666666666668
300.0   90.0   16.666666666666668
350.0   90.0   33.333333333333336
300.0   60.0   33.333333333333336
300.0   90.0   33.333333333333336
350.0   90.0   33.333333333333336
300.0   90.0   16.666666666666668
300.0   60.0   33.333333333333336
350.0   90.0   33.333333333333336
350.0   60.0   33.333333333333336
350.0   60.0   16.666666666666668
300.0   60.0   33.333333333333336
350.0   90.0   33.333333333333336
350.0   60.0   16.666666666666668
300.0   90.0   16.666666666666668
300.0   60.0   33.333333333333336
350.0   60.0   33.333333333333336
300.0   90.0   33.333333333333336
300.0   60.0   50.0
350.0   60.0   33.333333333333336
350.0   90.0   33.333333333333336
300.0   90.0   33.333333333333336
350.0   90.0   50.0
300.0   60.0   50.0
300.0   90.0   50.0
350.0   90.0   50.0
300.0   90.0   33.333333333333336
300.0   60.0   50.0
350.0   90.0   50.0
350.0   60.0   50.0
350.0   60.0   33.333333333333336
300.0   60.0   50.0
350.0   90.0   50.0
350.0   60.0   33.333333333333336
300.0   90.0   33.333333333333336
300.0   90.0   0.0
350.0   90.0   0.0
300.0   120.0   0.0
300.0   90.0   16.666666666666668
350.0   90.0   0.0
350.0   120.0   0.0
300.0   120.0   0.0
350.0   120.0   16.666666666666668
300.0   90.0   16.666666666666668
300.0   120.0   16.666666666666668
350.0   120.0   16.666666666666668
300.0   120.0   0.0
300.0   90.0   16.666666666666668
350.0   120.0   16.666666666666668
350.0   90.0   16.666666666666668
350.0   90.0   0.0
300.0   90.0   16.666666666666668
350.0   120.0   16.666666666666668
350.0   90.0   0.0
300.0   120.0   0.0
300.0   90.0   16.666666666666668
350.0   90.0   16.666666666666668
300.0   120.0   16.666666666666668
300.0   90.0   33.333333333333336
350.0   90.0   16.666666666666668
350.0   120.0   16.666666666666668
300.0   120.0   16.666666666666668
350.0   120.0   33.333333333333336
300.0   90.0   33.333333333333336
300.0   120.0   33.333333333333336
350.0   120.0   33.333333333333336
300.0   120.0   16.666666666666668
300.0   90.0   33.333333333333336
350.0   120.0   33.333333333333336
350.0   90.0   33.333333333333336
350.0   90.0   16.666666666666668
300.0   90.0   33.333333333333336
350.0   120.0   33.333333333333336
350.0   90.0   16.666666666666668
300.0   120.0   16.666666666666668
300.0   90.0   33.333333333333336
350.0   90.0   33.333333333333336
300.0   120.0   33.333333333333336
300.0   90.0   50.0
350.0   90.0   33.333333333333336
350.0   120.0   33.333333333333336
300.0   120.0   33.333333333333336
350.0   120.0   50.0
300.0   90.0   50.0
300.0   120.0   50.0
350.0   120.0   50.0
300.0   120.0   33.333333333333336
300.0   90.0   50.0
350.0   120.0   50.0
350.0   90.0   50.0
350.0   90.0   33.333333333333336
300.0   90.0   50.0
350.0   120.0   50.0
350.0   90.0   33.333333333333336
300.0   120.0   33.333333333333336
300.0   120.0   0.0
350.0   120.0   0.0
300.0   150.0   0.0
300.0   120.0   16.666666666666668
350.0   120.0   0.0
350.0   150.0   0.0
300.0   150.0   0.0
350.0   150.0   16.666666666666668
300.0   120.0   16.666666666666668
300.0   150.0   16.666666666666668
350.0   150.0   16.666666666666668
300.0   150.0   0.0
300.0   120.0   16.666666666666668
350.0   150.0   16.666666666666668
350.0   120.0   16.666666666666668
350.0   120.0   0.0
300.0   120.0   16.666666666666668
350.0   150.0   16.666666666666668
350.0   120.0   0.0
300.0   150.0   0.0
300.0   120.0   16.666666666666668
350.0   120.0   16.666666666666668
300.0   150.0   16.666666666666668
300.0   120.0   33.333333333333336
350.0   120.0   16.666666666666668
350.0   150.0   16.666666666666668
300.0   150.0   16.666666666666668
350.0   150.0   33.333333333333336
300.0   120.0   33.333333333333336
300.0   150.0   33.333333333333336
350.0   150.0   33.333333333333336
300.0   150.0   16.666666666666668
300.0   120.0   33.333333333333336
350.0   150.0   33.333333333333336
350.0   120.0   33.333333333333336
350.0   120.0   16.666666666666668
300.0   120.0   33.333333333333336
350.0   150.0   33.333333333333336
350.0   120.0   16.666666666666668
300.0   150.0   16.666666666666668
300.0   120.0   33.333333333333336
350.0   120.0   33.333333333333336
300.0   150.0   33.333333333333336
300.0   120.0   50.0
350.0   120.0   33.333333333333336
350.0   150.0   33.333333333333336
300.0   150.0   33.333333333333336
350.0   150.0   50.0
300.0   120.0   50.0
300.0   150.0   50.0
350.0   150.0   50.0
300.0   150.0   33.333333333333336
300.0   120.0   50.0
350.0   150.0   50.0
350.0   120.0   50.0
350.0   120.0   33.333333333333336
300.0   120.0   50.0
350.0   150.0   50.0
350.0   120.0   33.333333333333336
300.0   150.0   33.333333333333336
350.0   0.0   0.0
400.0   0.0   0.0
350.0   30.0   0.0
350.0   0.0   16.666666666666668
400.0   0.0   0.0
400.0   30.0   0.0
350.0   30.0   0.0
400.0   30.0   16.666666666666668
350.0   0.0   16.666666666666668
350.0   30.0   16.666666666666668
400.0   30.0   16.666666666666668
350.0   30.0   0.0
350.0   0.0   16.666666666666668
400.0   30.0   16.666666666666668
400.0   0.0   16.666666666666668
400.0   0.0   0.0
350.0   0.0   16.666666666666668
400.0   30.0   16.666666666666668
400.0   0.0   0.0
350.0   30.0   0.0
350.0   0.0   16.666666666666668
400.0   0.0   16.666666666666668
350.0   30.0   16.666666666666668
350.0   0.0   33.333333333333336
400.0   0.0   16.666666666666668
400.0   30.0   16.666666666666668
350.0   30.0   16.666666666666668
400.0   30.0   33.333333333333336
350.0   0.0   33.333333333333336
350.0   30.0   33.333333333333336
400.0   30.0   33.333333333333336
350.0   30.0   16.666666666666668
350.0   0.0   33.333333333333336
400.0   30.0   33.333333333333336
400.0   0.0   33.333333333333336
400.0   0.0   16.666666666666668
350.0   0.0   33.333333333333336
400.0   30.0   33.333333333333336
400.0   0.0   16.666666666666668
350.0   30.0   16.666666666666668
350.0   0.0   33.333333333333336
400.0   0.0   33.333333333333336
350.0   30.0   33.333333333333336
350.0   0.0   50.0
400.0   0.0   33.333333333333336
400.0   30.0   33.333333333333336
350.0   30.0   33.333333333333336
400.0   30.0   50.0
350.0   0.0   50.0
350.0   30.0   50.0
400.0   30.0   50.0
350.0   30.0   33.333333333333336
350.0   0.0   50.0
400.0   30.0   50.0
400.0   0.0   50.0
400.0   0.0   33.333333333333336
350.0   0.0   50.0
400.0   30.0   50.0
400.0   0.0   33.333333333333336
350.0   30.0   33.333333333333336
350.0   30.0   0.0
400.0   30.0   0.0
350.0   60.0   0.0
350.0   30.0   16.666666666666668
400.0   30.0   0.0
400.0   60.0   0.0
350.0   60.0   0.0
400.0   60.0   16.666666666666668
350.0   30.0   16.666666666666668
350.0   60.0   16.666666666666668
400.0   60.0   16.666666666666668
350.0   60.0   0.0
350.0   30.0   16.666666666666668
400.0   60.0   16.666666666666668
400.0   30.0   16.666666666666668
400.0   30.0   0.0
350.0   30.0   16.666666666666668
400.0   60.0   16.666666666666668
400.0   30.0   0.0
350.0   60.0   0.0
350.0   30.0   16.666666666666668
400.0   30.0   16.666666666666668
350.0   60.0   16.666666666666668
350.0   30.0   33.333333333333336
400.0   30.0   16.666666666666668
400.0   60.0   16.666666666666668
350.0   60.0   16.666666666666668
400.0   60.0   33.333333333333336
350.0   30.0   33.333333333333336
350.0   60.0   33.333333333333336
400.0   60.0   33.333333333333336
350.0   60.0   16.666666666666668
350.0   30.0   33.333333333333336
400.0   60.0   33.333333333333336
400.0   30.0   33.333333333333336
400.0   30.0   16.666666666666668
350.0   30.0   33.333333333333336
400.0   60.0   33.333333333333336
400.0   30.0   16.666666666666668
350.0   60.0   16.666666666666668
350.0   30.0   33.333333333333336
400.0   30.0   33.333333333333336
350.0   60.0   33.333333333333336
350.0   30.0   50.0
400.0   30.0   33.333333333333336
400.0   60.0   33.333333333333336
350.0   60.0   33.333333333333336
400.0   60.0   50.0
350.0   30.0   50.0
350.0   60.0   50.0
400.0   60.0   50.0
350.0   60.0   33.333333333333336
350.0   30.0   50.0
400.0   60.0   50.0
400.0   30.0   50.0
400.0   30.0   33.333333333333336
350.0   30.0   50.0
400.0   60.0   50.0
400.0   30.0   33.333333333333336
350.0   60.0   33.333333333333336
350.0   60.0   0.0
400.0   60.0   0.0
350.0   90.0   0.0
350.0   60.0   16.666666666666668
400.0   60.0   0.0
400.0   90.0   0.0
350.0   90.0   0.0
400.0   90.0   16.666666666666668
350.0   60.0   16.666666666666668
350.0   90.0   16.666666666666668
400.0   90.0   16.666666666666668
350.0   90.0   0.0
350.0   60.0   16.666666666666668
400.0   90.0   16.666666666666668
400.0   60.0   16.666666666666668
400.0   60.0   0.0
350.0   60.0   16.666666666666668
400.0   90.0   16.666666666666668
400.0   60.0   0.0
350.0   90.0   0.0
350.0   60.0   16.666666666666668
400.0   60.0   16.666666666666668
350.0   90.0   16.666666666666668
350.0   60.0   33.333333333333336
400.0   60.0   16.666666666666668
400.0   90.0   16.666666666666668
350.0   90.0   16.666666666666668
400.0   90.0   33.333333333333336
350.0   60.0   33.333333333333336
350.0   90.0   33.333333333333336
400.0   90.0   33.333333333333336
350.0   90.0   16.666666666666668
350.0   60.0   33.333333333333336
400.0   90.0   33.333333333333336
400.0   60.0   33.333333333333336
400.0   60.0   16.666666666666668
350.0   60.0   33.333333333333336
400.0   90.0   33.333333333333336
400.0   60.0   16.666666666666668
350.0   90.0   16.666666666666668
350.0   60.0   33.333333333333336
400.0   60.0   33.333333333333336
350.0   90.0   33.333333333333336
350.0   60.0   50.0
400.0   60.0   33.333333333333336
400.0   90.0   33.333333333333336
350.0   90.0   33.333333333333336
400.0   90.0   50.0
350.0   60.0   50.0
350.0   90.0   50.0
400.0   90.0   50.0
350.0   90.0   33.333333333333336
350.0   60.0   50.0
400.0   90.0   50.0
400.0   60.0   50.0
400.0   60.0   33.333333333333336
350.0   60.0   50.0
400.0   90.0   50.0
400.0   60.0   33.333333333333336
350.0   90.0   33.333333333333336
350.0   90.0   0.0
400.0   90.0   0.0
350.0   120.0   0.0
350.0   90.0   16.666666666666668
400.0   90.0   0.0
400.0   120.0   0.0
350.0   120.0   0.0
400.0   120.0   16.666666666666668
350.0   90.0   16.666666666666668
350.0   120.0   16.666666666666668
400.0   120.0   16.666666666666668
350.0   120.0   0.0
350.0   90.0   16.666666666666668
400.0   120.0   16.666666666666668
400.0   90.0   16.666666666666668
400.0   90.0   0.0
350.0   90.0   16.666666666666668
400.0   120.0   16.666666666666668
400.0   90.0   0.0
350.0   120.0   0.0
350.0   90.0   16.666666666666668
400.0   90.0   16.666666666666668
350.0   120.0   16.666666666666668
350.0   90.0   33.333333333333336
400.0   90.0   16.666666666666668
400.0   120.0   16.666666666666668
350.0   120.0   16.666666666666668
400.0   120.0   33.333333333333336
350.0   90.0   33.333333333333336
350.0   120.0   33.333333333333336
400.0   120.0   33.333333333333336
350.0   120.0   16.666666666666668
350.0   90.0   33.333333333333336
400.0   120.0   33.333333333333336
400.0   90.0   33.333333333333336
400.0   90.0   16.666666666666668
350.0   90.0   33.333333333333336
400.0   120.0   33.333333333333336
400.0   90.0   16.666666666666668
350.0   120.0   16.666666666666668
350.0   90.0   33.333333333333336
400.0   90.0   33.333333333333336
350.0   120.0   33.333333333333336
350.0   90.0   50.0
400.0   90.0   33.333333333333336
400.0   120.0   33.333333333333336
350.0   120.0   33.333333333333336
400.0   120.0   50.0
350.0   90.0   50.0
350.0   120.0   50.0
400.0   120.0   50.0
350.0   120.0   33.333333333333336
350.0   90.0   50.0
400.0   120.0   50.0
400.0   90.0   50.0
400.0   90.0   33.333333333333336
350.0   90.0   50.0
400.0   120.0   50.0
400.0   90.0   33.333333333333336
350.0   120.0   33.333333333333336
350.0   120.0   0.0
400.0   120.0   0.0
350.0   150.0   0.0
350.0   120.0   16.666666666666668
400.0   120.0   0.0
400.0   150.0   0.0
350.0   150.0   0.0
400.0   150.0   16.666666666666668
350.0   120.0   16.666666666666668
350.0   150.0   16.666666666666668
400.0   150.0   16.666666666666668
350.0   150.0   0.0
350.0   120.0   16.666666666666668
400.0   150.0   16.666666666666668
400.0   120.0   16.666666666666668
400.0   120.0   0.0
350.0   120.0   16.666666666666668
400.0   150.0   16.666666666666668
400.0   120.0   0.0
350.0   150.0   0.0
350.0   120.0   16.666666666666668
400.0   120.0   16.666666666666668
350.0   150.0   16.666666666666668
350.0   120.0   33.333333333333336
400.0   120.0   16.666666666666668
400.0   150.0   16.666666666666668
350.0   150.0   16.666666666666668
400.0   150.0   33.333333333333336
350.0   120.0   33.333333333333336
350.0   150.0   33.333333333333336
400.0   150.0   33.333333333333336
350.0   150.0   16.666666666666668
350.0   120.0   33.333333333333336
400.0   150.0   33.333333333333336
400.0   120.0   33.333333333333336
400.0   120.0   16.666666666666668
350.0   120.0   33.333333333333336
400.0   150.0   33.333333333333336
400.0   120.0   16.666666666666668
350.0   150.0   16.666666666666668
350.0   120.0   33.333333333333336
400.0   120.0   33.333333333333336
350.0   150.0   33.333333333333336
350.0   120.0   50.0
400.0   120.0   33.333333333333336
400.0   150.0   33.333333333333336
350.0   150.0   33.333333333333336
400.0   150.0   50.0
350.0   120.0   50.0
350.0   150.0   50.0
400.0   150.0   50.0
350.0   150.0   33.333333333333336
350.0   120.0   50.0
400.0   150.0   50.0
400.0   120.0   50.0
400.0   120.0   33.333333333333336
350.0   120.0   50.0
400.0   150.0   50.0
400.0   120.0   33.333333333333336
350.0   150.0   33.333333333333336
400.0   0.0   0.0
450.0   0.0   0.0
400.0   30.0   0.0
400.0   0.0   16.666666666666668
450.0   0.0   0.0
450.0   30.0   0.0
400.0   30.0   0.0
450.0   30.0   16.666666666666668
400.0   0.0   16.666666666666668
400.0   30.0   16.666666666666668
450.0   30.0   16.666666666666668
400.0   30.0   0.0
400.0   0.0   16.666666666666668
450.0   30.0   16.666666666666668
450.0   0.0   16.666666666666668
450.0   0.0   0.0
400.0   0.0   16.666666666666668
450.0   30.0   16.666666666666668
450.0   0.0   0.0
400.0   30.0   0.0
400.0   0.0   16.666666666666668
450.0   0.0   16.666666666666668
400.0   30.0   16.666666666666668
400.0   0.0   33.333333333333336
450.0   0.0   16.666666666666668
450.0   30.0   16.666666666666668
400.0   30.0   16.666666666666668
450.0   30.0   33.333333333333336
400.0   0.0   33.333333333333336
400.0   30.0   33.333333333333336
450.0   30.0   33.333333333333336
400.0   30.0   16.666666666666668
400.0   0.0   33.333333333333336
450.0   30.0   33.333333333333336
450.0   0.0   33.333333333333336
450.0   0.0   16.666666666666668
400.0   0.0   33.333333333333336
450.0   30.0   33.333333333333336
450.0   0.0   16.666666666666668
400.0   30.0   16.666666666666668
400.0   0.0   33.333333333333336
450.0   0.0   33.333333333333336
400.0   30.0   33.333333333333336
400.0   0.0   50.0
450.0   0.0   33.333333333333336
450.0   30.0   33.333333333333336
400.0   30.0   33.333333333333336
450.0   30.0   50.0
400.0   0.0   50.0
400.0   30.0   50.0
450.0   30.0   50.0
400.0   30.0   33.333333333333336
400.0   0.0   50.0
450.0   30.0   50.0
450.0   0.0   50.0
450.0   0.0   33.333333333333336
400.0   0.0   50.0
450.0   30.0   50.0
450.0   0.0   33.333333333333336
400.0   30.0   33.333333333333336
400.0   30.0   0.0
450.0   30.0   0.0
400.0   60.0   0.0
400.0   30.0   16.666666666666668
450.0   30.0   0.0
450.0   60.0   0.0
400.0   60.0   0.0
450.0   60.0   16.666666666666668
400.0   30.0   16.666666666666668
400.0   60.0   16.666666666666668
450.0   60.0   16.666666666666668
400.0   60.0   0.0
400.0   30.0   16.666666666666668
450.0   60.0   16.666666666666668
450.0   30.0   16.666666666666668
450.0   30.0   0.0
400.0   30.0   16.666666666666668
450.0   60.0   16.666666666666668
450.0   30.0   0.0
400.0   60.0   0.0
400.0   30.0   16.666666666666668
450.0   30.0   16.666666666666668
400.0   60.0   16.666666666666668
400.0   30.0   33.333333333333336
450.0   30.0   16.666666666666668
450.0   60.0   16.666666666666668
400.0   60.0   16.666666666666668
450.0   60.0   33.333333333333336
400.0   30.0   33.333333333333336
400.0   60.0   33.333333333333336
450.0   60.0   33.333333333333336
400.0   60.0   16.666666666666668
400.0   30.0   33.333333333333336
450.0   60.0   33.333333333333336
450.0   30.0   33.333333333333336
450.0   30.0   16.666666666666668
400.0   30.0   33.333333333333336
450.0   60.0   33.333333333333336
450.0   30.0   16.666666666666668
400.0   60.0   16.666666666666668
400.0   30.0   33.333333333333336
450.0   30.0   33.333333333333336
400.0   60.0   33.333333333333336
400.0   30.0   50.0
450.0   30.0   33.333333333333336
450.0   60.0   33.333333333333336
400.0   60.0   33.333333333333336
450.0   60.0   50.0
400.0   30.0   50.0
400.0   60.0   50.0
450.0   60.0   50.0
400.0   60.0   33.333333333333336
400.0   30.0   50.0
450.0   60.0   50.0
450.0   30.0   50.0
450.0   30.0   33.333333333333336
400.0   30.0   50.0
450.0   60.0   50.0
450.0   30.0   33.333333333333336
400.0   60.0   33.333333333333336
400.0   60.0   0.0
450.0   60.0   0.0
400.0   90.0   0.0
400.0   60.0   16.666666666666668
450.0   60.0   0.0
450.0   90.0   0.0
400.0   90.0   0.0
450.0   90.0   16.666666666666668
400.0   60.0   16.666666666666668
400.0   90.0   16.666666666666668
450.0   90.0   16.666666666666668
400.0   90.0   0.0
400.0   60.0   16.666666666666668
450.0   90.0   16.666666666666668
450.0   60.0   16.666666666666668
450.0   60.0   0.0
400.0   60.0   16.666666666666668
450.0   90.0   16.666666666666668
450.0   60.0   0.0
400.0   90.0   0.0
400.0   60.0   16.666666666666668
450.0   60.0   16.666666666666668
400.0   90.0   16.666666666666668
400.0   60.0   33.333333333333336
450.0   60.0   16.666666666666668
450.0   90.0   16.666666666666668
400.0   90.0   16.666666666666668
450.0   90.0   33.333333333333336
400.0   60.0   33.333333333333336
400.0   90.0   33.333333333333336
450.0   90.0   33.333333333333336
400.0   90.0   16.666666666666668
400.0   60.0   33.333333333333336
450.0   90.0   33.333333333333336
450.0   60.0   33.333333333333336
450.0   60.0   16.666666666666668
400.0   60.0   33.333333333333336
450.0   90.0   33.333333333333336
450.0   60.0   16.666666666666668
400.0   90.0   16.666666666666668
400.0   60.0   33.333333333333336
450.0   60.0   33.333333333333336
400.0   90.0   33.333333333333336
400.0   60.0   50.0
450.0   60.0   33.333333333333336
450.0   90.0   33.333333333333336
400.0   90.0   33.333333333333336
450.0   90.0   50.0
400.0   60.0   50.0
400.0   90.0   50.0
450.0   90.0   50.0
400.0   90.0   33.333333333333336
400.0   60.0   50.0
450.0   90.0   50.0
450.0   60.0   50.0
450.0   60.0   33.333333333333336
400.0   60.0   50.0
450.0   90.0   50.0
450.0   60.0   33.333333333333336
400.0   90.0   33.333333333333336
400.0   90.0   0.0
450.0   90.0   0.0
400.0   120.0   0.0
400.0   90.0   16.666666666666668
450.0   90.0   0.0
450.0   120.0   0.0
400.0   120.0   0.0
450.0   120.0   16.666666666666668
400.0   90.0   16.666666666666668
400.0   120.0   16.666666666666668
450.0   120.0   16.666666666666668
400.0   120.0   0.0
400.0   90.0   16.666666666666668
450.0   120.0   16.666666666666668
450.0   90.0   16.666666666666668
450.0   90.0   0.0
400.0   90.0   16.666666666666668
450.0   120.0   16.666666666666668
450.0   90.0   0.0
400.0   120.0   0.0
400.0   90.0   16.666666666666668
450.0   90.0   16.666666666666668
400.0   120.0   16.666666666666668
400.0   90.0   33.333333333333336
450.0   90.0   16.666666666666668
450.0   120.0   16.666666666666668
400.0   120.0   16.666666666666668
450.0   120.0   33.333333333333336
400.0   90.0   33.333333333333336
400.0   120.0   33.333333333333336
450.0   120.0   33.333333333333336
400.0   120.0   16.666666666666668
400.0   90.0   33.333333333333336
450.0   120.0   33.333333333333336
450.0   90.0   33.333333333333336
450.0   90.0   16.666666666666668
400.0   90.0   33.333333333333336
450.0   120.0   33.333333333333336
450.0   90.0   16.666666666666668
400.0   120.0   16.666666666666668
400.0   90.0   33.333333333333336
450.0   90.0   33.333333333333336
400.0   120.0   33.333333333333336
400.0   90.0   50.0
450.0   90.0   33.333333333333336
450.0   120.0   33.333333333333336
400.0   120.0   33.333333333333336
450.0   120.0   50.0
400.0   90.0   50.0
400.0   120.0   50.0
450.0   120.0   50.0
400.0   120.0   33.333333333333336
400.0   90.0   50.0
450.0   120.0   50.0
450.0   90.0   50.0
450.0   90.0   33.333333333333336
400.0   90.0   50.0
450.0   120.0   50.0
450.0   90.0   33.333333333333336
400.0   120.0   33.333333333333336
400.0   120.0   0.0
450.0   120.0   0.0
400.0   150.0   0.0
400.0   120.0   16.666666666666668
450.0   120.0   0.0
450.0   150.0   0.0
400.0   150.0   0.0
450.0   150.0   16.666666666666668
400.0   120.0   16.666666666666668
400.0   150.0   16.666666666666668
450.0   150.0   16.666666666666668
400.0   150.0   0.0
400.0   120.0   16.666666666666668
450.0   150.0   16.666666666666668
450.0   120.0   16.666666666666668
450.0   120.0   0.0
400.0   120.0   16.666666666666668
450.0   150.0   16.666666666666668
450.0   120.0   0.0
400.0   150.0   0.0
400.0   120.0   16.666666666666668
450.0   120.0   16.666666666666668
400.0   150.0   16.666666666666668
400.0   120.0   33.333333333333336
450.0   120.0   16.666666666666668
450.0   150.0   16.666666666666668
400.0   150.0   16.666666666666668
450.0   150.0   33.333333333333336
400.0   120.0   33.333333333333336
400.0   150.0   33.333333333333336
450.0   150.0   33.333333333333336
400.0   150.0   16.666666666666668
400.0   120.0   33.333333333333336
450.0   150.0   33.333333333333336
450.0   120.0   33.333333333333336
450.0   120.0   16.666666666666668
400.0   120.0   33.333333333333336
450.0   150.0   33.333333333333336
450.0   120.0   16.666666666666668
400.0   150.0   16.666666666666668
400.0   120.0   33.333333333333336
450.0   120.0   33.333333333333336
400.0   150.0   33.333333333333336
400.0   120.0   50.0
450.0   120.0   33.333333333333336
450.0   150.0   33.333333333333336
400.0   150.0   33.333333333333336
450.0   150.0   50.0
400.0   120.0   50.0
400.0   150.0   50.0
450.0   150.0   50.0
400.0   150.0   33.333333333333336
400.0   120.0   50.0
450.0   150.0   50.0
450.0   120.0   50.0
450.0   120.0   33.333333333333336
400.0   120.0   50.0
450.0   150.0   50.0
450.0   120.0   33.333333333333336
400.0   150.0   33.333333333333336
450.0   0.0   0.0
500.0   0.0   0.0
450.0   30.0   0.0
450.0   0.0   16.666666666666668
500.0   0.0   0.0
500.0   30.0   0.0
450.0   30.0   0.0
500.0   30.0   16.666666666666668
450.0   0.0   16.666666666666668
450.0   30.0   16.666666666666668
500.0   30.0   16.666666666666668
450.0   30.0   0.0
450.0   0.0   16.666666666666668
500.0   30.0   16.666666666666668
500.0   0.0   16.666666666666668
500.0   0.0   0.0
450.0   0.0   16.666666666666668
500.0   30.0   16.666666666666668
500.0   0.0   0.0
450.0   30.0   0.0
450.0   0.0   16.666666666666668
500.0   0.0   16.666666666666668
450.0   30.0   16.666666666666668
450.0   0.0   33.333333333333336
500.0   0.0   16.666666666666668
500.0   30.0   16.666666666666668
450.0   30.0   16.666666666666668
500.0   30.0   33.333333333333336
450.0   0.0   33.333333333333336
450.0   30.0   33.333333333333336
500.0   30.0   33.333333333333336
450.0   30.0   16.666666666666668
450.0   0.0   33.333333333333336
500.0   30.0   33.333333333333336
500.0   0.0   33.333333333333336
500.0   0.0   16.666666666666668
450.0   0.0   33.333333333333336
500.0   30.0   33.333333333333336
500.0   0.0   16.666666666666668
450.0   30.0   16.666666666666668
450.0   0.0   33.333333333333336
500.0   0.0   33.333333333333336
450.0   30.0   33.333333333333336
450.0   0.0   50.0
500.0   0.0   33.333333333333336
500.0   30.0   33.333333333333336
450.0   30.0   33.333333333333336
500.0   30.0   50.0
450.0   0.0   50.0
450.0   30.0   50.0
500.0   30.0   50.0
450.0   30.0   33.333333333333336
450.0   0.0   50.0
500.0   30.0   50.0
500.0   0.0   50.0
500.0   0.0   33.333333333333336
450.0   0.0   50.0
500.0   30.0   50.0
500.0   0.0   33.333333333333336
450.0   30.0   33.333333333333336
450.0   30.0   0.0
500.0   30.0   0.0
450.0   60.0   0.0
450.0   30.0   16.666666666666668
500.0   30.0   0.0
500.0   60.0   0.0
450.0   60.0   0.0
500.0   60.0   16.666666666666668
450.0   30.0   16.666666666666668
450.0   60.0   16.666666666666668
500.0   60.0   16.666666666666668
450.0   60.0   0.0
450.0   30.0   16.666666666666668
500.0   60.0   16.666666666666668
500.0   30.0   16.666666666666668
500.0   30.0   0.0
450.0   30.0   16.666666666666668
500.0   60.0   16.666666666666668
500.0   30.0   0.0
450.0   60.0   0.0
450.0   30.0   16.666666666666668
500.0   30.0   16.666666666666668
450.0   60.0   16.666666666666668
450.0   30.0   33.333333333333336
500.0   30.0   16.666666666666668
500.0   60.0   16.666666666666668
450.0   60.0   16.666666666666668
500.0   60.0   33.333333333333336
450.0   30.0   33.333333333333336
450.0   60.0   33.333333333333336
500.0   60.0   33.333333333333336
450.0   60.0   16.666666666666668
450.0   30.0   33.333333333333336
500.0   60.0   33.333333333333336
500.0   30.0   33.333333333333336
500.0   30.0   16.666666666666668
450.0   30.0   33.333333333333336
500.0   60.0   33.333333333333336
500.0   30.0   16.666666666666668
450.0   60.0   16.666666666666668
450.0   30.0   33.333333333333336
500.0   30.0   33.333333333333336
450.0   60.0   33.333333333333336
450.0   30.0   50.0
500.0   30.0   33.333333333333336
500.0   60.0   33.333333333333336
450.0   60.0   33.333333333333336
500.0   60.0   50.0
450.0   30.0   50.0
450.0   60.0   50.0
500.0   60.0   50.0
450.0   60.0   33.333333333333336
450.0   30.0   50.0
500.0   60.0   50.0
500.0   30.0   50.0
500.0   30.0   33.333333333333336
450.0   30.0   50.0
500.0   60.0   50.0
500.0   30.0   33.333333333333336
450.0   60.0   33.333333333333336
450.0   60.0   0.0
500.0   60.0   0.0
450.0   90.0   0.0
450.0   60.0   16.666666666666668
500.0   60.0   0.0
500.0   90.0   0.0
450.0   90.0   0.0
500.0   90.0   16.666666666666668
450.0   60.0   16.666666666666668
450.0   90.0   16.666666666666668
500.0   90.0   16.666666666666668
450.0   90.0   0.0
450.0   60.0   16.666666666666668
500.0   90.0   16.666666666666668
500.0   60.0   16.666666666666668
500.0   60.0   0.0
450.0   60.0   16.666666666666668
500.0   90.0   16.666666666666668
500.0   60.0   0.0
450.0   90.0   0.0
450.0   60.0   16.666666666666668
500.0   60.0   16.666666666666668
450.0   90.0   16.666666666666668
450.0   60.0   33.333333333333336
500.0   60.0   16.666666666666668
500.0   90.0   16.666666666666668
450.0   90.0   16.666666666666668
500.0   90.0   33.333333333333336
450.0   60.0   33.333333333333336
450.0   90.0   33.333333333333336
500.0   90.0   33.333333333333336
450.0   90.0   16.666666666666668
450.0   60.0   33.333333333333336
500.0   90.0   33.333333333333336
500.0   60.0   33.333333333333336
500.0   60.0   16.666666666666668
450.0   60.0   33.333333333333336
500.0   90.0   33.333333333333336
500.0   60.0   16.666666666666668
450.0   90.0   16.666666666666668
450.0   60.0   33.333333333333336
500.0   60.0   33.333333333333336
450.0   90.0   33.333333333333336
450.0   60.0   50.0
500.0   60.0   33.333333333333336
500.0   90.0   33.333333333333336
450.0   90.0   33.333333333333336
500.0   90.0   50.0
450.0   60.0   50.0
450.0   90.0   50.0
500.0   90.0   50.0
450.0   90.0   33.333333333333336
450.0   60.0   50.0
500.0   90.0   50.0
500.0   60.0   50.0
500.0   60.0   33.333333333333336
450.0   60.0   50.0
500.0   90.0   50.0
500.0   60.0   33.333333333333336
450.0   90.0   33.333333333333336
450.0   90.0   0.0
500.0   90.0   0.0
450.0   120.0   0.0
450.0   90.0   16.666666666666668
500.0   90.0   0.0
500.0   120.0   0.0
450.0   120.0   0.0
500.0   120.0   16.666666666666668
450.0   90.0   16.666666666666668
450.0   120.0   16.666666666666668
500.0   120.0   16.666666666666668
450.0   120.0   0.0
450.0   90.0   16.666666666666668
500.0   120.0   16.666666666666668
500.0   90.0   16.666666666666668
500.0   90.0   0.0
450.0   90.0   16.666666666666668
500.0   120.0   16.666666666666668
500.0   90.0   0.0
450.0   120.0   0.0
450.0   90.0   16.666666666666668
500.0   90.0   16.666666666666668
450.0   120.0   16.666666666666668
450.0   90.0   33.333333333333336
500.0   90.0   16.666666666666668
500.0   120.0   16.666666666666668
450.0   120.0   16.666666666666668
500.0   120.0   33.333333333333336
450.0   90.0   33.333333333333336
450.0   120.0   33.333333333333336
500.0   120.0   33.333333333333336
450.0   120.0   16.666666666666668
450.0   90.0   33.333333333333336
500.0   120.0   33.333333333333336
500.0   90.0   33.333333333333336
500.0   90.0   16.666666666666668
450.0   90.0   33.333333333333336
500.0   120.0   33.333333333333336
500.0   90.0   16.666666666666668
450.0   120.0   16.666666666666668
450.0   90.0   33.333333333333336
500.0   90.0   33.333333333333336
450.0   120.0   33.333333333333336
450.0   90.0   50.0
500.0   90.0   33.333333333333336
500.0   120.0   33.333333333333336
450.0   120.0   33.333333333333336
500.0   120.0   50.0
450.0   90.0   50.0
450.0   120.0   50.0
500.0   120.0   50.0
450.0   120.0   33.333333333333336
450.0   90.0   50.0
500.0   120.0   50.0
500.0   90.0   50.0
500.0   90.0   33.333333333333336
450.0   90.0   50.0
500.0   120.0   50.0
500.0   90.0   33.333333333333336
450.0   120.0   33.333333333333336
450.0   120.0   0.0
500.0   120.0   0.0
450.0   150.0   0.0
450.0   120.0   16.666666666666668
500.0   120.0   0.0
500.0   150.0   0.0
450.0   150.0   0.0
500.0   150.0   16.666666666666668
450.0   120.0   16.666666666666668
450.0   150.0   16.666666666666668
500.0   150.0   16.666666666666668
450.0   150.0   0.0
450.0   120.0   16.666666666666668
500.0   150.0   16.666666666666668
500.0   120.0   16.666666666666668
500.0   120.0   0.0
450.0   120.0   16.666666666666668
500.0   150.0   16.666666666666668
500.0   120.0   0.0
450.0   150.0   0.0
450.0   120.0   16.666666666666668
500.0   120.0   16.666666666666668
450.0   150.0   16.666666666666668
450.0   120.0   33.333333333333336
500.0   120.0   16.666666666666668
500.0   150.0   16.666666666666668
450.0   150.0   16.666666666666668
500.0   150.0   33.333333333333336
450.0   120.0   33.333333333333336
450.0   150.0   33.333333333333336
500.0   150.0   33.333333333333336
450.0   150.0   16.666666666666668
450.0   120.0   33.333333333333336
500.0   150.0   33.333333333333336
500.0   120.0   33.333333333333336
500.0   120.0   16.666666666666668
450.0   120.0   33.333333333333336
500.0   150.0   33.333333333333336
500.0   120.0   16.666666666666668
450.0   150.0   16.666666666666668
450.0   120.0   33.333333333333336
500.0   120.0   33.333333333333336
450.0   150.0   33.333333333333336
450.0   120.0   50.0
500.0   120.0   33.333333333333336
500.0   150.0   33.333333333333336
450.0   150.0   33.333333333333336
500.0   150.0   50.0
450.0   120.0   50.0
450.0   150.0   50.0
500.0   150.0   50.0
450.0   150.0   33.333333333333336
450.0   120.0   50.0
500.0   150.0   50.0
500.0   120.0   50.0
500.0   120.0   33.333333333333336
450.0   120.0   50.0
500.0   150.0   50.0
500.0   120.0   33.333333333333336
450.0   150.0   33.333333333333336
             </DataArray>   
          </Points>  
          <Cells>  
             <DataArray type="Int32" Name="connectivity" format="ascii">   
0   1   2   3
4   5   6   7
8   9   10   11
12   13   14   15
16   17   18   19
20   21   22   23
24   25   26   27
28   29   30   31
32   33   34   35
36   37   38   39
40   41   42   43
44   45   46   47
48   49   50   51
52   53   54   55
56   57   58   59
60   61   62   63
64   65   66   67
68   69   70   71
72   73   74   75
76   77   78   79
80   81   82   83
84   85   86   87
88   89   90   91
92   93   94   95
96   97   98   99
100   101   102   103
104   105   106   107
108   109   110   111
112   113   114   115
116   117   118   119
120   121   122   123
124   125   126   127
128   129   130   131
132   133   134   135
136   137   138   139
140   141   142   143
144   145   146   147
148   149   150   151
152   153   154   155
156   157   158   159
160   161   162   163
164   165   166   167
168   169   170   171
172   173   174   175
176   177   178   179
180   181   182   183
184   185   186   187
188   189   190   191
192   193   194   195
196   197   198   199
200   201   202   203
204   205   206   207
208   209   210   211
212   213   214   215
216   217   218   219
220   221   222   223
224   225   226   227
228   229   230   231
232   233   234   235
236   237   238   239
240   241   242   243
244   245   246   247
248   249   250   251
252   253   254   255
256   257   258   259
260   261   262   263
264   265   266   267
268   269   270   271
272   273   274   275
276   277   278   279
280   281   282   283
284   285   286   287
288   289   290   291
292   293   294   295
296   297   298   299
300   301   302   303
304   305   306   307
308   309   310   311
312   313   314   315
316   317   318   319
320   321   322   323
324   325   326   327
328   329   330   331
332   333   334   335
336   337   338   339
340   341   342   343
344   345   346   347
348   349   350   351
352   353   354   355
356   357   358   359
360   361   362   363
364   365   366   367
368   369   370   371
372   373   374   375
376   377   378   379
380   381   382   383
384   385   386   387
388   389   390   391
392   393   394   395
396   397   398   399
400   401   402   403
404   405   406   407
408   409   410   411
412   413   414   415
416   417   418   419
420   421   422   423
424   425   426   427
428   429   430   431
432   433   434   435
436   437   438   439
440   441   442   443
444   445   446   447
448   449   450   451
452   453   454   455
456   457   458   459
460   461   462   463
464   465   466   467
468   469   470   471
472   473   474   475
476   477   478   479
480   481   482   483
484   485   486   487
488   489   490   491
492   493   494   495
496   497   498   499
500   501   502   503
504   505   506   507
508   509   510   511
512   513   514   515
516   517   518   519
520   521   522   523
524   525   526   527
528   529   530   531
532   533   534   535
536   537   538   539
540   541   542   543
544   545   546   547
548   549   550   551
552   553   554   555
556   557   558   559
560   561   562   563
564   565   566   567
568   569   570   571
572   573   574   575
576   577   578   579
580   581   582   583
584   585   586   587
588   589   590   591
592   593   594   595
596   597   598   599
600   601   602   603
604   605   606   607
608   609   610   611
612   613   614   615
616   617   618   619
620   621   622   623
624   625   626   627
628   629   630   631
632   633   634   635
636   637   638   639
640   641   642   643
644   645   646   647
648   649   650   651
652   653   654   655
656   657   658   659
660   661   662   663
664   665   666   667
668   669   670   671
672   673   674   675
676   677   678   679
680   681   682   683
684   685   686   687
688   689   690   691
692   693   694   695
696   697   698   699
700   701   702   703
704   705   706   707
708   709   710   711
712   713   714   715
716   717   718   719
720   721   722   723
724   725   726   727
728   729   730   731
732   733   734   735
736   737   738   739
740   741   742   743
744   745   746   747
748   749   750   751
752   753   754   755
756   757   758   759
760   761   762   763
764   765   766   767
768   769   770   771
772   773   774   775
776   777   778   779
780   781   782   783
784   785   786   787
788   789   790   791
792   793   794   795
796   797   798   799
800   801   802   803
804   805   806   807
808   809   810   811
812   813   814   815
816   817   818   819
820   821   822   823
824   825   826   827
828   829   830   831
832   833   834   835
836   837   838   839
840   841   842   843
844   845   846   847
848   849   850   851
852   853   854   855
856   857   858   859
860   861   862   863
864   865   866   867
868   869   870   871
872   873   874   875
876   877   878   879
880   881   882   883
884   885   886   887
888   889   890   891
892   893   894   895
896   897   898   899
900   901   902   903
904   905   906   907
908   909   910   911
912   913   914   915
916   917   918   919
920   921   922   923
924   925   926   927
928   929   930   931
932   933   934   935
936   937   938   939
940   941   942   943
944   945   946   947
948   949   950   951
952   953   954   955
956   957   958   959
960   961   962   963
964   965   966   967
968   969   970   971
972   973   974   975
976   977   978   979
980   981   982   983
984   985   986   987
988   989   990   991
992   993   994   995
996   997   998   999
1000   1001   1002   1003
1004   1005   1006   1007
1008   1009   1010   1011
1012   1013   1014   1015
1016   1017   1018   1019
1020   1021   1022   1023
1024   1025   1026   1027
1028   1029   1030   1031
1032   1033   1034   1035
1036   1037   1038   1039
1040   1041   1042   1043
1044   1045   1046   1047
1048   1049   1050   1051
1052   1053   1054   1055
1056   1057   1058   1059
1060   1061   1062   1063
1064   1065   1066   1067
1068   1069   1070   1071
1072   1073   1074   1075
1076   1077   1078   1079
1080   1081   1082   1083
1084   1085   1086   1087
1088   1089   1090   1091
1092   1093   1094   1095
1096   1097   1098   1099
1100   1101   1102   1103
1104   1105   1106   1107
1108   1109   1110   1111
1112   1113   1114   1115
1116   1117   1118   1119
1120   1121   1122   1123
1124   1125   1126   1127
1128   1129   1130   1131
1132   1133   1134   1135
1136   1137   1138   1139
1140   1141   1142   1143
1144   1145   1146   1147
1148   1149   1150   1151
1152   1153   1154   1155
1156   1157   1158   1159
1160   1161   1162   1163
1164   1165   1166   1167
1168   1169   1170   1171
1172   1173   1174   1175
1176   1177   1178   1179
1180   1181   1182   1183
1184   1185   1186   1187
1188   1189   1190   1191
1192   1193   1194   1195
1196   1197   1198   1199
1200   1201   1202   1203
1204   1205   1206   1207
1208   1209   1210   1211
1212   1213   1214   1215
1216   1217   1218   1219
1220   1221   1222   1223
1224   1225   1226   1227
1228   1229   1230   1231
1232   1233   1234   1235
1236   1237   1238   1239
1240   1241   1242   1243
1244   1245   1246   1247
1248   1249   1250   1251
1252   1253   1254   1255
1256   1257   1258   1259
1260   1261   1262   1263
1264   1265   1266   1267
1268   1269   1270   1271
1272   1273   1274   1275
1276   1277   1278   1279
1280   1281   1282   1283
1284   1285   1286   1287
1288   1289   1290   1291
1292   1293   1294   1295
1296   1297   1298   1299
1300   1301   1302   1303
1304   1305   1306   1307
1308   1309   1310   1311
1312   1313   1314   1315
1316   1317   1318   1319
1320   1321   1322   1323
1324   1325   1326   1327
1328   1329   1330   1331
1332   1333   1334   1335
1336   1337   1338   1339
1340   1341   1342   1343
1344   1345   1346   1347
1348   1349   1350   1351
1352   1353   1354   1355
1356   1357   1358   1359
1360   1361   1362   1363
1364   1365   1366   1367
1368   1369   1370   1371
1372   1373   1374   1375
1376   1377   1378   1379
1380   1381   1382   1383
1384   1385   1386   1387
1388   1389   1390   1391
1392   1393   1394   1395
1396   1397   1398   1399
1400   1401   1402   1403
1404   1405   1406   1407
1408   1409   1410   1411
1412   1413   1414   1415
1416   1417   1418   1419
1420   1421   1422   1423
1424   1425   1426   1427
1428   1429   1430   1431
1432   1433   1434   1435
1436   1437   1438   1439
1440   1441   1442   1443
1444   1445   1446   1447
1448   1449   1450   1451
1452   1453   1454   1455
1456   1457   1458   1459
1460   1461   1462   1463
1464   1465   1466   1467
1468   1469   1470   1471
1472   1473   1474   1475
1476   1477   1478   1479
1480   1481   1482   1483
1484   1485   1486   1487
1488   1489   1490   1491
1492   1493   1494   1495
1496   1497   1498   1499
1500   1501   1502   1503
1504   1505   1506   1507
1508   1509   1510   1511
1512   1513   1514   1515
1516   1517   1518   1519
1520   1521   1522   1523
1524   1525   1526   1527
1528   1529   1530   1531
1532   1533   1534   1535
1536   1537   1538   1539
1540   1541   1542   1543
1544   1545   1546   1547
1548   1549   1550   1551
1552   1553   1554   1555
1556   1557   1558   1559
1560   1561   1562   1563
1564   1565   1566   1567
1568   1569   1570   1571
1572   1573   1574   1575
1576   1577   1578   1579
1580   1581   1582   1583
1584   1585   1586   1587
1588   1589   1590   1591
1592   1593   1594   1595
1596   1597   1598   1599
1600   1601   1602   1603
1604   1605   1606   1607
1608   1609   1610   1611
1612   1613   1614   1615
1616   1617   1618   1619
1620   1621   1622   1623
1624   1625   1626   1627
1628   1629   1630   1631
1632   1633   1634   1635
1636   1637   1638   1639
1640   1641   1642   1643
1644   1645   1646   1647
1648   1649   1650   1651
1652   1653   1654   1655
1656   1657   1658   1659
1660   1661   1662   1663
1664   1665   1666   1667
1668   1669   1670   1671
1672   1673   1674   1675
1676   1677   1678   1679
1680   1681   1682   1683
1684   1685   1686   1687
1688   1689   1690   1691
1692   1693   1694   1695
1696   1697   1698   1699
1700   1701   1702   1703
1704   1705   1706   1707
1708   1709   1710   1711
1712   1713   1714   1715
1716   1717   1718   1719
1720   1721   1722   1723
1724   1725   1726   1727
1728   1729   1730   1731
1732   1733   1734   1735
1736   1737   1738   1739
1740   1741   1742   1743
1744   1745   1746   1747
1748   1749   1750   1751
1752   1753   1754   1755
1756   1757   1758   1759
1760   1761   1762   1763
1764   1765   1766   1767
1768   1769   1770   1771
1772   1773   1774   1775
1776   1777   1778   1779
1780   1781   1782   1783
1784   1785   1786   1787
1788   1789   1790   1791
1792   1793   1794   1795
1796   1797   1798   1799
1800   1801   1802   1803
1804   1805   1806   1807
1808   1809   1810   1811
1812   1813   1814   1815
1816   1817   1818   1819
1820   1821   1822   1823
1824   1825   1826   1827
1828   1829   1830   1831
1832   1833   1834   1835
1836   1837   1838   1839
1840   1841   1842   1843
1844   1845   1846   1847
1848   1849   1850   1851
1852   1853   1854   1855
1856   1857   1858   1859
1860   1861   1862   1863
1864   1865   1866   1867
1868   1869   1870   1871
1872   1873   1874   1875
1876   1877   1878   1879
1880   1881   1882   1883
1884   1885   1886   1887
1888   1889   1890   1891
1892   1893   1894   1895
1896   1897   1898   1899
1900   1901   1902   1903
1904   1905   1906   1907
1908   1909   1910   1911
1912   1913   1914   1915
1916   1917   1918   1919
1920   1921   1922   1923
1924   1925   1926   1927
1928   1929   1930   1931
1932   1933   1934   1935
1936   1937   1938   1939
1940   1941   1942   1943
1944   1945   1946   1947
1948   1949   1950   1951
1952   1953   1954   1955
1956   1957   1958   1959
1960   1961   1962   1963
1964   1965   1966   1967
1968   1969   1970   1971
1972   1973   1974   1975
1976   1977   1978   1979
1980   1981   1982   1983
1984   1985   1986   1987
1988   1989   1990   1991
1992   1993   1994   1995
1996   1997   1998   1999
2000   2001   2002   2003
2004   2005   2006   2007
2008   2009   2010   2011
2012   2013   2014   2015
2016   2017   2018   2019
2020   2021   2022   2023
2024   2025   2026   2027
2028   2029   2030   2031
2032   2033   2034   2035
2036   2037   2038   2039
2040   2041   2042   2043
2044   2045   2046   2047
2048   2049   2050   2051
2052   2053   2054   2055
2056   2057   2058   2059
2060   2061   2062   2063
2064   2065   2066   2067
2068   2069   2070   2071
2072   2073   2074   2075
2076   2077   2078   2079
2080   2081   2082   2083
2084   2085   2086   2087
2088   2089   2090   2091
2092   2093   2094   2095
2096   2097   2098   2099
2100   2101   2102   2103
2104   2105   2106   2107
2108   2109   2110   2111
2112   2113   2114   2115
2116   2117   2118   2119
2120   2121   2122   2123
2124   2125   2126   2127
2128   2129   2130   2131
2132   2133   2134   2135
2136   2137   2138   2139
2140   2141   2142   2143
2144   2145   2146   2147
2148   2149   2150   2151
2152   2153   2154   2155
2156   2157   2158   2159
2160   2161   2162   2163
2164   2165   2166   2167
2168   2169   2170   2171
2172   2173   2174   2175
2176   2177   2178   2179
2180   2181   2182   2183
2184   2185   2186   2187
2188   2189   2190   2191
2192   2193   2194   2195
2196   2197   2198   2199
2200   2201   2202   2203
2204   2205   2206   2207
2208   2209   2210   2211
2212   2213   2214   2215
2216   2217   2218   2219
2220   2221   2222   2223
2224   2225   2226   2227
2228   2229   2230   2231
2232   2233   2234   2235
2236   2237   2238   2239
2240   2241   2242   2243
2244   2245   2246   2247
2248   2249   2250   2251
2252   2253   2254   2255
2256   2257   2258   2259
2260   2261   2262   2263
2264   2265   2266   2267
2268   2269   2270   2271
2272   2273   2274   2275
2276   2277   2278   2279
2280   2281   2282   2283
2284   2285   2286   2287
2288   2289   2290   2291
2292   2293   2294   2295
2296   2297   2298   2299
2300   2301   2302   2303
2304   2305   2306   2307
2308   2309   2310   2311
2312   2313   2314   2315
2316   2317   2318   2319
2320   2321   2322   2323
2324   2325   2326   2327
2328   2329   2330   2331
2332   2333   2334   2335
2336   2337   2338   2339
2340   2341   2342   2343
2344   2345   2346   2347
2348   2349   2350   2351
2352   2353   2354   2355
2356   2357   2358   2359
2360   2361   2362   2363
2364   2365   2366   2367
2368   2369   2370   2371
2372   2373   2374   2375
2376   2377   2378   2379
2380   2381   2382   2383
2384   2385   2386   2387
2388   2389   2390   2391
2392   2393   2394   2395
2396   2397   2398   2399
2400   2401   2402   2403
2404   2405   2406   2407
2408   2409   2410   2411
2412   2413   2414   2415
2416   2417   2418   2419
2420   2421   2422   2423
2424   2425   2426   2427
2428   2429   2430   2431
2432   2433   2434   2435
2436   2437   2438   2439
2440   2441   2442   2443
2444   2445   2446   2447
2448   2449   2450   2451
2452   2453   2454   2455
2456   2457   2458   2459
2460   2461   2462   2463
2464   2465   2466   2467
2468   2469   2470   2471
2472   2473   2474   2475
2476   2477   2478   2479
2480   2481   2482   2483
2484   2485   2486   2487
2488   2489   2490   2491
2492   2493   2494   2495
2496   2497   2498   2499
2500   2501   2502   2503
2504   2505   2506   2507
2508   2509   2510   2511
2512   2513   2514   2515
2516   2517   2518   2519
2520   2521   2522   2523
2524   2525   2526   2527
2528   2529   2530   2531
2532   2533   2534   2535
2536   2537   2538   2539
2540   2541   2542   2543
2544   2545   2546   2547
2548   2549   2550   2551
2552   2553   2554   2555
2556   2557   2558   2559
2560   2561   2562   2563
2564   2565   2566   2567
2568   2569   2570   2571
2572   2573   2574   2575
2576   2577   2578   2579
2580   2581   2582   2583
2584   2585   2586   2587
2588   2589   2590   2591
2592   2593   2594   2595
2596   2597   2598   2599
2600   2601   2602   2603
2604   2605   2606   2607
2608   2609   2610   2611
2612   2613   2614   2615
2616   2617   2618   2619
2620   2621   2622   2623
2624   2625   2626   2627
2628   2629   2630   2631
2632   2633   2634   2635
2636   2637   2638   2639
2640   2641   2642   2643
2644   2645   2646   2647
2648   2649   2650   2651
2652   2653   2654   2655
2656   2657   2658   2659
2660   2661   2662   2663
2664   2665   2666   2667
2668   2669   2670   2671
2672   2673   2674   2675
2676   2677   2678   2679
2680   2681   2682   2683
2684   2685   2686   2687
2688   2689   2690   2691
2692   2693   2694   2695
2696   2697   2698   2699
2700   2701   2702   2703
2704   2705   2706   2707
2708   2709   2710   2711
2712   2713   2714   2715
2716   2717   2718   2719
2720   2721   2722   2723
2724   2725   2726   2727
2728   2729   2730   2731
2732   2733   2734   2735
2736   2737   2738   2739
2740   2741   2742   2743
2744   2745   2746   2747
2748   2749   2750   2751
2752   2753   2754   2755
2756   2757   2758   2759
2760   2761   2762   2763
2764   2765   2766   2767
2768   2769   2770   2771
2772   2773   2774   2775
2776   2777   2778   2779
2780   2781   2782   2783
2784   2785   2786   2787
2788   2789   2790   2791
2792   2793   2794   2795
2796   2797   2798   2799
2800   2801   2802   2803
2804   2805   2806   2807
2808   2809   2810   2811
2812   2813   2814   2815
2816   2817   2818   2819
2820   2821   2822   2823
2824   2825   2826   2827
2828   2829   2830   2831
2832   2833   2834   2835
2836   2837   2838   2839
2840   2841   2842   2843
2844   2845   2846   2847
2848   2849   2850   2851
2852   2853   2854   2855
2856   2857   2858   2859
2860   2861   2862   2863
2864   2865   2866   2867
2868   2869   2870   2871
2872   2873   2874   2875
2876   2877   2878   2879
2880   2881   2882   2883
2884   2885   2886   2887
2888   2889   2890   2891
2892   2893   2894   2895
2896   2897   2898   2899
2900   2901   2902   2903
2904   2905   2906   2907
2908   2909   2910   2911
2912   2913   2914   2915
2916   2917   2918   2919
2920   2921   2922   2923
2924   2925   2926   2927
2928   2929   2930   2931
2932   2933   2934   2935
2936   2937   2938   2939
2940   2941   2942   2943
2944   2945   2946   2947
2948   2949   2950   2951
2952   2953   2954   2955
2956   2957   2958   2959
2960   2961   2962   2963
2964   2965   2966   2967
2968   2969   2970   2971
2972   2973   2974   2975
2976   2977   2978   2979
2980   2981   2982   2983
2984   2985   2986   2987
2988   2989   2990   2991
2992   2993   2994   2995
2996   2997   2998   2999
3000   3001   3002   3003
3004   3005   3006   3007
3008   3009   3010   3011
3012   3013   3014   3015
3016   3017   3018   3019
3020   3021   3022   3023
3024   3025   3026   3027
3028   3029   3030   3031
3032   3033   3034   3035
3036   3037   3038   3039
3040   3041   3042   3043
3044   3045   3046   3047
3048   3049   3050   3051
3052   3053   3054   3055
3056   3057   3058   3059
3060   3061   3062   3063
3064   3065   3066   3067
3068   3069   3070   3071
3072   3073   3074   3075
3076   3077   3078   3079
3080   3081   3082   3083
3084   3085   3086   3087
3088   3089   3090   3091
3092   3093   3094   3095
3096   3097   3098   3099
3100   3101   3102   3103
3104   3105   3106   3107
3108   3109   3110   3111
3112   3113   3114   3115
3116   3117   3118   3119
3120   3121   3122   3123
3124   3125   3126   3127
3128   3129   3130   3131
3132   3133   3134   3135
3136   3137   3138   3139
3140   3141   3142   3143
3144   3145   3146   3147
3148   3149   3150   3151
3152   3153   3154   3155
3156   3157   3158   3159
3160   3161   3162   3163
3164   3165   3166   3167
3168   3169   3170   3171
3172   3173   3174   3175
3176   3177   3178   3179
3180   3181   3182   3183
3184   3185   3186   3187
3188   3189   3190   3191
3192   3193   3194   3195
3196   3197   3198   3199
3200   3201   3202   3203
3204   3205   3206   3207
3208   3209   3210   3211
3212   3213   3214   3215
3216   3217   3218   3219
3220   3221   3222   3223
3224   3225   3226   3227
3228   3229   3230   3231
3232   3233   3234   3235
3236   3237   3238   3239
3240   3241   3242   3243
3244   3245   3246   3247
3248   3249   3250   3251
3252   3253   3254   3255
3256   3257   3258   3259
3260   3261   3262   3263
3264   3265   3266   3267
3268   3269   3270   3271
3272   3273   3274   3275
3276   3277   3278   3279
3280   3281   3282   3283
3284   3285   3286   3287
3288   3289   3290   3291
3292   3293   3294   3295
3296   3297   3298   3299
3300   3301   3302   3303
3304   3305   3306   3307
3308   3309   3310   3311
3312   3313   3314   3315
3316   3317   3318   3319
3320   3321   3322   3323
3324   3325   3326   3327
3328   3329   3330   3331
3332   3333   3334   3335
3336   3337   3338   3339
3340   3341   3342   3343
3344   3345   3346   3347
3348   3349   3350   3351
3352   3353   3354   3355
3356   3357   3358   3359
3360   3361   3362   3363
3364   3365   3366   3367
3368   3369   3370   3371
3372   3373   3374   3375
3376   3377   3378   3379
3380   3381   3382   3383
3384   3385   3386   3387
3388   3389   3390   3391
3392   3393   3394   3395
3396   3397   3398   3399
3400   3401   3402   3403
3404   3405   3406   3407
3408   3409   3410   3411
3412   3413   3414   3415
3416   3417   3418   3419
3420   3421   3422   3423
3424   3425   3426   3427
3428   3429   3430   3431
3432   3433   3434   3435
3436   3437   3438   3439
3440   3441   3442   3443
3444   3445   3446   3447
3448   3449   3450   3451
3452   3453   3454   3455
3456   3457   3458   3459
3460   3461   3462   3463
3464   3465   3466   3467
3468   3469   3470   3471
3472   3473   3474   3475
3476   3477   3478   3479
3480   3481   3482   3483
3484   3485   3486   3487
3488   3489   3490   3491
3492   3493   3494   3495
3496   3497   3498   3499
3500   3501   3502   3503
3504   3505   3506   3507
3508   3509   3510   3511
3512   3513   3514   3515
3516   3517   3518   3519
3520   3521   3522   3523
3524   3525   3526   3527
3528   3529   3530   3531
3532   3533   3534   3535
3536   3537   3538   3539
3540   3541   3542   3543
3544   3545   3546   3547
3548   3549   3550   3551
3552   3553   3554   3555
3556   3557   3558   3559
3560   3561   3562   3563
3564   3565   3566   3567
3568   3569   3570   3571
3572   3573   3574   3575
3576   3577   3578   3579
3580   3581   3582   3583
3584   3585   3586   3587
3588   3589   3590   3591
3592   3593   3594   3595
3596   3597   3598   3599
3600   3601   3602   3603
3604   3605   3606   3607
3608   3609   3610   3611
3612   3613   3614   3615
3616   3617   3618   3619
3620   3621   3622   3623
3624   3625   3626   3627
3628   3629   3630   3631
3632   3633   3634   3635
3636   3637   3638   3639
3640   3641   3642   3643
3644   3645   3646   3647
3648   3649   3650   3651
3652   3653   3654   3655
3656   3657   3658   3659
3660   3661   3662   3663
3664   3665   3666   3667
3668   3669   3670   3671
3672   3673   3674   3675
3676   3677   3678   3679
3680   3681   3682   3683
3684   3685   3686   3687
3688   3689   3690   3691
3692   3693   3694   3695
3696   3697   3698   3699
3700   3701   3702   3703
3704   3705   3706   3707
3708   3709   3710   3711
3712   3713   3714   3715
3716   3717   3718   3719
3720   3721   3722   3723
3724   3725   3726   3727
3728   3729   3730   3731
3732   3733   3734   3735
3736   3737   3738   3739
3740   3741   3742   3743
3744   3745   3746   3747
3748   3749   3750   3751
3752   3753   3754   3755
3756   3757   3758   3759
3760   3761   3762   3763
3764   3765   3766   3767
3768   3769   3770   3771
3772   3773   3774   3775
3776   3777   3778   3779
3780   3781   3782   3783
3784   3785   3786   3787
3788   3789   3790   3791
3792   3793   3794   3795
3796   3797   3798   3799
3800   3801   3802   3803
3804   3805   3806   3807
3808   3809   3810   3811
3812   3813   3814   3815
3816   3817   3818   3819
3820   3821   3822   3823
3824   3825   3826   3827
3828   3829   3830   3831
3832   3833   3834   3835
3836   3837   3838   3839
3840   3841   3842   3843
3844   3845   3846   3847
3848   3849   3850   3851
3852   3853   3854   3855
3856   3857   3858   3859
3860   3861   3862   3863
3864   3865   3866   3867
3868   3869   3870   3871
3872   3873   3874   3875
3876   3877   3878   3879
3880   3881   3882   3883
3884   3885   3886   3887
3888   3889   3890   3891
3892   3893   3894   3895
3896   3897   3898   3899
3900   3901   3902   3903
3904   3905   3906   3907
3908   3909   3910   3911
3912   3913   3914   3915
3916   3917   3918   3919
3920   3921   3922   3923
3924   3925   3926   3927
3928   3929   3930   3931
3932   3933   3934   3935
3936   3937   3938   3939
3940   3941   3942   3943
3944   3945   3946   3947
3948   3949   3950   3951
3952   3953   3954   3955
3956   3957   3958   3959
3960   3961   3962   3963
3964   3965   3966   3967
3968   3969   3970   3971
3972   3973   3974   3975
3976   3977   3978   3979
3980   3981   3982   3983
3984   3985   3986   3987
3988   3989   3990   3991
3992   3993   3994   3995
3996   3997   3998   3999
4000   4001   4002   4003
4004   4005   4006   4007
4008   4009   4010   4011
4012   4013   4014   4015
4016   4017   4018   4019
4020   4021   4022   4023
4024   4025   4026   4027
4028   4029   4030   4031
4032   4033   4034   4035
4036   4037   4038   4039
4040   4041   4042   4043
4044   4045   4046   4047
4048   4049   4050   4051
4052   4053   4054   4055
4056   4057   4058   4059
4060   4061   4062   4063
4064   4065   4066   4067
4068   4069   4070   4071
4072   4073   4074   4075
4076   4077   4078   4079
4080   4081   4082   4083
4084   4085   4086   4087
4088   4089   4090   4091
4092   4093   4094   4095
4096   4097   4098   4099
4100   4101   4102   4103
4104   4105   4106   4107
4108   4109   4110   4111
4112   4113   4114   4115
4116   4117   4118   4119
4120   4121   4122   4123
4124   4125   4126   4127
4128   4129   4130   4131
4132   4133   4134   4135
4136   4137   4138   4139
4140   4141   4142   4143
4144   4145   4146   4147
4148   4149   4150   4151
4152   4153   4154   4155
4156   4157   4158   4159
4160   4161   4162   4163
4164   4165   4166   4167
4168   4169   4170   4171
4172   4173   4174   4175
4176   4177   4178   4179
4180   4181   4182   4183
4184   4185   4186   4187
4188   4189   4190   4191
4192   4193   4194   4195
4196   4197   4198   4199
4200   4201   4202   4203
4204   4205   4206   4207
4208   4209   4210   4211
4212   4213   4214   4215
4216   4217   4218   4219
4220   4221   4222   4223
4224   4225   4226   4227
4228   4229   4230   4231
4232   4233   4234   4235
4236   4237   4238   4239
4240   4241   4242   4243
4244   4245   4246   4247
4248   4249   4250   4251
4252   4253   4254   4255
4256   4257   4258   4259
4260   4261   4262   4263
4264   4265   4266   4267
4268   4269   4270   4271
4272   4273   4274   4275
4276   4277   4278   4279
4280   4281   4282   4283
4284   4285   4286   4287
4288   4289   4290   4291
4292   4293   4294   4295
4296   4297   4298   4299
4300   4301   4302   4303
4304   4305   4306   4307
4308   4309   4310   4311
4312   4313   4314   4315
4316   4317   4318   4319
4320   4321   4322   4323
4324   4325   4326   4327
4328   4329   4330   4331
4332   4333   4334   4335
4336   4337   4338   4339
4340   4341   4342   4343
4344   4345   4346   4347
4348   4349   4350   4351
4352   4353   4354   4355
4356   4357   4358   4359
4360   4361   4362   4363
4364   4365   4366   4367
4368   4369   4370   4371
4372   4373   4374   4375
4376   4377   4378   4379
4380   4381   4382   4383
4384   4385   4386   4387
4388   4389   4390   4391
4392   4393   4394   4395
4396   4397   4398   4399
4400   4401   4402   4403
4404   4405   4406   4407
4408   4409   4410   4411
4412   4413   4414   4415
4416   4417   4418   4419
4420   4421   4422   4423
4424   4425   4426   4427
4428   4429   4430   4431
4432   4433   4434   4435
4436   4437   4438   4439
4440   4441   4442   4443
4444   4445   4446   4447
4448   4449   4450   4451
4452   4453   4454   4455
4456   4457   4458   4459
4460   4461   4462   4463
4464   4465   4466   4467
4468   4469   4470   4471
4472   4473   4474   4475
4476   4477   4478   4479
4480   4481   4482   4483
4484   4485   4486   4487
4488   4489   4490   4491
4492   4493   4494   4495
4496   4497   4498   4499
4500   4501   4502   4503
4504   4505   4506   4507
4508   4509   4510   4511
4512   4513   4514   4515
4516   4517   4518   4519
4520   4521   4522   4523
4524   4525   4526   4527
4528   4529   4530   4531
4532   4533   4534   4535
4536   4537   4538   4539
4540   4541   4542   4543
4544   4545   4546   4547
4548   4549   4550   4551
4552   4553   4554   4555
4556   4557   4558   4559
4560   4561   4562   4563
4564   4565   4566   4567
4568   4569   4570   4571
4572   4573   4574   4575
4576   4577   4578   4579
4580   4581   4582   4583
4584   4585   4586   4587
4588   4589   4590   4591
4592   4593   4594   4595
4596   4597   4598   4599
4600   4601   4602   4603
4604   4605   4606   4607
4608   4609   4610   4611
4612   4613   4614   4615
4616   4617   4618   4619
4620   4621   4622   4623
4624   4625   4626   4627
4628   4629   4630   4631
4632   4633   4634   4635
4636   4637   4638   4639
4640   4641   4642   4643
4644   4645   4646   4647
4648   4649   4650   4651
4652   4653   4654   4655
4656   4657   4658   4659
4660   4661   4662   4663
4664   4665   4666   4667
4668   4669   4670   4671
4672   4673   4674   4675
4676   4677   4678   4679
4680   4681   4682   4683
4684   4685   4686   4687
4688   4689   4690   4691
4692   4693   4694   4695
4696   4697   4698   4699
4700   4701   4702   4703
4704   4705   4706   4707
4708   4709   4710   4711
4712   4713   4714   4715
4716   4717   4718   4719
4720   4721   4722   4723
4724   4725   4726   4727
4728   4729   4730   4731
4732   4733   4734   4735
4736   4737   4738   4739
4740   4741   4742   4743
4744   4745   4746   4747
4748   4749   4750   4751
4752   4753   4754   4755
4756   4757   4758   4759
4760   4761   4762   4763
4764   4765   4766   4767
4768   4769   4770   4771
4772   4773   4774   4775
4776   4777   4778   4779
4780   4781   4782   4783
4784   4785   4786   4787
4788   4789   4790   4791
4792   4793   4794   4795
4796   4797   4798   4799
4800   4801   4802   4803
4804   4805   4806   4807
4808   4809   4810   4811
4812   4813   4814   4815
4816   4817   4818   4819
4820   4821   4822   4823
4824   4825   4826   4827
4828   4829   4830   4831
4832   4833   4834   4835
4836   4837   4838   4839
4840   4841   4842   4843
4844   4845   4846   4847
4848   4849   4850   4851
4852   4853   4854   4855
4856   4857   4858   4859
4860   4861   4862   4863
4864   4865   4866   4867
4868   4869   4870   4871
4872   4873   4874   4875
4876   4877   4878   4879
4880   4881   4882   4883
4884   4885   4886   4887
4888   4889   4890   4891
4892   4893   4894   4895
4896   4897   4898   4899
4900   4901   4902   4903
4904   4905   4906   4907
4908   4909   4910   4911
4912   4913   4914   4915
4916   4917   4918   4919
4920   4921   4922   4923
4924   4925   4926   4927
4928   4929   4930   4931
4932   4933   4934   4935
4936   4937   4938   4939
4940   4941   4942   4943
4944   4945   4946   4947
4948   4949   4950   4951
4952   4953   4954   4955
4956   4957   4958   4959
4960   4961   4962   4963
4964   4965   4966   4967
4968   4969   4970   4971
4972   4973   4974   4975
4976   4977   4978   4979
4980   4981   4982   4983
4984   4985   4986   4987
4988   4989   4990   4991
4992   4993   4994   4995
4996   4997   4998   4999
5000   5001   5002   5003
5004   5005   5006   5007
5008   5009   5010   5011
5012   5013   5014   5015
5016   5017   5018   5019
5020   5021   5022   5023
5024   5025   5026   5027
5028   5029   5030   5031
5032   5033   5034   5035
5036   5037   5038   5039
5040   5041   5042   5043
5044   5045   5046   5047
5048   5049   5050   5051
5052   5053   5054   5055
5056   5057   5058   5059
5060   5061   5062   5063
5064   5065   5066   5067
5068   5069   5070   5071
5072   5073   5074   5075
5076   5077   5078   5079
5080   5081   5082   5083
5084   5085   5086   5087
5088   5089   5090   5091
5092   5093   5094   5095
5096   5097   5098   5099
5100   5101   5102   5103
5104   5105   5106   5107
5108   5109   5110   5111
5112   5113   5114   5115
5116   5117   5118   5119
5120   5121   5122   5123
5124   5125   5126   5127
5128   5129   5130   5131
5132   5133   5134   5135
5136   5137   5138   5139
5140   5141   5142   5143
5144   5145   5146   5147
5148   5149   5150   5151
5152   5153   5154   5155
5156   5157   5158   5159
5160   5161   5162   5163
5164   5165   5166   5167
5168   5169   5170   5171
5172   5173   5174   5175
5176   5177   5178   5179
5180   5181   5182   5183
5184   5185   5186   5187
5188   5189   5190   5191
5192   5193   5194   5195
5196   5197   5198   5199
5200   5201   5202   5203
5204   5205   5206   5207
5208   5209   5210   5211
5212   5213   5214   5215
5216   5217   5218   5219
5220   5221   5222   5223
5224   5225   5226   5227
5228   5229   5230   5231
5232   5233   5234   5235
5236   5237   5238   5239
5240   5241   5242   5243
5244   5245   5246   5247
5248   5249   5250   5251
5252   5253   5254   5255
5256   5257   5258   5259
5260   5261   5262   5263
5264   5265   5266   5267
5268   5269   5270   5271
5272   5273   5274   5275
5276   5277   5278   5279
5280   5281   5282   5283
5284   5285   5286   5287
5288   5289   5290   5291
5292   5293   5294   5295
5296   5297   5298   5299
5300   5301   5302   5303
5304   5305   5306   5307
5308   5309   5310   5311
5312   5313   5314   5315
5316   5317   5318   5319
5320   5321   5322   5323
5324   5325   5326   5327
5328   5329   5330   5331
5332   5333   5334   5335
5336   5337   5338   5339
5340   5341   5342   5343
5344   5345   5346   5347
5348   5349   5350   5351
5352   5353   5354   5355
5356   5357   5358   5359
5360   5361   5362   5363
5364   5365   5366   5367
5368   5369   5370   5371
5372   5373   5374   5375
5376   5377   5378   5379
5380   5381   5382   5383
5384   5385   5386   5387
5388   5389   5390   5391
5392   5393   5394   5395
5396   5397   5398   5399
5400   5401   5402   5403
5404   5405   5406   5407
5408   5409   5410   5411
5412   5413   5414   5415
5416   5417   5418   5419
5420   5421   5422   5423
5424   5425   5426   5427
5428   5429   5430   5431
5432   5433   5434   5435
5436   5437   5438   5439
5440   5441   5442   5443
5444   5445   5446   5447
5448   5449   5450   5451
5452   5453   5454   5455
5456   5457   5458   5459
5460   5461   5462   5463
5464   5465   5466   5467
5468   5469   5470   5471
5472   5473   5474   5475
5476   5477   5478   5479
5480   5481   5482   5483
5484   5485   5486   5487
5488   5489   5490   5491
5492   5493   5494   5495
5496   5497   5498   5499
5500   5501   5502   5503
5504   5505   5506   5507
5508   5509   5510   5511
5512   5513   5514   5515
5516   5517   5518   5519
5520   5521   5522   5523
5524   5525   5526   5527
5528   5529   5530   5531
5532   5533   5534   5535
5536   5537   5538   5539
5540   5541   5542   5543
5544   5545   5546   5547
5548   5549   5550   5551
5552   5553   5554   5555
5556   5557   5558   5559
5560   5561   5562   5563
5564   5565   5566   5567
5568   5569   5570   5571
5572   5573   5574   5575
5576   5577   5578   5579
5580   5581   5582   5583
5584   5585   5586   5587
5588   5589   5590   5591
5592   5593   5594   5595
5596   5597   5598   5599
5600   5601   5602   5603
5604   5605   5606   5607
5608   5609   5610   5611
5612   5613   5614   5615
5616   5617   5618   5619
5620   5621   5622   5623
5624   5625   5626   5627
5628   5629   5630   5631
5632   5633   5634   5635
5636   5637   5638   5639
5640   5641   5642   5643
5644   5645   5646   5647
5648   5649   5650   5651
5652   5653   5654   5655
5656   5657   5658   5659
5660   5661   5662   5663
5664   5665   5666   5667
5668   5669   5670   5671
5672   5673   5674   5675
5676   5677   5678   5679
5680   5681   5682   5683
5684   5685   5686   5687
5688   5689   5690   5691
5692   5693   5694   5695
5696   5697   5698   5699
5700   5701   5702   5703
5704   5705   5706   5707
5708   5709   5710   5711
5712   5713   5714   5715
5716   5717   5718   5719
5720   5721   5722   5723
5724   5725   5726   5727
5728   5729   5730   5731
5732   5733   5734   5735
5736   5737   5738   5739
5740   5741   5742   5743
5744   5745   5746   5747
5748   5749   5750   5751
5752   5753   5754   5755
5756   5757   5758   5759
5760   5761   5762   5763
5764   5765   5766   5767
5768   5769   5770   5771
5772   5773   5774   5775
5776   5777   5778   5779
5780   5781   5782   5783
5784   5785   5786   5787
5788   5789   5790   5791
5792   5793   5794   5795
5796   5797   5798   5799
5800   5801   5802   5803
5804   5805   5806   5807
5808   5809   5810   5811
5812   5813   5814   5815
5816   5817   5818   5819
5820   5821   5822   5823
5824   5825   5826   5827
5828   5829   5830   5831
5832   5833   5834   5835
5836   5837   5838   5839
5840   5841   5842   5843
5844   5845   5846   5847
5848   5849   5850   5851
5852   5853   5854   5855
5856   5857   5858   5859
5860   5861   5862   5863
5864   5865   5866   5867
5868   5869   5870   5871
5872   5873   5874   5875
5876   5877   5878   5879
5880   5881   5882   5883
5884   5885   5886   5887
5888   5889   5890   5891
5892   5893   5894   5895
5896   5897   5898   5899
5900   5901   5902   5903
5904   5905   5906   5907
5908   5909   5910   5911
5912   5913   5914   5915
5916   5917   5918   5919
5920   5921   5922   5923
5924   5925   5926   5927
5928   5929   5930   5931
5932   5933   5934   5935
5936   5937   5938   5939
5940   5941   5942   5943
5944   5945   5946   5947
5948   5949   5950   5951
5952   5953   5954   5955
5956   5957   5958   5959
5960   5961   5962   5963
5964   5965   5966   5967
5968   5969   5970   5971
5972   5973   5974   5975
5976   5977   5978   5979
5980   5981   5982   5983
5984   5985   5986   5987
5988   5989   5990   5991
5992   5993   5994   5995
5996   5997   5998   5999
              </DataArray>   
              <DataArray type="Int32" Name="offsets" format="ascii">   
4
8
12
16
20
24
28
32
36
40
44
48
52
56
60
64
68
72
76
80
84
88
92
96
100
104
108
112
116
120
124
128
132
136
140
144
148
152
156
160
164
168
172
176
180
184
188
192
196
200
204
208
212
216
220
224
228
232
236
240
244
248
252
256
260
264
268
272
276
280
284
288
292
296
300
304
308
312
316
320
324
328
332
336
340
344
348
352
356
360
364
368
372
376
380
384
388
392
396
400
404
408
412
416
420
424
428
432
436
440
444
448
452
456
460
464
468
472
476
480
484
488
492
496
500
504
508
512
516
520
524
528
532
536
540
544
548
552
556
560
564
568
572
576
580
584
588
592
596
600
604
608
612
616
620
624
628
632
636
640
644
648
652
656
660
664
668
672
676
680
684
688
692
696
700
704
708
712
716
720
724
728
732
736
740
744
748
752
756
760
764
768
772
776
780
784
788
792
796
800
804
808
812
816
820
824
828
832
836
840
844
848
852
856
860
864
868
872
876
880
884
888
892
896
900
904
908
912
916
920
924
928
932
936
940
944
948
952
956
960
964
968
972
976
980
984
988
992
996
1000
1004
1008
1012
1016
1020
1024
1028
1032
1036
1040
1044
1048
1052
1056
1060
1064
1068
1072
1076
1080
1084
1088
1092
1096
1100
1104
1108
1112
1116
1120
1124
1128
1132
1136
1140
1144
1148
1152
1156
1160
1164
1168
1172
1176
1180
1184
1188
1192
1196
1200
1204
1208
1212
1216
1220
1224
1228
1232
1236
1240
1244
1248
1252
1256
1260
1264
1268
1272
1276
1280
1284
1288
1292
1296
1300
1304
1308
1312
1316
1320
1324
1328
1332
1336
1340
1344
1348
1352
1356
1360
1364
1368
1372
1376
1380
1384
1388
1392
1396
1400
1404
1408
1412
1416
1420
1424
1428
1432
1436
1440
1444
1448
1452
1456
1460
1464
1468
1472
1476
1480
1484
1488
1492
1496
1500
1504
1508
1512
1516
1520
1524
1528
1532
1536
1540
1544
1548
1552
1556
1560
1564
1568
1572
1576
1580
1584
1588
1592
1596
1600
1604
1608
1612
1616
1620
1624
1628
1632
1636
1640
1644
1648
1652
1656
1660
1664
1668
1672
1676
1680
1684
1688
1692
1696
1700
1704
1708
1712
1716
1720
1724
1728
1732
1736
1740
1744
1748
1752
1756
1760
1764
1768
1772
1776
1780
1784
1788
1792
1796
1800
1804
1808
1812
1816
1820
1824
1828
1832
1836
1840
1844
1848
1852
1856
1860
1864
1868
1872
1876
1880
1884
1888
1892
1896
1900
1904
1908
1912
1916
1920
1924
1928
1932
1936
1940
1944
1948
1952
1956
1960
1964
1968
1972
1976
1980
1984
1988
1992
1996
2000
2004
2008
2012
2016
2020
2024
2028
2032
2036
2040
2044
2048
2052
2056
2060
2064
2068
2072
2076
2080
2084
2088
2092
2096
2100
2104
2108
2112
2116
2120
2124
2128
2132
2136
2140
2144
2148
2152
2156
2160
2164
2168
2172
2176
2180
2184
2188
2192
2196
2200
2204
2208
2212
2216
2220
2224
2228
2232
2236
2240
2244
2248
2252
2256
2260
2264
2268
2272
2276
2280
2284
2288
2292
2296
2300
2304
2308
2312
2316
2320
2324
2328
2332
2336
2340
2344
2348
2352
2356
2360
2364
2368
2372
2376
2380
2384
2388
2392
2396
2400
2404
2408
2412
2416
2420
2424
2428
2432
2436
2440
2444
2448
2452
2456
2460
2464
2468
2472
2476
2480
2484
2488
2492
2496
2500
2504
2508
2512
2516
2520
2524
2528
2532
2536
2540
2544
2548
2552
2556
2560
2564
2568
2572
2576
2580
2584
2588
2592
2596
2600
2604
2608
2612
2616
2620
2624
2628
2632
2636
2640
2644
2648
2652
2656
2660
2664
2668
2672
2676
2680
2684
2688
2692
2696
2700
2704
2708
2712
2716
2720
2724
2728
2732
2736
2740
2744
2748
2752
2756
2760
2764
2768
2772
2776
2780
2784
2788
2792
2796
2800
2804
2808
2812
2816
2820
2824
2828
2832
2836
2840
2844
2848
2852
2856
2860
2864
2868
2872
2876
2880
2884
2888
2892
2896
2900
2904
2908
2912
2916
2920
2924
2928
2932
2936
2940
2944
2948
2952
2956
2960
2964
2968
2972
2976
2980
2984
2988
2992
2996
3000
3004
3008
3012
3016
3020
3024
3028
3032
3036
3040
3044
3048
3052
3056
3060
3064
3068
3072
3076
3080
3084
3088
3092
3096
3100
3104
3108
3112
3116
3120
3124
3128
3132
3136
3140
3144
3148
3152
3156
3160
3164
3168
3172
3176
3180
3184
3188
3192
3196
3200
3204
3208
3212
3216
3220
3224
3228
3232
3236
3240
3244
3248
3252
3256
3260
3264
3268
3272
3276
3280
3284
3288
3292
3296
3300
3304
3308
3312
3316
3320
3324
3328
3332
3336
3340
3344
3348
3352
3356
3360
3364
3368
3372
3376
3380
3384
3388
3392
3396
3400
3404
3408
3412
3416
3420
3424
3428
3432
3436
3440
3444
3448
3452
3456
3460
3464
3468
3472
3476
3480
3484
3488
3492
3496
3500
3504
3508
3512
3516
3520
3524
3528
3532
3536
3540
3544
3548
3552
3556
3560
3564
3568
3572
3576
3580
3584
3588
3592
3596
3600
3604
3608
3612
3616
3620
3624
3628
3632
3636
3640
3644
3648
3652
3656
3660
3664
3668
3672
3676
3680
3684
3688
3692
3696
3700
3704
3708
3712
3716
3720
3724
3728
3732
3736
3740
3744
3748
3752
3756
3760
3764
3768
3772
3776
3780
3784
3788
3792
3796
3800
3804
3808
3812
3816
3820
3824
3828
3832
3836
3840
3844
3848
3852
3856
3860
3864
3868
3872
3876
3880
3884
3888
3892
3896
3900
3904
3908
3912
3916
3920
3924
3928
3932
3936
3940
3944
3948
3952
3956
3960
3964
3968
3972
3976
3980
3984
3988
3992
3996
4000
4004
4008
4012
4016
4020
4024
4028
4032
4036
4040
4044
4048
4052
4056
4060
4064
4068
4072
4076
4080
4084
4088
4092
4096
4100
4104
4108
4112
4116
4120
4124
4128
4132
4136
4140
4144
4148
4152
4156
4160
4164
4168
4172
4176
4180
4184
4188
4192
4196
4200
4204
4208
4212
4216
4220
4224
4228
4232
4236
4240
4244
4248
4252
4256
4260
4264
4268
4272
4276
4280
4284
4288
4292
4296
4300
4304
4308
4312
4316
4320
4324
4328
4332
4336
4340
4344
4348
4352
4356
4360
4364
4368
4372
4376
4380
4384
4388
4392
4396
4400
4404
4408
4412
4416
4420
4424
4428
4432
4436
4440
4444
4448
4452
4456
4460
4464
4468
4472
4476
4480
4484
4488
4492
4496
4500
4504
4508
4512
4516
4520
4524
4528
4532
4536
4540
4544
4548
4552
4556
4560
4564
4568
4572
4576
4580
4584
4588
4592
4596
4600
4604
4608
4612
4616
4620
4624
4628
4632
4636
4640
4644
4648
4652
4656
4660
4664
4668
4672
4676
4680
4684
4688
4692
4696
4700
4704
4708
4712
4716
4720
4724
4728
4732
4736
4740
4744
4748
4752
4756
4760
4764
4768
4772
4776
4780
4784
4788
4792
4796
4800
4804
4808
4812
4816
4820
4824
4828
4832
4836
4840
4844
4848
4852
4856
4860
4864
4868
4872
4876
4880
4884
4888
4892
4896
4900
4904
4908
4912
4916
4920
4924
4928
4932
4936
4940
4944
4948
4952
4956
4960
4964
4968
4972
4976
4980
4984
4988
4992
4996
5000
5004
5008
5012
5016
5020
5024
5028
5032
5036
5040
5044
5048
5052
5056
5060
5064
5068
5072
5076
5080
5084
5088
5092
5096
5100
5104
5108
5112
5116
5120
5124
5128
5132
5136
5140
5144
5148
5152
5156
5160
5164
5168
5172
5176
5180
5184
5188
5192
5196
5200
5204
5208
5212
5216
5220
5224
5228
5232
5236
5240
5244
5248
5252
5256
5260
5264
5268
5272
5276
5280
5284
5288
5292
5296
5300
5304
5308
5312
5316
5320
5324
5328
5332
5336
5340
5344
5348
5352
5356
5360
5364
5368
5372
5376
5380
5384
5388
5392
5396
5400
5404
5408
5412
5416
5420
5424
5428
5432
5436
5440
5444
5448
5452
5456
5460
5464
5468
5472
5476
5480
5484
5488
5492
5496
5500
5504
5508
5512
5516
5520
5524
5528
5532
5536
5540
5544
5548
5552
5556
5560
5564
5568
5572
5576
5580
5584
5588
5592
5596
5600
5604
5608
5612
5616
5620
5624
5628
5632
5636
5640
5644
5648
5652
5656
5660
5664
5668
5672
5676
5680
5684
5688
5692
5696
5700
5704
5708
5712
5716
5720
5724
5728
5732
5736
5740
5744
5748
5752
5756
5760
5764
5768
5772
5776
5780
5784
5788
5792
5796
5800
5804
5808
5812
5816
5820
5824
5828
5832
5836
5840
5844
5848
5852
5856
5860
5864
5868
5872
5876
5880
5884
5888
5892
5896
5900
5904
5908
5912
5916
5920
5924
5928
5932
5936
5940
5944
5948
5952
5956
5960
5964
5968
5972
5976
5980
5984
5988
5992
5996
6000
              </DataArray>   
              <DataArray type="UInt8" Name="types" format="ascii">   
10
10
10
10
10
10
10
10
10
10
10
10
10
10
10
10
10
10
10
10
10
10
10
10
10
10
10
10
10
10
10
10
10
10
10
10
10
10
10
10
10
10
10
10
10
10
10
10
10
10
10
10
10
10
10
10
10
10
10
10
10
10
10
10
10
10
10
10
10
10
10
10
10
10
10
10
10
10
10
10
10
10
10
10
10
10
10
10
10
10
10
10
10
10
10
10
10
10
10
10
10
10
10
10
10
10
10
10
10
10
10
10
10
10
10
10
10
10
10
10
10
10
10
10
10
10
10
10
10
10
10
10
10
10
10
10
10
10
10
10
10
10
10
10
10
10
10
10
10
10
10
10
10
10
10
10
10
10
10
10
10
10
10
10
10
10
10
10
10
10
10
10
10
10
10
10
10
10
10
10
10
10
10
10
10
10
10
10
10
10
10
10
10
10
10
10
10
10
10
10
10
10
10
10
10
10
10
10
10
10
10
10
10
10
10
10
10
10
10
10
10
10
10
10
10
10
10
10
10
10
10
10
10
10
10
10
10
10
10
10
10
10
10
10
10
10
10
10
10
10
10
10
10
10
10
10
10
10
10
10
10
10
10
10
10
10
10
10
10
10
10
10
10
10
10
10
10
10
10
10
10
10
10
10
10
10
10
10
10
10
10
10
10
10
10
10
10
10
10
10
10
10
10
10
10
10
10
10
10
10
10
10
10
10
10
10
10
10
10
10
10
10
10
10
10
10
10
10
10
10
10
10
10
10
10
10
10
10
10
10
10
10
10
10
10
10
10
10
10
10
10
10
10
10
10
10
10
10
10
10
10
10
10
10
10
10
10
10
10
10
10
10
10
10
10
10
10
10
10
10
10
10
10
10
10
10
10
10
10
10
10
10
10
10
10
10
10
10
10
10
10
10
10
10
10
10
10
10
10
10
10
10
10
10
10
10
10
10
10
10
10
10
10
10
10
10
10
10
10
10
10
10
10
10
10
10
10
10
10
10
10
10
10
10
10
10
10
10
10
10
10
10
10
10
10
10
10
10
10
10
10
10
10
10
10
10
10
10
10
10
10
10
10
10
10
10
10
10
10
10
10
10
10
10
10
10
10
10
10
10
10
10
10
10
10
10
10
10
10
10
10
10
10
10
10
10
10
10
10
10
10
10
10
10
10
10
10
10
10
10
10
10
10
10
10
10
10
10
10
10
10
10
10
10
10
10
10
10
10
10
10
10
10
10
10
10
10
10
10
10
10
10
10
10
10
10
10
10
10
10
10
10
10
10
10
10
10
10
10
10
10
10
10
10
10
10
10
10
10
10
10
10
10
10
10
10
10
10
10
10
10
10
10
10
10
10
10
10
10
10
10
10
10
10
10
10
10
10
10
10
10
10
10
10
10
10
10
10
10
10
10
10
10
10
10
10
10
10
10
10
10
10
10
10
10
10
10
10
10
10
10
10
10
10
10
10
10
10
10
10
10
10
10
10
10
10
10
10
10
10
10
10
10
10
10
10
10
10
10
10
10
10
10
10
10
10
10
10
10
10
10
10
10
10
10
10
10
10
10
10
10
10
10
10
10
10
10
10
10
10
10
10
10
10
10
10
10
10
10
10
10
10
10
10
10
10
10
10
10
10
10
10
10
10
10
10
10
10
10
10
10
10
10
10
10
10
10
10
10
10
10
10
10
10
10
10
10
10
10
10
10
10
10
10
10
10
10
10
10
10
10
10
10
10
10
10
10
10
10
10
10
10
10
10
10
10
10
10
10
10
10
10
10
10
10
10
10
10
10
10
10
10
10
10
10
10
10
10
10
10
10
10
10
10
10
10
10
10
10
10
10
10
10
10
10
10
10
10
10
10
10
10
10
10
10
10
10
10
10
10
10
10
10
10
10
10
10
10
10
10
10
10
10
10
10
10
10
10
10
10
10
10
10
10
10
10
10
10
10
10
10
10
10
10
10
10
10
10
10
10
10
10
10
10
10
10
10
10
10
10
10
10
10
10
10
10
10
10
10
10
10
10
10
10
10
10
10
10
10
10
10
10
10
10
10
10
10
10
10
10
10
10
10
10
10
10
10
10
10
10
10
10
10
10
10
10
10
10
10
10
10
10
10
10
10
10
10
10
10
10
10
10
10
10
10
10
10
10
10
10
10
10
10
10
10
10
10
10
10
10
10
10
10
10
10
10
10
10
10
10
10
10
10
10
10
10
10
10
10
10
10
10
10
10
10
10
10
10
10
10
10
10
10
10
10
10
10
10
10
10
10
10
10
10
10
10
10
10
10
10
10
10
10
10
10
10
10
10
10
10
10
10
10
10
10
10
10
10
10
10
10
10
10
10
10
10
10
10
10
10
10
10
10
10
10
10
10
10
10
10
10
10
10
10
10
10
10
10
10
10
10
10
10
10
10
10
10
10
10
10
10
10
10
10
10
10
10
10
10
10
10
10
10
10
10
10
10
10
10
10
10
10
10
10
10
10
10
10
10
10
10
10
10
10
10
10
10
10
10
10
10
10
10
10
10
10
10
10
10
10
10
10
10
10
10
10
10
10
10
10
10
10
10
10
10
10
10
10
10
10
10
10
10
10
10
10
10
10
10
10
10
10
10
10
10
10
10
10
10
10
10
10
10
10
10
10
10
10
10
10
10
10
10
10
10
10
10
10
10
10
10
10
10
10
10
10
10
10
10
10
10
10
10
10
10
10
10
10
10
10
10
10
10
10
10
10
10
10
10
10
10
10
10
10
10
10
10
10
10
10
10
10
10
10
10
10
10
10
10
10
10
10
10
10
10
10
10
10
10
10
10
10
10
10
10
10
10
10
10
10
10
10
10
10
10
10
10
10
10
10
10
10
10
10
10
10
10
10
10
10
10
10
10
10
10
10
10
10
10
10
10
10
10
10
10
10
10
10
10
10
10
10
10
10
10
10
10
10
10
10
10
10
10
10
10
10
10
10
10
10
10
10
10
10
10
10
10
10
10
10
10
10
10
10
10
10
10
10
10
10
10
10
10
10
10
10
10
10
10
10
10
10
10
10
10
10
10
10
10
10
10
10
10
10
10
10
10
10
10
10
10
10
10
10
10
10
10
10
10
10
10
10
10
10
10
10
10
10
10
10
10
10
10
10
10
10
10
10
10
10
10
10
10
10
10
10
10
10
10
10
10
10
10
10
10
10
10
10
10
10
10
10
10
10
10
10
10
10
10
10
10
10
10
10
10
10
10
10
10
10
10
10
10
10
10
10
10
10
10
10
10
10
10
10
10
10
10
10
10
10
10
10
10
10
10
10
10
10
10
10
10
10
10
10
10
10
10
10
10
10
10
10
10
10
10
10
10
10
10
10
10
10
10
10
10
10
10
10
10
10
10
10
10
10
10
10
10
10
10
10
              </DataArray>   
          </Cells>  
          <PointData>  
             <DataArray type="Float64" NumberOfComponents="3" Name="Strains" format="ascii">   
-2.5528758638572224e-05   0.0   -1.694577054644554e-05
-2.5528758638572224e-05   0.0   -1.694577054644554e-05
-2.5528758638572224e-05   0.0   -1.694577054644554e-05
-2.5528758638572224e-05   0.0   -1.694577054644554e-05
-1.6225530274967184e-05   2.8027264975201334e-06   2.4124595807490775e-07
-1.6225530274967184e-05   2.8027264975201334e-06   2.4124595807490775e-07
-1.6225530274967184e-05   2.8027264975201334e-06   2.4124595807490775e-07
-1.6225530274967184e-05   2.8027264975201334e-06   2.4124595807490775e-07
-1.5891603429222135e-05   0.0   -1.6018646170484065e-05
-1.5891603429222135e-05   0.0   -1.6018646170484065e-05
-1.5891603429222135e-05   0.0   -1.6018646170484065e-05
-1.5891603429222135e-05   0.0   -1.6018646170484065e-05
-2.6700930800831263e-05   3.3755191901124763e-06   -2.841206520293009e-08
-2.6700930800831263e-05   3.3755191901124763e-06   -2.841206520293009e-08
-2.6700930800831263e-05   3.3755191901124763e-06   -2.841206520293009e-08
-2.6700930800831263e-05   3.3755191901124763e-06   -2.841206520293009e-08
-2.0710181033897146e-05   7.726036466345606e-07   -8.45124568400637e-06
-2.0710181033897146e-05   7.726036466345606e-07   -8.45124568400637e-06
-2.0710181033897146e-05   7.726036466345606e-07   -8.45124568400637e-06
-2.0710181033897146e-05   7.726036466345606e-07   -8.45124568400637e-06
-2.670093080083131e-05   0.0   -1.8043957684551555e-05
-2.670093080083131e-05   0.0   -1.8043957684551555e-05
-2.670093080083131e-05   0.0   -1.8043957684551555e-05
-2.670093080083131e-05   0.0   -1.8043957684551555e-05
-1.5891603429222135e-05   3.375519190112483e-06   1.9968994488645598e-06
-1.5891603429222135e-05   3.375519190112483e-06   1.9968994488645598e-06
-1.5891603429222135e-05   3.375519190112483e-06   1.9968994488645598e-06
-1.5891603429222135e-05   3.375519190112483e-06   1.9968994488645598e-06
-1.592232181139643e-05   0.0   -1.6406931503018612e-05
-1.592232181139643e-05   0.0   -1.6406931503018612e-05
-1.592232181139643e-05   0.0   -1.6406931503018612e-05
-1.592232181139643e-05   0.0   -1.6406931503018612e-05
-2.751766336839776e-05   3.6196570175015414e-06   7.468435481494253e-07
-2.751766336839776e-05   3.6196570175015414e-06   7.468435481494253e-07
-2.751766336839776e-05   3.6196570175015414e-06   7.468435481494253e-07
-2.751766336839776e-05   3.6196570175015414e-06   7.468435481494253e-07
-2.131162630611383e-05   1.3641884846107833e-06   -8.243270435922664e-06
-2.131162630611383e-05   1.3641884846107833e-06   -8.243270435922664e-06
-2.131162630611383e-05   1.3641884846107833e-06   -8.243270435922664e-06
-2.131162630611383e-05   1.3641884846107833e-06   -8.243270435922664e-06
-2.7517663368397808e-05   0.0   -1.857872571351954e-05
-2.7517663368397808e-05   0.0   -1.857872571351954e-05
-2.7517663368397808e-05   0.0   -1.857872571351954e-05
-2.7517663368397808e-05   0.0   -1.857872571351954e-05
-1.59223218113964e-05   3.6196570175015414e-06   2.9186377586503454e-06
-1.59223218113964e-05   3.6196570175015414e-06   2.9186377586503454e-06
-1.59223218113964e-05   3.6196570175015414e-06   2.9186377586503454e-06
-1.59223218113964e-05   3.6196570175015414e-06   2.9186377586503454e-06
-1.589805945659041e-05   0.0   -1.6508928572902613e-05
-1.589805945659041e-05   0.0   -1.6508928572902613e-05
-1.589805945659041e-05   0.0   -1.6508928572902613e-05
-1.589805945659041e-05   0.0   -1.6508928572902613e-05
-2.9291121793442717e-05   4.133826614414829e-06   3.3325460198690702e-06
-2.9291121793442717e-05   4.133826614414829e-06   3.3325460198690702e-06
-2.9291121793442717e-05   4.133826614414829e-06   3.3325460198690702e-06
-2.9291121793442717e-05   4.133826614414829e-06   3.3325460198690702e-06
-2.170786141249407e-05   1.7248309505141014e-06   -7.860823883371557e-06
-2.170786141249407e-05   1.7248309505141014e-06   -7.860823883371557e-06
-2.170786141249407e-05   1.7248309505141014e-06   -7.860823883371557e-06
-2.170786141249407e-05   1.7248309505141014e-06   -7.860823883371557e-06
-1.622553027496721e-05   0.0   -1.526413464793346e-05
-1.622553027496721e-05   0.0   -1.526413464793346e-05
-1.622553027496721e-05   0.0   -1.526413464793346e-05
-1.622553027496721e-05   0.0   -1.526413464793346e-05
-7.405498406541954e-06   1.0230348251085767e-06   4.973936117377525e-08
-7.405498406541954e-06   1.0230348251085767e-06   4.973936117377525e-08
-7.405498406541954e-06   1.0230348251085767e-06   4.973936117377525e-08
-7.405498406541954e-06   1.0230348251085767e-06   4.973936117377525e-08
-7.1087624160891075e-06   0.0   -1.5139740745717452e-05
-7.1087624160891075e-06   0.0   -1.5139740745717452e-05
-7.1087624160891075e-06   0.0   -1.5139740745717452e-05
-7.1087624160891075e-06   0.0   -1.5139740745717452e-05
-1.5891603429222135e-05   1.4648423746109781e-06   -1.3805778152623732e-06
-1.5891603429222135e-05   1.4648423746109781e-06   -1.3805778152623732e-06
-1.5891603429222135e-05   1.4648423746109781e-06   -1.3805778152623732e-06
-1.5891603429222135e-05   1.4648423746109781e-06   -1.3805778152623732e-06
-1.1667146345528146e-05   1.036615851799829e-07   -7.604631147760373e-06
-1.1667146345528146e-05   1.036615851799829e-07   -7.604631147760373e-06
-1.1667146345528146e-05   1.036615851799829e-07   -7.604631147760373e-06
-1.1667146345528146e-05   1.036615851799829e-07   -7.604631147760373e-06
-1.5891603429222122e-05   0.0   -1.601864617048405e-05
-1.5891603429222122e-05   0.0   -1.601864617048405e-05
-1.5891603429222122e-05   0.0   -1.601864617048405e-05
-1.5891603429222122e-05   0.0   -1.601864617048405e-05
-7.1087624160891075e-06   1.4648423746109747e-06   -5.01672390495786e-07
-7.1087624160891075e-06   1.4648423746109747e-06   -5.01672390495786e-07
-7.1087624160891075e-06   1.4648423746109747e-06   -5.01672390495786e-07
-7.1087624160891075e-06   1.4648423746109747e-06   -5.01672390495786e-07
-6.936343132387653e-06   0.0   -1.5326869693171444e-05
-6.936343132387653e-06   0.0   -1.5326869693171444e-05
-6.936343132387653e-06   0.0   -1.5326869693171444e-05
-6.936343132387653e-06   0.0   -1.5326869693171444e-05
-1.592232181139643e-05   1.8001030164119018e-06   -1.4303003713373388e-06
-1.592232181139643e-05   1.8001030164119018e-06   -1.4303003713373388e-06
-1.592232181139643e-05   1.8001030164119018e-06   -1.4303003713373388e-06
-1.592232181139643e-05   1.8001030164119018e-06   -1.4303003713373388e-06
-1.1413973280804879e-05   5.764803977604961e-07   -8.210041017799018e-06
-1.1413973280804879e-05   5.764803977604961e-07   -8.210041017799018e-06
-1.1413973280804879e-05   5.764803977604961e-07   -8.210041017799018e-06
-1.1413973280804879e-05   5.764803977604961e-07   -8.210041017799018e-06
-1.592232181139643e-05   0.0   -1.6406931503018612e-05
-1.592232181139643e-05   0.0   -1.6406931503018612e-05
-1.592232181139643e-05   0.0   -1.6406931503018612e-05
-1.592232181139643e-05   0.0   -1.6406931503018612e-05
-6.936343132387666e-06   1.8001030164119018e-06   -3.5023856149020006e-07
-6.936343132387666e-06   1.8001030164119018e-06   -3.5023856149020006e-07
-6.936343132387666e-06   1.8001030164119018e-06   -3.5023856149020006e-07
-6.936343132387666e-06   1.8001030164119018e-06   -3.5023856149020006e-07
-6.777012834806251e-06   0.0   -1.5250144078620138e-05
-6.777012834806251e-06   0.0   -1.5250144078620138e-05
-6.777012834806251e-06   0.0   -1.5250144078620138e-05
-6.777012834806251e-06   0.0   -1.5250144078620138e-05
-1.5898059456590397e-05   2.0979741571374373e-06   -1.3071842032623468e-06
-1.5898059456590397e-05   2.0979741571374373e-06   -1.3071842032623468e-06
-1.5898059456590397e-05   2.0979741571374373e-06   -1.3071842032623468e-06
-1.5898059456590397e-05   2.0979741571374373e-06   -1.3071842032623468e-06
-1.1349667323101337e-05   9.639895203320527e-07   -8.207446976994227e-06
-1.1349667323101337e-05   9.639895203320527e-07   -8.207446976994227e-06
-1.1349667323101337e-05   9.639895203320527e-07   -8.207446976994227e-06
-1.1349667323101337e-05   9.639895203320527e-07   -8.207446976994227e-06
-7.405498406541966e-06   0.0   -1.4650313752868311e-05
-7.405498406541966e-06   0.0   -1.4650313752868311e-05
-7.405498406541966e-06   0.0   -1.4650313752868311e-05
-7.405498406541966e-06   0.0   -1.4650313752868311e-05
9.15725554626597e-07   -1.3475004979053196e-07   -8.624571807950098e-07
9.15725554626597e-07   -1.3475004979053196e-07   -8.624571807950098e-07
9.15725554626597e-07   -1.3475004979053196e-07   -8.624571807950098e-07
9.15725554626597e-07   -1.3475004979053196e-07   -8.624571807950098e-07
1.1116672078368275e-06   0.0   -1.4982953037877262e-05
1.1116672078368275e-06   0.0   -1.4982953037877262e-05
1.1116672078368275e-06   0.0   -1.4982953037877262e-05
1.1116672078368275e-06   0.0   -1.4982953037877262e-05
-7.1087624160891075e-06   2.613128464002745e-07   -1.439024705840893e-06
-7.1087624160891075e-06   2.613128464002745e-07   -1.439024705840893e-06
-7.1087624160891075e-06   2.613128464002745e-07   -1.439024705840893e-06
-7.1087624160891075e-06   2.613128464002745e-07   -1.439024705840893e-06
-3.146915599352562e-06   -2.771994041741682e-07   -7.718995383390463e-06
-3.146915599352562e-06   -2.771994041741682e-07   -7.718995383390463e-06
-3.146915599352562e-06   -2.771994041741682e-07   -7.718995383390463e-06
-3.146915599352562e-06   -2.771994041741682e-07   -7.718995383390463e-06
-7.10876241608912e-06   0.0   -1.5139740745717478e-05
-7.10876241608912e-06   0.0   -1.5139740745717478e-05
-7.10876241608912e-06   0.0   -1.5139740745717478e-05
-7.10876241608912e-06   0.0   -1.5139740745717478e-05
1.1116672078368294e-06   2.613128464002745e-07   -1.2822369980007277e-06
1.1116672078368294e-06   2.613128464002745e-07   -1.2822369980007277e-06
1.1116672078368294e-06   2.613128464002745e-07   -1.2822369980007277e-06
1.1116672078368294e-06   2.613128464002745e-07   -1.2822369980007277e-06
1.2681802743199576e-06   0.0   -1.4960434973859983e-05
1.2681802743199576e-06   0.0   -1.4960434973859983e-05
1.2681802743199576e-06   0.0   -1.4960434973859983e-05
1.2681802743199576e-06   0.0   -1.4960434973859983e-05
-6.936343132387641e-06   6.107245321857691e-07   -1.6526640153254265e-06
-6.936343132387641e-06   6.107245321857691e-07   -1.6526640153254265e-06
-6.936343132387641e-06   6.107245321857691e-07   -1.6526640153254265e-06
-6.936343132387641e-06   6.107245321857691e-07   -1.6526640153254265e-06
-2.920291070884575e-06   1.494214765478916e-07   -8.069302284447826e-06
-2.920291070884575e-06   1.494214765478916e-07   -8.069302284447826e-06
-2.920291070884575e-06   1.494214765478916e-07   -8.069302284447826e-06
-2.920291070884575e-06   1.494214765478916e-07   -8.069302284447826e-06
-6.936343132387666e-06   0.0   -1.532686969317147e-05
-6.936343132387666e-06   0.0   -1.532686969317147e-05
-6.936343132387666e-06   0.0   -1.532686969317147e-05
-6.936343132387666e-06   0.0   -1.532686969317147e-05
1.26818027431996e-06   6.107245321857725e-07   -1.2862292960139685e-06
1.26818027431996e-06   6.107245321857725e-07   -1.2862292960139685e-06
1.26818027431996e-06   6.107245321857725e-07   -1.2862292960139685e-06
1.26818027431996e-06   6.107245321857725e-07   -1.2862292960139685e-06
1.4740891863786777e-06   0.0   -1.4641387646053306e-05
1.4740891863786777e-06   0.0   -1.4641387646053306e-05
1.4740891863786777e-06   0.0   -1.4641387646053306e-05
1.4740891863786777e-06   0.0   -1.4641387646053306e-05
-6.777012834806245e-06   1.0145940542780295e-06   -1.4983073766452546e-06
-6.777012834806245e-06   1.0145940542780295e-06   -1.4983073766452546e-06
-6.777012834806245e-06   1.0145940542780295e-06   -1.4983073766452546e-06
-6.777012834806245e-06   1.0145940542780295e-06   -1.4983073766452546e-06
-2.731126973004488e-06   5.712350392651148e-07   -7.975435070640427e-06
-2.731126973004488e-06   5.712350392651148e-07   -7.975435070640427e-06
-2.731126973004488e-06   5.712350392651148e-07   -7.975435070640427e-06
-2.731126973004488e-06   5.712350392651148e-07   -7.975435070640427e-06
9.157255546265986e-07   0.0   -1.4731163782742629e-05
9.157255546265986e-07   0.0   -1.4731163782742629e-05
9.157255546265986e-07   0.0   -1.4731163782742629e-05
9.157255546265986e-07   0.0   -1.4731163782742629e-05
9.96028312651423e-06   -1.1683137618330702e-06   -3.5788942002974245e-07
9.96028312651423e-06   -1.1683137618330702e-06   -3.5788942002974245e-07
9.96028312651423e-06   -1.1683137618330702e-06   -3.5788942002974245e-07
9.96028312651423e-06   -1.1683137618330702e-06   -3.5788942002974245e-07
9.995552690657512e-06   0.0   -1.5509021003001018e-05
9.995552690657512e-06   0.0   -1.5509021003001018e-05
9.995552690657512e-06   0.0   -1.5509021003001018e-05
9.995552690657512e-06   0.0   -1.5509021003001018e-05
1.1116672078368313e-06   -8.767799418728384e-07   -1.764772331761831e-07
1.1116672078368313e-06   -8.767799418728384e-07   -1.764772331761831e-07
1.1116672078368313e-06   -8.767799418728384e-07   -1.764772331761831e-07
1.1116672078368313e-06   -8.767799418728384e-07   -1.764772331761831e-07
5.455639122642055e-06   -6.482143502153231e-07   -7.553569779512724e-06
5.455639122642055e-06   -6.482143502153231e-07   -7.553569779512724e-06
5.455639122642055e-06   -6.482143502153231e-07   -7.553569779512724e-06
5.455639122642055e-06   -6.482143502153231e-07   -7.553569779512724e-06
1.1116672078368313e-06   0.0   -1.4982953037877315e-05
1.1116672078368313e-06   0.0   -1.4982953037877315e-05
1.1116672078368313e-06   0.0   -1.4982953037877315e-05
1.1116672078368313e-06   0.0   -1.4982953037877315e-05
9.995552690657512e-06   -8.767799418728384e-07   -7.025451982998881e-07
9.995552690657512e-06   -8.767799418728384e-07   -7.025451982998881e-07
9.995552690657512e-06   -8.767799418728384e-07   -7.025451982998881e-07
9.995552690657512e-06   -8.767799418728384e-07   -7.025451982998881e-07
9.967874774133045e-06   0.0   -1.528768383031484e-05
9.967874774133045e-06   0.0   -1.528768383031484e-05
9.967874774133045e-06   0.0   -1.528768383031484e-05
9.967874774133045e-06   0.0   -1.528768383031484e-05
1.26818027431996e-06   -5.454147607580522e-07   -4.6094414083820234e-07
1.26818027431996e-06   -5.454147607580522e-07   -4.6094414083820234e-07
1.26818027431996e-06   -5.454147607580522e-07   -4.6094414083820234e-07
1.26818027431996e-06   -5.454147607580522e-07   -4.6094414083820234e-07
5.539770990984938e-06   -2.5394232703127005e-07   -7.75514546218256e-06
5.539770990984938e-06   -2.5394232703127005e-07   -7.75514546218256e-06
5.539770990984938e-06   -2.5394232703127005e-07   -7.75514546218256e-06
5.539770990984938e-06   -2.5394232703127005e-07   -7.75514546218256e-06
1.2681802743199587e-06   0.0   -1.4960434973859996e-05
1.2681802743199587e-06   0.0   -1.4960434973859996e-05
1.2681802743199587e-06   0.0   -1.4960434973859996e-05
1.2681802743199587e-06   0.0   -1.4960434973859996e-05
9.967874774133045e-06   -5.454147607580522e-07   -7.88192997293033e-07
9.967874774133045e-06   -5.454147607580522e-07   -7.88192997293033e-07
9.967874774133045e-06   -5.454147607580522e-07   -7.88192997293033e-07
9.967874774133045e-06   -5.454147607580522e-07   -7.88192997293033e-07
1.0175461959670095e-05   0.0   -1.470202126999507e-05
1.0175461959670095e-05   0.0   -1.470202126999507e-05
1.0175461959670095e-05   0.0   -1.470202126999507e-05
1.0175461959670095e-05   0.0   -1.470202126999507e-05
1.4740891863786802e-06   -1.0105603990289992e-07   -1.3909969056764126e-07
1.4740891863786802e-06   -1.0105603990289992e-07   -1.3909969056764126e-07
1.4740891863786802e-06   -1.0105603990289992e-07   -1.3909969056764126e-07
1.4740891863786802e-06   -1.0105603990289992e-07   -1.3909969056764126e-07
5.721821116995023e-06   2.15344753220782e-07   -7.408493384135747e-06
5.721821116995023e-06   2.15344753220782e-07   -7.408493384135747e-06
5.721821116995023e-06   2.15344753220782e-07   -7.408493384135747e-06
5.721821116995023e-06   2.15344753220782e-07   -7.408493384135747e-06
9.96028312651423e-06   0.0   -1.543215203984247e-05
9.96028312651423e-06   0.0   -1.543215203984247e-05
9.96028312651423e-06   0.0   -1.543215203984247e-05
9.96028312651423e-06   0.0   -1.543215203984247e-05
2.2579600095542453e-05   -2.9734822732021105e-06   3.815953544616764e-06
2.2579600095542453e-05   -2.9734822732021105e-06   3.815953544616764e-06
2.2579600095542453e-05   -2.9734822732021105e-06   3.815953544616764e-06
2.2579600095542453e-05   -2.9734822732021105e-06   3.815953544616764e-06
2.122869557556804e-05   0.0   -1.7021432787981138e-05
2.122869557556804e-05   0.0   -1.7021432787981138e-05
2.122869557556804e-05   0.0   -1.7021432787981138e-05
2.122869557556804e-05   0.0   -1.7021432787981138e-05
9.995552690657512e-06   -2.5206863083001954e-06   3.212883805183192e-06
9.995552690657512e-06   -2.5206863083001954e-06   3.212883805183192e-06
9.995552690657512e-06   -2.5206863083001954e-06   3.212883805183192e-06
9.995552690657512e-06   -2.5206863083001954e-06   3.212883805183192e-06
1.5594489351041134e-05   -1.3244006234488875e-06   -6.836448706366957e-06
1.5594489351041134e-05   -1.3244006234488875e-06   -6.836448706366957e-06
1.5594489351041134e-05   -1.3244006234488875e-06   -6.836448706366957e-06
1.5594489351041134e-05   -1.3244006234488875e-06   -6.836448706366957e-06
9.995552690657504e-06   0.0   -1.5509021003001005e-05
9.995552690657504e-06   0.0   -1.5509021003001005e-05
9.995552690657504e-06   0.0   -1.5509021003001005e-05
9.995552690657504e-06   0.0   -1.5509021003001005e-05
2.1228695575567966e-05   -2.5206863083001886e-06   1.7004720202030624e-06
2.1228695575567966e-05   -2.5206863083001886e-06   1.7004720202030624e-06
2.1228695575567966e-05   -2.5206863083001886e-06   1.7004720202030624e-06
2.1228695575567966e-05   -2.5206863083001886e-06   1.7004720202030624e-06
2.061257427058563e-05   0.0   -1.6667713757683848e-05
2.061257427058563e-05   0.0   -1.6667713757683848e-05
2.061257427058563e-05   0.0   -1.6667713757683848e-05
2.061257427058563e-05   0.0   -1.6667713757683848e-05
9.967874774133045e-06   -2.300049878948348e-06   2.4534819971061257e-06
9.967874774133045e-06   -2.300049878948348e-06   2.4534819971061257e-06
9.967874774133045e-06   -2.300049878948348e-06   2.4534819971061257e-06
9.967874774133045e-06   -2.300049878948348e-06   2.4534819971061257e-06
1.530406348062156e-05   -9.65577295569025e-07   -7.240849397068989e-06
1.530406348062156e-05   -9.65577295569025e-07   -7.240849397068989e-06
1.530406348062156e-05   -9.65577295569025e-07   -7.240849397068989e-06
1.530406348062156e-05   -9.65577295569025e-07   -7.240849397068989e-06
9.967874774133045e-06   0.0   -1.528768383031484e-05
9.967874774133045e-06   0.0   -1.528768383031484e-05
9.967874774133045e-06   0.0   -1.528768383031484e-05
9.967874774133045e-06   0.0   -1.528768383031484e-05
2.0612574270585558e-05   -2.3000498789483414e-06   1.0734520697371148e-06
2.0612574270585558e-05   -2.3000498789483414e-06   1.0734520697371148e-06
2.0612574270585558e-05   -2.3000498789483414e-06   1.0734520697371148e-06
2.0612574270585558e-05   -2.3000498789483414e-06   1.0734520697371148e-06
1.9684766826099743e-05   0.0   -1.5768073434094135e-05
1.9684766826099743e-05   0.0   -1.5768073434094135e-05
1.9684766826099743e-05   0.0   -1.5768073434094135e-05
1.9684766826099743e-05   0.0   -1.5768073434094135e-05
1.0175461959670077e-05   -1.7767536068317687e-06   1.1468201740543358e-06
1.0175461959670077e-05   -1.7767536068317687e-06   1.1468201740543358e-06
1.0175461959670077e-05   -1.7767536068317687e-06   1.1468201740543358e-06
1.0175461959670077e-05   -1.7767536068317687e-06   1.1468201740543358e-06
1.4826320800116394e-05   -4.0032466981607963e-07   -7.430468588898903e-06
1.4826320800116394e-05   -4.0032466981607963e-07   -7.430468588898903e-06
1.4826320800116394e-05   -4.0032466981607963e-07   -7.430468588898903e-06
1.4826320800116394e-05   -4.0032466981607963e-07   -7.430468588898903e-06
-2.2008279084305226e-05   2.8027264975201267e-06   -1.4567431128887007e-05
-2.2008279084305226e-05   2.8027264975201267e-06   -1.4567431128887007e-05
-2.2008279084305226e-05   2.8027264975201267e-06   -1.4567431128887007e-05
-2.2008279084305226e-05   2.8027264975201267e-06   -1.4567431128887007e-05
-1.4108850907942978e-05   2.511873962234739e-06   -1.576229022787815e-06
-1.4108850907942978e-05   2.511873962234739e-06   -1.576229022787815e-06
-1.4108850907942978e-05   2.511873962234739e-06   -1.576229022787815e-06
-1.4108850907942978e-05   2.511873962234739e-06   -1.576229022787815e-06
-1.4456268758818174e-05   3.375519190112473e-06   -1.2246370620178276e-05
-1.4456268758818174e-05   3.375519190112473e-06   -1.2246370620178276e-05
-1.4456268758818174e-05   3.375519190112473e-06   -1.2246370620178276e-05
-1.4456268758818174e-05   3.375519190112473e-06   -1.2246370620178276e-05
-2.223067391257211e-05   3.0226178234867327e-06   9.227121227204136e-07
-2.223067391257211e-05   3.0226178234867327e-06   9.227121227204136e-07
-2.223067391257211e-05   3.0226178234867327e-06   9.227121227204136e-07
-2.223067391257211e-05   3.0226178234867327e-06   9.227121227204136e-07
-1.7479224417559653e-05   2.9315357566233675e-06   -6.941721128849072e-06
-1.7479224417559653e-05   2.9315357566233675e-06   -6.941721128849072e-06
-1.7479224417559653e-05   2.9315357566233675e-06   -6.941721128849072e-06
-1.7479224417559653e-05   2.9315357566233675e-06   -6.941721128849072e-06
-2.223067391257211e-05   3.375519190112473e-06   -1.2034629800202828e-05
-2.223067391257211e-05   3.375519190112473e-06   -1.2034629800202828e-05
-2.223067391257211e-05   3.375519190112473e-06   -1.2034629800202828e-05
-2.223067391257211e-05   3.375519190112473e-06   -1.2034629800202828e-05
-1.4456268758818225e-05   3.0226178234867463e-06   7.109713027449993e-07
-1.4456268758818225e-05   3.0226178234867463e-06   7.109713027449993e-07
-1.4456268758818225e-05   3.0226178234867463e-06   7.109713027449993e-07
-1.4456268758818225e-05   3.0226178234867463e-06   7.109713027449993e-07
-1.45210567707183e-05   3.619657017501538e-06   -1.1018966079220238e-05
-1.45210567707183e-05   3.619657017501538e-06   -1.1018966079220238e-05
-1.45210567707183e-05   3.619657017501538e-06   -1.1018966079220238e-05
-1.45210567707183e-05   3.619657017501538e-06   -1.1018966079220238e-05
-2.2373446075057982e-05   3.2534322077780215e-06   2.288084313846665e-06
-2.2373446075057982e-05   3.2534322077780215e-06   2.288084313846665e-06
-2.2373446075057982e-05   3.2534322077780215e-06   2.288084313846665e-06
-2.2373446075057982e-05   3.2534322077780215e-06   2.288084313846665e-06
-1.7982858248949138e-05   3.2522881693588946e-06   -5.028875639949967e-06
-1.7982858248949138e-05   3.2522881693588946e-06   -5.028875639949967e-06
-1.7982858248949138e-05   3.2522881693588946e-06   -5.028875639949967e-06
-1.7982858248949138e-05   3.2522881693588946e-06   -5.028875639949967e-06
-2.2373446075057982e-05   3.619657017501538e-06   -1.0799231193386141e-05
-2.2373446075057982e-05   3.619657017501538e-06   -1.0799231193386141e-05
-2.2373446075057982e-05   3.619657017501538e-06   -1.0799231193386141e-05
-2.2373446075057982e-05   3.619657017501538e-06   -1.0799231193386141e-05
-1.4521056770718327e-05   3.2534322077780215e-06   2.068349428012534e-06
-1.4521056770718327e-05   3.2534322077780215e-06   2.068349428012534e-06
-1.4521056770718327e-05   3.2534322077780215e-06   2.068349428012534e-06
-1.4521056770718327e-05   3.2534322077780215e-06   2.068349428012534e-06
-1.4429707549563478e-05   4.133826614414832e-06   -8.168545271211369e-06
-1.4429707549563478e-05   4.133826614414832e-06   -8.168545271211369e-06
-1.4429707549563478e-05   4.133826614414832e-06   -8.168545271211369e-06
-1.4429707549563478e-05   4.133826614414832e-06   -8.168545271211369e-06
-2.173306012067797e-05   3.441153983108243e-06   4.419312592763333e-06
-2.173306012067797e-05   3.441153983108243e-06   4.419312592763333e-06
-2.173306012067797e-05   3.441153983108243e-06   4.419312592763333e-06
-2.173306012067797e-05   3.441153983108243e-06   4.419312592763333e-06
-1.7502716422385276e-05   3.5721456679774826e-06   -2.70985524864603e-06
-1.7502716422385276e-05   3.5721456679774826e-06   -2.70985524864603e-06
-1.7502716422385276e-05   3.5721456679774826e-06   -2.70985524864603e-06
-1.7502716422385276e-05   3.5721456679774826e-06   -2.70985524864603e-06
-1.4108850907942978e-05   1.0230348251085733e-06   -1.5547270142024515e-05
-1.4108850907942978e-05   1.0230348251085733e-06   -1.5547270142024515e-05
-1.4108850907942978e-05   1.0230348251085733e-06   -1.5547270142024515e-05
-1.4108850907942978e-05   1.0230348251085733e-06   -1.5547270142024515e-05
-6.708287158592125e-06   1.1690825842925828e-06   -3.125368570929346e-06
-6.708287158592125e-06   1.1690825842925828e-06   -3.125368570929346e-06
-6.708287158592125e-06   1.1690825842925828e-06   -3.125368570929346e-06
-6.708287158592125e-06   1.1690825842925828e-06   -3.125368570929346e-06
-6.860500670246068e-06   1.4648423746109781e-06   -1.5519616534671296e-05
-6.860500670246068e-06   1.4648423746109781e-06   -1.5519616534671296e-05
-6.860500670246068e-06   1.4648423746109781e-06   -1.5519616534671296e-05
-6.860500670246068e-06   1.4648423746109781e-06   -1.5519616534671296e-05
-1.4456268758818174e-05   1.6385612906675228e-06   -2.964234403351649e-06
-1.4456268758818174e-05   1.6385612906675228e-06   -2.964234403351649e-06
-1.4456268758818174e-05   1.6385612906675228e-06   -2.964234403351649e-06
-1.4456268758818174e-05   1.6385612906675228e-06   -2.964234403351649e-06
-1.050327121674065e-05   1.3186372383377977e-06   -9.360609208749746e-06
-1.050327121674065e-05   1.3186372383377977e-06   -9.360609208749746e-06
-1.050327121674065e-05   1.3186372383377977e-06   -9.360609208749746e-06
-1.050327121674065e-05   1.3186372383377977e-06   -9.360609208749746e-06
-1.4456268758818164e-05   1.4648423746109747e-06   -1.5623847884305168e-05
-1.4456268758818164e-05   1.4648423746109747e-06   -1.5623847884305168e-05
-1.4456268758818164e-05   1.4648423746109747e-06   -1.5623847884305168e-05
-1.4456268758818164e-05   1.4648423746109747e-06   -1.5623847884305168e-05
-6.860500670246057e-06   1.6385612906675228e-06   -2.860003053717699e-06
-6.860500670246057e-06   1.6385612906675228e-06   -2.860003053717699e-06
-6.860500670246057e-06   1.6385612906675228e-06   -2.860003053717699e-06
-6.860500670246057e-06   1.6385612906675228e-06   -2.860003053717699e-06
-6.902286237261199e-06   1.8001030164119018e-06   -1.5231096829331388e-05
-6.902286237261199e-06   1.8001030164119018e-06   -1.5231096829331388e-05
-6.902286237261199e-06   1.8001030164119018e-06   -1.5231096829331388e-05
-6.902286237261199e-06   1.8001030164119018e-06   -1.5231096829331388e-05
-1.45210567707183e-05   2.0281153162061977e-06   -2.6699533201127425e-06
-1.45210567707183e-05   2.0281153162061977e-06   -2.6699533201127425e-06
-1.45210567707183e-05   2.0281153162061977e-06   -2.6699533201127425e-06
-1.45210567707183e-05   2.0281153162061977e-06   -2.6699533201127425e-06
-1.0577708665101821e-05   1.6776295942733268e-06   -9.031908729647157e-06
-1.0577708665101821e-05   1.6776295942733268e-06   -9.031908729647157e-06
-1.0577708665101821e-05   1.6776295942733268e-06   -9.031908729647157e-06
-1.0577708665101821e-05   1.6776295942733268e-06   -9.031908729647157e-06
-1.45210567707183e-05   1.8001030164118984e-06   -1.536790420920794e-05
-1.45210567707183e-05   1.8001030164118984e-06   -1.536790420920794e-05
-1.45210567707183e-05   1.8001030164118984e-06   -1.536790420920794e-05
-1.45210567707183e-05   1.8001030164118984e-06   -1.536790420920794e-05
-6.902286237261211e-06   2.028115316206184e-06   -2.5331459402361982e-06
-6.902286237261211e-06   2.028115316206184e-06   -2.5331459402361982e-06
-6.902286237261211e-06   2.028115316206184e-06   -2.5331459402361982e-06
-6.902286237261211e-06   2.028115316206184e-06   -2.5331459402361982e-06
-6.877289008698727e-06   2.0979741571374407e-06   -1.507851829658918e-05
-6.877289008698727e-06   2.0979741571374407e-06   -1.507851829658918e-05
-6.877289008698727e-06   2.0979741571374407e-06   -1.507851829658918e-05
-6.877289008698727e-06   2.0979741571374407e-06   -1.507851829658918e-05
-1.4429707549563488e-05   2.448062767808286e-06   -2.7012072282170895e-06
-1.4429707549563488e-05   2.448062767808286e-06   -2.7012072282170895e-06
-1.4429707549563488e-05   2.448062767808286e-06   -2.7012072282170895e-06
-1.4429707549563488e-05   2.448062767808286e-06   -2.7012072282170895e-06
-1.0631638918320825e-05   2.002599148991141e-06   -8.764043442331251e-06
-1.0631638918320825e-05   2.002599148991141e-06   -8.764043442331251e-06
-1.0631638918320825e-05   2.002599148991141e-06   -8.764043442331251e-06
-1.0631638918320825e-05   2.002599148991141e-06   -8.764043442331251e-06
-6.708287158592125e-06   -1.3475004979052858e-07   -1.629098799860858e-05
-6.708287158592125e-06   -1.3475004979052858e-07   -1.629098799860858e-05
-6.708287158592125e-06   -1.3475004979052858e-07   -1.629098799860858e-05
-6.708287158592125e-06   -1.3475004979052858e-07   -1.629098799860858e-05
5.975427821226259e-07   -3.708348124608566e-08   -4.056004822957317e-06
5.975427821226259e-07   -3.708348124608566e-08   -4.056004822957317e-06
5.975427821226259e-07   -3.708348124608566e-08   -4.056004822957317e-06
5.975427821226259e-07   -3.708348124608566e-08   -4.056004822957317e-06
5.752816430083842e-07   2.613128464002711e-07   -1.6376211064310073e-05
5.752816430083842e-07   2.613128464002711e-07   -1.6376211064310073e-05
5.752816430083842e-07   2.613128464002711e-07   -1.6376211064310073e-05
5.752816430083842e-07   2.613128464002711e-07   -1.6376211064310073e-05
-6.860500670246057e-06   3.9590915591077827e-07   -4.0639983279256325e-06
-6.860500670246057e-06   3.9590915591077827e-07   -4.0639983279256325e-06
-6.860500670246057e-06   3.9590915591077827e-07   -4.0639983279256325e-06
-6.860500670246057e-06   3.9590915591077827e-07   -4.0639983279256325e-06
-3.1168999264131777e-06   1.322543119461472e-07   -1.0145139994601654e-05
-3.1168999264131777e-06   1.322543119461472e-07   -1.0145139994601654e-05
-3.1168999264131777e-06   1.322543119461472e-07   -1.0145139994601654e-05
-3.1168999264131777e-06   1.322543119461472e-07   -1.0145139994601654e-05
-6.860500670246057e-06   2.613128464002711e-07   -1.6456968850016378e-05
-6.860500670246057e-06   2.613128464002711e-07   -1.6456968850016378e-05
-6.860500670246057e-06   2.613128464002711e-07   -1.6456968850016378e-05
-6.860500670246057e-06   2.613128464002711e-07   -1.6456968850016378e-05
5.752816430083852e-07   3.9590915591077827e-07   -3.983240542219314e-06
5.752816430083852e-07   3.9590915591077827e-07   -3.983240542219314e-06
5.752816430083852e-07   3.9590915591077827e-07   -3.983240542219314e-06
5.752816430083852e-07   3.9590915591077827e-07   -3.983240542219314e-06
5.428561913532658e-07   6.107245321857657e-07   -1.6408403034666367e-05
5.428561913532658e-07   6.107245321857657e-07   -1.6408403034666367e-05
5.428561913532658e-07   6.107245321857657e-07   -1.6408403034666367e-05
5.428561913532658e-07   6.107245321857657e-07   -1.6408403034666367e-05
-6.902286237261187e-06   8.19256613019469e-07   -4.124951568809161e-06
-6.902286237261187e-06   8.19256613019469e-07   -4.124951568809161e-06
-6.902286237261187e-06   8.19256613019469e-07   -4.124951568809161e-06
-6.902286237261187e-06   8.19256613019469e-07   -4.124951568809161e-06
-3.1667753480555584e-06   4.98582170443493e-07   -1.0158398385272942e-05
-3.1667753480555584e-06   4.98582170443493e-07   -1.0158398385272942e-05
-3.1667753480555584e-06   4.98582170443493e-07   -1.0158398385272942e-05
-3.1667753480555584e-06   4.98582170443493e-07   -1.0158398385272942e-05
-6.902286237261187e-06   6.107245321857657e-07   -1.653352228316659e-05
-6.902286237261187e-06   6.107245321857657e-07   -1.653352228316659e-05
-6.902286237261187e-06   6.107245321857657e-07   -1.653352228316659e-05
-6.902286237261187e-06   6.107245321857657e-07   -1.653352228316659e-05
5.428561913532669e-07   8.19256613019469e-07   -3.999832320308964e-06
5.428561913532669e-07   8.19256613019469e-07   -3.999832320308964e-06
5.428561913532669e-07   8.19256613019469e-07   -3.999832320308964e-06
5.428561913532669e-07   8.19256613019469e-07   -3.999832320308964e-06
4.6837887467956994e-07   1.014594054278026e-06   -1.6381176061431714e-05
4.6837887467956994e-07   1.014594054278026e-06   -1.6381176061431714e-05
4.6837887467956994e-07   1.014594054278026e-06   -1.6381176061431714e-05
4.6837887467956994e-07   1.014594054278026e-06   -1.6381176061431714e-05
-6.877289008698721e-06   1.2600105589827363e-06   -4.285646158624064e-06
-6.877289008698721e-06   1.2600105589827363e-06   -4.285646158624064e-06
-6.877289008698721e-06   1.2600105589827363e-06   -4.285646158624064e-06
-6.877289008698721e-06   1.2600105589827363e-06   -4.285646158624064e-06
-3.193664374052152e-06   8.749219579035815e-07   -1.019396738905418e-05
-3.193664374052152e-06   8.749219579035815e-07   -1.019396738905418e-05
-3.193664374052152e-06   8.749219579035815e-07   -1.019396738905418e-05
-3.193664374052152e-06   8.749219579035815e-07   -1.019396738905418e-05
5.975427821226259e-07   -1.1683137618330668e-06   -1.5026832039616799e-05
5.975427821226259e-07   -1.1683137618330668e-06   -1.5026832039616799e-05
5.975427821226259e-07   -1.1683137618330668e-06   -1.5026832039616799e-05
5.975427821226259e-07   -1.1683137618330668e-06   -1.5026832039616799e-05
8.12592684863429e-06   -1.2004528000125205e-06   -2.498808685005037e-06
8.12592684863429e-06   -1.2004528000125205e-06   -2.498808685005037e-06
8.12592684863429e-06   -1.2004528000125205e-06   -2.498808685005037e-06
8.12592684863429e-06   -1.2004528000125205e-06   -2.498808685005037e-06
8.201957655680327e-06   -8.76779941872835e-07   -1.522765827942932e-05
8.201957655680327e-06   -8.76779941872835e-07   -1.522765827942932e-05
8.201957655680327e-06   -8.76779941872835e-07   -1.522765827942932e-05
8.201957655680327e-06   -8.76779941872835e-07   -1.522765827942932e-05
5.752816430083852e-07   -8.054582417791744e-07   -2.5593246116989464e-06
5.752816430083852e-07   -8.054582417791744e-07   -2.5593246116989464e-06
5.752816430083852e-07   -8.054582417791744e-07   -2.5593246116989464e-06
5.752816430083852e-07   -8.054582417791744e-07   -2.5593246116989464e-06
4.3194141743680016e-06   -9.667463724370644e-07   -8.702772618903575e-06
4.3194141743680016e-06   -9.667463724370644e-07   -8.702772618903575e-06
4.3194141743680016e-06   -9.667463724370644e-07   -8.702772618903575e-06
4.3194141743680016e-06   -9.667463724370644e-07   -8.702772618903575e-06
5.752816430083842e-07   -8.76779941872835e-07   -1.527045129948553e-05
5.752816430083842e-07   -8.76779941872835e-07   -1.527045129948553e-05
5.752816430083842e-07   -8.76779941872835e-07   -1.527045129948553e-05
5.752816430083842e-07   -8.76779941872835e-07   -1.527045129948553e-05
8.201957655680327e-06   -8.054582417791608e-07   -2.516531591642722e-06
8.201957655680327e-06   -8.054582417791608e-07   -2.516531591642722e-06
8.201957655680327e-06   -8.054582417791608e-07   -2.516531591642722e-06
8.201957655680327e-06   -8.054582417791608e-07   -2.516531591642722e-06
8.171306146393142e-06   -5.454147607580522e-07   -1.5507585864810447e-05
8.171306146393142e-06   -5.454147607580522e-07   -1.5507585864810447e-05
8.171306146393142e-06   -5.454147607580522e-07   -1.5507585864810447e-05
8.171306146393142e-06   -5.454147607580522e-07   -1.5507585864810447e-05
5.428561913532658e-07   -4.195280696244158e-07   -2.869034621090817e-06
5.428561913532658e-07   -4.195280696244158e-07   -2.869034621090817e-06
5.428561913532658e-07   -4.195280696244158e-07   -2.869034621090817e-06
5.428561913532658e-07   -4.195280696244158e-07   -2.869034621090817e-06
4.2811984031969665e-06   -6.528886793534129e-07   -8.959588608326256e-06
4.2811984031969665e-06   -6.528886793534129e-07   -8.959588608326256e-06
4.2811984031969665e-06   -6.528886793534129e-07   -8.959588608326256e-06
4.2811984031969665e-06   -6.528886793534129e-07   -8.959588608326256e-06
5.428561913532652e-07   -5.454147607580488e-07   -1.5583117879490582e-05
5.428561913532652e-07   -5.454147607580488e-07   -1.5583117879490582e-05
5.428561913532652e-07   -5.454147607580488e-07   -1.5583117879490582e-05
5.428561913532652e-07   -5.454147607580488e-07   -1.5583117879490582e-05
8.171306146393128e-06   -4.1952806962440223e-07   -2.7935026064106652e-06
8.171306146393128e-06   -4.1952806962440223e-07   -2.7935026064106652e-06
8.171306146393128e-06   -4.1952806962440223e-07   -2.7935026064106652e-06
8.171306146393128e-06   -4.1952806962440223e-07   -2.7935026064106652e-06
7.939636491570226e-06   -1.0105603990289653e-07   -1.5536138260974293e-05
7.939636491570226e-06   -1.0105603990289653e-07   -1.5536138260974293e-05
7.939636491570226e-06   -1.0105603990289653e-07   -1.5536138260974293e-05
7.939636491570226e-06   -1.0105603990289653e-07   -1.5536138260974293e-05
4.6837887467956994e-07   5.658820500813904e-08   -3.178628779769845e-06
4.6837887467956994e-07   5.658820500813904e-08   -3.178628779769845e-06
4.6837887467956994e-07   5.658820500813904e-08   -3.178628779769845e-06
4.6837887467956994e-07   5.658820500813904e-08   -3.178628779769845e-06
4.242085478200909e-06   -2.8641665362011756e-07   -9.262336870461766e-06
4.242085478200909e-06   -2.8641665362011756e-07   -9.262336870461766e-06
4.242085478200909e-06   -2.8641665362011756e-07   -9.262336870461766e-06
4.242085478200909e-06   -2.8641665362011756e-07   -9.262336870461766e-06
8.12592684863429e-06   -2.9734822732021105e-06   -9.088183133956715e-06
8.12592684863429e-06   -2.9734822732021105e-06   -9.088183133956715e-06
8.12592684863429e-06   -2.9734822732021105e-06   -9.088183133956715e-06
8.12592684863429e-06   -2.9734822732021105e-06   -9.088183133956715e-06
1.5538850324347602e-05   -2.223747307802563e-06   3.716530304805185e-06
1.5538850324347602e-05   -2.223747307802563e-06   3.716530304805185e-06
1.5538850324347602e-05   -2.223747307802563e-06   3.716530304805185e-06
1.5538850324347602e-05   -2.223747307802563e-06   3.716530304805185e-06
1.615233996994215e-05   -2.520686308300192e-06   -1.1005779630070165e-05
1.615233996994215e-05   -2.520686308300192e-06   -1.1005779630070165e-05
1.615233996994215e-05   -2.520686308300192e-06   -1.1005779630070165e-05
1.615233996994215e-05   -2.520686308300192e-06   -1.1005779630070165e-05
8.20195765568034e-06   -2.0099368985066797e-06   1.938407914490093e-06
8.20195765568034e-06   -2.0099368985066797e-06   1.938407914490093e-06
8.20195765568034e-06   -2.0099368985066797e-06   1.938407914490093e-06
8.20195765568034e-06   -2.0099368985066797e-06   1.938407914490093e-06
1.144604636722934e-05   -2.419839587348787e-06   -3.222464991453e-06
1.144604636722934e-05   -2.419839587348787e-06   -3.222464991453e-06
1.144604636722934e-05   -2.419839587348787e-06   -3.222464991453e-06
1.144604636722934e-05   -2.419839587348787e-06   -3.222464991453e-06
8.201957655680318e-06   -2.520686308300192e-06   -1.1312229275946227e-05
8.201957655680318e-06   -2.520686308300192e-06   -1.1312229275946227e-05
8.201957655680318e-06   -2.520686308300192e-06   -1.1312229275946227e-05
8.201957655680318e-06   -2.520686308300192e-06   -1.1312229275946227e-05
1.615233996994215e-05   -2.0099368985066932e-06   2.2448575603662254e-06
1.615233996994215e-05   -2.0099368985066932e-06   2.2448575603662254e-06
1.615233996994215e-05   -2.0099368985066932e-06   2.2448575603662254e-06
1.615233996994215e-05   -2.0099368985066932e-06   2.2448575603662254e-06
1.61061959482475e-05   -2.3000498789483447e-06   -1.1958709776815809e-05
1.61061959482475e-05   -2.3000498789483447e-06   -1.1958709776815809e-05
1.61061959482475e-05   -2.3000498789483447e-06   -1.1958709776815809e-05
1.61061959482475e-05   -2.3000498789483447e-06   -1.1958709776815809e-05
8.171306146393142e-06   -1.7880480562892036e-06   9.589054660126508e-07
8.171306146393142e-06   -1.7880480562892036e-06   9.589054660126508e-07
8.171306146393142e-06   -1.7880480562892036e-06   9.589054660126508e-07
8.171306146393142e-06   -1.7880480562892036e-06   9.589054660126508e-07
1.1859855107734934e-05   -2.1318193603795025e-06   -4.982413353769494e-06
1.1859855107734934e-05   -2.1318193603795025e-06   -4.982413353769494e-06
1.1859855107734934e-05   -2.1318193603795025e-06   -4.982413353769494e-06
1.1859855107734934e-05   -2.1318193603795025e-06   -4.982413353769494e-06
8.171306146393128e-06   -2.300049878948338e-06   -1.2265910870411268e-05
8.171306146393128e-06   -2.300049878948338e-06   -1.2265910870411268e-05
8.171306146393128e-06   -2.300049878948338e-06   -1.2265910870411268e-05
8.171306146393128e-06   -2.300049878948338e-06   -1.2265910870411268e-05
1.61061959482475e-05   -1.7880480562892036e-06   1.2661065596080996e-06
1.61061959482475e-05   -1.7880480562892036e-06   1.2661065596080996e-06
1.61061959482475e-05   -1.7880480562892036e-06   1.2661065596080996e-06
1.61061959482475e-05   -1.7880480562892036e-06   1.2661065596080996e-06
1.6025417762534906e-05   -1.7767536068317687e-06   -1.391027022167341e-05
1.6025417762534906e-05   -1.7767536068317687e-06   -1.391027022167341e-05
1.6025417762534906e-05   -1.7767536068317687e-06   -1.391027022167341e-05
1.6025417762534906e-05   -1.7767536068317687e-06   -1.391027022167341e-05
7.93963649157024e-06   -1.3112293556031011e-06   -7.13282654136172e-07
7.93963649157024e-06   -1.3112293556031011e-06   -7.13282654136172e-07
7.93963649157024e-06   -1.3112293556031011e-06   -7.13282654136172e-07
7.93963649157024e-06   -1.3112293556031011e-06   -7.13282654136172e-07
1.1530664639452558e-05   -1.8317642161321928e-06   -6.386008650955904e-06
1.1530664639452558e-05   -1.8317642161321928e-06   -6.386008650955904e-06
1.1530664639452558e-05   -1.8317642161321928e-06   -6.386008650955904e-06
1.1530664639452558e-05   -1.8317642161321928e-06   -6.386008650955904e-06
-1.7415154047273095e-05   2.5118739622347525e-06   -1.210772533945933e-05
-1.7415154047273095e-05   2.5118739622347525e-06   -1.210772533945933e-05
-1.7415154047273095e-05   2.5118739622347525e-06   -1.210772533945933e-05
-1.7415154047273095e-05   2.5118739622347525e-06   -1.210772533945933e-05
-1.144534378929389e-05   1.909223187908718e-06   -2.519632040756301e-06
-1.144534378929389e-05   1.909223187908718e-06   -2.519632040756301e-06
-1.144534378929389e-05   1.909223187908718e-06   -2.519632040756301e-06
-1.144534378929389e-05   1.909223187908718e-06   -2.519632040756301e-06
-1.1496175304805685e-05   3.0226178234867327e-06   -1.0058296013638397e-05
-1.1496175304805685e-05   3.0226178234867327e-06   -1.0058296013638397e-05
-1.1496175304805685e-05   3.0226178234867327e-06   -1.0058296013638397e-05
-1.1496175304805685e-05   3.0226178234867327e-06   -1.0058296013638397e-05
-1.713809846246754e-05   2.3150839907085878e-06   -2.3057045120175438e-07
-1.713809846246754e-05   2.3150839907085878e-06   -2.3057045120175438e-07
-1.713809846246754e-05   2.3150839907085878e-06   -2.3057045120175438e-07
-1.713809846246754e-05   2.3150839907085878e-06   -2.3057045120175438e-07
-1.3765126683341485e-05   2.556942573550631e-06   -5.997305232783781e-06
-1.3765126683341485e-05   2.556942573550631e-06   -5.997305232783781e-06
-1.3765126683341485e-05   2.556942573550631e-06   -5.997305232783781e-06
-1.3765126683341485e-05   2.556942573550631e-06   -5.997305232783781e-06
-1.713809846246754e-05   3.0226178234867327e-06   -9.633775713971512e-06
-1.713809846246754e-05   3.0226178234867327e-06   -9.633775713971512e-06
-1.713809846246754e-05   3.0226178234867327e-06   -9.633775713971512e-06
-1.713809846246754e-05   3.0226178234867327e-06   -9.633775713971512e-06
-1.1496175304805685e-05   2.3150839907085878e-06   -6.550907508686386e-07
-1.1496175304805685e-05   2.3150839907085878e-06   -6.550907508686386e-07
-1.1496175304805685e-05   2.3150839907085878e-06   -6.550907508686386e-07
-1.1496175304805685e-05   2.3150839907085878e-06   -6.550907508686386e-07
-1.1479741113125041e-05   3.2534322077780215e-06   -8.608841977227803e-06
-1.1479741113125041e-05   3.2534322077780215e-06   -8.608841977227803e-06
-1.1479741113125041e-05   3.2534322077780215e-06   -8.608841977227803e-06
-1.1479741113125041e-05   3.2534322077780215e-06   -8.608841977227803e-06
-1.6870568881816287e-05   2.4943560166715403e-06   8.313166852548217e-07
-1.6870568881816287e-05   2.4943560166715403e-06   8.313166852548217e-07
-1.6870568881816287e-05   2.4943560166715403e-06   8.313166852548217e-07
-1.6870568881816287e-05   2.4943560166715403e-06   8.313166852548217e-07
-1.3876920619807317e-05   2.792138774060531e-06   -4.336766739193519e-06
-1.3876920619807317e-05   2.792138774060531e-06   -4.336766739193519e-06
-1.3876920619807317e-05   2.792138774060531e-06   -4.336766739193519e-06
-1.3876920619807317e-05   2.792138774060531e-06   -4.336766739193519e-06
-1.6870568881816287e-05   3.2534322077780215e-06   -8.153396262563921e-06
-1.6870568881816287e-05   3.2534322077780215e-06   -8.153396262563921e-06
-1.6870568881816287e-05   3.2534322077780215e-06   -8.153396262563921e-06
-1.6870568881816287e-05   3.2534322077780215e-06   -8.153396262563921e-06
-1.1479741113125065e-05   2.4943560166715403e-06   3.7587097059096686e-07
-1.1479741113125065e-05   2.4943560166715403e-06   3.7587097059096686e-07
-1.1479741113125065e-05   2.4943560166715403e-06   3.7587097059096686e-07
-1.1479741113125065e-05   2.4943560166715403e-06   3.7587097059096686e-07
-1.148790764234016e-05   3.441153983108243e-06   -6.586933012811563e-06
-1.148790764234016e-05   3.441153983108243e-06   -6.586933012811563e-06
-1.148790764234016e-05   3.441153983108243e-06   -6.586933012811563e-06
-1.148790764234016e-05   3.441153983108243e-06   -6.586933012811563e-06
-1.6524802180427552e-05   2.6739491406891052e-06   2.2682141227854875e-06
-1.6524802180427552e-05   2.6739491406891052e-06   2.2682141227854875e-06
-1.6524802180427552e-05   2.6739491406891052e-06   2.2682141227854875e-06
-1.6524802180427552e-05   2.6739491406891052e-06   2.2682141227854875e-06
-1.355489623876535e-05   2.9183957388121914e-06   -2.8282970721918454e-06
-1.355489623876535e-05   2.9183957388121914e-06   -2.8282970721918454e-06
-1.355489623876535e-05   2.9183957388121914e-06   -2.8282970721918454e-06
-1.355489623876535e-05   2.9183957388121914e-06   -2.8282970721918454e-06
-1.144534378929389e-05   1.1690825842925828e-06   -1.4106084007706902e-05
-1.144534378929389e-05   1.1690825842925828e-06   -1.4106084007706902e-05
-1.144534378929389e-05   1.1690825842925828e-06   -1.4106084007706902e-05
-1.144534378929389e-05   1.1690825842925828e-06   -1.4106084007706902e-05
-5.855831491908e-06   9.55816899484086e-07   -4.918189589615501e-06
-5.855831491908e-06   9.55816899484086e-07   -4.918189589615501e-06
-5.855831491908e-06   9.55816899484086e-07   -4.918189589615501e-06
-5.855831491908e-06   9.55816899484086e-07   -4.918189589615501e-06
-5.923255507459761e-06   1.6385612906675228e-06   -1.3903163554409225e-05
-5.923255507459761e-06   1.6385612906675228e-06   -1.3903163554409225e-05
-5.923255507459761e-06   1.6385612906675228e-06   -1.3903163554409225e-05
-5.923255507459761e-06   1.6385612906675228e-06   -1.3903163554409225e-05
-1.1496175304805685e-05   1.3557915662105037e-06   -4.445302057491814e-06
-1.1496175304805685e-05   1.3557915662105037e-06   -4.445302057491814e-06
-1.1496175304805685e-05   1.3557915662105037e-06   -4.445302057491814e-06
-1.1496175304805685e-05   1.3557915662105037e-06   -4.445302057491814e-06
-8.605292906412307e-06   1.3534591431044489e-06   -9.262039934283806e-06
-8.605292906412307e-06   1.3534591431044489e-06   -9.262039934283806e-06
-8.605292906412307e-06   1.3534591431044489e-06   -9.262039934283806e-06
-8.605292906412307e-06   1.3534591431044489e-06   -9.262039934283806e-06
-1.1496175304805672e-05   1.6385612906675228e-06   -1.373350171973499e-05
-1.1496175304805672e-05   1.6385612906675228e-06   -1.373350171973499e-05
-1.1496175304805672e-05   1.6385612906675228e-06   -1.373350171973499e-05
-1.1496175304805672e-05   1.6385612906675228e-06   -1.373350171973499e-05
-5.923255507459771e-06   1.3557915662105308e-06   -4.614963892166022e-06
-5.923255507459771e-06   1.3557915662105308e-06   -4.614963892166022e-06
-5.923255507459771e-06   1.3557915662105308e-06   -4.614963892166022e-06
-5.923255507459771e-06   1.3557915662105308e-06   -4.614963892166022e-06
-5.96570279497478e-06   2.0281153162061977e-06   -1.353660716245596e-05
-5.96570279497478e-06   2.0281153162061977e-06   -1.353660716245596e-05
-5.96570279497478e-06   2.0281153162061977e-06   -1.353660716245596e-05
-5.96570279497478e-06   2.0281153162061977e-06   -1.353660716245596e-05
-1.1479741113125041e-05   1.7123445877014311e-06   -4.157080861769328e-06
-1.1479741113125041e-05   1.7123445877014311e-06   -4.157080861769328e-06
-1.1479741113125041e-05   1.7123445877014311e-06   -4.157080861769328e-06
-1.1479741113125041e-05   1.7123445877014311e-06   -4.157080861769328e-06
-8.617868994509854e-06   1.6833336140017032e-06   -8.909461141908098e-06
-8.617868994509854e-06   1.6833336140017032e-06   -8.909461141908098e-06
-8.617868994509854e-06   1.6833336140017032e-06   -8.909461141908098e-06
-8.617868994509854e-06   1.6833336140017032e-06   -8.909461141908098e-06
-1.1479741113125041e-05   2.0281153162061977e-06   -1.3347144725353093e-05
-1.1479741113125041e-05   2.0281153162061977e-06   -1.3347144725353093e-05
-1.1479741113125041e-05   2.0281153162061977e-06   -1.3347144725353093e-05
-1.1479741113125041e-05   2.0281153162061977e-06   -1.3347144725353093e-05
-5.9657027949747885e-06   1.712344587701404e-06   -4.346543298872181e-06
-5.9657027949747885e-06   1.712344587701404e-06   -4.346543298872181e-06
-5.9657027949747885e-06   1.712344587701404e-06   -4.346543298872181e-06
-5.9657027949747885e-06   1.712344587701404e-06   -4.346543298872181e-06
-6.022001540328391e-06   2.448062767808286e-06   -1.3504942548101917e-05
-6.022001540328391e-06   2.448062767808286e-06   -1.3504942548101917e-05
-6.022001540328391e-06   2.448062767808286e-06   -1.3504942548101917e-05
-6.022001540328391e-06   2.448062767808286e-06   -1.3504942548101917e-05
-1.1487907642340152e-05   2.0929072793184663e-06   -4.182005751655115e-06
-1.1487907642340152e-05   2.0929072793184663e-06   -4.182005751655115e-06
-1.1487907642340152e-05   2.0929072793184663e-06   -4.182005751655115e-06
-1.1487907642340152e-05   2.0929072793184663e-06   -4.182005751655115e-06
-8.716513351635192e-06   2.011152036684625e-06   -8.751943090582982e-06
-8.716513351635192e-06   2.011152036684625e-06   -8.751943090582982e-06
-8.716513351635192e-06   2.011152036684625e-06   -8.751943090582982e-06
-8.716513351635192e-06   2.011152036684625e-06   -8.751943090582982e-06
-5.8558314919079896e-06   -3.708348124608566e-08   -1.5223279611746625e-05
-5.8558314919079896e-06   -3.708348124608566e-08   -1.5223279611746625e-05
-5.8558314919079896e-06   -3.708348124608566e-08   -1.5223279611746625e-05
-5.8558314919079896e-06   -3.708348124608566e-08   -1.5223279611746625e-05
-3.2488279586614054e-07   5.163696079730183e-08   -5.95179951978417e-06
-3.2488279586614054e-07   5.163696079730183e-08   -5.95179951978417e-06
-3.2488279586614054e-07   5.163696079730183e-08   -5.95179951978417e-06
-3.2488279586614054e-07   5.163696079730183e-08   -5.95179951978417e-06
-3.785140746588331e-07   3.9590915591077827e-07   -1.5076827070626032e-05
-3.785140746588331e-07   3.9590915591077827e-07   -1.5076827070626032e-05
-3.785140746588331e-07   3.9590915591077827e-07   -1.5076827070626032e-05
-3.785140746588331e-07   3.9590915591077827e-07   -1.5076827070626032e-05
-5.923255507459751e-06   4.4646208589594347e-07   -5.8659231072822425e-06
-5.923255507459751e-06   4.4646208589594347e-07   -5.8659231072822425e-06
-5.923255507459751e-06   4.4646208589594347e-07   -5.8659231072822425e-06
-5.923255507459751e-06   4.4646208589594347e-07   -5.8659231072822425e-06
-3.102593765634874e-06   2.609593503535802e-07   -1.0455724368998307e-05
-3.102593765634874e-06   2.609593503535802e-07   -1.0455724368998307e-05
-3.102593765634874e-06   2.609593503535802e-07   -1.0455724368998307e-05
-3.102593765634874e-06   2.609593503535802e-07   -1.0455724368998307e-05
-5.923255507459761e-06   3.9590915591077827e-07   -1.5107158828617118e-05
-5.923255507459761e-06   3.9590915591077827e-07   -1.5107158828617118e-05
-5.923255507459761e-06   3.9590915591077827e-07   -1.5107158828617118e-05
-5.923255507459761e-06   3.9590915591077827e-07   -1.5107158828617118e-05
-3.785140746588331e-07   4.464620858959706e-07   -5.83559134929115e-06
-3.785140746588331e-07   4.464620858959706e-07   -5.83559134929115e-06
-3.785140746588331e-07   4.464620858959706e-07   -5.83559134929115e-06
-3.785140746588331e-07   4.464620858959706e-07   -5.83559134929115e-06
-4.159799630050489e-07   8.19256613019469e-07   -1.5115832261265174e-05
-4.159799630050489e-07   8.19256613019469e-07   -1.5115832261265174e-05
-4.159799630050489e-07   8.19256613019469e-07   -1.5115832261265174e-05
-4.159799630050489e-07   8.19256613019469e-07   -1.5115832261265174e-05
-5.96570279497478e-06   8.402241626257704e-07   -5.878874737746084e-06
-5.96570279497478e-06   8.402241626257704e-07   -5.878874737746084e-06
-5.96570279497478e-06   8.402241626257704e-07   -5.878874737746084e-06
-5.96570279497478e-06   8.402241626257704e-07   -5.878874737746084e-06
-3.172890786161562e-06   6.094468320616336e-07   -1.0395095020762957e-05
-3.172890786161562e-06   6.094468320616336e-07   -1.0395095020762957e-05
-3.172890786161562e-06   6.094468320616336e-07   -1.0395095020762957e-05
-3.172890786161562e-06   6.094468320616336e-07   -1.0395095020762957e-05
-5.96570279497478e-06   8.19256613019469e-07   -1.5128412791028967e-05
-5.96570279497478e-06   8.19256613019469e-07   -1.5128412791028967e-05
-5.96570279497478e-06   8.19256613019469e-07   -1.5128412791028967e-05
-5.96570279497478e-06   8.19256613019469e-07   -1.5128412791028967e-05
-4.159799630050489e-07   8.402241626257704e-07   -5.866294207982271e-06
-4.159799630050489e-07   8.402241626257704e-07   -5.866294207982271e-06
-4.159799630050489e-07   8.402241626257704e-07   -5.866294207982271e-06
-4.159799630050489e-07   8.402241626257704e-07   -5.866294207982271e-06
-4.769547920124211e-07   1.2600105589827363e-06   -1.530963065036613e-05
-4.769547920124211e-07   1.2600105589827363e-06   -1.530963065036613e-05
-4.769547920124211e-07   1.2600105589827363e-06   -1.530963065036613e-05
-4.769547920124211e-07   1.2600105589827363e-06   -1.530963065036613e-05
-6.022001540328396e-06   1.2430172165582044e-06   -6.057690064384832e-06
-6.022001540328396e-06   1.2430172165582044e-06   -6.057690064384832e-06
-6.022001540328396e-06   1.2430172165582044e-06   -6.057690064384832e-06
-6.022001540328396e-06   1.2430172165582044e-06   -6.057690064384832e-06
-3.2477767588730252e-06   9.6208527371861e-07   -1.051283886777326e-05
-3.2477767588730252e-06   9.6208527371861e-07   -1.051283886777326e-05
-3.2477767588730252e-06   9.6208527371861e-07   -1.051283886777326e-05
-3.2477767588730252e-06   9.6208527371861e-07   -1.051283886777326e-05
-3.2488279586614096e-07   -1.200452800012534e-06   -1.3593567785660627e-05
-3.2488279586614096e-07   -1.200452800012534e-06   -1.3593567785660627e-05
-3.2488279586614096e-07   -1.200452800012534e-06   -1.3593567785660627e-05
-3.2488279586614096e-07   -1.200452800012534e-06   -1.3593567785660627e-05
5.1708791400656705e-06   -7.983902087856001e-07   -4.192727004371475e-06
5.1708791400656705e-06   -7.983902087856001e-07   -4.192727004371475e-06
5.1708791400656705e-06   -7.983902087856001e-07   -4.192727004371475e-06
5.1708791400656705e-06   -7.983902087856001e-07   -4.192727004371475e-06
5.170590564669544e-06   -8.054582417791608e-07   -1.3430580948333119e-05
5.170590564669544e-06   -8.054582417791608e-07   -1.3430580948333119e-05
5.170590564669544e-06   -8.054582417791608e-07   -1.3430580948333119e-05
5.170590564669544e-06   -8.054582417791608e-07   -1.3430580948333119e-05
-3.785140746588331e-07   -4.349079221582753e-07   -4.404403407891682e-06
-3.785140746588331e-07   -4.349079221582753e-07   -4.404403407891682e-06
-3.785140746588331e-07   -4.349079221582753e-07   -4.404403407891682e-06
-3.785140746588331e-07   -4.349079221582753e-07   -4.404403407891682e-06
2.391663812948366e-06   -7.804940690858578e-07   -8.814014865747121e-06
2.391663812948366e-06   -7.804940690858578e-07   -8.814014865747121e-06
2.391663812948366e-06   -7.804940690858578e-07   -8.814014865747121e-06
2.391663812948366e-06   -7.804940690858578e-07   -8.814014865747121e-06
-3.785140746588331e-07   -8.054582417791608e-07   -1.3652911140105649e-05
-3.785140746588331e-07   -8.054582417791608e-07   -1.3652911140105649e-05
-3.785140746588331e-07   -8.054582417791608e-07   -1.3652911140105649e-05
-3.785140746588331e-07   -8.054582417791608e-07   -1.3652911140105649e-05
5.170590564669554e-06   -4.349079221582753e-07   -4.182073216119157e-06
5.170590564669554e-06   -4.349079221582753e-07   -4.182073216119157e-06
5.170590564669554e-06   -4.349079221582753e-07   -4.182073216119157e-06
5.170590564669554e-06   -4.349079221582753e-07   -4.182073216119157e-06
5.200535846765737e-06   -4.195280696244158e-07   -1.3780769621952451e-05
5.200535846765737e-06   -4.195280696244158e-07   -1.3780769621952451e-05
5.200535846765737e-06   -4.195280696244158e-07   -1.3780769621952451e-05
5.200535846765737e-06   -4.195280696244158e-07   -1.3780769621952451e-05
-4.1597996300504956e-07   -7.90865028000643e-08   -4.6241748790957695e-06
-4.1597996300504956e-07   -7.90865028000643e-08   -4.6241748790957695e-06
-4.1597996300504956e-07   -7.90865028000643e-08   -4.6241748790957695e-06
-4.1597996300504956e-07   -7.90865028000643e-08   -4.6241748790957695e-06
2.319802365733615e-06   -4.6568488968569877e-07   -8.951853061528817e-06
2.319802365733615e-06   -4.6568488968569877e-07   -8.951853061528817e-06
2.319802365733615e-06   -4.6568488968569877e-07   -8.951853061528817e-06
2.319802365733615e-06   -4.6568488968569877e-07   -8.951853061528817e-06
-4.159799630050483e-07   -4.195280696244158e-07   -1.3985034562047034e-05
-4.159799630050483e-07   -4.195280696244158e-07   -1.3985034562047034e-05
-4.159799630050483e-07   -4.195280696244158e-07   -1.3985034562047034e-05
-4.159799630050483e-07   -4.195280696244158e-07   -1.3985034562047034e-05
5.2005358467657434e-06   -7.90865028000372e-08   -4.419909939001128e-06
5.2005358467657434e-06   -7.90865028000372e-08   -4.419909939001128e-06
5.2005358467657434e-06   -7.90865028000372e-08   -4.419909939001128e-06
5.2005358467657434e-06   -7.90865028000372e-08   -4.419909939001128e-06
5.164818844873224e-06   5.658820500813904e-08   -1.4182493004868206e-05
5.164818844873224e-06   5.658820500813904e-08   -1.4182493004868206e-05
5.164818844873224e-06   5.658820500813904e-08   -1.4182493004868206e-05
5.164818844873224e-06   5.658820500813904e-08   -1.4182493004868206e-05
-4.769547920124219e-07   3.3553848745242567e-07   -4.946907112858734e-06
-4.769547920124219e-07   3.3553848745242567e-07   -4.946907112858734e-06
-4.769547920124219e-07   3.3553848745242567e-07   -4.946907112858734e-06
-4.769547920124219e-07   3.3553848745242567e-07   -4.946907112858734e-06
2.2966624085986363e-06   -1.3002687817165876e-07   -9.290263227835968e-06
2.2966624085986363e-06   -1.3002687817165876e-07   -9.290263227835968e-06
2.2966624085986363e-06   -1.3002687817165876e-07   -9.290263227835968e-06
2.2966624085986363e-06   -1.3002687817165876e-07   -9.290263227835968e-06
5.17087914006566e-06   -2.223747307802563e-06   -7.586832220353975e-06
5.17087914006566e-06   -2.223747307802563e-06   -7.586832220353975e-06
5.17087914006566e-06   -2.223747307802563e-06   -7.586832220353975e-06
5.17087914006566e-06   -2.223747307802563e-06   -7.586832220353975e-06
1.0287566734951393e-05   -1.4379669575670698e-06   1.4124486479302279e-06
1.0287566734951393e-05   -1.4379669575670698e-06   1.4124486479302279e-06
1.0287566734951393e-05   -1.4379669575670698e-06   1.4124486479302279e-06
1.0287566734951393e-05   -1.4379669575670698e-06   1.4124486479302279e-06
1.064896262726313e-05   -2.0099368985066932e-06   -8.505294330323125e-06
1.064896262726313e-05   -2.0099368985066932e-06   -8.505294330323125e-06
1.064896262726313e-05   -2.0099368985066932e-06   -8.505294330323125e-06
1.064896262726313e-05   -2.0099368985066932e-06   -8.505294330323125e-06
5.170590564669544e-06   -1.2260250453781027e-06   1.5497866212238958e-07
5.170590564669544e-06   -1.2260250453781027e-06   1.5497866212238958e-07
5.170590564669544e-06   -1.2260250453781027e-06   1.5497866212238958e-07
5.170590564669544e-06   -1.2260250453781027e-06   1.5497866212238958e-07
7.485563260879755e-06   -1.703456020393817e-06   -3.4168505798852077e-06
7.485563260879755e-06   -1.703456020393817e-06   -3.4168505798852077e-06
7.485563260879755e-06   -1.703456020393817e-06   -3.4168505798852077e-06
7.485563260879755e-06   -1.703456020393817e-06   -3.4168505798852077e-06
5.170590564669541e-06   -2.0099368985066797e-06   -8.97564144220024e-06
5.170590564669541e-06   -2.0099368985066797e-06   -8.97564144220024e-06
5.170590564669541e-06   -2.0099368985066797e-06   -8.97564144220024e-06
5.170590564669541e-06   -2.0099368985066797e-06   -8.97564144220024e-06
1.064896262726313e-05   -1.2260250453781027e-06   6.25325773999548e-07
1.064896262726313e-05   -1.2260250453781027e-06   6.25325773999548e-07
1.064896262726313e-05   -1.2260250453781027e-06   6.25325773999548e-07
1.064896262726313e-05   -1.2260250453781027e-06   6.25325773999548e-07
1.0929545252254632e-05   -1.7880480562892036e-06   -9.58379723622378e-06
1.0929545252254632e-05   -1.7880480562892036e-06   -9.58379723622378e-06
1.0929545252254632e-05   -1.7880480562892036e-06   -9.58379723622378e-06
1.0929545252254632e-05   -1.7880480562892036e-06   -9.58379723622378e-06
5.2005358467657265e-06   -1.0471075341135906e-06   -4.800125403810283e-07
5.2005358467657265e-06   -1.0471075341135906e-06   -4.800125403810283e-07
5.2005358467657265e-06   -1.0471075341135906e-06   -4.800125403810283e-07
5.2005358467657265e-06   -1.0471075341135906e-06   -4.800125403810283e-07
7.74809995802937e-06   -1.5669891101044816e-06   -4.414023780225844e-06
7.74809995802937e-06   -1.5669891101044816e-06   -4.414023780225844e-06
7.74809995802937e-06   -1.5669891101044816e-06   -4.414023780225844e-06
7.74809995802937e-06   -1.5669891101044816e-06   -4.414023780225844e-06
5.200535846765737e-06   -1.7880480562892036e-06   -1.0028361549529159e-05
5.200535846765737e-06   -1.7880480562892036e-06   -1.0028361549529159e-05
5.200535846765737e-06   -1.7880480562892036e-06   -1.0028361549529159e-05
5.200535846765737e-06   -1.7880480562892036e-06   -1.0028361549529159e-05
1.0929545252254612e-05   -1.0471075341135906e-06   -3.544822707560896e-08
1.0929545252254612e-05   -1.0471075341135906e-06   -3.544822707560896e-08
1.0929545252254612e-05   -1.0471075341135906e-06   -3.544822707560896e-08
1.0929545252254612e-05   -1.0471075341135906e-06   -3.544822707560896e-08
1.1230937223291372e-05   -1.3112293556031011e-06   -1.1425325754901759e-05
1.1230937223291372e-05   -1.3112293556031011e-06   -1.1425325754901759e-05
1.1230937223291372e-05   -1.3112293556031011e-06   -1.1425325754901759e-05
1.1230937223291372e-05   -1.3112293556031011e-06   -1.1425325754901759e-05
5.164818844873214e-06   -6.672165701374869e-07   -1.7015361288175658e-06
5.164818844873214e-06   -6.672165701374869e-07   -1.7015361288175658e-06
5.164818844873214e-06   -6.672165701374869e-07   -1.7015361288175658e-06
5.164818844873214e-06   -6.672165701374869e-07   -1.7015361288175658e-06
7.723484954572243e-06   -1.3464100424890414e-06   -5.558463561571646e-06
7.723484954572243e-06   -1.3464100424890414e-06   -5.558463561571646e-06
7.723484954572243e-06   -1.3464100424890414e-06   -5.558463561571646e-06
7.723484954572243e-06   -1.3464100424890414e-06   -5.558463561571646e-06
-1.2415305506089416e-05   1.909223187908718e-06   -9.51010520763325e-06
-1.2415305506089416e-05   1.909223187908718e-06   -9.51010520763325e-06
-1.2415305506089416e-05   1.909223187908718e-06   -9.51010520763325e-06
-1.2415305506089416e-05   1.909223187908718e-06   -9.51010520763325e-06
-8.492295479210407e-06   1.205013833162859e-06   -3.394280775682342e-06
-8.492295479210407e-06   1.205013833162859e-06   -3.394280775682342e-06
-8.492295479210407e-06   1.205013833162859e-06   -3.394280775682342e-06
-8.492295479210407e-06   1.205013833162859e-06   -3.394280775682342e-06
-8.460620176551353e-06   2.3150839907085878e-06   -8.081097147365652e-06
-8.460620176551353e-06   2.3150839907085878e-06   -8.081097147365652e-06
-8.460620176551353e-06   2.3150839907085878e-06   -8.081097147365652e-06
-8.460620176551353e-06   2.3150839907085878e-06   -8.081097147365652e-06
-1.2034715898768381e-05   1.5388013881195044e-06   -1.6585013821171426e-06
-1.2034715898768381e-05   1.5388013881195044e-06   -1.6585013821171426e-06
-1.2034715898768381e-05   1.5388013881195044e-06   -1.6585013821171426e-06
-1.2034715898768381e-05   1.5388013881195044e-06   -1.6585013821171426e-06
-9.911368398781133e-06   1.840231299144845e-06   -5.378271828711072e-06
-9.911368398781133e-06   1.840231299144845e-06   -5.378271828711072e-06
-9.911368398781133e-06   1.840231299144845e-06   -5.378271828711072e-06
-9.911368398781133e-06   1.840231299144845e-06   -5.378271828711072e-06
-1.2034715898768381e-05   2.3150839907085878e-06   -7.615327585812196e-06
-1.2034715898768381e-05   2.3150839907085878e-06   -7.615327585812196e-06
-1.2034715898768381e-05   2.3150839907085878e-06   -7.615327585812196e-06
-1.2034715898768381e-05   2.3150839907085878e-06   -7.615327585812196e-06
-8.460620176551373e-06   1.5388013881195044e-06   -2.124270943670571e-06
-8.460620176551373e-06   1.5388013881195044e-06   -2.124270943670571e-06
-8.460620176551373e-06   1.5388013881195044e-06   -2.124270943670571e-06
-8.460620176551373e-06   1.5388013881195044e-06   -2.124270943670571e-06
-8.395941479796254e-06   2.4943560166715403e-06   -7.047376139488441e-06
-8.395941479796254e-06   2.4943560166715403e-06   -7.047376139488441e-06
-8.395941479796254e-06   2.4943560166715403e-06   -7.047376139488441e-06
-8.395941479796254e-06   2.4943560166715403e-06   -7.047376139488441e-06
-1.1751846113339538e-05   1.695660725721358e-06   -9.74984575679498e-07
-1.1751846113339538e-05   1.695660725721358e-06   -9.74984575679498e-07
-1.1751846113339538e-05   1.695660725721358e-06   -9.74984575679498e-07
-1.1751846113339538e-05   1.695660725721358e-06   -9.74984575679498e-07
-9.908877215778672e-06   2.0267587825608692e-06   -4.245258239051288e-06
-9.908877215778672e-06   2.0267587825608692e-06   -4.245258239051288e-06
-9.908877215778672e-06   2.0267587825608692e-06   -4.245258239051288e-06
-9.908877215778672e-06   2.0267587825608692e-06   -4.245258239051288e-06
-1.1751846113339538e-05   2.4943560166715403e-06   -6.568158964918305e-06
-1.1751846113339538e-05   2.4943560166715403e-06   -6.568158964918305e-06
-1.1751846113339538e-05   2.4943560166715403e-06   -6.568158964918305e-06
-1.1751846113339538e-05   2.4943560166715403e-06   -6.568158964918305e-06
-8.395941479796267e-06   1.695660725721358e-06   -1.4542017502495937e-06
-8.395941479796267e-06   1.695660725721358e-06   -1.4542017502495937e-06
-8.395941479796267e-06   1.695660725721358e-06   -1.4542017502495937e-06
-8.395941479796267e-06   1.695660725721358e-06   -1.4542017502495937e-06
-8.371115608658434e-06   2.6739491406891323e-06   -5.621433520669293e-06
-8.371115608658434e-06   2.6739491406891323e-06   -5.621433520669293e-06
-8.371115608658434e-06   2.6739491406891323e-06   -5.621433520669293e-06
-8.371115608658434e-06   2.6739491406891323e-06   -5.621433520669293e-06
-1.138363051883145e-05   1.8949665383910497e-06   -1.331857756686728e-07
-1.138363051883145e-05   1.8949665383910497e-06   -1.331857756686728e-07
-1.138363051883145e-05   1.8949665383910497e-06   -1.331857756686728e-07
-1.138363051883145e-05   1.8949665383910497e-06   -1.331857756686728e-07
-9.61410545298804e-06   2.1303809821908177e-06   -3.2236428850209136e-06
-9.61410545298804e-06   2.1303809821908177e-06   -3.2236428850209136e-06
-9.61410545298804e-06   2.1303809821908177e-06   -3.2236428850209136e-06
-9.61410545298804e-06   2.1303809821908177e-06   -3.2236428850209136e-06
-8.492295479210394e-06   9.55816899484086e-07   -1.2203228958454861e-05
-8.492295479210394e-06   9.55816899484086e-07   -1.2203228958454861e-05
-8.492295479210394e-06   9.55816899484086e-07   -1.2203228958454861e-05
-8.492295479210394e-06   9.55816899484086e-07   -1.2203228958454861e-05
-4.924394346008954e-06   6.29359130148346e-07   -6.452601731387216e-06
-4.924394346008954e-06   6.29359130148346e-07   -6.452601731387216e-06
-4.924394346008954e-06   6.29359130148346e-07   -6.452601731387216e-06
-4.924394346008954e-06   6.29359130148346e-07   -6.452601731387216e-06
-4.927160481582696e-06   1.3557915662105308e-06   -1.2095182744953988e-05
-4.927160481582696e-06   1.3557915662105308e-06   -1.2095182744953988e-05
-4.927160481582696e-06   1.3557915662105308e-06   -1.2095182744953988e-05
-4.927160481582696e-06   1.3557915662105308e-06   -1.2095182744953988e-05
-8.460620176551353e-06   9.826677479352725e-07   -5.9822089623744065e-06
-8.460620176551353e-06   9.826677479352725e-07   -5.9822089623744065e-06
-8.460620176551353e-06   9.826677479352725e-07   -5.9822089623744065e-06
-8.460620176551353e-06   9.826677479352725e-07   -5.9822089623744065e-06
-6.639017488452024e-06   1.0494247109187602e-06   -9.058267620330072e-06
-6.639017488452024e-06   1.0494247109187602e-06   -9.058267620330072e-06
-6.639017488452024e-06   1.0494247109187602e-06   -9.058267620330072e-06
-6.639017488452024e-06   1.0494247109187602e-06   -9.058267620330072e-06
-8.460620176551353e-06   1.3557915662105037e-06   -1.18713084539888e-05
-8.460620176551353e-06   1.3557915662105037e-06   -1.18713084539888e-05
-8.460620176551353e-06   1.3557915662105037e-06   -1.18713084539888e-05
-8.460620176551353e-06   1.3557915662105037e-06   -1.18713084539888e-05
-4.927160481582696e-06   9.826677479352996e-07   -6.206083253339513e-06
-4.927160481582696e-06   9.826677479352996e-07   -6.206083253339513e-06
-4.927160481582696e-06   9.826677479352996e-07   -6.206083253339513e-06
-4.927160481582696e-06   9.826677479352996e-07   -6.206083253339513e-06
-4.92406767441907e-06   1.7123445877014311e-06   -1.1824438873801247e-05
-4.92406767441907e-06   1.7123445877014311e-06   -1.1824438873801247e-05
-4.92406767441907e-06   1.7123445877014311e-06   -1.1824438873801247e-05
-4.92406767441907e-06   1.7123445877014311e-06   -1.1824438873801247e-05
-8.395941479796254e-06   1.3054930844471355e-06   -5.7938716295533954e-06
-8.395941479796254e-06   1.3054930844471355e-06   -5.7938716295533954e-06
-8.395941479796254e-06   1.3054930844471355e-06   -5.7938716295533954e-06
-8.395941479796254e-06   1.3054930844471355e-06   -5.7938716295533954e-06
-6.608714609702662e-06   1.3408224054941393e-06   -8.793780672337466e-06
-6.608714609702662e-06   1.3408224054941393e-06   -8.793780672337466e-06
-6.608714609702662e-06   1.3408224054941393e-06   -8.793780672337466e-06
-6.608714609702662e-06   1.3408224054941393e-06   -8.793780672337466e-06
-8.395941479796254e-06   1.7123445877014311e-06   -1.1580327971848716e-05
-8.395941479796254e-06   1.7123445877014311e-06   -1.1580327971848716e-05
-8.395941479796254e-06   1.7123445877014311e-06   -1.1580327971848716e-05
-8.395941479796254e-06   1.7123445877014311e-06   -1.1580327971848716e-05
-4.92406767441908e-06   1.3054930844471626e-06   -6.037982531505947e-06
-4.92406767441908e-06   1.3054930844471626e-06   -6.037982531505947e-06
-4.92406767441908e-06   1.3054930844471626e-06   -6.037982531505947e-06
-4.92406767441908e-06   1.3054930844471626e-06   -6.037982531505947e-06
-4.92882169059757e-06   2.0929072793184663e-06   -1.187256475708288e-05
-4.92882169059757e-06   2.0929072793184663e-06   -1.187256475708288e-05
-4.92882169059757e-06   2.0929072793184663e-06   -1.187256475708288e-05
-4.92882169059757e-06   2.0929072793184663e-06   -1.187256475708288e-05
-8.37111560865842e-06   1.6575168336110252e-06   -5.87417395955697e-06
-8.37111560865842e-06   1.6575168336110252e-06   -5.87417395955697e-06
-8.37111560865842e-06   1.6575168336110252e-06   -5.87417395955697e-06
-8.37111560865842e-06   1.6575168336110252e-06   -5.87417395955697e-06
-6.652089718174635e-06   1.630506759641787e-06   -8.723011065981767e-06
-6.652089718174635e-06   1.630506759641787e-06   -8.723011065981767e-06
-6.652089718174635e-06   1.630506759641787e-06   -8.723011065981767e-06
-6.652089718174635e-06   1.630506759641787e-06   -8.723011065981767e-06
-4.924394346008944e-06   5.163696079730183e-08   -1.3485945815451008e-05
-4.924394346008944e-06   5.163696079730183e-08   -1.3485945815451008e-05
-4.924394346008944e-06   5.163696079730183e-08   -1.3485945815451008e-05
-4.924394346008944e-06   5.163696079730183e-08   -1.3485945815451008e-05
-1.400216624780746e-06   1.1231904597553983e-07   -7.575907028963759e-06
-1.400216624780746e-06   1.1231904597553983e-07   -7.575907028963759e-06
-1.400216624780746e-06   1.1231904597553983e-07   -7.575907028963759e-06
-1.400216624780746e-06   1.1231904597553983e-07   -7.575907028963759e-06
-1.4035064075572444e-06   4.464620858959706e-07   -1.333265287838837e-05
-1.4035064075572444e-06   4.464620858959706e-07   -1.333265287838837e-05
-1.4035064075572444e-06   4.464620858959706e-07   -1.333265287838837e-05
-1.4035064075572444e-06   4.464620858959706e-07   -1.333265287838837e-05
-4.927160481582686e-06   4.6894388869904934e-07   -7.473385170027798e-06
-4.927160481582686e-06   4.6894388869904934e-07   -7.473385170027798e-06
-4.927160481582686e-06   4.6894388869904934e-07   -7.473385170027798e-06
-4.927160481582686e-06   4.6894388869904934e-07   -7.473385170027798e-06
-3.1424749907550173e-06   3.1713978748752454e-07   -1.0356778527347011e-05
-3.1424749907550173e-06   3.1713978748752454e-07   -1.0356778527347011e-05
-3.1424749907550173e-06   3.1713978748752454e-07   -1.0356778527347011e-05
-3.1424749907550173e-06   3.1713978748752454e-07   -1.0356778527347011e-05
-4.927160481582686e-06   4.464620858959706e-07   -1.3346141960070209e-05
-4.927160481582686e-06   4.464620858959706e-07   -1.3346141960070209e-05
-4.927160481582686e-06   4.464620858959706e-07   -1.3346141960070209e-05
-4.927160481582686e-06   4.464620858959706e-07   -1.3346141960070209e-05
-1.4035064075572444e-06   4.6894388869904934e-07   -7.459896088345925e-06
-1.4035064075572444e-06   4.6894388869904934e-07   -7.459896088345925e-06
-1.4035064075572444e-06   4.6894388869904934e-07   -7.459896088345925e-06
-1.4035064075572444e-06   4.6894388869904934e-07   -7.459896088345925e-06
-1.3992689515109671e-06   8.402241626257704e-07   -1.3364866305989214e-05
-1.3992689515109671e-06   8.402241626257704e-07   -1.3364866305989214e-05
-1.3992689515109671e-06   8.402241626257704e-07   -1.3364866305989214e-05
-1.3992689515109671e-06   8.402241626257704e-07   -1.3364866305989214e-05
-4.92406767441907e-06   8.267308404356368e-07   -7.4821057744949644e-06
-4.92406767441907e-06   8.267308404356368e-07   -7.4821057744949644e-06
-4.92406767441907e-06   8.267308404356368e-07   -7.4821057744949644e-06
-4.92406767441907e-06   8.267308404356368e-07   -7.4821057744949644e-06
-3.163997067891582e-06   6.299127008415912e-07   -1.0297465901617656e-05
-3.163997067891582e-06   6.299127008415912e-07   -1.0297465901617656e-05
-3.163997067891582e-06   6.299127008415912e-07   -1.0297465901617656e-05
-3.163997067891582e-06   6.299127008415912e-07   -1.0297465901617656e-05
-4.92406767441907e-06   8.402241626257704e-07   -1.335677031267515e-05
-4.92406767441907e-06   8.402241626257704e-07   -1.335677031267515e-05
-4.92406767441907e-06   8.402241626257704e-07   -1.335677031267515e-05
-4.92406767441907e-06   8.402241626257704e-07   -1.335677031267515e-05
-1.3992689515109671e-06   8.267308404356368e-07   -7.490201767809015e-06
-1.3992689515109671e-06   8.267308404356368e-07   -7.490201767809015e-06
-1.3992689515109671e-06   8.267308404356368e-07   -7.490201767809015e-06
-1.3992689515109671e-06   8.267308404356368e-07   -7.490201767809015e-06
-1.4016822293120513e-06   1.2430172165582044e-06   -1.3566502579405893e-05
-1.4016822293120513e-06   1.2430172165582044e-06   -1.3566502579405893e-05
-1.4016822293120513e-06   1.2430172165582044e-06   -1.3566502579405893e-05
-1.4016822293120513e-06   1.2430172165582044e-06   -1.3566502579405893e-05
-4.928821690597573e-06   1.1907725454129298e-06   -7.656590007909488e-06
-4.928821690597573e-06   1.1907725454129298e-06   -7.656590007909488e-06
-4.928821690597573e-06   1.1907725454129298e-06   -7.656590007909488e-06
-4.928821690597573e-06   1.1907725454129298e-06   -7.656590007909488e-06
-3.1916609590718634e-06   9.468049317783362e-07   -1.0405477325604917e-05
-3.1916609590718634e-06   9.468049317783362e-07   -1.0405477325604917e-05
-3.1916609590718634e-06   9.468049317783362e-07   -1.0405477325604917e-05
-3.1916609590718634e-06   9.468049317783362e-07   -1.0405477325604917e-05
-1.4002166247807436e-06   -7.983902087856001e-07   -1.1931701603667516e-05
-1.4002166247807436e-06   -7.983902087856001e-07   -1.1931701603667516e-05
-1.4002166247807436e-06   -7.983902087856001e-07   -1.1931701603667516e-05
-1.4002166247807436e-06   -7.983902087856001e-07   -1.1931701603667516e-05
2.0636145607450878e-06   -3.5942478804226697e-07   -5.895270375345143e-06
2.0636145607450878e-06   -3.5942478804226697e-07   -5.895270375345143e-06
2.0636145607450878e-06   -3.5942478804226697e-07   -5.895270375345143e-06
2.0636145607450878e-06   -3.5942478804226697e-07   -5.895270375345143e-06
2.0915713284290084e-06   -4.349079221582753e-07   -1.1653783793126517e-05
2.0915713284290084e-06   -4.349079221582753e-07   -1.1653783793126517e-05
2.0915713284290084e-06   -4.349079221582753e-07   -1.1653783793126517e-05
2.0915713284290084e-06   -4.349079221582753e-07   -1.1653783793126517e-05
-1.403506407557242e-06   -2.2106015720989866e-08   -6.076335377011788e-06
-1.403506407557242e-06   -2.2106015720989866e-08   -6.076335377011788e-06
-1.403506407557242e-06   -2.2106015720989866e-08   -6.076335377011788e-06
-1.403506407557242e-06   -2.2106015720989866e-08   -6.076335377011788e-06
3.411586320690846e-07   -3.724988907015121e-07   -8.773874718067363e-06
3.411586320690846e-07   -3.724988907015121e-07   -8.773874718067363e-06
3.411586320690846e-07   -3.724988907015121e-07   -8.773874718067363e-06
3.411586320690846e-07   -3.724988907015121e-07   -8.773874718067363e-06
-1.4035064075572444e-06   -4.349079221582753e-07   -1.19014649369889e-05
-1.4035064075572444e-06   -4.349079221582753e-07   -1.19014649369889e-05
-1.4035064075572444e-06   -4.349079221582753e-07   -1.19014649369889e-05
-1.4035064075572444e-06   -4.349079221582753e-07   -1.19014649369889e-05
2.0915713284290084e-06   -2.2106015720989866e-08   -5.828654233149412e-06
2.0915713284290084e-06   -2.2106015720989866e-08   -5.828654233149412e-06
2.0915713284290084e-06   -2.2106015720989866e-08   -5.828654233149412e-06
2.0915713284290084e-06   -2.2106015720989866e-08   -5.828654233149412e-06
2.159740187887349e-06   -7.90865028000643e-08   -1.1894636182298917e-05
2.159740187887349e-06   -7.90865028000643e-08   -1.1894636182298917e-05
2.159740187887349e-06   -7.90865028000643e-08   -1.1894636182298917e-05
2.159740187887349e-06   -7.90865028000643e-08   -1.1894636182298917e-05
-1.3992689515109648e-06   3.010981552062082e-07   -6.191065078105505e-06
-1.3992689515109648e-06   3.010981552062082e-07   -6.191065078105505e-06
-1.3992689515109648e-06   3.010981552062082e-07   -6.191065078105505e-06
-1.3992689515109648e-06   3.010981552062082e-07   -6.191065078105505e-06
3.2061395506641983e-07   -9.157620829681155e-08   -8.821931970965955e-06
3.2061395506641983e-07   -9.157620829681155e-08   -8.821931970965955e-06
3.2061395506641983e-07   -9.157620829681155e-08   -8.821931970965955e-06
3.2061395506641983e-07   -9.157620829681155e-08   -8.821931970965955e-06
-1.399268951510966e-06   -7.90865028000643e-08   -1.212274697710264e-05
-1.399268951510966e-06   -7.90865028000643e-08   -1.212274697710264e-05
-1.399268951510966e-06   -7.90865028000643e-08   -1.212274697710264e-05
-1.399268951510966e-06   -7.90865028000643e-08   -1.212274697710264e-05
2.1597401878873526e-06   3.010981552062082e-07   -5.9629542833017205e-06
2.1597401878873526e-06   3.010981552062082e-07   -5.9629542833017205e-06
2.1597401878873526e-06   3.010981552062082e-07   -5.9629542833017205e-06
2.1597401878873526e-06   3.010981552062082e-07   -5.9629542833017205e-06
2.1936831286055875e-06   3.3553848745239857e-07   -1.2244803811040569e-05
2.1936831286055875e-06   3.3553848745239857e-07   -1.2244803811040569e-05
2.1936831286055875e-06   3.3553848745239857e-07   -1.2244803811040569e-05
2.1936831286055875e-06   3.3553848745239857e-07   -1.2244803811040569e-05
-1.4016822293120513e-06   6.70071506426545e-07   -6.453248025895604e-06
-1.4016822293120513e-06   6.70071506426545e-07   -6.453248025895604e-06
-1.4016822293120513e-06   6.70071506426545e-07   -6.453248025895604e-06
-1.4016822293120513e-06   6.70071506426545e-07   -6.453248025895604e-06
3.32078969769284e-07   2.0742340509468304e-07   -9.065261163565345e-06
3.32078969769284e-07   2.0742340509468304e-07   -9.065261163565345e-06
3.32078969769284e-07   2.0742340509468304e-07   -9.065261163565345e-06
3.32078969769284e-07   2.0742340509468304e-07   -9.065261163565345e-06
2.0636145607450844e-06   -1.4379669575670698e-06   -6.534614909061131e-06
2.0636145607450844e-06   -1.4379669575670698e-06   -6.534614909061131e-06
2.0636145607450844e-06   -1.4379669575670698e-06   -6.534614909061131e-06
2.0636145607450844e-06   -1.4379669575670698e-06   -6.534614909061131e-06
5.106011997125774e-06   -6.523783747506326e-07   -9.925993654034254e-07
5.106011997125774e-06   -6.523783747506326e-07   -9.925993654034254e-07
5.106011997125774e-06   -6.523783747506326e-07   -9.925993654034254e-07
5.106011997125774e-06   -6.523783747506326e-07   -9.925993654034254e-07
5.479480572562552e-06   -1.2260250453781027e-06   -6.834362757568344e-06
5.479480572562552e-06   -1.2260250453781027e-06   -6.834362757568344e-06
5.479480572562552e-06   -1.2260250453781027e-06   -6.834362757568344e-06
5.479480572562552e-06   -1.2260250453781027e-06   -6.834362757568344e-06
2.0915713284290084e-06   -4.2207644985036027e-07   -1.670216507995752e-06
2.0915713284290084e-06   -4.2207644985036027e-07   -1.670216507995752e-06
2.0915713284290084e-06   -4.2207644985036027e-07   -1.670216507995752e-06
2.0915713284290084e-06   -4.2207644985036027e-07   -1.670216507995752e-06
3.5280321777231096e-06   -9.053542393099696e-07   -3.7743512498101704e-06
3.5280321777231096e-06   -9.053542393099696e-07   -3.7743512498101704e-06
3.5280321777231096e-06   -9.053542393099696e-07   -3.7743512498101704e-06
3.5280321777231096e-06   -9.053542393099696e-07   -3.7743512498101704e-06
2.091571328429005e-06   -1.2260250453781027e-06   -7.3167319148849505e-06
2.091571328429005e-06   -1.2260250453781027e-06   -7.3167319148849505e-06
2.091571328429005e-06   -1.2260250453781027e-06   -7.3167319148849505e-06
2.091571328429005e-06   -1.2260250453781027e-06   -7.3167319148849505e-06
5.479480572562552e-06   -4.2207644985036027e-07   -1.1878473506790849e-06
5.479480572562552e-06   -4.2207644985036027e-07   -1.1878473506790849e-06
5.479480572562552e-06   -4.2207644985036027e-07   -1.1878473506790849e-06
5.479480572562552e-06   -4.2207644985036027e-07   -1.1878473506790849e-06
5.768420609145416e-06   -1.0471075341135906e-06   -7.485302091785527e-06
5.768420609145416e-06   -1.0471075341135906e-06   -7.485302091785527e-06
5.768420609145416e-06   -1.0471075341135906e-06   -7.485302091785527e-06
5.768420609145416e-06   -1.0471075341135906e-06   -7.485302091785527e-06
2.1597401878873526e-06   -2.6471304762483395e-07   -1.9402714149153484e-06
2.1597401878873526e-06   -2.6471304762483395e-07   -1.9402714149153484e-06
2.1597401878873526e-06   -2.6471304762483395e-07   -1.9402714149153484e-06
2.1597401878873526e-06   -2.6471304762483395e-07   -1.9402714149153484e-06
3.753346689802139e-06   -7.863489955377799e-07   -4.283300682692191e-06
3.753346689802139e-06   -7.863489955377799e-07   -4.283300682692191e-06
3.753346689802139e-06   -7.863489955377799e-07   -4.283300682692191e-06
3.753346689802139e-06   -7.863489955377799e-07   -4.283300682692191e-06
2.159740187887349e-06   -1.0471075341135906e-06   -7.95473878367879e-06
2.159740187887349e-06   -1.0471075341135906e-06   -7.95473878367879e-06
2.159740187887349e-06   -1.0471075341135906e-06   -7.95473878367879e-06
2.159740187887349e-06   -1.0471075341135906e-06   -7.95473878367879e-06
5.768420609145416e-06   -2.6471304762483395e-07   -1.4708347230220375e-06
5.768420609145416e-06   -2.6471304762483395e-07   -1.4708347230220375e-06
5.768420609145416e-06   -2.6471304762483395e-07   -1.4708347230220375e-06
5.768420609145416e-06   -2.6471304762483395e-07   -1.4708347230220375e-06
6.154496806854562e-06   -6.672165701374869e-07   -8.74154198278915e-06
6.154496806854562e-06   -6.672165701374869e-07   -8.74154198278915e-06
6.154496806854562e-06   -6.672165701374869e-07   -8.74154198278915e-06
6.154496806854562e-06   -6.672165701374869e-07   -8.74154198278915e-06
2.193683128605591e-06   4.155178599053776e-08   -2.5654468660510054e-06
2.193683128605591e-06   4.155178599053776e-08   -2.5654468660510054e-06
2.193683128605591e-06   4.155178599053776e-08   -2.5654468660510054e-06
2.193683128605591e-06   4.155178599053776e-08   -2.5654468660510054e-06
3.833421403379277e-06   -6.136727902961874e-07   -4.905209244901789e-06
3.833421403379277e-06   -6.136727902961874e-07   -4.905209244901789e-06
3.833421403379277e-06   -6.136727902961874e-07   -4.905209244901789e-06
3.833421403379277e-06   -6.136727902961874e-07   -4.905209244901789e-06
-7.427146676043973e-06   1.205013833162859e-06   -7.01929893662408e-06
-7.427146676043973e-06   1.205013833162859e-06   -7.01929893662408e-06
-7.427146676043973e-06   1.205013833162859e-06   -7.01929893662408e-06
-7.427146676043973e-06   1.205013833162859e-06   -7.01929893662408e-06
-5.536007438152561e-06   4.822809664569144e-07   -4.301039926828647e-06
-5.536007438152561e-06   4.822809664569144e-07   -4.301039926828647e-06
-5.536007438152561e-06   4.822809664569144e-07   -4.301039926828647e-06
-5.536007438152561e-06   4.822809664569144e-07   -4.301039926828647e-06
-5.457467124299513e-06   1.5388013881195044e-06   -6.192625580305573e-06
-5.457467124299513e-06   1.5388013881195044e-06   -6.192625580305573e-06
-5.457467124299513e-06   1.5388013881195044e-06   -6.192625580305573e-06
-5.457467124299513e-06   1.5388013881195044e-06   -6.192625580305573e-06
-7.017166827985011e-06   7.581680204097685e-07   -3.124746053537246e-06
-7.017166827985011e-06   7.581680204097685e-07   -3.124746053537246e-06
-7.017166827985011e-06   7.581680204097685e-07   -3.124746053537246e-06
-7.017166827985011e-06   7.581680204097685e-07   -3.124746053537246e-06
-6.090169609963509e-06   1.0826429347723303e-06   -4.864426365524212e-06
-6.090169609963509e-06   1.0826429347723303e-06   -4.864426365524212e-06
-6.090169609963509e-06   1.0826429347723303e-06   -4.864426365524212e-06
-6.090169609963509e-06   1.0826429347723303e-06   -4.864426365524212e-06
-7.017166827985011e-06   1.5388013881195044e-06   -5.724245559679769e-06
-7.017166827985011e-06   1.5388013881195044e-06   -5.724245559679769e-06
-7.017166827985011e-06   1.5388013881195044e-06   -5.724245559679769e-06
-7.017166827985011e-06   1.5388013881195044e-06   -5.724245559679769e-06
-5.4574671242995265e-06   7.581680204097685e-07   -3.5931260741630766e-06
-5.4574671242995265e-06   7.581680204097685e-07   -3.5931260741630766e-06
-5.4574671242995265e-06   7.581680204097685e-07   -3.5931260741630766e-06
-5.4574671242995265e-06   7.581680204097685e-07   -3.5931260741630766e-06
-5.344485921930421e-06   1.695660725721358e-06   -5.5284628295682145e-06
-5.344485921930421e-06   1.695660725721358e-06   -5.5284628295682145e-06
-5.344485921930421e-06   1.695660725721358e-06   -5.5284628295682145e-06
-5.344485921930421e-06   1.695660725721358e-06   -5.5284628295682145e-06
-6.692725575246949e-06   8.991837696944007e-07   -2.803510567091162e-06
-6.692725575246949e-06   8.991837696944007e-07   -2.803510567091162e-06
-6.692725575246949e-06   8.991837696944007e-07   -2.803510567091162e-06
-6.692725575246949e-06   8.991837696944007e-07   -2.803510567091162e-06
-5.983470445790925e-06   1.232172417661194e-06   -4.185395638297949e-06
-5.983470445790925e-06   1.232172417661194e-06   -4.185395638297949e-06
-5.983470445790925e-06   1.232172417661194e-06   -4.185395638297949e-06
-5.983470445790925e-06   1.232172417661194e-06   -4.185395638297949e-06
-6.692725575246935e-06   1.695660725721358e-06   -5.050576655952062e-06
-6.692725575246935e-06   1.695660725721358e-06   -5.050576655952062e-06
-6.692725575246935e-06   1.695660725721358e-06   -5.050576655952062e-06
-6.692725575246935e-06   1.695660725721358e-06   -5.050576655952062e-06
-5.344485921930435e-06   8.991837696944007e-07   -3.281396740707342e-06
-5.344485921930435e-06   8.991837696944007e-07   -3.281396740707342e-06
-5.344485921930435e-06   8.991837696944007e-07   -3.281396740707342e-06
-5.344485921930435e-06   8.991837696944007e-07   -3.281396740707342e-06
-5.269835886173497e-06   1.8949665383910226e-06   -4.679938827944368e-06
-5.269835886173497e-06   1.8949665383910226e-06   -4.679938827944368e-06
-5.269835886173497e-06   1.8949665383910226e-06   -4.679938827944368e-06
-5.269835886173497e-06   1.8949665383910226e-06   -4.679938827944368e-06
-6.280227011306658e-06   1.1233577073240571e-06   -2.5329883207488306e-06
-6.280227011306658e-06   1.1233577073240571e-06   -2.5329883207488306e-06
-6.280227011306658e-06   1.1233577073240571e-06   -2.5329883207488306e-06
-6.280227011306658e-06   1.1233577073240571e-06   -2.5329883207488306e-06
-5.705600184384414e-06   1.3383991933797203e-06   -3.6197245905861204e-06
-5.705600184384414e-06   1.3383991933797203e-06   -3.6197245905861204e-06
-5.705600184384414e-06   1.3383991933797203e-06   -3.6197245905861204e-06
-5.705600184384414e-06   1.3383991933797203e-06   -3.6197245905861204e-06
-5.536007438152561e-06   6.293591301483731e-07   -1.031538495075107e-05
-5.536007438152561e-06   6.293591301483731e-07   -1.031538495075107e-05
-5.536007438152561e-06   6.293591301483731e-07   -1.031538495075107e-05
-5.536007438152561e-06   6.293591301483731e-07   -1.031538495075107e-05
-3.99305855095732e-06   2.8564660068834463e-07   -7.950030989768318e-06
-3.99305855095732e-06   2.8564660068834463e-07   -7.950030989768318e-06
-3.99305855095732e-06   2.8564660068834463e-07   -7.950030989768318e-06
-3.99305855095732e-06   2.8564660068834463e-07   -7.950030989768318e-06
-3.943620045177721e-06   9.826677479352725e-07   -1.0278435538596032e-05
-3.943620045177721e-06   9.826677479352725e-07   -1.0278435538596032e-05
-3.943620045177721e-06   9.826677479352725e-07   -1.0278435538596032e-05
-3.943620045177721e-06   9.826677479352725e-07   -1.0278435538596032e-05
-5.457467124299533e-06   6.028811819575259e-07   -7.527485133806334e-06
-5.457467124299533e-06   6.028811819575259e-07   -7.527485133806334e-06
-5.457467124299533e-06   6.028811819575259e-07   -7.527485133806334e-06
-5.457467124299533e-06   6.028811819575259e-07   -7.527485133806334e-06
-4.686323968837004e-06   6.882219135371246e-07   -8.863928165191813e-06
-4.686323968837004e-06   6.882219135371246e-07   -8.863928165191813e-06
-4.686323968837004e-06   6.882219135371246e-07   -8.863928165191813e-06
-4.686323968837004e-06   6.882219135371246e-07   -8.863928165191813e-06
-5.457467124299506e-06   9.826677479352725e-07   -1.005056359900934e-05
-5.457467124299506e-06   9.826677479352725e-07   -1.005056359900934e-05
-5.457467124299506e-06   9.826677479352725e-07   -1.005056359900934e-05
-5.457467124299506e-06   9.826677479352725e-07   -1.005056359900934e-05
-3.943620045177727e-06   6.028811819575801e-07   -7.755357073392985e-06
-3.943620045177727e-06   6.028811819575801e-07   -7.755357073392985e-06
-3.943620045177727e-06   6.028811819575801e-07   -7.755357073392985e-06
-3.943620045177727e-06   6.028811819575801e-07   -7.755357073392985e-06
-3.888748100661314e-06   1.3054930844471355e-06   -1.0111894633256486e-05
-3.888748100661314e-06   1.3054930844471355e-06   -1.0111894633256486e-05
-3.888748100661314e-06   1.3054930844471355e-06   -1.0111894633256486e-05
-3.888748100661314e-06   1.3054930844471355e-06   -1.0111894633256486e-05
-5.344485921930448e-06   8.992232104730602e-07   -7.441903006756757e-06
-5.344485921930448e-06   8.992232104730602e-07   -7.441903006756757e-06
-5.344485921930448e-06   8.992232104730602e-07   -7.441903006756757e-06
-5.344485921930448e-06   8.992232104730602e-07   -7.441903006756757e-06
-4.620271241493614e-06   9.46203523799797e-07   -8.677115662147433e-06
-4.620271241493614e-06   9.46203523799797e-07   -8.677115662147433e-06
-4.620271241493614e-06   9.46203523799797e-07   -8.677115662147433e-06
-4.620271241493614e-06   9.46203523799797e-07   -8.677115662147433e-06
-5.344485921930421e-06   1.3054930844471355e-06   -9.868132708872003e-06
-5.344485921930421e-06   1.3054930844471355e-06   -9.868132708872003e-06
-5.344485921930421e-06   1.3054930844471355e-06   -9.868132708872003e-06
-5.344485921930421e-06   1.3054930844471355e-06   -9.868132708872003e-06
-3.8887481006613076e-06   8.992232104730602e-07   -7.685664931141213e-06
-3.8887481006613076e-06   8.992232104730602e-07   -7.685664931141213e-06
-3.8887481006613076e-06   8.992232104730602e-07   -7.685664931141213e-06
-3.8887481006613076e-06   8.992232104730602e-07   -7.685664931141213e-06
-3.8407236720503585e-06   1.6575168336110252e-06   -1.021014056352493e-05
-3.8407236720503585e-06   1.6575168336110252e-06   -1.021014056352493e-05
-3.8407236720503585e-06   1.6575168336110252e-06   -1.021014056352493e-05
-3.8407236720503585e-06   1.6575168336110252e-06   -1.021014056352493e-05
-5.26983588617351e-06   1.229844978492393e-06   -7.571683760248439e-06
-5.26983588617351e-06   1.229844978492393e-06   -7.571683760248439e-06
-5.26983588617351e-06   1.229844978492393e-06   -7.571683760248439e-06
-5.26983588617351e-06   1.229844978492393e-06   -7.571683760248439e-06
-4.597102873626276e-06   1.2089930708067864e-06   -8.68039430321591e-06
-4.597102873626276e-06   1.2089930708067864e-06   -8.68039430321591e-06
-4.597102873626276e-06   1.2089930708067864e-06   -8.68039430321591e-06
-4.597102873626276e-06   1.2089930708067864e-06   -8.68039430321591e-06
-3.993058550957303e-06   1.1231904597551272e-07   -1.1681327017110506e-05
-3.993058550957303e-06   1.1231904597551272e-07   -1.1681327017110506e-05
-3.993058550957303e-06   1.1231904597551272e-07   -1.1681327017110506e-05
-3.993058550957303e-06   1.1231904597551272e-07   -1.1681327017110506e-05
-2.484106916419896e-06   1.6951859841649345e-07   -9.132087894750282e-06
-2.484106916419896e-06   1.6951859841649345e-07   -9.132087894750282e-06
-2.484106916419896e-06   1.6951859841649345e-07   -9.132087894750282e-06
-2.484106916419896e-06   1.6951859841649345e-07   -9.132087894750282e-06
-2.4364009471684264e-06   4.6894388869902224e-07   -1.153060869936513e-05
-2.4364009471684264e-06   4.6894388869902224e-07   -1.153060869936513e-05
-2.4364009471684264e-06   4.6894388869902224e-07   -1.153060869936513e-05
-2.4364009471684264e-06   4.6894388869902224e-07   -1.153060869936513e-05
-3.943620045177721e-06   4.941584818977159e-07   -9.033705625268732e-06
-3.943620045177721e-06   4.941584818977159e-07   -9.033705625268732e-06
-3.943620045177721e-06   4.941584818977159e-07   -9.033705625268732e-06
-3.943620045177721e-06   4.941584818977159e-07   -9.033705625268732e-06
-3.193516186636175e-06   3.573035031618761e-07   -1.0201765735596698e-05
-3.193516186636175e-06   3.573035031618761e-07   -1.0201765735596698e-05
-3.193516186636175e-06   3.573035031618761e-07   -1.0201765735596698e-05
-3.193516186636175e-06   3.573035031618761e-07   -1.0201765735596698e-05
-3.943620045177714e-06   4.6894388869902224e-07   -1.1545737455284297e-05
-3.943620045177714e-06   4.6894388869902224e-07   -1.1545737455284297e-05
-3.943620045177714e-06   4.6894388869902224e-07   -1.1545737455284297e-05
-3.943620045177714e-06   4.6894388869902224e-07   -1.1545737455284297e-05
-2.4364009471684264e-06   4.941584818977159e-07   -9.018576869349585e-06
-2.4364009471684264e-06   4.941584818977159e-07   -9.018576869349585e-06
-2.4364009471684264e-06   4.941584818977159e-07   -9.018576869349585e-06
-2.4364009471684264e-06   4.941584818977159e-07   -9.018576869349585e-06
-2.3818645348210107e-06   8.267308404356368e-07   -1.1559112998853454e-05
-2.3818645348210107e-06   8.267308404356368e-07   -1.1559112998853454e-05
-2.3818645348210107e-06   8.267308404356368e-07   -1.1559112998853454e-05
-2.3818645348210107e-06   8.267308404356368e-07   -1.1559112998853454e-05
-3.888748100661314e-06   8.215723027556665e-07   -9.04454526651162e-06
-3.888748100661314e-06   8.215723027556665e-07   -9.04454526651162e-06
-3.888748100661314e-06   8.215723027556665e-07   -9.04454526651162e-06
-3.888748100661314e-06   8.215723027556665e-07   -9.04454526651162e-06
-3.1629523169027883e-06   6.372744863247836e-07   -1.0143626216250605e-05
-3.1629523169027883e-06   6.372744863247836e-07   -1.0143626216250605e-05
-3.1629523169027883e-06   6.372744863247836e-07   -1.0143626216250605e-05
-3.1629523169027883e-06   6.372744863247836e-07   -1.0143626216250605e-05
-3.888748100661301e-06   8.267308404356368e-07   -1.1556017876245456e-05
-3.888748100661301e-06   8.267308404356368e-07   -1.1556017876245456e-05
-3.888748100661301e-06   8.267308404356368e-07   -1.1556017876245456e-05
-3.888748100661301e-06   8.267308404356368e-07   -1.1556017876245456e-05
-2.3818645348210107e-06   8.215723027556665e-07   -9.047640389119591e-06
-2.3818645348210107e-06   8.215723027556665e-07   -9.047640389119591e-06
-2.3818645348210107e-06   8.215723027556665e-07   -9.047640389119591e-06
-2.3818645348210107e-06   8.215723027556665e-07   -9.047640389119591e-06
-2.3331166501031125e-06   1.1907725454129298e-06   -1.1753380727589491e-05
-2.3331166501031125e-06   1.1907725454129298e-06   -1.1753380727589491e-05
-2.3331166501031125e-06   1.1907725454129298e-06   -1.1753380727589491e-05
-2.3331166501031125e-06   1.1907725454129298e-06   -1.1753380727589491e-05
-3.8407236720503585e-06   1.1540085735188034e-06   -9.21864397454088e-06
-3.8407236720503585e-06   1.1540085735188034e-06   -9.21864397454088e-06
-3.8407236720503585e-06   1.1540085735188034e-06   -9.21864397454088e-06
-3.8407236720503585e-06   1.1540085735188034e-06   -9.21864397454088e-06
-3.138548013399803e-06   9.209927557419367e-07   -1.0249127248292449e-05
-3.138548013399803e-06   9.209927557419367e-07   -1.0249127248292449e-05
-3.138548013399803e-06   9.209927557419367e-07   -1.0249127248292449e-05
-3.138548013399803e-06   9.209927557419367e-07   -1.0249127248292449e-05
-2.4841069164198867e-06   -3.5942478804223987e-07   -1.022974988447331e-05
-2.4841069164198867e-06   -3.5942478804223987e-07   -1.022974988447331e-05
-2.4841069164198867e-06   -3.5942478804223987e-07   -1.022974988447331e-05
-2.4841069164198867e-06   -3.5942478804223987e-07   -1.022974988447331e-05
-1.0312955533689939e-06   8.290475783775866e-08   -7.542999885193878e-06
-1.0312955533689939e-06   8.290475783775866e-08   -7.542999885193878e-06
-1.0312955533689939e-06   8.290475783775866e-08   -7.542999885193878e-06
-1.0312955533689939e-06   8.290475783775866e-08   -7.542999885193878e-06
-9.579449875254709e-07   -2.210601572096276e-08   -9.89465131481966e-06
-9.579449875254709e-07   -2.210601572096276e-08   -9.89465131481966e-06
-9.579449875254709e-07   -2.210601572096276e-08   -9.89465131481966e-06
-9.579449875254709e-07   -2.210601572096276e-08   -9.89465131481966e-06
-2.436400947168422e-06   3.9855510629782046e-07   -7.682954721959268e-06
-2.436400947168422e-06   3.9855510629782046e-07   -7.682954721959268e-06
-2.436400947168422e-06   3.9855510629782046e-07   -7.682954721959268e-06
-2.436400947168422e-06   3.9855510629782046e-07   -7.682954721959268e-06
-1.7099213964975148e-06   5.7637418731867895e-08   -8.689203360538056e-06
-1.7099213964975148e-06   5.7637418731867895e-08   -8.689203360538056e-06
-1.7099213964975148e-06   5.7637418731867895e-08   -8.689203360538056e-06
-1.7099213964975148e-06   5.7637418731867895e-08   -8.689203360538056e-06
-2.436400947168418e-06   -2.2106015720989866e-08   -1.014704798803093e-05
-2.436400947168418e-06   -2.2106015720989866e-08   -1.014704798803093e-05
-2.436400947168418e-06   -2.2106015720989866e-08   -1.014704798803093e-05
-2.436400947168418e-06   -2.2106015720989866e-08   -1.014704798803093e-05
-9.579449875254709e-07   3.9855510629782046e-07   -7.430558048748028e-06
-9.579449875254709e-07   3.9855510629782046e-07   -7.430558048748028e-06
-9.579449875254709e-07   3.9855510629782046e-07   -7.430558048748028e-06
-9.579449875254709e-07   3.9855510629782046e-07   -7.430558048748028e-06
-8.456770754004384e-07   3.010981552062082e-07   -1.002373386426315e-05
-8.456770754004384e-07   3.010981552062082e-07   -1.002373386426315e-05
-8.456770754004384e-07   3.010981552062082e-07   -1.002373386426315e-05
-8.456770754004384e-07   3.010981552062082e-07   -1.002373386426315e-05
-2.3818645348210065e-06   6.948355633507996e-07   -7.69966387678224e-06
-2.3818645348210065e-06   6.948355633507996e-07   -7.69966387678224e-06
-2.3818645348210065e-06   6.948355633507996e-07   -7.69966387678224e-06
-2.3818645348210065e-06   6.948355633507996e-07   -7.69966387678224e-06
-1.6665762446770312e-06   3.131945989730527e-07   -8.662826448395551e-06
-1.6665762446770312e-06   3.131945989730527e-07   -8.662826448395551e-06
-1.6665762446770312e-06   3.131945989730527e-07   -8.662826448395551e-06
-1.6665762446770312e-06   3.131945989730527e-07   -8.662826448395551e-06
-2.381864534821e-06   3.010981552062082e-07   -1.0259976309149829e-05
-2.381864534821e-06   3.010981552062082e-07   -1.0259976309149829e-05
-2.381864534821e-06   3.010981552062082e-07   -1.0259976309149829e-05
-2.381864534821e-06   3.010981552062082e-07   -1.0259976309149829e-05
-8.456770754004384e-07   6.948355633507996e-07   -7.463421431895464e-06
-8.456770754004384e-07   6.948355633507996e-07   -7.463421431895464e-06
-8.456770754004384e-07   6.948355633507996e-07   -7.463421431895464e-06
-8.456770754004384e-07   6.948355633507996e-07   -7.463421431895464e-06
-7.678626617675693e-07   6.70071506426545e-07   -1.0303721297357264e-05
-7.678626617675693e-07   6.70071506426545e-07   -1.0303721297357264e-05
-7.678626617675693e-07   6.70071506426545e-07   -1.0303721297357264e-05
-7.678626617675693e-07   6.70071506426545e-07   -1.0303721297357264e-05
-2.3331166501031167e-06   1.0283559156451863e-06   -7.909935295662467e-06
-2.3331166501031167e-06   1.0283559156451863e-06   -7.909935295662467e-06
-2.3331166501031167e-06   1.0283559156451863e-06   -7.909935295662467e-06
-2.3331166501031167e-06   1.0283559156451863e-06   -7.909935295662467e-06
-1.621813607812653e-06   5.795473670833088e-07   -8.82615523700951e-06
-1.621813607812653e-06   5.795473670833088e-07   -8.82615523700951e-06
-1.621813607812653e-06   5.795473670833088e-07   -8.82615523700951e-06
-1.621813607812653e-06   5.795473670833088e-07   -8.82615523700951e-06
-1.0312955533689905e-06   -6.523783747506326e-07   -5.533034296693526e-06
-1.0312955533689905e-06   -6.523783747506326e-07   -5.533034296693526e-06
-1.0312955533689905e-06   -6.523783747506326e-07   -5.533034296693526e-06
-1.0312955533689905e-06   -6.523783747506326e-07   -5.533034296693526e-06
2.568580039622229e-10   1.26633160528434e-07   -3.3463733565711553e-06
2.568580039622229e-10   1.26633160528434e-07   -3.3463733565711553e-06
2.568580039622229e-10   1.26633160528434e-07   -3.3463733565711553e-06
2.568580039622229e-10   1.26633160528434e-07   -3.3463733565711553e-06
4.091039789556834e-07   -4.2207644985036027e-07   -5.256410843672903e-06
4.091039789556834e-07   -4.2207644985036027e-07   -5.256410843672903e-06
4.091039789556834e-07   -4.2207644985036027e-07   -5.256410843672903e-06
4.091039789556834e-07   -4.2207644985036027e-07   -5.256410843672903e-06
-9.579449875254675e-07   3.7759479347139295e-07   -3.4577986455306198e-06
-9.579449875254675e-07   3.7759479347139295e-07   -3.4577986455306198e-06
-9.579449875254675e-07   3.7759479347139295e-07   -3.4577986455306198e-06
-9.579449875254675e-07   3.7759479347139295e-07   -3.4577986455306198e-06
-3.8185527226093703e-07   -1.101537429661092e-07   -4.125299049109171e-06
-3.8185527226093703e-07   -1.101537429661092e-07   -4.125299049109171e-06
-3.8185527226093703e-07   -1.101537429661092e-07   -4.125299049109171e-06
-3.8185527226093703e-07   -1.101537429661092e-07   -4.125299049109171e-06
-9.57944987525464e-07   -4.2207644985036027e-07   -5.73621358966592e-06
-9.57944987525464e-07   -4.2207644985036027e-07   -5.73621358966592e-06
-9.57944987525464e-07   -4.2207644985036027e-07   -5.73621358966592e-06
-9.57944987525464e-07   -4.2207644985036027e-07   -5.73621358966592e-06
4.091039789556834e-07   3.7759479347139295e-07   -2.9779958995376234e-06
4.091039789556834e-07   3.7759479347139295e-07   -2.9779958995376234e-06
4.091039789556834e-07   3.7759479347139295e-07   -2.9779958995376234e-06
4.091039789556834e-07   3.7759479347139295e-07   -2.9779958995376234e-06
7.324329386925585e-07   -2.6471304762480685e-07   -5.531439959188491e-06
7.324329386925585e-07   -2.6471304762480685e-07   -5.531439959188491e-06
7.324329386925585e-07   -2.6471304762480685e-07   -5.531439959188491e-06
7.324329386925585e-07   -2.6471304762480685e-07   -5.531439959188491e-06
-8.456770754004384e-07   5.179720135222517e-07   -3.370867639055054e-06
-8.456770754004384e-07   5.179720135222517e-07   -3.370867639055054e-06
-8.456770754004384e-07   5.179720135222517e-07   -3.370867639055054e-06
-8.456770754004384e-07   5.179720135222517e-07   -3.370867639055054e-06
-1.7901971483926612e-07   1.131575005697055e-08   -4.177969481911103e-06
-1.7901971483926612e-07   1.131575005697055e-08   -4.177969481911103e-06
-1.7901971483926612e-07   1.131575005697055e-08   -4.177969481911103e-06
-1.7901971483926612e-07   1.131575005697055e-08   -4.177969481911103e-06
-8.456770754004384e-07   -2.6471304762480685e-07   -6.001050995876737e-06
-8.456770754004384e-07   -2.6471304762480685e-07   -6.001050995876737e-06
-8.456770754004384e-07   -2.6471304762480685e-07   -6.001050995876737e-06
-8.456770754004384e-07   -2.6471304762480685e-07   -6.001050995876737e-06
7.324329386925585e-07   5.179720135223059e-07   -2.901256602366774e-06
7.324329386925585e-07   5.179720135223059e-07   -2.901256602366774e-06
7.324329386925585e-07   5.179720135223059e-07   -2.901256602366774e-06
7.324329386925585e-07   5.179720135223059e-07   -2.901256602366774e-06
1.1434910197014533e-06   4.1551785990564865e-08   -6.18356075532426e-06
1.1434910197014533e-06   4.1551785990564865e-08   -6.18356075532426e-06
1.1434910197014533e-06   4.1551785990564865e-08   -6.18356075532426e-06
1.1434910197014533e-06   4.1551785990564865e-08   -6.18356075532426e-06
-7.678626617675693e-07   7.633504419452984e-07   -3.4310504797820313e-06
-7.678626617675693e-07   7.633504419452984e-07   -3.4310504797820313e-06
-7.678626617675693e-07   7.633504419452984e-07   -3.4310504797820313e-06
-7.678626617675693e-07   7.633504419452984e-07   -3.4310504797820313e-06
1.2765066542774712e-09   1.4641252935488226e-07   -4.342786346264247e-06
1.2765066542774712e-09   1.4641252935488226e-07   -4.342786346264247e-06
1.2765066542774712e-09   1.4641252935488226e-07   -4.342786346264247e-06
1.2765066542774712e-09   1.4641252935488226e-07   -4.342786346264247e-06
-2.493306752124764e-06   4.822809664569144e-07   -4.60671430738439e-06
-2.493306752124764e-06   4.822809664569144e-07   -4.60671430738439e-06
-2.493306752124764e-06   4.822809664569144e-07   -4.60671430738439e-06
-2.493306752124764e-06   4.822809664569144e-07   -4.60671430738439e-06
-2.6175232636604817e-06   -2.3811007760610832e-07   -5.245976453048404e-06
-2.6175232636604817e-06   -2.3811007760610832e-07   -5.245976453048404e-06
-2.6175232636604817e-06   -2.3811007760610832e-07   -5.245976453048404e-06
-2.6175232636604817e-06   -2.3811007760610832e-07   -5.245976453048404e-06
-2.4916956875457386e-06   7.581680204097685e-07   -4.330573309022632e-06
-2.4916956875457386e-06   7.581680204097685e-07   -4.330573309022632e-06
-2.4916956875457386e-06   7.581680204097685e-07   -4.330573309022632e-06
-2.4916956875457386e-06   7.581680204097685e-07   -4.330573309022632e-06
-2.0417677734664157e-06   -1.671166635988392e-08   -4.615525353759677e-06
-2.0417677734664157e-06   -1.671166635988392e-08   -4.615525353759677e-06
-2.0417677734664157e-06   -1.671166635988392e-08   -4.615525353759677e-06
-2.0417677734664157e-06   -1.671166635988392e-08   -4.615525353759677e-06
-2.3060836967299713e-06   3.3251553899774555e-07   -4.3845351382018356e-06
-2.3060836967299713e-06   3.3251553899774555e-07   -4.3845351382018356e-06
-2.3060836967299713e-06   3.3251553899774555e-07   -4.3845351382018356e-06
-2.3060836967299713e-06   3.3251553899774555e-07   -4.3845351382018356e-06
-2.041767773466402e-06   7.581680204097685e-07   -3.865645496960792e-06
-2.041767773466402e-06   7.581680204097685e-07   -3.865645496960792e-06
-2.041767773466402e-06   7.581680204097685e-07   -3.865645496960792e-06
-2.041767773466402e-06   7.581680204097685e-07   -3.865645496960792e-06
-2.4916956875457454e-06   -1.671166635988392e-08   -5.080453165821517e-06
-2.4916956875457454e-06   -1.671166635988392e-08   -5.080453165821517e-06
-2.4916956875457454e-06   -1.671166635988392e-08   -5.080453165821517e-06
-2.4916956875457454e-06   -1.671166635988392e-08   -5.080453165821517e-06
-2.3318757142698726e-06   8.991837696944007e-07   -4.017972991315921e-06
-2.3318757142698726e-06   8.991837696944007e-07   -4.017972991315921e-06
-2.3318757142698726e-06   8.991837696944007e-07   -4.017972991315921e-06
-2.3318757142698726e-06   8.991837696944007e-07   -4.017972991315921e-06
-1.6714389019339125e-06   1.1040217577239133e-07   -4.645432055522632e-06
-1.6714389019339125e-06   1.1040217577239133e-07   -4.645432055522632e-06
-1.6714389019339125e-06   1.1040217577239133e-07   -4.645432055522632e-06
-1.6714389019339125e-06   1.1040217577239133e-07   -4.645432055522632e-06
-2.0951958398858352e-06   4.472199164718511e-07   -4.141261136689244e-06
-2.0951958398858352e-06   4.472199164718511e-07   -4.141261136689244e-06
-2.0951958398858352e-06   4.472199164718511e-07   -4.141261136689244e-06
-2.0951958398858352e-06   4.472199164718511e-07   -4.141261136689244e-06
-1.6714389019339125e-06   8.991837696944007e-07   -3.544704034962726e-06
-1.6714389019339125e-06   8.991837696944007e-07   -3.544704034962726e-06
-1.6714389019339125e-06   8.991837696944007e-07   -3.544704034962726e-06
-1.6714389019339125e-06   8.991837696944007e-07   -3.544704034962726e-06
-2.3318757142698794e-06   1.1040217577239133e-07   -5.1187010118758e-06
-2.3318757142698794e-06   1.1040217577239133e-07   -5.1187010118758e-06
-2.3318757142698794e-06   1.1040217577239133e-07   -5.1187010118758e-06
-2.3318757142698794e-06   1.1040217577239133e-07   -5.1187010118758e-06
-2.2097658068608356e-06   1.1233577073241113e-06   -3.73096657485094e-06
-2.2097658068608356e-06   1.1233577073241113e-06   -3.73096657485094e-06
-2.2097658068608356e-06   1.1233577073241113e-06   -3.73096657485094e-06
-2.2097658068608356e-06   1.1233577073241113e-06   -3.73096657485094e-06
-1.2141975536349555e-06   3.632733050191561e-07   -4.9341963555110376e-06
-1.2141975536349555e-06   3.632733050191561e-07   -4.9341963555110376e-06
-1.2141975536349555e-06   3.632733050191561e-07   -4.9341963555110376e-06
-1.2141975536349555e-06   3.632733050191561e-07   -4.9341963555110376e-06
-1.8338460721632414e-06   5.595067268409542e-07   -4.0191888777236454e-06
-1.8338460721632414e-06   5.595067268409542e-07   -4.0191888777236454e-06
-1.8338460721632414e-06   5.595067268409542e-07   -4.0191888777236454e-06
-1.8338460721632414e-06   5.595067268409542e-07   -4.0191888777236454e-06
-2.617523263660468e-06   2.8564660068834463e-07   -8.481712479085863e-06
-2.617523263660468e-06   2.8564660068834463e-07   -8.481712479085863e-06
-2.617523263660468e-06   2.8564660068834463e-07   -8.481712479085863e-06
-2.617523263660468e-06   2.8564660068834463e-07   -8.481712479085863e-06
-3.0861738421015186e-06   -4.5468179962250294e-08   -9.461465644878013e-06
-3.0861738421015186e-06   -4.5468179962250294e-08   -9.461465644878013e-06
-3.0861738421015186e-06   -4.5468179962250294e-08   -9.461465644878013e-06
-3.0861738421015186e-06   -4.5468179962250294e-08   -9.461465644878013e-06
-2.9865336081593083e-06   6.028811819575801e-07   -8.485601713711921e-06
-2.9865336081593083e-06   6.028811819575801e-07   -8.485601713711921e-06
-2.9865336081593083e-06   6.028811819575801e-07   -8.485601713711921e-06
-2.9865336081593083e-06   6.028811819575801e-07   -8.485601713711921e-06
-2.4916956875457454e-06   2.350989402142168e-07   -9.08966223635513e-06
-2.4916956875457454e-06   2.350989402142168e-07   -9.08966223635513e-06
-2.4916956875457454e-06   2.350989402142168e-07   -9.08966223635513e-06
-2.4916956875457454e-06   2.350989402142168e-07   -9.08966223635513e-06
-2.7630895671184794e-06   3.3285933804719616e-07   -8.695995342433864e-06
-2.7630895671184794e-06   3.3285933804719616e-07   -8.695995342433864e-06
-2.7630895671184794e-06   3.3285933804719616e-07   -8.695995342433864e-06
-2.7630895671184794e-06   3.3285933804719616e-07   -8.695995342433864e-06
-2.4916956875457386e-06   6.028811819575259e-07   -8.264932368665822e-06
-2.4916956875457386e-06   6.028811819575259e-07   -8.264932368665822e-06
-2.4916956875457386e-06   6.028811819575259e-07   -8.264932368665822e-06
-2.4916956875457386e-06   6.028811819575259e-07   -8.264932368665822e-06
-2.986533608159305e-06   2.350989402141626e-07   -9.310331581401175e-06
-2.986533608159305e-06   2.350989402141626e-07   -9.310331581401175e-06
-2.986533608159305e-06   2.350989402141626e-07   -9.310331581401175e-06
-2.986533608159305e-06   2.350989402141626e-07   -9.310331581401175e-06
-2.8827244844556536e-06   8.992232104730602e-07   -8.414139083983362e-06
-2.8827244844556536e-06   8.992232104730602e-07   -8.414139083983362e-06
-2.8827244844556536e-06   8.992232104730602e-07   -8.414139083983362e-06
-2.8827244844556536e-06   8.992232104730602e-07   -8.414139083983362e-06
-2.3318757142698726e-06   5.064568327764127e-07   -9.096560541008272e-06
-2.3318757142698726e-06   5.064568327764127e-07   -9.096560541008272e-06
-2.3318757142698726e-06   5.064568327764127e-07   -9.096560541008272e-06
-2.3318757142698726e-06   5.064568327764127e-07   -9.096560541008272e-06
-2.663428343940224e-06   5.606528721715078e-07   -8.576490448528151e-06
-2.663428343940224e-06   5.606528721715078e-07   -8.576490448528151e-06
-2.663428343940224e-06   5.606528721715078e-07   -8.576490448528151e-06
-2.663428343940224e-06   5.606528721715078e-07   -8.576490448528151e-06
-2.3318757142698726e-06   8.992232104730602e-07   -8.178479257365309e-06
-2.3318757142698726e-06   8.992232104730602e-07   -8.178479257365309e-06
-2.3318757142698726e-06   8.992232104730602e-07   -8.178479257365309e-06
-2.3318757142698726e-06   8.992232104730602e-07   -8.178479257365309e-06
-2.8827244844556434e-06   5.064568327764127e-07   -9.332220367626217e-06
-2.8827244844556434e-06   5.064568327764127e-07   -9.332220367626217e-06
-2.8827244844556434e-06   5.064568327764127e-07   -9.332220367626217e-06
-2.8827244844556434e-06   5.064568327764127e-07   -9.332220367626217e-06
-2.785662991348885e-06   1.229844978492393e-06   -8.554051551981894e-06
-2.785662991348885e-06   1.229844978492393e-06   -8.554051551981894e-06
-2.785662991348885e-06   1.229844978492393e-06   -8.554051551981894e-06
-2.785662991348885e-06   1.229844978492393e-06   -8.554051551981894e-06
-2.2097658068608424e-06   8.175869180397925e-07   -9.266525356523694e-06
-2.2097658068608424e-06   8.175869180397925e-07   -9.266525356523694e-06
-2.2097658068608424e-06   8.175869180397925e-07   -9.266525356523694e-06
-2.2097658068608424e-06   8.175869180397925e-07   -9.266525356523694e-06
-2.576580233018254e-06   8.010318495491292e-07   -8.645234938500304e-06
-2.576580233018254e-06   8.010318495491292e-07   -8.645234938500304e-06
-2.576580233018254e-06   8.010318495491292e-07   -8.645234938500304e-06
-2.576580233018254e-06   8.010318495491292e-07   -8.645234938500304e-06
-3.086173842101505e-06   1.6951859841649345e-07   -9.89675798392274e-06
-3.086173842101505e-06   1.6951859841649345e-07   -9.89675798392274e-06
-3.086173842101505e-06   1.6951859841649345e-07   -9.89675798392274e-06
-3.086173842101505e-06   1.6951859841649345e-07   -9.89675798392274e-06
-3.5700921370644246e-06   2.411594218264886e-07   -1.0660303981481625e-05
-3.5700921370644246e-06   2.411594218264886e-07   -1.0660303981481625e-05
-3.5700921370644246e-06   2.411594218264886e-07   -1.0660303981481625e-05
-3.5700921370644246e-06   2.411594218264886e-07   -1.0660303981481625e-05
-3.4726480881617845e-06   4.941584818976617e-07   -9.740800346765856e-06
-3.4726480881617845e-06   4.941584818976617e-07   -9.740800346765856e-06
-3.4726480881617845e-06   4.941584818976617e-07   -9.740800346765856e-06
-3.4726480881617845e-06   4.941584818976617e-07   -9.740800346765856e-06
-2.9865336081593083e-06   5.327416799341309e-07   -1.0574141065591809e-05
-2.9865336081593083e-06   5.327416799341309e-07   -1.0574141065591809e-05
-2.9865336081593083e-06   5.327416799341309e-07   -1.0574141065591809e-05
-2.9865336081593083e-06   5.327416799341309e-07   -1.0574141065591809e-05
-3.2590636709690103e-06   4.0528297622489766e-07   -1.0043449072016849e-05
-3.2590636709690103e-06   4.0528297622489766e-07   -1.0043449072016849e-05
-3.2590636709690103e-06   4.0528297622489766e-07   -1.0043449072016849e-05
-3.2590636709690103e-06   4.0528297622489766e-07   -1.0043449072016849e-05
-2.9865336081592948e-06   4.941584818977159e-07   -9.763950265587689e-06
-2.9865336081592948e-06   4.941584818977159e-07   -9.763950265587689e-06
-2.9865336081592948e-06   4.941584818977159e-07   -9.763950265587689e-06
-2.9865336081592948e-06   4.941584818977159e-07   -9.763950265587689e-06
-3.4726480881617913e-06   5.327416799341851e-07   -1.0550991146769976e-05
-3.4726480881617913e-06   5.327416799341851e-07   -1.0550991146769976e-05
-3.4726480881617913e-06   5.327416799341851e-07   -1.0550991146769976e-05
-3.4726480881617913e-06   5.327416799341851e-07   -1.0550991146769976e-05
-3.369436203321256e-06   8.215723027556665e-07   -9.767674039216846e-06
-3.369436203321256e-06   8.215723027556665e-07   -9.767674039216846e-06
-3.369436203321256e-06   8.215723027556665e-07   -9.767674039216846e-06
-3.369436203321256e-06   8.215723027556665e-07   -9.767674039216846e-06
-2.8827244844556536e-06   8.304812696504921e-07   -1.058420561746301e-05
-2.8827244844556536e-06   8.304812696504921e-07   -1.058420561746301e-05
-2.8827244844556536e-06   8.304812696504921e-07   -1.058420561746301e-05
-2.8827244844556536e-06   8.304812696504921e-07   -1.058420561746301e-05
-3.1783626987282056e-06   6.558116726020275e-07   -9.986673502113166e-06
-3.1783626987282056e-06   6.558116726020275e-07   -9.986673502113166e-06
-3.1783626987282056e-06   6.558116726020275e-07   -9.986673502113166e-06
-3.1783626987282056e-06   6.558116726020275e-07   -9.986673502113166e-06
-2.8827244844556434e-06   8.215723027556665e-07   -9.773019419353688e-06
-2.8827244844556434e-06   8.215723027556665e-07   -9.773019419353688e-06
-2.8827244844556434e-06   8.215723027556665e-07   -9.773019419353688e-06
-2.8827244844556434e-06   8.215723027556665e-07   -9.773019419353688e-06
-3.369436203321256e-06   8.304812696504921e-07   -1.0578860237326108e-05
-3.369436203321256e-06   8.304812696504921e-07   -1.0578860237326108e-05
-3.369436203321256e-06   8.304812696504921e-07   -1.0578860237326108e-05
-3.369436203321256e-06   8.304812696504921e-07   -1.0578860237326108e-05
-3.2722820366478845e-06   1.1540085735188034e-06   -9.957335429295179e-06
-3.2722820366478845e-06   1.1540085735188034e-06   -9.957335429295179e-06
-3.2722820366478845e-06   1.1540085735188034e-06   -9.957335429295179e-06
-3.2722820366478845e-06   1.1540085735188034e-06   -9.957335429295179e-06
-2.785662991348888e-06   1.1324639466987014e-06   -1.0755440395368096e-05
-2.785662991348888e-06   1.1324639466987014e-06   -1.0755440395368096e-05
-2.785662991348888e-06   1.1324639466987014e-06   -1.0755440395368096e-05
-2.785662991348888e-06   1.1324639466987014e-06   -1.0755440395368096e-05
-3.104757170515893e-06   9.098990686419103e-07   -1.0090077836589035e-05
-3.104757170515893e-06   9.098990686419103e-07   -1.0090077836589035e-05
-3.104757170515893e-06   9.098990686419103e-07   -1.0090077836589035e-05
-3.104757170515893e-06   9.098990686419103e-07   -1.0090077836589035e-05
-3.570092137064413e-06   8.290475783775866e-08   -8.530083207848355e-06
-3.570092137064413e-06   8.290475783775866e-08   -8.530083207848355e-06
-3.570092137064413e-06   8.290475783775866e-08   -8.530083207848355e-06
-3.570092137064413e-06   8.290475783775866e-08   -8.530083207848355e-06
-4.087838281387309e-06   5.32600858452702e-07   -9.123175788017566e-06
-4.087838281387309e-06   5.32600858452702e-07   -9.123175788017566e-06
-4.087838281387309e-06   5.32600858452702e-07   -9.123175788017566e-06
-4.087838281387309e-06   5.32600858452702e-07   -9.123175788017566e-06
-3.96851713310039e-06   3.9855510629782046e-07   -8.148705284198886e-06
-3.96851713310039e-06   3.9855510629782046e-07   -8.148705284198886e-06
-3.96851713310039e-06   3.9855510629782046e-07   -8.148705284198886e-06
-3.96851713310039e-06   3.9855510629782046e-07   -8.148705284198886e-06
-3.4726480881617845e-06   8.260099649257981e-07   -9.231626607606548e-06
-3.4726480881617845e-06   8.260099649257981e-07   -9.231626607606548e-06
-3.4726480881617845e-06   8.260099649257981e-07   -9.231626607606548e-06
-3.4726480881617845e-06   8.260099649257981e-07   -9.231626607606548e-06
-3.745377781311216e-06   4.920813857444925e-07   -8.576719971515542e-06
-3.745377781311216e-06   4.920813857444925e-07   -8.576719971515542e-06
-3.745377781311216e-06   4.920813857444925e-07   -8.576719971515542e-06
-3.745377781311216e-06   4.920813857444925e-07   -8.576719971515542e-06
-3.472648088161779e-06   3.9855510629787467e-07   -8.405178199375542e-06
-3.472648088161779e-06   3.9855510629787467e-07   -8.405178199375542e-06
-3.472648088161779e-06   3.9855510629787467e-07   -8.405178199375542e-06
-3.472648088161779e-06   3.9855510629787467e-07   -8.405178199375542e-06
-3.96851713310039e-06   8.260099649257439e-07   -8.975153692429864e-06
-3.96851713310039e-06   8.260099649257439e-07   -8.975153692429864e-06
-3.96851713310039e-06   8.260099649257439e-07   -8.975153692429864e-06
-3.96851713310039e-06   8.260099649257439e-07   -8.975153692429864e-06
-3.8110657076272576e-06   6.948355633507996e-07   -8.179200572696937e-06
-3.8110657076272576e-06   6.948355633507996e-07   -8.179200572696937e-06
-3.8110657076272576e-06   6.948355633507996e-07   -8.179200572696937e-06
-3.8110657076272576e-06   6.948355633507996e-07   -8.179200572696937e-06
-3.369436203321256e-06   1.0956638203217929e-06   -9.155746700722788e-06
-3.369436203321256e-06   1.0956638203217929e-06   -9.155746700722788e-06
-3.369436203321256e-06   1.0956638203217929e-06   -9.155746700722788e-06
-3.369436203321256e-06   1.0956638203217929e-06   -9.155746700722788e-06
-3.6385283813983116e-06   7.257641445669355e-07   -8.485319931808223e-06
-3.6385283813983116e-06   7.257641445669355e-07   -8.485319931808223e-06
-3.6385283813983116e-06   7.257641445669355e-07   -8.485319931808223e-06
-3.6385283813983116e-06   7.257641445669355e-07   -8.485319931808223e-06
-3.369436203321241e-06   6.948355633507996e-07   -8.419697526879425e-06
-3.369436203321241e-06   6.948355633507996e-07   -8.419697526879425e-06
-3.369436203321241e-06   6.948355633507996e-07   -8.419697526879425e-06
-3.369436203321241e-06   6.948355633507996e-07   -8.419697526879425e-06
-3.8110657076272576e-06   1.0956638203217929e-06   -8.915249746540226e-06
-3.8110657076272576e-06   1.0956638203217929e-06   -8.915249746540226e-06
-3.8110657076272576e-06   1.0956638203217929e-06   -8.915249746540226e-06
-3.8110657076272576e-06   1.0956638203217929e-06   -8.915249746540226e-06
-3.688197062322985e-06   1.0283559156451863e-06   -8.405827189415853e-06
-3.688197062322985e-06   1.0283559156451863e-06   -8.405827189415853e-06
-3.688197062322985e-06   1.0283559156451863e-06   -8.405827189415853e-06
-3.688197062322985e-06   1.0283559156451863e-06   -8.405827189415853e-06
-3.2722820366478845e-06   1.3962578787526112e-06   -9.319760076738785e-06
-3.2722820366478845e-06   1.3962578787526112e-06   -9.319760076738785e-06
-3.2722820366478845e-06   1.3962578787526112e-06   -9.319760076738785e-06
-3.2722820366478845e-06   1.3962578787526112e-06   -9.319760076738785e-06
-3.561233377882993e-06   9.632008681090222e-07   -8.578340301627353e-06
-3.561233377882993e-06   9.632008681090222e-07   -8.578340301627353e-06
-3.561233377882993e-06   9.632008681090222e-07   -8.578340301627353e-06
-3.561233377882993e-06   9.632008681090222e-07   -8.578340301627353e-06
-4.087838281387292e-06   1.26633160528434e-07   -4.5310459400241384e-06
-4.087838281387292e-06   1.26633160528434e-07   -4.5310459400241384e-06
-4.087838281387292e-06   1.26633160528434e-07   -4.5310459400241384e-06
-4.087838281387292e-06   1.26633160528434e-07   -4.5310459400241384e-06
-5.011442148460277e-06   9.012941650787809e-07   -5.6055891157489116e-06
-5.011442148460277e-06   9.012941650787809e-07   -5.6055891157489116e-06
-5.011442148460277e-06   9.012941650787809e-07   -5.6055891157489116e-06
-5.011442148460277e-06   9.012941650787809e-07   -5.6055891157489116e-06
-4.5667508670503635e-06   3.7759479347139295e-07   -3.7012766696010177e-06
-4.5667508670503635e-06   3.7759479347139295e-07   -3.7012766696010177e-06
-4.5667508670503635e-06   3.7759479347139295e-07   -3.7012766696010177e-06
-4.5667508670503635e-06   3.7759479347139295e-07   -3.7012766696010177e-06
-3.968517133100383e-06   1.1687101457721698e-06   -5.1730021042313665e-06
-3.968517133100383e-06   1.1687101457721698e-06   -5.1730021042313665e-06
-3.968517133100383e-06   1.1687101457721698e-06   -5.1730021042313665e-06
-3.968517133100383e-06   1.1687101457721698e-06   -5.1730021042313665e-06
-4.230305781719009e-06   6.741750565195602e-07   -4.4399666363155566e-06
-4.230305781719009e-06   6.741750565195602e-07   -4.4399666363155566e-06
-4.230305781719009e-06   6.741750565195602e-07   -4.4399666363155566e-06
-4.230305781719009e-06   6.741750565195602e-07   -4.4399666363155566e-06
-3.968517133100373e-06   3.7759479347133874e-07   -4.1759458809814025e-06
-3.968517133100373e-06   3.7759479347133874e-07   -4.1759458809814025e-06
-3.968517133100373e-06   3.7759479347133874e-07   -4.1759458809814025e-06
-3.968517133100373e-06   3.7759479347133874e-07   -4.1759458809814025e-06
-4.566750867050343e-06   1.1687101457721698e-06   -4.698332892851009e-06
-4.566750867050343e-06   1.1687101457721698e-06   -4.698332892851009e-06
-4.566750867050343e-06   1.1687101457721698e-06   -4.698332892851009e-06
-4.566750867050343e-06   1.1687101457721698e-06   -4.698332892851009e-06
-4.2050589953242216e-06   5.179720135222517e-07   -3.622815990539705e-06
-4.2050589953242216e-06   5.179720135222517e-07   -3.622815990539705e-06
-4.2050589953242216e-06   5.179720135222517e-07   -3.622815990539705e-06
-4.2050589953242216e-06   5.179720135222517e-07   -3.622815990539705e-06
-3.811065707627251e-06   1.2910233290502242e-06   -4.743302259351322e-06
-3.811065707627251e-06   1.2910233290502242e-06   -4.743302259351322e-06
-3.811065707627251e-06   1.2910233290502242e-06   -4.743302259351322e-06
-3.811065707627251e-06   1.2910233290502242e-06   -4.743302259351322e-06
-4.047521230829191e-06   7.996504416894453e-07   -4.0543859882650104e-06
-4.047521230829191e-06   7.996504416894453e-07   -4.0543859882650104e-06
-4.047521230829191e-06   7.996504416894453e-07   -4.0543859882650104e-06
-4.047521230829191e-06   7.996504416894453e-07   -4.0543859882650104e-06
-3.811065707627244e-06   5.179720135222517e-07   -4.08664677985644e-06
-3.811065707627244e-06   5.179720135222517e-07   -4.08664677985644e-06
-3.811065707627244e-06   5.179720135222517e-07   -4.08664677985644e-06
-3.811065707627244e-06   5.179720135222517e-07   -4.08664677985644e-06
-4.205058995324215e-06   1.2910233290502242e-06   -4.279471470034553e-06
-4.205058995324215e-06   1.2910233290502242e-06   -4.279471470034553e-06
-4.205058995324215e-06   1.2910233290502242e-06   -4.279471470034553e-06
-4.205058995324215e-06   1.2910233290502242e-06   -4.279471470034553e-06
-3.759166262708234e-06   7.633504419453526e-07   -3.7139456085346137e-06
-3.759166262708234e-06   7.633504419453526e-07   -3.7139456085346137e-06
-3.759166262708234e-06   7.633504419453526e-07   -3.7139456085346137e-06
-3.759166262708234e-06   7.633504419453526e-07   -3.7139456085346137e-06
-3.688197062322985e-06   1.4766294594986684e-06   -4.2601950197085966e-06
-3.688197062322985e-06   1.4766294594986684e-06   -4.2601950197085966e-06
-3.688197062322985e-06   1.4766294594986684e-06   -4.2601950197085966e-06
-3.688197062322985e-06   1.4766294594986684e-06   -4.2601950197085966e-06
-3.7661246169759596e-06   8.984917366359384e-07   -3.783433128236057e-06
-3.7661246169759596e-06   8.984917366359384e-07   -3.783433128236057e-06
-3.7661246169759596e-06   8.984917366359384e-07   -3.783433128236057e-06
-3.7661246169759596e-06   8.984917366359384e-07   -3.783433128236057e-06
2.4260204631559027e-06   -2.3811007760610832e-07   -2.2480328223124367e-06
2.4260204631559027e-06   -2.3811007760610832e-07   -2.2480328223124367e-06
2.4260204631559027e-06   -2.3811007760610832e-07   -2.2480328223124367e-06
2.4260204631559027e-06   -2.3811007760610832e-07   -2.2480328223124367e-06
2.6564143779276515e-07   -9.629642089870353e-07   -6.2835770100794946e-06
2.6564143779276515e-07   -9.629642089870353e-07   -6.2835770100794946e-06
2.6564143779276515e-07   -9.629642089870353e-07   -6.2835770100794946e-06
2.6564143779276515e-07   -9.629642089870353e-07   -6.2835770100794946e-06
4.3689013376730734e-07   -1.671166635993813e-08   -2.5034845979089466e-06
4.3689013376730734e-07   -1.671166635993813e-08   -2.5034845979089466e-06
4.3689013376730734e-07   -1.671166635993813e-08   -2.5034845979089466e-06
4.3689013376730734e-07   -1.671166635993813e-08   -2.5034845979089466e-06
2.9216871055791203e-06   -7.935846585278264e-07   -6.178689088961206e-06
2.9216871055791203e-06   -7.935846585278264e-07   -6.178689088961206e-06
2.9216871055791203e-06   -7.935846585278264e-07   -6.178689088961206e-06
2.9216871055791203e-06   -7.935846585278264e-07   -6.178689088961206e-06
1.455017120295079e-06   -4.0573685673977577e-07   -3.966947794560618e-06
1.455017120295079e-06   -4.0573685673977577e-07   -3.966947794560618e-06
1.455017120295079e-06   -4.0573685673977577e-07   -3.966947794560618e-06
1.455017120295079e-06   -4.0573685673977577e-07   -3.966947794560618e-06
2.9216871055791203e-06   -1.671166635993813e-08   -2.0373608026082028e-06
2.9216871055791203e-06   -1.671166635993813e-08   -2.0373608026082028e-06
2.9216871055791203e-06   -1.671166635993813e-08   -2.0373608026082028e-06
2.9216871055791203e-06   -1.671166635993813e-08   -2.0373608026082028e-06
4.3689013376730734e-07   -7.935846585277722e-07   -6.644812884262031e-06
4.3689013376730734e-07   -7.935846585277722e-07   -6.644812884262031e-06
4.3689013376730734e-07   -7.935846585277722e-07   -6.644812884262031e-06
4.3689013376730734e-07   -7.935846585277722e-07   -6.644812884262031e-06
6.397342401227407e-07   1.1040217577239133e-07   -2.529294314124967e-06
6.397342401227407e-07   1.1040217577239133e-07   -2.529294314124967e-06
6.397342401227407e-07   1.1040217577239133e-07   -2.529294314124967e-06
6.397342401227407e-07   1.1040217577239133e-07   -2.529294314124967e-06
3.337418764751444e-06   -6.784901349071574e-07   -6.552099802098444e-06
3.337418764751444e-06   -6.784901349071574e-07   -6.552099802098444e-06
3.337418764751444e-06   -6.784901349071574e-07   -6.552099802098444e-06
3.337418764751444e-06   -6.784901349071574e-07   -6.552099802098444e-06
1.7670821277049242e-06   -3.252422683745998e-07   -4.1468207936073e-06
1.7670821277049242e-06   -3.252422683745998e-07   -4.1468207936073e-06
1.7670821277049242e-06   -3.252422683745998e-07   -4.1468207936073e-06
1.7670821277049242e-06   -3.252422683745998e-07   -4.1468207936073e-06
3.337418764751444e-06   1.1040217577239133e-07   -2.055958927717254e-06
3.337418764751444e-06   1.1040217577239133e-07   -2.055958927717254e-06
3.337418764751444e-06   1.1040217577239133e-07   -2.055958927717254e-06
3.337418764751444e-06   1.1040217577239133e-07   -2.055958927717254e-06
6.397342401227407e-07   -6.784901349071574e-07   -7.025435188506184e-06
6.397342401227407e-07   -6.784901349071574e-07   -7.025435188506184e-06
6.397342401227407e-07   -6.784901349071574e-07   -7.025435188506184e-06
6.397342401227407e-07   -6.784901349071574e-07   -7.025435188506184e-06
8.042214087100317e-07   3.632733050191561e-07   -2.7890242134102515e-06
8.042214087100317e-07   3.632733050191561e-07   -2.7890242134102515e-06
8.042214087100317e-07   3.632733050191561e-07   -2.7890242134102515e-06
8.042214087100317e-07   3.632733050191561e-07   -2.7890242134102515e-06
3.8370966950644554e-06   -3.906008733901758e-07   -7.39149185028859e-06
3.8370966950644554e-06   -3.906008733901758e-07   -7.39149185028859e-06
3.8370966950644554e-06   -3.906008733901758e-07   -7.39149185028859e-06
3.8370966950644554e-06   -3.906008733901758e-07   -7.39149185028859e-06
2.010010648519914e-06   -2.051348915407293e-07   -4.457628028490976e-06
2.010010648519914e-06   -2.051348915407293e-07   -4.457628028490976e-06
2.010010648519914e-06   -2.051348915407293e-07   -4.457628028490976e-06
2.010010648519914e-06   -2.051348915407293e-07   -4.457628028490976e-06
2.6564143779276515e-07   -4.5468179962250294e-08   -6.699765624580212e-06
2.6564143779276515e-07   -4.5468179962250294e-08   -6.699765624580212e-06
2.6564143779276515e-07   -4.5468179962250294e-08   -6.699765624580212e-06
2.6564143779276515e-07   -4.5468179962250294e-08   -6.699765624580212e-06
-2.2152838466530893e-06   -3.7196787599515745e-07   -1.1030540916276324e-05
-2.2152838466530893e-06   -3.7196787599515745e-07   -1.1030540916276324e-05
-2.2152838466530893e-06   -3.7196787599515745e-07   -1.1030540916276324e-05
-2.2152838466530893e-06   -3.7196787599515745e-07   -1.1030540916276324e-05
-2.066942483967928e-06   2.350989402141626e-07   -6.7361775601658684e-06
-2.066942483967928e-06   2.350989402141626e-07   -6.7361775601658684e-06
-2.066942483967928e-06   2.350989402141626e-07   -6.7361775601658684e-06
-2.066942483967928e-06   2.350989402141626e-07   -6.7361775601658684e-06
4.3689013376730734e-07   -1.3737421265797413e-07   -1.0685748031334679e-05
4.3689013376730734e-07   -1.3737421265797413e-07   -1.0685748031334679e-05
4.3689013376730734e-07   -1.3737421265797413e-07   -1.0685748031334679e-05
4.3689013376730734e-07   -1.3737421265797413e-07   -1.0685748031334679e-05
-8.748053253824288e-07   -7.320115376482569e-09   -8.57762139112071e-06
-8.748053253824288e-07   -7.320115376482569e-09   -8.57762139112071e-06
-8.748053253824288e-07   -7.320115376482569e-09   -8.57762139112071e-06
-8.748053253824288e-07   -7.320115376482569e-09   -8.57762139112071e-06
4.3689013376730734e-07   2.350989402142168e-07   -6.512693668442559e-06
4.3689013376730734e-07   2.350989402142168e-07   -6.512693668442559e-06
4.3689013376730734e-07   2.350989402142168e-07   -6.512693668442559e-06
4.3689013376730734e-07   2.350989402142168e-07   -6.512693668442559e-06
-2.066942483967928e-06   -1.3737421265797413e-07   -1.0909231923057988e-05
-2.066942483967928e-06   -1.3737421265797413e-07   -1.0909231923057988e-05
-2.066942483967928e-06   -1.3737421265797413e-07   -1.0909231923057988e-05
-2.066942483967928e-06   -1.3737421265797413e-07   -1.0909231923057988e-05
-1.9176762877215792e-06   5.064568327764127e-07   -6.747449420370583e-06
-1.9176762877215792e-06   5.064568327764127e-07   -6.747449420370583e-06
-1.9176762877215792e-06   5.064568327764127e-07   -6.747449420370583e-06
-1.9176762877215792e-06   5.064568327764127e-07   -6.747449420370583e-06
6.397342401227475e-07   1.0596420425449749e-07   -1.0769504722997966e-05
6.397342401227475e-07   1.0596420425449749e-07   -1.0769504722997966e-05
6.397342401227475e-07   1.0596420425449749e-07   -1.0769504722997966e-05
6.397342401227475e-07   1.0596420425449749e-07   -1.0769504722997966e-05
-7.446167597027662e-07   1.868805452374207e-07   -8.510802861211918e-06
-7.446167597027662e-07   1.868805452374207e-07   -8.510802861211918e-06
-7.446167597027662e-07   1.868805452374207e-07   -8.510802861211918e-06
-7.446167597027662e-07   1.868805452374207e-07   -8.510802861211918e-06
6.397342401227407e-07   5.064568327764127e-07   -6.507153843257412e-06
6.397342401227407e-07   5.064568327764127e-07   -6.507153843257412e-06
6.397342401227407e-07   5.064568327764127e-07   -6.507153843257412e-06
6.397342401227407e-07   5.064568327764127e-07   -6.507153843257412e-06
-1.9176762877215792e-06   1.0596420425444328e-07   -1.100980030011115e-05
-1.9176762877215792e-06   1.0596420425444328e-07   -1.100980030011115e-05
-1.9176762877215792e-06   1.0596420425444328e-07   -1.100980030011115e-05
-1.9176762877215792e-06   1.0596420425444328e-07   -1.100980030011115e-05
-1.775715006655475e-06   8.175869180397925e-07   -6.918667305089296e-06
-1.775715006655475e-06   8.175869180397925e-07   -6.918667305089296e-06
-1.775715006655475e-06   8.175869180397925e-07   -6.918667305089296e-06
-1.775715006655475e-06   8.175869180397925e-07   -6.918667305089296e-06
8.042214087100317e-07   3.9531236462411485e-07   -1.0965196598649118e-05
8.042214087100317e-07   3.9531236462411485e-07   -1.0965196598649118e-05
8.042214087100317e-07   3.9531236462411485e-07   -1.0965196598649118e-05
8.042214087100317e-07   3.9531236462411485e-07   -1.0965196598649118e-05
-5.983254706263751e-07   4.033581221035351e-07   -8.63244592090958e-06
-5.983254706263751e-07   4.033581221035351e-07   -8.63244592090958e-06
-5.983254706263751e-07   4.033581221035351e-07   -8.63244592090958e-06
-5.983254706263751e-07   4.033581221035351e-07   -8.63244592090958e-06
-2.2152838466530893e-06   2.411594218265428e-07   -8.137488272849555e-06
-2.2152838466530893e-06   2.411594218265428e-07   -8.137488272849555e-06
-2.2152838466530893e-06   2.411594218265428e-07   -8.137488272849555e-06
-2.2152838466530893e-06   2.411594218265428e-07   -8.137488272849555e-06
-4.671212195506423e-06   3.0345165640487635e-07   -1.2193326846858115e-05
-4.671212195506423e-06   3.0345165640487635e-07   -1.2193326846858115e-05
-4.671212195506423e-06   3.0345165640487635e-07   -1.2193326846858115e-05
-4.671212195506423e-06   3.0345165640487635e-07   -1.2193326846858115e-05
-4.52223759714707e-06   5.327416799341309e-07   -7.987722105883596e-06
-4.52223759714707e-06   5.327416799341309e-07   -7.987722105883596e-06
-4.52223759714707e-06   5.327416799341309e-07   -7.987722105883596e-06
-4.52223759714707e-06   5.327416799341309e-07   -7.987722105883596e-06
-2.066942483967928e-06   5.531832440556507e-07   -1.2092145566321731e-05
-2.066942483967928e-06   5.531832440556507e-07   -1.2092145566321731e-05
-2.066942483967928e-06   5.531832440556507e-07   -1.2092145566321731e-05
-2.066942483967928e-06   5.531832440556507e-07   -1.2092145566321731e-05
-3.3495115202572318e-06   4.5828568545516583e-07   -9.8975919706793e-06
-3.3495115202572318e-06   4.5828568545516583e-07   -9.8975919706793e-06
-3.3495115202572318e-06   4.5828568545516583e-07   -9.8975919706793e-06
-3.3495115202572318e-06   4.5828568545516583e-07   -9.8975919706793e-06
-2.0669424839679347e-06   5.327416799341309e-07   -7.999987044356502e-06
-2.0669424839679347e-06   5.327416799341309e-07   -7.999987044356502e-06
-2.0669424839679347e-06   5.327416799341309e-07   -7.999987044356502e-06
-2.0669424839679347e-06   5.327416799341309e-07   -7.999987044356502e-06
-4.522237597147062e-06   5.531832440556507e-07   -1.2079880627848872e-05
-4.522237597147062e-06   5.531832440556507e-07   -1.2079880627848872e-05
-4.522237597147062e-06   5.531832440556507e-07   -1.2079880627848872e-05
-4.522237597147062e-06   5.531832440556507e-07   -1.2079880627848872e-05
-4.370271138579199e-06   8.304812696504921e-07   -8.007592820644224e-06
-4.370271138579199e-06   8.304812696504921e-07   -8.007592820644224e-06
-4.370271138579199e-06   8.304812696504921e-07   -8.007592820644224e-06
-4.370271138579199e-06   8.304812696504921e-07   -8.007592820644224e-06
-1.9176762877215792e-06   8.168843522557596e-07   -1.2087092754970047e-05
-1.9176762877215792e-06   8.168843522557596e-07   -1.2087092754970047e-05
-1.9176762877215792e-06   8.168843522557596e-07   -1.2087092754970047e-05
-1.9176762877215792e-06   8.168843522557596e-07   -1.2087092754970047e-05
-3.21928322369305e-06   6.771522512731467e-07   -9.833908601094867e-06
-3.21928322369305e-06   6.771522512731467e-07   -9.833908601094867e-06
-3.21928322369305e-06   6.771522512731467e-07   -9.833908601094867e-06
-3.21928322369305e-06   6.771522512731467e-07   -9.833908601094867e-06
-1.9176762877215792e-06   8.304812696504921e-07   -7.999434670207342e-06
-1.9176762877215792e-06   8.304812696504921e-07   -7.999434670207342e-06
-1.9176762877215792e-06   8.304812696504921e-07   -7.999434670207342e-06
-1.9176762877215792e-06   8.304812696504921e-07   -7.999434670207342e-06
-4.370271138579192e-06   8.168843522558139e-07   -1.2095250905406937e-05
-4.370271138579192e-06   8.168843522558139e-07   -1.2095250905406937e-05
-4.370271138579192e-06   8.168843522558139e-07   -1.2095250905406937e-05
-4.370271138579192e-06   8.168843522558139e-07   -1.2095250905406937e-05
-4.225476065889775e-06   1.1324639466987014e-06   -8.188573019403097e-06
-4.225476065889775e-06   1.1324639466987014e-06   -8.188573019403097e-06
-4.225476065889775e-06   1.1324639466987014e-06   -8.188573019403097e-06
-4.225476065889775e-06   1.1324639466987014e-06   -8.188573019403097e-06
-1.775715006655475e-06   1.0852214271305448e-06   -1.2243162606385941e-05
-1.775715006655475e-06   1.0852214271305448e-06   -1.2243162606385941e-05
-1.775715006655475e-06   1.0852214271305448e-06   -1.2243162606385941e-05
-1.775715006655475e-06   1.0852214271305448e-06   -1.2243162606385941e-05
-3.0987837499864983e-06   8.994339093468815e-07   -9.92657552349762e-06
-3.0987837499864983e-06   8.994339093468815e-07   -9.92657552349762e-06
-3.0987837499864983e-06   8.994339093468815e-07   -9.92657552349762e-06
-3.0987837499864983e-06   8.994339093468815e-07   -9.92657552349762e-06
-4.671212195506431e-06   5.326008584526478e-07   -6.8328023990075e-06
-4.671212195506431e-06   5.326008584526478e-07   -6.8328023990075e-06
-4.671212195506431e-06   5.326008584526478e-07   -6.8328023990075e-06
-4.671212195506431e-06   5.326008584526478e-07   -6.8328023990075e-06
-7.111289511372322e-06   9.628829093649444e-07   -1.0641428694903234e-05
-7.111289511372322e-06   9.628829093649444e-07   -1.0641428694903234e-05
-7.111289511372322e-06   9.628829093649444e-07   -1.0641428694903234e-05
-7.111289511372322e-06   9.628829093649444e-07   -1.0641428694903234e-05
-6.940019817213013e-06   8.260099649257981e-07   -6.426222121828982e-06
-6.940019817213013e-06   8.260099649257981e-07   -6.426222121828982e-06
-6.940019817213013e-06   8.260099649257981e-07   -6.426222121828982e-06
-6.940019817213013e-06   8.260099649257981e-07   -6.426222121828982e-06
-4.522237597147062e-06   1.2295690397446301e-06   -1.0697994600163486e-05
-4.522237597147062e-06   1.2295690397446301e-06   -1.0697994600163486e-05
-4.522237597147062e-06   1.2295690397446301e-06   -1.0697994600163486e-05
-4.522237597147062e-06   1.2295690397446301e-06   -1.0697994600163486e-05
-5.7707506028963845e-06   9.21273966384274e-07   -8.432162546565095e-06
-5.7707506028963845e-06   9.21273966384274e-07   -8.432162546565095e-06
-5.7707506028963845e-06   9.21273966384274e-07   -8.432162546565095e-06
-5.7707506028963845e-06   9.21273966384274e-07   -8.432162546565095e-06
-4.52223759714707e-06   8.260099649257981e-07   -6.668357566720276e-06
-4.52223759714707e-06   8.260099649257981e-07   -6.668357566720276e-06
-4.52223759714707e-06   8.260099649257981e-07   -6.668357566720276e-06
-4.52223759714707e-06   8.260099649257981e-07   -6.668357566720276e-06
-6.9400198172130235e-06   1.229569039744576e-06   -1.0455859155272243e-05
-6.9400198172130235e-06   1.229569039744576e-06   -1.0455859155272243e-05
-6.9400198172130235e-06   1.229569039744576e-06   -1.0455859155272243e-05
-6.9400198172130235e-06   1.229569039744576e-06   -1.0455859155272243e-05
-6.732011966774845e-06   1.0956638203217929e-06   -6.360497544948777e-06
-6.732011966774845e-06   1.0956638203217929e-06   -6.360497544948777e-06
-6.732011966774845e-06   1.0956638203217929e-06   -6.360497544948777e-06
-6.732011966774845e-06   1.0956638203217929e-06   -6.360497544948777e-06
-4.370271138579192e-06   1.4689667188086484e-06   -1.0520713997700239e-05
-4.370271138579192e-06   1.4689667188086484e-06   -1.0520713997700239e-05
-4.370271138579192e-06   1.4689667188086484e-06   -1.0520713997700239e-05
-4.370271138579192e-06   1.4689667188086484e-06   -1.0520713997700239e-05
-5.596676495148452e-06   1.1328083362873256e-06   -8.275010040572213e-06
-5.596676495148452e-06   1.1328083362873256e-06   -8.275010040572213e-06
-5.596676495148452e-06   1.1328083362873256e-06   -8.275010040572213e-06
-5.596676495148452e-06   1.1328083362873256e-06   -8.275010040572213e-06
-4.370271138579196e-06   1.0956638203217929e-06   -6.584479284040749e-06
-4.370271138579196e-06   1.0956638203217929e-06   -6.584479284040749e-06
-4.370271138579196e-06   1.0956638203217929e-06   -6.584479284040749e-06
-4.370271138579196e-06   1.0956638203217929e-06   -6.584479284040749e-06
-6.732011966774845e-06   1.4689667188085942e-06   -1.0296732258608266e-05
-6.732011966774845e-06   1.4689667188085942e-06   -1.0296732258608266e-05
-6.732011966774845e-06   1.4689667188085942e-06   -1.0296732258608266e-05
-6.732011966774845e-06   1.4689667188085942e-06   -1.0296732258608266e-05
-6.559473179583904e-06   1.3962578787526112e-06   -6.536704737483559e-06
-6.559473179583904e-06   1.3962578787526112e-06   -6.536704737483559e-06
-6.559473179583904e-06   1.3962578787526112e-06   -6.536704737483559e-06
-6.559473179583904e-06   1.3962578787526112e-06   -6.536704737483559e-06
-4.225476065889775e-06   1.7350265240828394e-06   -1.0629961114171955e-05
-4.225476065889775e-06   1.7350265240828394e-06   -1.0629961114171955e-05
-4.225476065889775e-06   1.7350265240828394e-06   -1.0629961114171955e-05
-4.225476065889775e-06   1.7350265240828394e-06   -1.0629961114171955e-05
-5.484431664826973e-06   1.3401049320719942e-06   -8.294748827403455e-06
-5.484431664826973e-06   1.3401049320719942e-06   -8.294748827403455e-06
-5.484431664826973e-06   1.3401049320719942e-06   -8.294748827403455e-06
-5.484431664826973e-06   1.3401049320719942e-06   -8.294748827403455e-06
-7.111289511372322e-06   9.012941650787809e-07   -3.5218430989216864e-06
-7.111289511372322e-06   9.012941650787809e-07   -3.5218430989216864e-06
-7.111289511372322e-06   9.012941650787809e-07   -3.5218430989216864e-06
-7.111289511372322e-06   9.012941650787809e-07   -3.5218430989216864e-06
-9.906826159892067e-06   1.657982048695742e-06   -7.727058116284425e-06
-9.906826159892067e-06   1.657982048695742e-06   -7.727058116284425e-06
-9.906826159892067e-06   1.657982048695742e-06   -7.727058116284425e-06
-9.906826159892067e-06   1.657982048695742e-06   -7.727058116284425e-06
-9.417757842434418e-06   1.1687101457721698e-06   -2.163505844741216e-06
-9.417757842434418e-06   1.1687101457721698e-06   -2.163505844741216e-06
-9.417757842434418e-06   1.1687101457721698e-06   -2.163505844741216e-06
-9.417757842434418e-06   1.1687101457721698e-06   -2.163505844741216e-06
-6.940019817213013e-06   1.936317960587726e-06   -6.75363390899957e-06
-6.940019817213013e-06   1.936317960587726e-06   -6.75363390899957e-06
-6.940019817213013e-06   1.936317960587726e-06   -6.75363390899957e-06
-6.940019817213013e-06   1.936317960587726e-06   -6.75363390899957e-06
-8.00484981784205e-06   1.4456335920721292e-06   -4.684506620175158e-06
-8.00484981784205e-06   1.4456335920721292e-06   -4.684506620175158e-06
-8.00484981784205e-06   1.4456335920721292e-06   -4.684506620175158e-06
-8.00484981784205e-06   1.4456335920721292e-06   -4.684506620175158e-06
-6.9400198172130185e-06   1.1687101457721698e-06   -2.6240705336305116e-06
-6.9400198172130185e-06   1.1687101457721698e-06   -2.6240705336305116e-06
-6.9400198172130185e-06   1.1687101457721698e-06   -2.6240705336305116e-06
-6.9400198172130185e-06   1.1687101457721698e-06   -2.6240705336305116e-06
-9.41775784243439e-06   1.936317960587726e-06   -6.293069220110264e-06
-9.41775784243439e-06   1.936317960587726e-06   -6.293069220110264e-06
-9.41775784243439e-06   1.936317960587726e-06   -6.293069220110264e-06
-9.41775784243439e-06   1.936317960587726e-06   -6.293069220110264e-06
-9.013660395065039e-06   1.2910233290502242e-06   -1.7412469461627195e-06
-9.013660395065039e-06   1.2910233290502242e-06   -1.7412469461627195e-06
-9.013660395065039e-06   1.2910233290502242e-06   -1.7412469461627195e-06
-9.013660395065039e-06   1.2910233290502242e-06   -1.7412469461627195e-06
-6.7320119667748315e-06   2.0365285150455493e-06   -5.991297438243561e-06
-6.7320119667748315e-06   2.0365285150455493e-06   -5.991297438243561e-06
-6.7320119667748315e-06   2.0365285150455493e-06   -5.991297438243561e-06
-6.7320119667748315e-06   2.0365285150455493e-06   -5.991297438243561e-06
-7.8354530496294e-06   1.5728112366630007e-06   -3.873998599789768e-06
-7.8354530496294e-06   1.5728112366630007e-06   -3.873998599789768e-06
-7.8354530496294e-06   1.5728112366630007e-06   -3.873998599789768e-06
-7.8354530496294e-06   1.5728112366630007e-06   -3.873998599789768e-06
-6.732011966774845e-06   1.2910233290502242e-06   -2.188550057759974e-06
-6.732011966774845e-06   1.2910233290502242e-06   -2.188550057759974e-06
-6.732011966774845e-06   1.2910233290502242e-06   -2.188550057759974e-06
-6.732011966774845e-06   1.2910233290502242e-06   -2.188550057759974e-06
-9.013660395065005e-06   2.0365285150455493e-06   -5.543994326646408e-06
-9.013660395065005e-06   2.0365285150455493e-06   -5.543994326646408e-06
-9.013660395065005e-06   2.0365285150455493e-06   -5.543994326646408e-06
-9.013660395065005e-06   2.0365285150455493e-06   -5.543994326646408e-06
-8.531951418781212e-06   1.4766294594986684e-06   -1.2882354686290568e-06
-8.531951418781212e-06   1.4766294594986684e-06   -1.2882354686290568e-06
-8.531951418781212e-06   1.4766294594986684e-06   -1.2882354686290568e-06
-8.531951418781212e-06   1.4766294594986684e-06   -1.2882354686290568e-06
-6.559473179583904e-06   2.1593717756466764e-06   -4.98534459031337e-06
-6.559473179583904e-06   2.1593717756466764e-06   -4.98534459031337e-06
-6.559473179583904e-06   2.1593717756466764e-06   -4.98534459031337e-06
-6.559473179583904e-06   2.1593717756466764e-06   -4.98534459031337e-06
-7.451478280930378e-06   1.6326901856397605e-06   -3.1826604673985975e-06
-7.451478280930378e-06   1.6326901856397605e-06   -3.1826604673985975e-06
-7.451478280930378e-06   1.6326901856397605e-06   -3.1826604673985975e-06
-7.451478280930378e-06   1.6326901856397605e-06   -3.1826604673985975e-06
7.386849578715484e-06   -9.629642089870353e-07   8.923611321290338e-08
7.386849578715484e-06   -9.629642089870353e-07   8.923611321290338e-08
7.386849578715484e-06   -9.629642089870353e-07   8.923611321290338e-08
7.386849578715484e-06   -9.629642089870353e-07   8.923611321290338e-08
3.122857117421385e-06   -1.7178114611636009e-06   -7.470326340249943e-06
3.122857117421385e-06   -1.7178114611636009e-06   -7.470326340249943e-06
3.122857117421385e-06   -1.7178114611636009e-06   -7.470326340249943e-06
3.122857117421385e-06   -1.7178114611636009e-06   -7.470326340249943e-06
3.3307996870414976e-06   -7.935846585278264e-07   -6.84901501028757e-07
3.3307996870414976e-06   -7.935846585278264e-07   -6.84901501028757e-07
3.3307996870414976e-06   -7.935846585278264e-07   -6.84901501028757e-07
3.3307996870414976e-06   -7.935846585278264e-07   -6.84901501028757e-07
7.922779604735812e-06   -1.599783272243963e-06   -7.854482195622932e-06
7.922779604735812e-06   -1.599783272243963e-06   -7.854482195622932e-06
7.922779604735812e-06   -1.599783272243963e-06   -7.854482195622932e-06
7.922779604735812e-06   -1.599783272243963e-06   -7.854482195622932e-06
5.220177481487617e-06   -1.138258136206341e-06   -3.627060405165188e-06
5.220177481487617e-06   -1.138258136206341e-06   -3.627060405165188e-06
5.220177481487617e-06   -1.138258136206341e-06   -3.627060405165188e-06
5.220177481487617e-06   -1.138258136206341e-06   -3.627060405165188e-06
7.92277960473584e-06   -7.935846585278264e-07   -2.0118233279899913e-07
7.92277960473584e-06   -7.935846585278264e-07   -2.0118233279899913e-07
7.92277960473584e-06   -7.935846585278264e-07   -2.0118233279899913e-07
7.92277960473584e-06   -7.935846585278264e-07   -2.0118233279899913e-07
3.330799687041484e-06   -1.599783272243963e-06   -8.338201363852662e-06
3.330799687041484e-06   -1.599783272243963e-06   -8.338201363852662e-06
3.330799687041484e-06   -1.599783272243963e-06   -8.338201363852662e-06
3.330799687041484e-06   -1.599783272243963e-06   -8.338201363852662e-06
3.561875411818585e-06   -6.784901349071574e-07   -1.0282158183229882e-06
3.561875411818585e-06   -6.784901349071574e-07   -1.0282158183229882e-06
3.561875411818585e-06   -6.784901349071574e-07   -1.0282158183229882e-06
3.561875411818585e-06   -6.784901349071574e-07   -1.0282158183229882e-06
8.370079822774573e-06   -1.4955880546675812e-06   -8.551631084726693e-06
8.370079822774573e-06   -1.4955880546675812e-06   -8.551631084726693e-06
8.370079822774573e-06   -1.4955880546675812e-06   -8.551631084726693e-06
8.370079822774573e-06   -1.4955880546675812e-06   -8.551631084726693e-06
5.622255186722744e-06   -1.0916977414472413e-06   -4.214257545905837e-06
5.622255186722744e-06   -1.0916977414472413e-06   -4.214257545905837e-06
5.622255186722744e-06   -1.0916977414472413e-06   -4.214257545905837e-06
5.622255186722744e-06   -1.0916977414472413e-06   -4.214257545905837e-06
8.3700798227746e-06   -6.784901349071574e-07   -5.379570664667123e-07
8.3700798227746e-06   -6.784901349071574e-07   -5.379570664667123e-07
8.3700798227746e-06   -6.784901349071574e-07   -5.379570664667123e-07
8.3700798227746e-06   -6.784901349071574e-07   -5.379570664667123e-07
3.561875411818578e-06   -1.4955880546675812e-06   -9.041889836582996e-06
3.561875411818578e-06   -1.4955880546675812e-06   -9.041889836582996e-06
3.561875411818578e-06   -1.4955880546675812e-06   -9.041889836582996e-06
3.561875411818578e-06   -1.4955880546675812e-06   -9.041889836582996e-06
3.750595380909975e-06   -3.906008733901758e-07   -1.8115251214444292e-06
3.750595380909975e-06   -3.906008733901758e-07   -1.8115251214444292e-06
3.750595380909975e-06   -3.906008733901758e-07   -1.8115251214444292e-06
3.750595380909975e-06   -3.906008733901758e-07   -1.8115251214444292e-06
8.889859236212443e-06   -1.1691823060503304e-06   -9.909816020685868e-06
8.889859236212443e-06   -1.1691823060503304e-06   -9.909816020685868e-06
8.889859236212443e-06   -1.1691823060503304e-06   -9.909816020685868e-06
8.889859236212443e-06   -1.1691823060503304e-06   -9.909816020685868e-06
5.831932782768586e-06   -9.613943858701596e-07   -4.937944683721084e-06
5.831932782768586e-06   -9.613943858701596e-07   -4.937944683721084e-06
5.831932782768586e-06   -9.613943858701596e-07   -4.937944683721084e-06
5.831932782768586e-06   -9.613943858701596e-07   -4.937944683721084e-06
3.1228571174213917e-06   -3.7196787599515745e-07   -4.914736326670224e-06
3.1228571174213917e-06   -3.7196787599515745e-07   -4.914736326670224e-06
3.1228571174213917e-06   -3.7196787599515745e-07   -4.914736326670224e-06
3.1228571174213917e-06   -3.7196787599515745e-07   -4.914736326670224e-06
-1.3637529216323628e-06   -7.901182429733257e-07   -1.2643309945280088e-05
-1.3637529216323628e-06   -7.901182429733257e-07   -1.2643309945280088e-05
-1.3637529216323628e-06   -7.901182429733257e-07   -1.2643309945280088e-05
-1.3637529216323628e-06   -7.901182429733257e-07   -1.2643309945280088e-05
-1.1719100452610993e-06   -1.3737421265797413e-07   -5.016460844993562e-06
-1.1719100452610993e-06   -1.3737421265797413e-07   -5.016460844993562e-06
-1.1719100452610993e-06   -1.3737421265797413e-07   -5.016460844993562e-06
-1.1719100452610993e-06   -1.3737421265797413e-07   -5.016460844993562e-06
3.330799687041491e-06   -6.217478741449029e-07   -1.2230352868605764e-05
3.330799687041491e-06   -6.217478741449029e-07   -1.2230352868605764e-05
3.330799687041491e-06   -6.217478741449029e-07   -1.2230352868605764e-05
3.330799687041491e-06   -6.217478741449029e-07   -1.2230352868605764e-05
9.89865067140605e-07   -3.794179514306304e-07   -8.474193122399502e-06
9.89865067140605e-07   -3.794179514306304e-07   -8.474193122399502e-06
9.89865067140605e-07   -3.794179514306304e-07   -8.474193122399502e-06
9.89865067140605e-07   -3.794179514306304e-07   -8.474193122399502e-06
3.3307996870414976e-06   -1.3737421265797413e-07   -4.725836648101459e-06
3.3307996870414976e-06   -1.3737421265797413e-07   -4.725836648101459e-06
3.3307996870414976e-06   -1.3737421265797413e-07   -4.725836648101459e-06
3.3307996870414976e-06   -1.3737421265797413e-07   -4.725836648101459e-06
-1.1719100452610993e-06   -6.217478741449029e-07   -1.2520977065497868e-05
-1.1719100452610993e-06   -6.217478741449029e-07   -1.2520977065497868e-05
-1.1719100452610993e-06   -6.217478741449029e-07   -1.2520977065497868e-05
-1.1719100452610993e-06   -6.217478741449029e-07   -1.2520977065497868e-05
-9.887988322434277e-07   1.0596420425449749e-07   -5.085674728805539e-06
-9.887988322434277e-07   1.0596420425449749e-07   -5.085674728805539e-06
-9.887988322434277e-07   1.0596420425449749e-07   -5.085674728805539e-06
-9.887988322434277e-07   1.0596420425449749e-07   -5.085674728805539e-06
3.561875411818578e-06   -4.163514223968698e-07   -1.2356742426251446e-05
3.561875411818578e-06   -4.163514223968698e-07   -1.2356742426251446e-05
3.561875411818578e-06   -4.163514223968698e-07   -1.2356742426251446e-05
3.561875411818578e-06   -4.163514223968698e-07   -1.2356742426251446e-05
1.1399877896188556e-06   -2.294238553991572e-07   -8.432419596117078e-06
1.1399877896188556e-06   -2.294238553991572e-07   -8.432419596117078e-06
1.1399877896188556e-06   -2.294238553991572e-07   -8.432419596117078e-06
1.1399877896188556e-06   -2.294238553991572e-07   -8.432419596117078e-06
3.561875411818585e-06   1.0596420425449749e-07   -4.772285352814783e-06
3.561875411818585e-06   1.0596420425449749e-07   -4.772285352814783e-06
3.561875411818585e-06   1.0596420425449749e-07   -4.772285352814783e-06
3.561875411818585e-06   1.0596420425449749e-07   -4.772285352814783e-06
-9.887988322434277e-07   -4.163514223968698e-07   -1.2670131802242296e-05
-9.887988322434277e-07   -4.163514223968698e-07   -1.2670131802242296e-05
-9.887988322434277e-07   -4.163514223968698e-07   -1.2670131802242296e-05
-9.887988322434277e-07   -4.163514223968698e-07   -1.2670131802242296e-05
-8.173935986015965e-07   3.9531236462411485e-07   -5.26427048487565e-06
-8.173935986015965e-07   3.9531236462411485e-07   -5.26427048487565e-06
-8.173935986015965e-07   3.9531236462411485e-07   -5.26427048487565e-06
-8.173935986015965e-07   3.9531236462411485e-07   -5.26427048487565e-06
3.750595380909975e-06   -1.569628389029706e-07   -1.2546220328611961e-05
3.750595380909975e-06   -1.569628389029706e-07   -1.2546220328611961e-05
3.750595380909975e-06   -1.569628389029706e-07   -1.2546220328611961e-05
3.750595380909975e-06   -1.569628389029706e-07   -1.2546220328611961e-05
1.3306428754878895e-06   -4.3799239165653175e-08   -8.580864312751133e-06
1.3306428754878895e-06   -4.3799239165653175e-08   -8.580864312751133e-06
1.3306428754878895e-06   -4.3799239165653175e-08   -8.580864312751133e-06
1.3306428754878895e-06   -4.3799239165653175e-08   -8.580864312751133e-06
-1.3637529216323628e-06   3.0345165640487635e-07   -6.365787818185943e-06
-1.3637529216323628e-06   3.0345165640487635e-07   -6.365787818185943e-06
-1.3637529216323628e-06   3.0345165640487635e-07   -6.365787818185943e-06
-1.3637529216323628e-06   3.0345165640487635e-07   -6.365787818185943e-06
-5.771226187494635e-06   1.7214804360905344e-07   -1.3790358762300428e-05
-5.771226187494635e-06   1.7214804360905344e-07   -1.3790358762300428e-05
-5.771226187494635e-06   1.7214804360905344e-07   -1.3790358762300428e-05
-5.771226187494635e-06   1.7214804360905344e-07   -1.3790358762300428e-05
-5.564948791244018e-06   5.531832440556507e-07   -6.313887053552823e-06
-5.564948791244018e-06   5.531832440556507e-07   -6.313887053552823e-06
-5.564948791244018e-06   5.531832440556507e-07   -6.313887053552823e-06
-5.564948791244018e-06   5.531832440556507e-07   -6.313887053552823e-06
-1.1719100452610993e-06   3.623289685632811e-07   -1.3521105731562247e-05
-1.1719100452610993e-06   3.623289685632811e-07   -1.3521105731562247e-05
-1.1719100452610993e-06   3.623289685632811e-07   -1.3521105731562247e-05
-1.1719100452610993e-06   3.623289685632811e-07   -1.3521105731562247e-05
-3.444785036958239e-06   4.1721858886907114e-07   -9.765914517583893e-06
-3.444785036958239e-06   4.1721858886907114e-07   -9.765914517583893e-06
-3.444785036958239e-06   4.1721858886907114e-07   -9.765914517583893e-06
-3.444785036958239e-06   4.1721858886907114e-07   -9.765914517583893e-06
-1.1719100452610993e-06   5.531832440556507e-07   -6.199374488257434e-06
-1.1719100452610993e-06   5.531832440556507e-07   -6.199374488257434e-06
-1.1719100452610993e-06   5.531832440556507e-07   -6.199374488257434e-06
-1.1719100452610993e-06   5.531832440556507e-07   -6.199374488257434e-06
-5.564948791244018e-06   3.623289685632811e-07   -1.3635618296857738e-05
-5.564948791244018e-06   3.623289685632811e-07   -1.3635618296857738e-05
-5.564948791244018e-06   3.623289685632811e-07   -1.3635618296857738e-05
-5.564948791244018e-06   3.623289685632811e-07   -1.3635618296857738e-05
-5.365614708511525e-06   8.168843522557596e-07   -6.3045034756717975e-06
-5.365614708511525e-06   8.168843522557596e-07   -6.3045034756717975e-06
-5.365614708511525e-06   8.168843522557596e-07   -6.3045034756717975e-06
-5.365614708511525e-06   8.168843522557596e-07   -6.3045034756717975e-06
-9.887988322434277e-07   5.809905322436007e-07   -1.3457660310777976e-05
-9.887988322434277e-07   5.809905322436007e-07   -1.3457660310777976e-05
-9.887988322434277e-07   5.809905322436007e-07   -1.3457660310777976e-05
-9.887988322434277e-07   5.809905322436007e-07   -1.3457660310777976e-05
-3.268088658145035e-06   5.955548676957797e-07   -9.667582535546548e-06
-3.268088658145035e-06   5.955548676957797e-07   -9.667582535546548e-06
-3.268088658145035e-06   5.955548676957797e-07   -9.667582535546548e-06
-3.268088658145035e-06   5.955548676957797e-07   -9.667582535546548e-06
-9.887988322434345e-07   8.168843522557596e-07   -6.162967183664524e-06
-9.887988322434345e-07   8.168843522557596e-07   -6.162967183664524e-06
-9.887988322434345e-07   8.168843522557596e-07   -6.162967183664524e-06
-9.887988322434345e-07   8.168843522557596e-07   -6.162967183664524e-06
-5.365614708511525e-06   5.809905322436007e-07   -1.359919660278531e-05
-5.365614708511525e-06   5.809905322436007e-07   -1.359919660278531e-05
-5.365614708511525e-06   5.809905322436007e-07   -1.359919660278531e-05
-5.365614708511525e-06   5.809905322436007e-07   -1.359919660278531e-05
-5.1814837326067e-06   1.0852214271305448e-06   -6.456001181961654e-06
-5.1814837326067e-06   1.0852214271305448e-06   -6.456001181961654e-06
-5.1814837326067e-06   1.0852214271305448e-06   -6.456001181961654e-06
-5.1814837326067e-06   1.0852214271305448e-06   -6.456001181961654e-06
-8.173935986015965e-07   8.066723914661872e-07   -1.3562355317238275e-05
-8.173935986015965e-07   8.066723914661872e-07   -1.3562355317238275e-05
-8.173935986015965e-07   8.066723914661872e-07   -1.3562355317238275e-05
-8.173935986015965e-07   8.066723914661872e-07   -1.3562355317238275e-05
-3.1109319597942252e-06   7.784986615817519e-07   -9.722887143986757e-06
-3.1109319597942252e-06   7.784986615817519e-07   -9.722887143986757e-06
-3.1109319597942252e-06   7.784986615817519e-07   -9.722887143986757e-06
-3.1109319597942252e-06   7.784986615817519e-07   -9.722887143986757e-06
-5.771226187494644e-06   9.628829093649444e-07   -5.1508410644558636e-06
-5.771226187494644e-06   9.628829093649444e-07   -5.1508410644558636e-06
-5.771226187494644e-06   9.628829093649444e-07   -5.1508410644558636e-06
-5.771226187494644e-06   9.628829093649444e-07   -5.1508410644558636e-06
-1.0113400211478513e-05   1.1694133835409145e-06   -1.2263879486590096e-05
-1.0113400211478513e-05   1.1694133835409145e-06   -1.2263879486590096e-05
-1.0113400211478513e-05   1.1694133835409145e-06   -1.2263879486590096e-05
-1.0113400211478513e-05   1.1694133835409145e-06   -1.2263879486590096e-05
-9.863738642914316e-06   1.2295690397446301e-06   -4.824370949769281e-06
-9.863738642914316e-06   1.2295690397446301e-06   -4.824370949769281e-06
-9.863738642914316e-06   1.2295690397446301e-06   -4.824370949769281e-06
-9.863738642914316e-06   1.2295690397446301e-06   -4.824370949769281e-06
-5.564948791244026e-06   1.4089524999083168e-06   -1.2096650778651282e-05
-5.564948791244026e-06   1.4089524999083168e-06   -1.2096650778651282e-05
-5.564948791244026e-06   1.4089524999083168e-06   -1.2096650778651282e-05
-5.564948791244026e-06   1.4089524999083168e-06   -1.2096650778651282e-05
-7.771469463841176e-06   1.2404706496733225e-06   -8.318027214181718e-06
-7.771469463841176e-06   1.2404706496733225e-06   -8.318027214181718e-06
-7.771469463841176e-06   1.2404706496733225e-06   -8.318027214181718e-06
-7.771469463841176e-06   1.2404706496733225e-06   -8.318027214181718e-06
-5.564948791244026e-06   1.2295690397446301e-06   -4.932001025867514e-06
-5.564948791244026e-06   1.2295690397446301e-06   -4.932001025867514e-06
-5.564948791244026e-06   1.2295690397446301e-06   -4.932001025867514e-06
-5.564948791244026e-06   1.2295690397446301e-06   -4.932001025867514e-06
-9.863738642914316e-06   1.4089524999083168e-06   -1.1989020702553072e-05
-9.863738642914316e-06   1.4089524999083168e-06   -1.1989020702553072e-05
-9.863738642914316e-06   1.4089524999083168e-06   -1.1989020702553072e-05
-9.863738642914316e-06   1.4089524999083168e-06   -1.1989020702553072e-05
-9.585198468976565e-06   1.4689667188086484e-06   -4.642379953282176e-06
-9.585198468976565e-06   1.4689667188086484e-06   -4.642379953282176e-06
-9.585198468976565e-06   1.4689667188086484e-06   -4.642379953282176e-06
-9.585198468976565e-06   1.4689667188086484e-06   -4.642379953282176e-06
-5.365614708511535e-06   1.6149444099468812e-06   -1.1762606168740267e-05
-5.365614708511535e-06   1.6149444099468812e-06   -1.1762606168740267e-05
-5.365614708511535e-06   1.6149444099468812e-06   -1.1762606168740267e-05
-5.365614708511535e-06   1.6149444099468812e-06   -1.1762606168740267e-05
-7.516604647362637e-06   1.4282049321319608e-06   -8.065579250632772e-06
-7.516604647362637e-06   1.4282049321319608e-06   -8.065579250632772e-06
-7.516604647362637e-06   1.4282049321319608e-06   -8.065579250632772e-06
-7.516604647362637e-06   1.4282049321319608e-06   -8.065579250632772e-06
-5.36561470851153e-06   1.4689667188086484e-06   -4.7299665679651805e-06
-5.36561470851153e-06   1.4689667188086484e-06   -4.7299665679651805e-06
-5.36561470851153e-06   1.4689667188086484e-06   -4.7299665679651805e-06
-5.36561470851153e-06   1.4689667188086484e-06   -4.7299665679651805e-06
-9.585198468976565e-06   1.6149444099468812e-06   -1.1675019554057266e-05
-9.585198468976565e-06   1.6149444099468812e-06   -1.1675019554057266e-05
-9.585198468976565e-06   1.6149444099468812e-06   -1.1675019554057266e-05
-9.585198468976565e-06   1.6149444099468812e-06   -1.1675019554057266e-05
-9.350431433407022e-06   1.7350265240828394e-06   -4.750706509035283e-06
-9.350431433407022e-06   1.7350265240828394e-06   -4.750706509035283e-06
-9.350431433407022e-06   1.7350265240828394e-06   -4.750706509035283e-06
-9.350431433407022e-06   1.7350265240828394e-06   -4.750706509035283e-06
-5.181483732606709e-06   1.8412726390351934e-06   -1.1762700346007299e-05
-5.181483732606709e-06   1.8412726390351934e-06   -1.1762700346007299e-05
-5.181483732606709e-06   1.8412726390351934e-06   -1.1762700346007299e-05
-5.181483732606709e-06   1.8412726390351934e-06   -1.1762700346007299e-05
-7.363710719453948e-06   1.6005123608166813e-06   -7.981199200997435e-06
-7.363710719453948e-06   1.6005123608166813e-06   -7.981199200997435e-06
-7.363710719453948e-06   1.6005123608166813e-06   -7.981199200997435e-06
-7.363710719453948e-06   1.6005123608166813e-06   -7.981199200997435e-06
-1.0113400211478513e-05   1.6579820486957962e-06   -2.5665649315017138e-06
-1.0113400211478513e-05   1.6579820486957962e-06   -2.5665649315017138e-06
-1.0113400211478513e-05   1.6579820486957962e-06   -2.5665649315017138e-06
-1.0113400211478513e-05   1.6579820486957962e-06   -2.5665649315017138e-06
-1.4709460291314623e-05   2.2754576872581435e-06   -9.856179681424506e-06
-1.4709460291314623e-05   2.2754576872581435e-06   -9.856179681424506e-06
-1.4709460291314623e-05   2.2754576872581435e-06   -9.856179681424506e-06
-1.4709460291314623e-05   2.2754576872581435e-06   -9.856179681424506e-06
-1.4120101027937234e-05   1.936317960587726e-06   -7.275235495103941e-07
-1.4120101027937234e-05   1.936317960587726e-06   -7.275235495103941e-07
-1.4120101027937234e-05   1.936317960587726e-06   -7.275235495103941e-07
-1.4120101027937234e-05   1.936317960587726e-06   -7.275235495103941e-07
-9.8637386429143e-06   2.5940215505647953e-06   -8.216083011868086e-06
-9.8637386429143e-06   2.5940215505647953e-06   -8.216083011868086e-06
-9.8637386429143e-06   2.5940215505647953e-06   -8.216083011868086e-06
-9.8637386429143e-06   2.5940215505647953e-06   -8.216083011868086e-06
-1.169817744899735e-05   2.166981237660846e-06   -4.902460813987393e-06
-1.169817744899735e-05   2.166981237660846e-06   -4.902460813987393e-06
-1.169817744899735e-05   2.166981237660846e-06   -4.902460813987393e-06
-1.169817744899735e-05   2.166981237660846e-06   -4.902460813987393e-06
-9.863738642914306e-06   1.936317960587726e-06   -1.1221457034965706e-06
-9.863738642914306e-06   1.936317960587726e-06   -1.1221457034965706e-06
-9.863738642914306e-06   1.936317960587726e-06   -1.1221457034965706e-06
-9.863738642914306e-06   1.936317960587726e-06   -1.1221457034965706e-06
-1.4120101027937207e-05   2.5940215505647953e-06   -7.821460857881891e-06
-1.4120101027937207e-05   2.5940215505647953e-06   -7.821460857881891e-06
-1.4120101027937207e-05   2.5940215505647953e-06   -7.821460857881891e-06
-1.4120101027937207e-05   2.5940215505647953e-06   -7.821460857881891e-06
-1.3635442003822609e-05   2.0365285150455493e-06   4.836229241383938e-08
-1.3635442003822609e-05   2.0365285150455493e-06   4.836229241383938e-08
-1.3635442003822609e-05   2.0365285150455493e-06   4.836229241383938e-08
-1.3635442003822609e-05   2.0365285150455493e-06   4.836229241383938e-08
-9.585198468976565e-06   2.678707557264722e-06   -7.087351024327654e-06
-9.585198468976565e-06   2.678707557264722e-06   -7.087351024327654e-06
-9.585198468976565e-06   2.678707557264722e-06   -7.087351024327654e-06
-9.585198468976565e-06   2.678707557264722e-06   -7.087351024327654e-06
-1.1510158468393238e-05   2.296758081699675e-06   -3.6499146732941285e-06
-1.1510158468393238e-05   2.296758081699675e-06   -3.6499146732941285e-06
-1.1510158468393238e-05   2.296758081699675e-06   -3.6499146732941285e-06
-1.1510158468393238e-05   2.296758081699675e-06   -3.6499146732941285e-06
-9.585198468976565e-06   2.0365285150455493e-06   -3.369451329175992e-07
-9.585198468976565e-06   2.0365285150455493e-06   -3.369451329175992e-07
-9.585198468976565e-06   2.0365285150455493e-06   -3.369451329175992e-07
-9.585198468976565e-06   2.0365285150455493e-06   -3.369451329175992e-07
-1.3635442003822561e-05   2.678707557264722e-06   -6.70204359899619e-06
-1.3635442003822561e-05   2.678707557264722e-06   -6.70204359899619e-06
-1.3635442003822561e-05   2.678707557264722e-06   -6.70204359899619e-06
-1.3635442003822561e-05   2.678707557264722e-06   -6.70204359899619e-06
-1.3108550505885723e-05   2.1593717756466764e-06   1.0431451079268646e-06
-1.3108550505885723e-05   2.1593717756466764e-06   1.0431451079268646e-06
-1.3108550505885723e-05   2.1593717756466764e-06   1.0431451079268646e-06
-1.3108550505885723e-05   2.1593717756466764e-06   1.0431451079268646e-06
-9.350431433407022e-06   2.746865576149578e-06   -5.5728829598393836e-06
-9.350431433407022e-06   2.746865576149578e-06   -5.5728829598393836e-06
-9.350431433407022e-06   2.746865576149578e-06   -5.5728829598393836e-06
-9.350431433407022e-06   2.746865576149578e-06   -5.5728829598393836e-06
-1.1011785981037042e-05   2.3172239393993033e-06   -2.5461737317393276e-06
-1.1011785981037042e-05   2.3172239393993033e-06   -2.5461737317393276e-06
-1.1011785981037042e-05   2.3172239393993033e-06   -2.5461737317393276e-06
-1.1011785981037042e-05   2.3172239393993033e-06   -2.5461737317393276e-06
1.2379138971398365e-05   -1.7178114611637093e-06   2.5976144672076006e-06
1.2379138971398365e-05   -1.7178114611637093e-06   2.5976144672076006e-06
1.2379138971398365e-05   -1.7178114611637093e-06   2.5976144672076006e-06
1.2379138971398365e-05   -1.7178114611637093e-06   2.5976144672076006e-06
5.93359681139389e-06   -2.5218861327639666e-06   -8.627400602426595e-06
5.93359681139389e-06   -2.5218861327639666e-06   -8.627400602426595e-06
5.93359681139389e-06   -2.5218861327639666e-06   -8.627400602426595e-06
5.93359681139389e-06   -2.5218861327639666e-06   -8.627400602426595e-06
6.163162214080501e-06   -1.599783272243963e-06   1.3281425239608253e-06
6.163162214080501e-06   -1.599783272243963e-06   1.3281425239608253e-06
6.163162214080501e-06   -1.599783272243963e-06   1.3281425239608253e-06
6.163162214080501e-06   -1.599783272243963e-06   1.3281425239608253e-06
1.2924799240967612e-05   -2.4655468636392225e-06   -9.421794366013997e-06
1.2924799240967612e-05   -2.4655468636392225e-06   -9.421794366013997e-06
1.2924799240967612e-05   -2.4655468636392225e-06   -9.421794366013997e-06
1.2924799240967612e-05   -2.4655468636392225e-06   -9.421794366013997e-06
8.968509713148431e-06   -1.8760215427679429e-06   -3.181693678838121e-06
8.968509713148431e-06   -1.8760215427679429e-06   -3.181693678838121e-06
8.968509713148431e-06   -1.8760215427679429e-06   -3.181693678838121e-06
8.968509713148431e-06   -1.8760215427679429e-06   -3.181693678838121e-06
1.2924799240967639e-05   -1.599783272243963e-06   1.847600678797905e-06
1.2924799240967639e-05   -1.599783272243963e-06   1.847600678797905e-06
1.2924799240967639e-05   -1.599783272243963e-06   1.847600678797905e-06
1.2924799240967639e-05   -1.599783272243963e-06   1.847600678797905e-06
6.163162214080488e-06   -2.4655468636392225e-06   -9.941252520851145e-06
6.163162214080488e-06   -2.4655468636392225e-06   -9.941252520851145e-06
6.163162214080488e-06   -2.4655468636392225e-06   -9.941252520851145e-06
6.163162214080488e-06   -2.4655468636392225e-06   -9.941252520851145e-06
6.391875538869561e-06   -1.4955880546674728e-06   7.010835403442172e-07
6.391875538869561e-06   -1.4955880546674728e-06   7.010835403442172e-07
6.391875538869561e-06   -1.4955880546674728e-06   7.010835403442172e-07
6.391875538869561e-06   -1.4955880546674728e-06   7.010835403442172e-07
1.3341687983111744e-05   -2.379089602662799e-06   -1.0351836271262305e-05
1.3341687983111744e-05   -2.379089602662799e-06   -1.0351836271262305e-05
1.3341687983111744e-05   -2.379089602662799e-06   -1.0351836271262305e-05
1.3341687983111744e-05   -2.379089602662799e-06   -1.0351836271262305e-05
9.430152821733291e-06   -1.8692705894302487e-06   -4.138502410237728e-06
9.430152821733291e-06   -1.8692705894302487e-06   -4.138502410237728e-06
9.430152821733291e-06   -1.8692705894302487e-06   -4.138502410237728e-06
9.430152821733291e-06   -1.8692705894302487e-06   -4.138502410237728e-06
1.3341687983111744e-05   -1.4955880546674728e-06   1.2311844691413804e-06
1.3341687983111744e-05   -1.4955880546674728e-06   1.2311844691413804e-06
1.3341687983111744e-05   -1.4955880546674728e-06   1.2311844691413804e-06
1.3341687983111744e-05   -1.4955880546674728e-06   1.2311844691413804e-06
6.391875538869561e-06   -2.379089602662799e-06   -1.088193720005944e-05
6.391875538869561e-06   -2.379089602662799e-06   -1.088193720005944e-05
6.391875538869561e-06   -2.379089602662799e-06   -1.088193720005944e-05
6.391875538869561e-06   -2.379089602662799e-06   -1.088193720005944e-05
6.5450323876461395e-06   -1.1691823060503304e-06   -5.51822228060325e-07
6.5450323876461395e-06   -1.1691823060503304e-06   -5.51822228060325e-07
6.5450323876461395e-06   -1.1691823060503304e-06   -5.51822228060325e-07
6.5450323876461395e-06   -1.1691823060503304e-06   -5.51822228060325e-07
1.3783240381335917e-05   -2.0449874383053667e-06   -1.2090019138190152e-05
1.3783240381335917e-05   -2.0449874383053667e-06   -1.2090019138190152e-05
1.3783240381335917e-05   -2.0449874383053667e-06   -1.2090019138190152e-05
1.3783240381335917e-05   -2.0449874383053667e-06   -1.2090019138190152e-05
9.549425644132034e-06   -1.72396148011907e-06   -5.22627681776235e-06
9.549425644132034e-06   -1.72396148011907e-06   -5.22627681776235e-06
9.549425644132034e-06   -1.72396148011907e-06   -5.22627681776235e-06
9.549425644132034e-06   -1.72396148011907e-06   -5.22627681776235e-06
5.933596811393896e-06   -7.901182429733257e-07   -2.8069237205957274e-06
5.933596811393896e-06   -7.901182429733257e-07   -2.8069237205957274e-06
5.933596811393896e-06   -7.901182429733257e-07   -2.8069237205957274e-06
5.933596811393896e-06   -7.901182429733257e-07   -2.8069237205957274e-06
-4.167341084047524e-07   -1.5996361053863782e-06   -1.3876519304374581e-05
-4.167341084047524e-07   -1.5996361053863782e-06   -1.3876519304374581e-05
-4.167341084047524e-07   -1.5996361053863782e-06   -1.3876519304374581e-05
-4.167341084047524e-07   -1.5996361053863782e-06   -1.3876519304374581e-05
-1.823436744765515e-07   -6.217478741449029e-07   -3.101897748212612e-06
-1.823436744765515e-07   -6.217478741449029e-07   -3.101897748212612e-06
-1.823436744765515e-07   -6.217478741449029e-07   -3.101897748212612e-06
-1.823436744765515e-07   -6.217478741449029e-07   -3.101897748212612e-06
6.163162214080501e-06   -1.5182291531786862e-06   -1.3139852128387421e-05
6.163162214080501e-06   -1.5182291531786862e-06   -1.3139852128387421e-05
6.163162214080501e-06   -1.5182291531786862e-06   -1.3139852128387421e-05
6.163162214080501e-06   -1.5182291531786862e-06   -1.3139852128387421e-05
2.88196825289471e-06   -9.693605383399298e-07   -8.00051669531432e-06
2.88196825289471e-06   -9.693605383399298e-07   -8.00051669531432e-06
2.88196825289471e-06   -9.693605383399298e-07   -8.00051669531432e-06
2.88196825289471e-06   -9.693605383399298e-07   -8.00051669531432e-06
6.1631622140804945e-06   -6.217478741449029e-07   -2.5640089807923852e-06
6.1631622140804945e-06   -6.217478741449029e-07   -2.5640089807923852e-06
6.1631622140804945e-06   -6.217478741449029e-07   -2.5640089807923852e-06
6.1631622140804945e-06   -6.217478741449029e-07   -2.5640089807923852e-06
-1.823436744765515e-07   -1.5182291531786862e-06   -1.3677740895807729e-05
-1.823436744765515e-07   -1.5182291531786862e-06   -1.3677740895807729e-05
-1.823436744765515e-07   -1.5182291531786862e-06   -1.3677740895807729e-05
-1.823436744765515e-07   -1.5182291531786862e-06   -1.3677740895807729e-05
2.3851721038901247e-08   -4.163514223968698e-07   -3.186083550649058e-06
2.3851721038901247e-08   -4.163514223968698e-07   -3.186083550649058e-06
2.3851721038901247e-08   -4.163514223968698e-07   -3.186083550649058e-06
2.3851721038901247e-08   -4.163514223968698e-07   -3.186083550649058e-06
6.391875538869561e-06   -1.3702089246048254e-06   -1.322714207904204e-05
6.391875538869561e-06   -1.3702089246048254e-06   -1.322714207904204e-05
6.391875538869561e-06   -1.3702089246048254e-06   -1.322714207904204e-05
6.391875538869561e-06   -1.3702089246048254e-06   -1.322714207904204e-05
3.038512073899814e-06   -8.846815296515483e-07   -7.9295194077308e-06
3.038512073899814e-06   -8.846815296515483e-07   -7.9295194077308e-06
3.038512073899814e-06   -8.846815296515483e-07   -7.9295194077308e-06
3.038512073899814e-06   -8.846815296515483e-07   -7.9295194077308e-06
6.391875538869561e-06   -4.163514223969782e-07   -2.613769049324274e-06
6.391875538869561e-06   -4.163514223969782e-07   -2.613769049324274e-06
6.391875538869561e-06   -4.163514223969782e-07   -2.613769049324274e-06
6.391875538869561e-06   -4.163514223969782e-07   -2.613769049324274e-06
2.3851721038908023e-08   -1.3702089246048254e-06   -1.3799456580366825e-05
2.3851721038908023e-08   -1.3702089246048254e-06   -1.3799456580366825e-05
2.3851721038908023e-08   -1.3702089246048254e-06   -1.3799456580366825e-05
2.3851721038908023e-08   -1.3702089246048254e-06   -1.3799456580366825e-05
1.6956278148970238e-07   -1.5696283890307902e-07   -3.3225006249918668e-06
1.6956278148970238e-07   -1.5696283890307902e-07   -3.3225006249918668e-06
1.6956278148970238e-07   -1.5696283890307902e-07   -3.3225006249918668e-06
1.6956278148970238e-07   -1.5696283890307902e-07   -3.3225006249918668e-06
6.54503238764616e-06   -1.1593344199055389e-06   -1.3346860353317835e-05
6.54503238764616e-06   -1.1593344199055389e-06   -1.3346860353317835e-05
6.54503238764616e-06   -1.1593344199055389e-06   -1.3346860353317835e-05
6.54503238764616e-06   -1.1593344199055389e-06   -1.3346860353317835e-05
3.230463761334251e-06   -7.376684469137095e-07   -8.075578893259819e-06
3.230463761334251e-06   -7.376684469137095e-07   -8.075578893259819e-06
3.230463761334251e-06   -7.376684469137095e-07   -8.075578893259819e-06
3.230463761334251e-06   -7.376684469137095e-07   -8.075578893259819e-06
-4.167341084047524e-07   1.7214804360916186e-07   -4.360901087386475e-06
-4.167341084047524e-07   1.7214804360916186e-07   -4.360901087386475e-06
-4.167341084047524e-07   1.7214804360916186e-07   -4.360901087386475e-06
-4.167341084047524e-07   1.7214804360916186e-07   -4.360901087386475e-06
-6.673423855666567e-06   -7.861951115942147e-07   -1.5363723225945015e-05
-6.673423855666567e-06   -7.861951115942147e-07   -1.5363723225945015e-05
-6.673423855666567e-06   -7.861951115942147e-07   -1.5363723225945015e-05
-6.673423855666567e-06   -7.861951115942147e-07   -1.5363723225945015e-05
-6.391731924400479e-06   3.623289685631727e-07   -4.732683162717824e-06
-6.391731924400479e-06   3.623289685631727e-07   -4.732683162717824e-06
-6.391731924400479e-06   3.623289685631727e-07   -4.732683162717824e-06
-6.391731924400479e-06   3.623289685631727e-07   -4.732683162717824e-06
-1.823436744765515e-07   -6.887656121715244e-07   -1.4451006830816878e-05
-1.823436744765515e-07   -6.887656121715244e-07   -1.4451006830816878e-05
-1.823436744765515e-07   -6.887656121715244e-07   -1.4451006830816878e-05
-1.823436744765515e-07   -6.887656121715244e-07   -1.4451006830816878e-05
-3.3774499369829876e-06   -1.1697733285557892e-07   -9.46890269422909e-06
-3.3774499369829876e-06   -1.1697733285557892e-07   -9.46890269422909e-06
-3.3774499369829876e-06   -1.1697733285557892e-07   -9.46890269422909e-06
-3.3774499369829876e-06   -1.1697733285557892e-07   -9.46890269422909e-06
-1.823436744765515e-07   3.623289685631727e-07   -4.102026414276984e-06
-1.823436744765515e-07   3.623289685631727e-07   -4.102026414276984e-06
-1.823436744765515e-07   3.623289685631727e-07   -4.102026414276984e-06
-1.823436744765515e-07   3.623289685631727e-07   -4.102026414276984e-06
-6.391731924400479e-06   -6.887656121715244e-07   -1.5081663579257691e-05
-6.391731924400479e-06   -6.887656121715244e-07   -1.5081663579257691e-05
-6.391731924400479e-06   -6.887656121715244e-07   -1.5081663579257691e-05
-6.391731924400479e-06   -6.887656121715244e-07   -1.5081663579257691e-05
-6.133350609667784e-06   5.809905322437092e-07   -4.647520653103948e-06
-6.133350609667784e-06   5.809905322437092e-07   -4.647520653103948e-06
-6.133350609667784e-06   5.809905322437092e-07   -4.647520653103948e-06
-6.133350609667784e-06   5.809905322437092e-07   -4.647520653103948e-06
2.3851721038908023e-08   -5.421904576216477e-07   -1.4235615943695931e-05
2.3851721038908023e-08   -5.421904576216477e-07   -1.4235615943695931e-05
2.3851721038908023e-08   -5.421904576216477e-07   -1.4235615943695931e-05
2.3851721038908023e-08   -5.421904576216477e-07   -1.4235615943695931e-05
-3.1490619884734802e-06   -7.321986393278926e-09   -9.268347510578981e-06
-3.1490619884734802e-06   -7.321986393278926e-09   -9.268347510578981e-06
-3.1490619884734802e-06   -7.321986393278926e-09   -9.268347510578981e-06
-3.1490619884734802e-06   -7.321986393278926e-09   -9.268347510578981e-06
2.3851721038908023e-08   5.809905322437092e-07   -3.973612059184799e-06
2.3851721038908023e-08   5.809905322437092e-07   -3.973612059184799e-06
2.3851721038908023e-08   5.809905322437092e-07   -3.973612059184799e-06
2.3851721038908023e-08   5.809905322437092e-07   -3.973612059184799e-06
-6.133350609667784e-06   -5.421904576216477e-07   -1.4909524537615128e-05
-6.133350609667784e-06   -5.421904576216477e-07   -1.4909524537615128e-05
-6.133350609667784e-06   -5.421904576216477e-07   -1.4909524537615128e-05
-6.133350609667784e-06   -5.421904576216477e-07   -1.4909524537615128e-05
-5.959567426004856e-06   8.066723914661872e-07   -4.7327586575178515e-06
-5.959567426004856e-06   8.066723914661872e-07   -4.7327586575178515e-06
-5.959567426004856e-06   8.066723914661872e-07   -4.7327586575178515e-06
-5.959567426004856e-06   8.066723914661872e-07   -4.7327586575178515e-06
1.6956278148970238e-07   -4.0247455189380745e-07   -1.422248750399285e-05
1.6956278148970238e-07   -4.0247455189380745e-07   -1.422248750399285e-05
1.6956278148970238e-07   -4.0247455189380745e-07   -1.422248750399285e-05
1.6956278148970238e-07   -4.0247455189380745e-07   -1.422248750399285e-05
-2.9872856587206383e-06   1.1517542501497668e-07   -9.271663423121079e-06
-2.9872856587206383e-06   1.1517542501497668e-07   -9.271663423121079e-06
-2.9872856587206383e-06   1.1517542501497668e-07   -9.271663423121079e-06
-2.9872856587206383e-06   1.1517542501497668e-07   -9.271663423121079e-06
-6.673423855666567e-06   1.1694133835408061e-06   -3.5333459893037303e-06
-6.673423855666567e-06   1.1694133835408061e-06   -3.5333459893037303e-06
-6.673423855666567e-06   1.1694133835408061e-06   -3.5333459893037303e-06
-6.673423855666567e-06   1.1694133835408061e-06   -3.5333459893037303e-06
-1.3024465369153502e-05   3.148838340830259e-07   -1.4631132908123339e-05
-1.3024465369153502e-05   3.148838340830259e-07   -1.4631132908123339e-05
-1.3024465369153502e-05   3.148838340830259e-07   -1.4631132908123339e-05
-1.3024465369153502e-05   3.148838340830259e-07   -1.4631132908123339e-05
-1.2622874137706625e-05   1.4089524999083168e-06   -3.74635573457125e-06
-1.2622874137706625e-05   1.4089524999083168e-06   -3.74635573457125e-06
-1.2622874137706625e-05   1.4089524999083168e-06   -3.74635573457125e-06
-1.2622874137706625e-05   1.4089524999083168e-06   -3.74635573457125e-06
-6.391731924400479e-06   4.878856831420312e-07   -1.3578952666688359e-05
-6.391731924400479e-06   4.878856831420312e-07   -1.3578952666688359e-05
-6.391731924400479e-06   4.878856831420312e-07   -1.3578952666688359e-05
-6.391731924400479e-06   4.878856831420312e-07   -1.3578952666688359e-05
-9.580443959166504e-06   9.236052720013608e-07   -8.525864362060622e-06
-9.580443959166504e-06   9.236052720013608e-07   -8.525864362060622e-06
-9.580443959166504e-06   9.236052720013608e-07   -8.525864362060622e-06
-9.580443959166504e-06   9.236052720013608e-07   -8.525864362060622e-06
-6.391731924400479e-06   1.4089524999083168e-06   -3.193715644511446e-06
-6.391731924400479e-06   1.4089524999083168e-06   -3.193715644511446e-06
-6.391731924400479e-06   1.4089524999083168e-06   -3.193715644511446e-06
-6.391731924400479e-06   1.4089524999083168e-06   -3.193715644511446e-06
-1.2622874137706645e-05   4.878856831420312e-07   -1.4131592756748109e-05
-1.2622874137706645e-05   4.878856831420312e-07   -1.4131592756748109e-05
-1.2622874137706645e-05   4.878856831420312e-07   -1.4131592756748109e-05
-1.2622874137706645e-05   4.878856831420312e-07   -1.4131592756748109e-05
-1.2232252040077937e-05   1.6149444099468812e-06   -3.3920581456327965e-06
-1.2232252040077937e-05   1.6149444099468812e-06   -3.3920581456327965e-06
-1.2232252040077937e-05   1.6149444099468812e-06   -3.3920581456327965e-06
-1.2232252040077937e-05   1.6149444099468812e-06   -3.3920581456327965e-06
-6.133350609667794e-06   6.463978656570668e-07   -1.2975765936409143e-05
-6.133350609667794e-06   6.463978656570668e-07   -1.2975765936409143e-05
-6.133350609667794e-06   6.463978656570668e-07   -1.2975765936409143e-05
-6.133350609667794e-06   6.463978656570668e-07   -1.2975765936409143e-05
-9.21391995388892e-06   1.0742407363533747e-06   -8.09818941845842e-06
-9.21391995388892e-06   1.0742407363533747e-06   -8.09818941845842e-06
-9.21391995388892e-06   1.0742407363533747e-06   -8.09818941845842e-06
-9.21391995388892e-06   1.0742407363533747e-06   -8.09818941845842e-06
-6.133350609667781e-06   1.6149444099468812e-06   -2.8109302190587994e-06
-6.133350609667781e-06   1.6149444099468812e-06   -2.8109302190587994e-06
-6.133350609667781e-06   1.6149444099468812e-06   -2.8109302190587994e-06
-6.133350609667781e-06   1.6149444099468812e-06   -2.8109302190587994e-06
-1.223225204007796e-05   6.463978656570668e-07   -1.3556893862983052e-05
-1.223225204007796e-05   6.463978656570668e-07   -1.3556893862983052e-05
-1.223225204007796e-05   6.463978656570668e-07   -1.3556893862983052e-05
-1.223225204007796e-05   6.463978656570668e-07   -1.3556893862983052e-05
-1.1939435794420968e-05   1.8412726390351934e-06   -3.4034086106436603e-06
-1.1939435794420968e-05   1.8412726390351934e-06   -3.4034086106436603e-06
-1.1939435794420968e-05   1.8412726390351934e-06   -3.4034086106436603e-06
-1.1939435794420968e-05   1.8412726390351934e-06   -3.4034086106436603e-06
-5.959567426004868e-06   7.788820627761166e-07   -1.273242154558182e-05
-5.959567426004868e-06   7.788820627761166e-07   -1.273242154558182e-05
-5.959567426004868e-06   7.788820627761166e-07   -1.273242154558182e-05
-5.959567426004868e-06   7.788820627761166e-07   -1.273242154558182e-05
-9.01676282070668e-06   1.1798476944543685e-06   -7.877675266752274e-06
-9.01676282070668e-06   1.1798476944543685e-06   -7.877675266752274e-06
-9.01676282070668e-06   1.1798476944543685e-06   -7.877675266752274e-06
-9.01676282070668e-06   1.1798476944543685e-06   -7.877675266752274e-06
-1.3024465369153502e-05   2.275457687258035e-06   -2.0088492969503246e-06
-1.3024465369153502e-05   2.275457687258035e-06   -2.0088492969503246e-06
-1.3024465369153502e-05   2.275457687258035e-06   -2.0088492969503246e-06
-1.3024465369153502e-05   2.275457687258035e-06   -2.0088492969503246e-06
-1.9680690795287507e-05   2.1705905324904354e-06   -1.3165478633367627e-05
-1.9680690795287507e-05   2.1705905324904354e-06   -1.3165478633367627e-05
-1.9680690795287507e-05   2.1705905324904354e-06   -1.3165478633367627e-05
-1.9680690795287507e-05   2.1705905324904354e-06   -1.3165478633367627e-05
-1.8869229462067343e-05   2.5940215505647953e-06   1.0049175052046031e-07
-1.8869229462067343e-05   2.5940215505647953e-06   1.0049175052046031e-07
-1.8869229462067343e-05   2.5940215505647953e-06   1.0049175052046031e-07
-1.8869229462067343e-05   2.5940215505647953e-06   1.0049175052046031e-07
-1.2622874137706603e-05   2.717204541242621e-06   -1.0384010251154144e-05
-1.2622874137706603e-05   2.717204541242621e-06   -1.0384010251154144e-05
-1.2622874137706603e-05   2.717204541242621e-06   -1.0384010251154144e-05
-1.2622874137706603e-05   2.717204541242621e-06   -1.0384010251154144e-05
-1.5358425397493287e-05   2.558018219256126e-06   -5.729246358317802e-06
-1.5358425397493287e-05   2.558018219256126e-06   -5.729246358317802e-06
-1.5358425397493287e-05   2.558018219256126e-06   -5.729246358317802e-06
-1.5358425397493287e-05   2.558018219256126e-06   -5.729246358317802e-06
-1.2622874137706635e-05   2.5940215505647953e-06   2.6581956113754055e-08
-1.2622874137706635e-05   2.5940215505647953e-06   2.6581956113754055e-08
-1.2622874137706635e-05   2.5940215505647953e-06   2.6581956113754055e-08
-1.2622874137706635e-05   2.5940215505647953e-06   2.6581956113754055e-08
-1.8869229462067306e-05   2.717204541242621e-06   -1.0310100456747441e-05
-1.8869229462067306e-05   2.717204541242621e-06   -1.0310100456747441e-05
-1.8869229462067306e-05   2.717204541242621e-06   -1.0310100456747441e-05
-1.8869229462067306e-05   2.717204541242621e-06   -1.0310100456747441e-05
-1.8199113625245348e-05   2.6787075572646136e-06   1.293248487761647e-06
-1.8199113625245348e-05   2.6787075572646136e-06   1.293248487761647e-06
-1.8199113625245348e-05   2.6787075572646136e-06   1.293248487761647e-06
-1.8199113625245348e-05   2.6787075572646136e-06   1.293248487761647e-06
-1.2232252040077937e-05   2.841437730039453e-06   -8.749158924515568e-06
-1.2232252040077937e-05   2.841437730039453e-06   -8.749158924515568e-06
-1.2232252040077937e-05   2.841437730039453e-06   -8.749158924515568e-06
-1.2232252040077937e-05   2.841437730039453e-06   -8.749158924515568e-06
-1.5068502601412307e-05   2.740555330111097e-06   -3.961545215667774e-06
-1.5068502601412307e-05   2.740555330111097e-06   -3.961545215667774e-06
-1.5068502601412307e-05   2.740555330111097e-06   -3.961545215667774e-06
-1.5068502601412307e-05   2.740555330111097e-06   -3.961545215667774e-06
-1.223225204007796e-05   2.678707557264722e-06   1.1956103840967867e-06
-1.223225204007796e-05   2.678707557264722e-06   1.1956103840967867e-06
-1.223225204007796e-05   2.678707557264722e-06   1.1956103840967867e-06
-1.223225204007796e-05   2.678707557264722e-06   1.1956103840967867e-06
-1.8199113625245382e-05   2.841437730039453e-06   -8.65152082085073e-06
-1.8199113625245382e-05   2.841437730039453e-06   -8.65152082085073e-06
-1.8199113625245382e-05   2.841437730039453e-06   -8.65152082085073e-06
-1.8199113625245382e-05   2.841437730039453e-06   -8.65152082085073e-06
-1.7495185371854247e-05   2.746865576149578e-06   2.9019202244491907e-06
-1.7495185371854247e-05   2.746865576149578e-06   2.9019202244491907e-06
-1.7495185371854247e-05   2.746865576149578e-06   2.9019202244491907e-06
-1.7495185371854247e-05   2.746865576149578e-06   2.9019202244491907e-06
-1.1939435794420989e-05   3.045630772643775e-06   -6.536921522502815e-06
-1.1939435794420989e-05   3.045630772643775e-06   -6.536921522502815e-06
-1.1939435794420989e-05   3.045630772643775e-06   -6.536921522502815e-06
-1.1939435794420989e-05   3.045630772643775e-06   -6.536921522502815e-06
-1.4382567968388354e-05   2.7981816070624327e-06   -2.316565066541799e-06
-1.4382567968388354e-05   2.7981816070624327e-06   -2.316565066541799e-06
-1.4382567968388354e-05   2.7981816070624327e-06   -2.316565066541799e-06
-1.4382567968388354e-05   2.7981816070624327e-06   -2.316565066541799e-06
1.6896223985680937e-05   -2.5218861327639666e-06   5.8773860059155975e-06
1.6896223985680937e-05   -2.5218861327639666e-06   5.8773860059155975e-06
1.6896223985680937e-05   -2.5218861327639666e-06   5.8773860059155975e-06
1.6896223985680937e-05   -2.5218861327639666e-06   5.8773860059155975e-06
8.458651386274637e-06   -3.17238674260058e-06   -8.575535358996912e-06
8.458651386274637e-06   -3.17238674260058e-06   -8.575535358996912e-06
8.458651386274637e-06   -3.17238674260058e-06   -8.575535358996912e-06
8.458651386274637e-06   -3.17238674260058e-06   -8.575535358996912e-06
8.653882224418973e-06   -2.4655468636392225e-06   4.243668145319907e-06
8.653882224418973e-06   -2.4655468636392225e-06   4.243668145319907e-06
8.653882224418973e-06   -2.4655468636392225e-06   4.243668145319907e-06
8.653882224418973e-06   -2.4655468636392225e-06   4.243668145319907e-06
1.7302425613388206e-05   -3.2518643016616125e-06   -9.698780373482049e-06
1.7302425613388206e-05   -3.2518643016616125e-06   -9.698780373482049e-06
1.7302425613388206e-05   -3.2518643016616125e-06   -9.698780373482049e-06
1.7302425613388206e-05   -3.2518643016616125e-06   -9.698780373482049e-06
1.2314364792017639e-05   -2.5754582902749734e-06   -1.7911892780298107e-06
1.2314364792017639e-05   -2.5754582902749734e-06   -1.7911892780298107e-06
1.2314364792017639e-05   -2.5754582902749734e-06   -1.7911892780298107e-06
1.2314364792017639e-05   -2.5754582902749734e-06   -1.7911892780298107e-06
1.7302425613388206e-05   -2.4655468636392225e-06   4.715458608133319e-06
1.7302425613388206e-05   -2.4655468636392225e-06   4.715458608133319e-06
1.7302425613388206e-05   -2.4655468636392225e-06   4.715458608133319e-06
1.7302425613388206e-05   -2.4655468636392225e-06   4.715458608133319e-06
8.653882224418973e-06   -3.2518643016616125e-06   -1.0170570836295434e-05
8.653882224418973e-06   -3.2518643016616125e-06   -1.0170570836295434e-05
8.653882224418973e-06   -3.2518643016616125e-06   -1.0170570836295434e-05
8.653882224418973e-06   -3.2518643016616125e-06   -1.0170570836295434e-05
8.81863186658846e-06   -2.379089602662799e-06   3.3631245699449505e-06
8.81863186658846e-06   -2.379089602662799e-06   3.3631245699449505e-06
8.81863186658846e-06   -2.379089602662799e-06   3.3631245699449505e-06
8.81863186658846e-06   -2.379089602662799e-06   3.3631245699449505e-06
1.7554410196988892e-05   -3.220172147473427e-06   -1.0691856453835948e-05
1.7554410196988892e-05   -3.220172147473427e-06   -1.0691856453835948e-05
1.7554410196988892e-05   -3.220172147473427e-06   -1.0691856453835948e-05
1.7554410196988892e-05   -3.220172147473427e-06   -1.0691856453835948e-05
1.2738256463125522e-05   -2.65406249591127e-06   -3.0045993550010278e-06
1.2738256463125522e-05   -2.65406249591127e-06   -3.0045993550010278e-06
1.2738256463125522e-05   -2.65406249591127e-06   -3.0045993550010278e-06
1.2738256463125522e-05   -2.65406249591127e-06   -3.0045993550010278e-06
1.7554410196988892e-05   -2.379089602662799e-06   3.867774096831403e-06
1.7554410196988892e-05   -2.379089602662799e-06   3.867774096831403e-06
1.7554410196988892e-05   -2.379089602662799e-06   3.867774096831403e-06
1.7554410196988892e-05   -2.379089602662799e-06   3.867774096831403e-06
8.81863186658846e-06   -3.220172147473427e-06   -1.1196505980722428e-05
8.81863186658846e-06   -3.220172147473427e-06   -1.1196505980722428e-05
8.81863186658846e-06   -3.220172147473427e-06   -1.1196505980722428e-05
8.81863186658846e-06   -3.220172147473427e-06   -1.1196505980722428e-05
8.989075899666223e-06   -2.044987438305475e-06   1.6676470011066174e-06
8.989075899666223e-06   -2.044987438305475e-06   1.6676470011066174e-06
8.989075899666223e-06   -2.044987438305475e-06   1.6676470011066174e-06
8.989075899666223e-06   -2.044987438305475e-06   1.6676470011066174e-06
1.7802665423631286e-05   -3.0345441099805534e-06   -1.24279348691634e-05
1.7802665423631286e-05   -3.0345441099805534e-06   -1.24279348691634e-05
1.7802665423631286e-05   -3.0345441099805534e-06   -1.24279348691634e-05
1.7802665423631286e-05   -3.0345441099805534e-06   -1.24279348691634e-05
1.2733610732356826e-05   -2.550665778113881e-06   -4.26983738282604e-06
1.2733610732356826e-05   -2.550665778113881e-06   -4.26983738282604e-06
1.2733610732356826e-05   -2.550665778113881e-06   -4.26983738282604e-06
1.2733610732356826e-05   -2.550665778113881e-06   -4.26983738282604e-06
8.458651386274637e-06   -1.5996361053863782e-06   7.236776555134632e-07
8.458651386274637e-06   -1.5996361053863782e-06   7.236776555134632e-07
8.458651386274637e-06   -1.5996361053863782e-06   7.236776555134632e-07
8.458651386274637e-06   -1.5996361053863782e-06   7.236776555134632e-07
9.11490696104062e-07   -3.099502901479363e-06   -1.2754843572426722e-05
9.11490696104062e-07   -3.099502901479363e-06   -1.2754843572426722e-05
9.11490696104062e-07   -3.099502901479363e-06   -1.2754843572426722e-05
9.11490696104062e-07   -3.099502901479363e-06   -1.2754843572426722e-05
1.137939268816336e-06   -1.5182291531785777e-06   1.0851141870834614e-07
1.137939268816336e-06   -1.5182291531785777e-06   1.0851141870834614e-07
1.137939268816336e-06   -1.5182291531785777e-06   1.0851141870834614e-07
1.137939268816336e-06   -1.5182291531785777e-06   1.0851141870834614e-07
8.653882224418993e-06   -3.0791576849705654e-06   -1.1481503054887535e-05
8.653882224418993e-06   -3.0791576849705654e-06   -1.1481503054887535e-05
8.653882224418993e-06   -3.0791576849705654e-06   -1.1481503054887535e-05
8.653882224418993e-06   -3.0791576849705654e-06   -1.1481503054887535e-05
4.807049527602322e-06   -2.095888382333544e-06   -5.660076808442022e-06
4.807049527602322e-06   -2.095888382333544e-06   -5.660076808442022e-06
4.807049527602322e-06   -2.095888382333544e-06   -5.660076808442022e-06
4.807049527602322e-06   -2.095888382333544e-06   -5.660076808442022e-06
8.653882224418966e-06   -1.5182291531785777e-06   1.0450685377835496e-06
8.653882224418966e-06   -1.5182291531785777e-06   1.0450685377835496e-06
8.653882224418966e-06   -1.5182291531785777e-06   1.0450685377835496e-06
8.653882224418966e-06   -1.5182291531785777e-06   1.0450685377835496e-06
1.137939268816336e-06   -3.0791576849705654e-06   -1.2418060173962698e-05
1.137939268816336e-06   -3.0791576849705654e-06   -1.2418060173962698e-05
1.137939268816336e-06   -3.0791576849705654e-06   -1.2418060173962698e-05
1.137939268816336e-06   -3.0791576849705654e-06   -1.2418060173962698e-05
1.3422090909571423e-06   -1.370208924604717e-06   2.094256911541314e-08
1.3422090909571423e-06   -1.370208924604717e-06   2.094256911541314e-08
1.3422090909571423e-06   -1.370208924604717e-06   2.094256911541314e-08
1.3422090909571423e-06   -1.370208924604717e-06   2.094256911541314e-08
8.81863186658846e-06   -3.0318374610162433e-06   -1.1442784935089857e-05
8.81863186658846e-06   -3.0318374610162433e-06   -1.1442784935089857e-05
8.81863186658846e-06   -3.0318374610162433e-06   -1.1442784935089857e-05
8.81863186658846e-06   -3.0318374610162433e-06   -1.1442784935089857e-05
4.931791799391384e-06   -2.1136188508464205e-06   -5.515649322529722e-06
4.931791799391384e-06   -2.1136188508464205e-06   -5.515649322529722e-06
4.931791799391384e-06   -2.1136188508464205e-06   -5.515649322529722e-06
4.931791799391384e-06   -2.1136188508464205e-06   -5.515649322529722e-06
8.81863186658846e-06   -1.3702089246048254e-06   1.0179196909623506e-06
8.81863186658846e-06   -1.3702089246048254e-06   1.0179196909623506e-06
8.81863186658846e-06   -1.3702089246048254e-06   1.0179196909623506e-06
8.81863186658846e-06   -1.3702089246048254e-06   1.0179196909623506e-06
1.3422090909571423e-06   -3.0318374610162433e-06   -1.24397620569367e-05
1.3422090909571423e-06   -3.0318374610162433e-06   -1.24397620569367e-05
1.3422090909571423e-06   -3.0318374610162433e-06   -1.24397620569367e-05
1.3422090909571423e-06   -3.0318374610162433e-06   -1.24397620569367e-05
1.6479992655630968e-06   -1.1593344199055389e-06   -1.3281891001474177e-07
1.6479992655630968e-06   -1.1593344199055389e-06   -1.3281891001474177e-07
1.6479992655630968e-06   -1.1593344199055389e-06   -1.3281891001474177e-07
1.6479992655630968e-06   -1.1593344199055389e-06   -1.3281891001474177e-07
8.989075899666216e-06   -2.9411807121503333e-06   -1.1298838858173096e-05
8.989075899666216e-06   -2.9411807121503333e-06   -1.1298838858173096e-05
8.989075899666216e-06   -2.9411807121503333e-06   -1.1298838858173096e-05
8.989075899666216e-06   -2.9411807121503333e-06   -1.1298838858173096e-05
5.179337273067489e-06   -2.073780803601901e-06   -5.4697144256375435e-06
5.179337273067489e-06   -2.073780803601901e-06   -5.4697144256375435e-06
5.179337273067489e-06   -2.073780803601901e-06   -5.4697144256375435e-06
5.179337273067489e-06   -2.073780803601901e-06   -5.4697144256375435e-06
9.11490696104062e-07   -7.861951115943231e-07   -1.0884404505907136e-06
9.11490696104062e-07   -7.861951115943231e-07   -1.0884404505907136e-06
9.11490696104062e-07   -7.861951115943231e-07   -1.0884404505907136e-06
9.11490696104062e-07   -7.861951115943231e-07   -1.0884404505907136e-06
-6.553791656347047e-06   -3.6510283132469524e-06   -1.524947762566748e-05
-6.553791656347047e-06   -3.6510283132469524e-06   -1.524947762566748e-05
-6.553791656347047e-06   -3.6510283132469524e-06   -1.524947762566748e-05
-6.553791656347047e-06   -3.6510283132469524e-06   -1.524947762566748e-05
-6.200052147324959e-06   -6.887656121715244e-07   -2.4864770509459497e-06
-6.200052147324959e-06   -6.887656121715244e-07   -2.4864770509459497e-06
-6.200052147324959e-06   -6.887656121715244e-07   -2.4864770509459497e-06
-6.200052147324959e-06   -6.887656121715244e-07   -2.4864770509459497e-06
1.137939268816336e-06   -3.7249698365802737e-06   -1.2894740209869584e-05
1.137939268816336e-06   -3.7249698365802737e-06   -1.2894740209869584e-05
1.137939268816336e-06   -3.7249698365802737e-06   -1.2894740209869584e-05
1.137939268816336e-06   -3.7249698365802737e-06   -1.2894740209869584e-05
-2.593846897521877e-06   -2.0426048290918177e-06   -7.684515603799025e-06
-2.593846897521877e-06   -2.0426048290918177e-06   -7.684515603799025e-06
-2.593846897521877e-06   -2.0426048290918177e-06   -7.684515603799025e-06
-2.593846897521877e-06   -2.0426048290918177e-06   -7.684515603799025e-06
1.137939268816336e-06   -6.887656121715244e-07   -6.647545163007218e-07
1.137939268816336e-06   -6.887656121715244e-07   -6.647545163007218e-07
1.137939268816336e-06   -6.887656121715244e-07   -6.647545163007218e-07
1.137939268816336e-06   -6.887656121715244e-07   -6.647545163007218e-07
-6.200052147324966e-06   -3.7249698365802737e-06   -1.471646274451492e-05
-6.200052147324966e-06   -3.7249698365802737e-06   -1.471646274451492e-05
-6.200052147324966e-06   -3.7249698365802737e-06   -1.471646274451492e-05
-6.200052147324966e-06   -3.7249698365802737e-06   -1.471646274451492e-05
-5.8940769626421764e-06   -5.421904576216477e-07   -2.309505087414853e-06
-5.8940769626421764e-06   -5.421904576216477e-07   -2.309505087414853e-06
-5.8940769626421764e-06   -5.421904576216477e-07   -2.309505087414853e-06
-5.8940769626421764e-06   -5.421904576216477e-07   -2.309505087414853e-06
1.3422090909571423e-06   -3.6993376129570337e-06   -1.2475693550212505e-05
1.3422090909571423e-06   -3.6993376129570337e-06   -1.2475693550212505e-05
1.3422090909571423e-06   -3.6993376129570337e-06   -1.2475693550212505e-05
1.3422090909571423e-06   -3.6993376129570337e-06   -1.2475693550212505e-05
-2.34319073370562e-06   -2.0829871586231126e-06   -7.303170781708241e-06
-2.34319073370562e-06   -2.0829871586231126e-06   -7.303170781708241e-06
-2.34319073370562e-06   -2.0829871586231126e-06   -7.303170781708241e-06
-2.34319073370562e-06   -2.0829871586231126e-06   -7.303170781708241e-06
1.3422090909571423e-06   -5.421904576216477e-07   -4.152167942136323e-07
1.3422090909571423e-06   -5.421904576216477e-07   -4.152167942136323e-07
1.3422090909571423e-06   -5.421904576216477e-07   -4.152167942136323e-07
1.3422090909571423e-06   -5.421904576216477e-07   -4.152167942136323e-07
-5.894076962642197e-06   -3.6993376129569253e-06   -1.4369981843413726e-05
-5.894076962642197e-06   -3.6993376129569253e-06   -1.4369981843413726e-05
-5.894076962642197e-06   -3.6993376129569253e-06   -1.4369981843413726e-05
-5.894076962642197e-06   -3.6993376129569253e-06   -1.4369981843413726e-05
-5.365437446275296e-06   -4.0247455189391587e-07   -2.3015427955966274e-06
-5.365437446275296e-06   -4.0247455189391587e-07   -2.3015427955966274e-06
-5.365437446275296e-06   -4.0247455189391587e-07   -2.3015427955966274e-06
-5.365437446275296e-06   -4.0247455189391587e-07   -2.3015427955966274e-06
1.6479992655630968e-06   -3.5600073577411523e-06   -1.2096084298485558e-05
1.6479992655630968e-06   -3.5600073577411523e-06   -1.2096084298485558e-05
1.6479992655630968e-06   -3.5600073577411523e-06   -1.2096084298485558e-05
1.6479992655630968e-06   -3.5600073577411523e-06   -1.2096084298485558e-05
-2.017005922290674e-06   -2.029293770822627e-06   -6.906170470880506e-06
-2.017005922290674e-06   -2.029293770822627e-06   -6.906170470880506e-06
-2.017005922290674e-06   -2.029293770822627e-06   -6.906170470880506e-06
-2.017005922290674e-06   -2.029293770822627e-06   -6.906170470880506e-06
-6.553791656347037e-06   3.148838340830259e-07   -1.5620323240859361e-06
-6.553791656347037e-06   3.148838340830259e-07   -1.5620323240859361e-06
-6.553791656347037e-06   3.148838340830259e-07   -1.5620323240859361e-06
-6.553791656347037e-06   3.148838340830259e-07   -1.5620323240859361e-06
-1.4847178688184202e-05   -4.4662941078122765e-06   -1.825305080895164e-05
-1.4847178688184202e-05   -4.4662941078122765e-06   -1.825305080895164e-05
-1.4847178688184202e-05   -4.4662941078122765e-06   -1.825305080895164e-05
-1.4847178688184202e-05   -4.4662941078122765e-06   -1.825305080895164e-05
-1.4417937703868542e-05   4.878856831420312e-07   -4.289798271599416e-06
-1.4417937703868542e-05   4.878856831420312e-07   -4.289798271599416e-06
-1.4417937703868542e-05   4.878856831420312e-07   -4.289798271599416e-06
-1.4417937703868542e-05   4.878856831420312e-07   -4.289798271599416e-06
-6.200052147324959e-06   -5.0221678722293895e-06   -1.4680242065949244e-05
-6.200052147324959e-06   -5.0221678722293895e-06   -1.4680242065949244e-05
-6.200052147324959e-06   -5.0221678722293895e-06   -1.4680242065949244e-05
-6.200052147324959e-06   -5.0221678722293895e-06   -1.4680242065949244e-05
-1.0358209992497313e-05   -2.2263498854555985e-06   -9.427469782726232e-06
-1.0358209992497313e-05   -2.2263498854555985e-06   -9.427469782726232e-06
-1.0358209992497313e-05   -2.2263498854555985e-06   -9.427469782726232e-06
-1.0358209992497313e-05   -2.2263498854555985e-06   -9.427469782726232e-06
-6.200052147324959e-06   4.878856831420312e-07   -9.837661383766175e-07
-6.200052147324959e-06   4.878856831420312e-07   -9.837661383766175e-07
-6.200052147324959e-06   4.878856831420312e-07   -9.837661383766175e-07
-6.200052147324959e-06   4.878856831420312e-07   -9.837661383766175e-07
-1.4417937703868568e-05   -5.0221678722293895e-06   -1.7986274199172103e-05
-1.4417937703868568e-05   -5.0221678722293895e-06   -1.7986274199172103e-05
-1.4417937703868568e-05   -5.0221678722293895e-06   -1.7986274199172103e-05
-1.4417937703868568e-05   -5.0221678722293895e-06   -1.7986274199172103e-05
-1.4007227457847108e-05   6.463978656570668e-07   -3.788715274176597e-06
-1.4007227457847108e-05   6.463978656570668e-07   -3.788715274176597e-06
-1.4007227457847108e-05   6.463978656570668e-07   -3.788715274176597e-06
-1.4007227457847108e-05   6.463978656570668e-07   -3.788715274176597e-06
-5.894076962642187e-06   -5.0418834476226825e-06   -1.3897663978217053e-05
-5.894076962642187e-06   -5.0418834476226825e-06   -1.3897663978217053e-05
-5.894076962642187e-06   -5.0418834476226825e-06   -1.3897663978217053e-05
-5.894076962642187e-06   -5.0418834476226825e-06   -1.3897663978217053e-05
-9.939447382787748e-06   -2.2264058937624233e-06   -8.844666476957246e-06
-9.939447382787748e-06   -2.2264058937624233e-06   -8.844666476957246e-06
-9.939447382787748e-06   -2.2264058937624233e-06   -8.844666476957246e-06
-9.939447382787748e-06   -2.2264058937624233e-06   -8.844666476957246e-06
-5.89407696264218e-06   6.463978656570668e-07   -3.757464862088342e-07
-5.89407696264218e-06   6.463978656570668e-07   -3.757464862088342e-07
-5.89407696264218e-06   6.463978656570668e-07   -3.757464862088342e-07
-5.89407696264218e-06   6.463978656570668e-07   -3.757464862088342e-07
-1.4007227457847132e-05   -5.0418834476226825e-06   -1.7310632766184917e-05
-1.4007227457847132e-05   -5.0418834476226825e-06   -1.7310632766184917e-05
-1.4007227457847132e-05   -5.0418834476226825e-06   -1.7310632766184917e-05
-1.4007227457847132e-05   -5.0418834476226825e-06   -1.7310632766184917e-05
-1.3328790562956995e-05   7.788820627761166e-07   -3.28437826196715e-06
-1.3328790562956995e-05   7.788820627761166e-07   -3.28437826196715e-06
-1.3328790562956995e-05   7.788820627761166e-07   -3.28437826196715e-06
-1.3328790562956995e-05   7.788820627761166e-07   -3.28437826196715e-06
-5.365437446275306e-06   -4.551767255219744e-06   -1.3358243865639152e-05
-5.365437446275306e-06   -4.551767255219744e-06   -1.3358243865639152e-05
-5.365437446275306e-06   -4.551767255219744e-06   -1.3358243865639152e-05
-5.365437446275306e-06   -4.551767255219744e-06   -1.3358243865639152e-05
-9.53228685046487e-06   -1.9310723831784905e-06   -7.985911781881109e-06
-9.53228685046487e-06   -1.9310723831784905e-06   -7.985911781881109e-06
-9.53228685046487e-06   -1.9310723831784905e-06   -7.985911781881109e-06
-9.53228685046487e-06   -1.9310723831784905e-06   -7.985911781881109e-06
-1.4847178688184202e-05   2.170590532490544e-06   -2.902164521606835e-06
-1.4847178688184202e-05   2.170590532490544e-06   -2.902164521606835e-06
-1.4847178688184202e-05   2.170590532490544e-06   -2.902164521606835e-06
-1.4847178688184202e-05   2.170590532490544e-06   -2.902164521606835e-06
-2.5371505157210595e-05   0.0   -2.1745062956145223e-05
-2.5371505157210595e-05   0.0   -2.1745062956145223e-05
-2.5371505157210595e-05   0.0   -2.1745062956145223e-05
-2.5371505157210595e-05   0.0   -2.1745062956145223e-05
-2.4749669032197206e-05   2.717204541242621e-06   -2.1725384907510595e-06
-2.4749669032197206e-05   2.717204541242621e-06   -2.1725384907510595e-06
-2.4749669032197206e-05   2.717204541242621e-06   -2.1725384907510595e-06
-2.4749669032197206e-05   2.717204541242621e-06   -2.1725384907510595e-06
-1.4417937703868542e-05   0.0   -1.776176797988658e-05
-1.4417937703868542e-05   0.0   -1.776176797988658e-05
-1.4417937703868542e-05   0.0   -1.776176797988658e-05
-1.4417937703868542e-05   0.0   -1.776176797988658e-05
-1.90050667911869e-05   8.481495931246877e-07   -1.0625442590230816e-05
-1.90050667911869e-05   8.481495931246877e-07   -1.0625442590230816e-05
-1.90050667911869e-05   8.481495931246877e-07   -1.0625442590230816e-05
-1.90050667911869e-05   8.481495931246877e-07   -1.0625442590230816e-05
-1.4417937703868554e-05   2.717204541242621e-06   -5.422157660054544e-07
-1.4417937703868554e-05   2.717204541242621e-06   -5.422157660054544e-07
-1.4417937703868554e-05   2.717204541242621e-06   -5.422157660054544e-07
-1.4417937703868554e-05   2.717204541242621e-06   -5.422157660054544e-07
-2.4749669032197165e-05   0.0   -1.9392090704632194e-05
-2.4749669032197165e-05   0.0   -1.9392090704632194e-05
-2.4749669032197165e-05   0.0   -1.9392090704632194e-05
-2.4749669032197165e-05   0.0   -1.9392090704632194e-05
-2.421963261458899e-05   2.841437730039453e-06   -6.858429737328616e-07
-2.421963261458899e-05   2.841437730039453e-06   -6.858429737328616e-07
-2.421963261458899e-05   2.841437730039453e-06   -6.858429737328616e-07
-2.421963261458899e-05   2.841437730039453e-06   -6.858429737328616e-07
-1.4007227457847132e-05   0.0   -1.600165559694572e-05
-1.4007227457847132e-05   0.0   -1.600165559694572e-05
-1.4007227457847132e-05   0.0   -1.600165559694572e-05
-1.4007227457847132e-05   0.0   -1.600165559694572e-05
-1.883654700956842e-05   1.3200813801451028e-06   -8.744838505496993e-06
-1.883654700956842e-05   1.3200813801451028e-06   -8.744838505496993e-06
-1.883654700956842e-05   1.3200813801451028e-06   -8.744838505496993e-06
-1.883654700956842e-05   1.3200813801451028e-06   -8.744838505496993e-06
-1.4007227457847132e-05   2.841437730039453e-06   1.0190196642908102e-06
-1.4007227457847132e-05   2.841437730039453e-06   1.0190196642908102e-06
-1.4007227457847132e-05   2.841437730039453e-06   1.0190196642908102e-06
-1.4007227457847132e-05   2.841437730039453e-06   1.0190196642908102e-06
-2.4219632614588948e-05   0.0   -1.7706518234969298e-05
-2.4219632614588948e-05   0.0   -1.7706518234969298e-05
-2.4219632614588948e-05   0.0   -1.7706518234969298e-05
-2.4219632614588948e-05   0.0   -1.7706518234969298e-05
-2.315802485225705e-05   3.045630772643775e-06   1.7211776432809914e-06
-2.315802485225705e-05   3.045630772643775e-06   1.7211776432809914e-06
-2.315802485225705e-05   3.045630772643775e-06   1.7211776432809914e-06
-2.315802485225705e-05   3.045630772643775e-06   1.7211776432809914e-06
-1.3328790562957019e-05   0.0   -1.2833501041966188e-05
-1.3328790562957019e-05   0.0   -1.2833501041966188e-05
-1.3328790562957019e-05   0.0   -1.2833501041966188e-05
-1.3328790562957019e-05   0.0   -1.2833501041966188e-05
-1.7895919413607277e-05   1.6211471742645731e-06   -6.194307928774403e-06
-1.7895919413607277e-05   1.6211471742645731e-06   -6.194307928774403e-06
-1.7895919413607277e-05   1.6211471742645731e-06   -6.194307928774403e-06
-1.7895919413607277e-05   1.6211471742645731e-06   -6.194307928774403e-06
1.8690063065903535e-05   -3.17238674260058e-06   1.108865414512877e-05
1.8690063065903535e-05   -3.17238674260058e-06   1.108865414512877e-05
1.8690063065903535e-05   -3.17238674260058e-06   1.108865414512877e-05
1.8690063065903535e-05   -3.17238674260058e-06   1.108865414512877e-05
9.653156517353166e-06   -2.4784682921762894e-06   -3.5565056988672667e-06
9.653156517353166e-06   -2.4784682921762894e-06   -3.5565056988672667e-06
9.653156517353166e-06   -2.4784682921762894e-06   -3.5565056988672667e-06
9.653156517353166e-06   -2.4784682921762894e-06   -3.5565056988672667e-06
9.419259596541413e-06   -3.2518643016616125e-06   9.753799061026967e-06
9.419259596541413e-06   -3.2518643016616125e-06   9.753799061026967e-06
9.419259596541413e-06   -3.2518643016616125e-06   9.753799061026967e-06
9.419259596541413e-06   -3.2518643016616125e-06   9.753799061026967e-06
1.8502571173697484e-05   -2.7186476607567005e-06   -5.704983552109438e-06
1.8502571173697484e-05   -2.7186476607567005e-06   -5.704983552109438e-06
1.8502571173697484e-05   -2.7186476607567005e-06   -5.704983552109438e-06
1.8502571173697484e-05   -2.7186476607567005e-06   -5.704983552109438e-06
1.3488487623408691e-05   -2.751800014955488e-06   2.6717137775578064e-06
1.3488487623408691e-05   -2.751800014955488e-06   2.6717137775578064e-06
1.3488487623408691e-05   -2.751800014955488e-06   2.6717137775578064e-06
1.3488487623408691e-05   -2.751800014955488e-06   2.6717137775578064e-06
1.8502571173697484e-05   -3.2518643016616125e-06   9.433869076483998e-06
1.8502571173697484e-05   -3.2518643016616125e-06   9.433869076483998e-06
1.8502571173697484e-05   -3.2518643016616125e-06   9.433869076483998e-06
1.8502571173697484e-05   -3.2518643016616125e-06   9.433869076483998e-06
9.419259596541413e-06   -2.7186476607567005e-06   -5.38505356756651e-06
9.419259596541413e-06   -2.7186476607567005e-06   -5.38505356756651e-06
9.419259596541413e-06   -2.7186476607567005e-06   -5.38505356756651e-06
9.419259596541413e-06   -2.7186476607567005e-06   -5.38505356756651e-06
9.206831472284124e-06   -3.220172147473427e-06   8.737277703151308e-06
9.206831472284124e-06   -3.220172147473427e-06   8.737277703151308e-06
9.206831472284124e-06   -3.220172147473427e-06   8.737277703151308e-06
9.206831472284124e-06   -3.220172147473427e-06   8.737277703151308e-06
1.8282505412448752e-05   -2.738178798077106e-06   -6.678041540094301e-06
1.8282505412448752e-05   -2.738178798077106e-06   -6.678041540094301e-06
1.8282505412448752e-05   -2.738178798077106e-06   -6.678041540094301e-06
1.8282505412448752e-05   -2.738178798077106e-06   -6.678041540094301e-06
1.3488811575412394e-05   -2.8001506257381873e-06   1.3486312848962596e-06
1.3488811575412394e-05   -2.8001506257381873e-06   1.3486312848962596e-06
1.3488811575412394e-05   -2.8001506257381873e-06   1.3486312848962596e-06
1.3488811575412394e-05   -2.8001506257381873e-06   1.3486312848962596e-06
1.8282505412448782e-05   -3.220172147473427e-06   8.448081693513537e-06
1.8282505412448782e-05   -3.220172147473427e-06   8.448081693513537e-06
1.8282505412448782e-05   -3.220172147473427e-06   8.448081693513537e-06
1.8282505412448782e-05   -3.220172147473427e-06   8.448081693513537e-06
9.206831472284124e-06   -2.738178798077106e-06   -6.388845530456381e-06
9.206831472284124e-06   -2.738178798077106e-06   -6.388845530456381e-06
9.206831472284124e-06   -2.738178798077106e-06   -6.388845530456381e-06
9.206831472284124e-06   -2.738178798077106e-06   -6.388845530456381e-06
8.947210081792451e-06   -3.0345441099805534e-06   7.083384165566722e-06
8.947210081792451e-06   -3.0345441099805534e-06   7.083384165566722e-06
8.947210081792451e-06   -3.0345441099805534e-06   7.083384165566722e-06
8.947210081792451e-06   -3.0345441099805534e-06   7.083384165566722e-06
1.793740485968576e-05   -2.672306172570157e-06   -8.11761656003506e-06
1.793740485968576e-05   -2.672306172570157e-06   -8.11761656003506e-06
1.793740485968576e-05   -2.672306172570157e-06   -8.11761656003506e-06
1.793740485968576e-05   -2.672306172570157e-06   -8.11761656003506e-06
1.3037819834367563e-05   -2.6617229777019507e-06   4.200856524104972e-08
1.3037819834367563e-05   -2.6617229777019507e-06   4.200856524104972e-08
1.3037819834367563e-05   -2.6617229777019507e-06   4.200856524104972e-08
1.3037819834367563e-05   -2.6617229777019507e-06   4.200856524104972e-08
9.653156517353166e-06   -3.099502901479363e-06   8.225617079609413e-06
9.653156517353166e-06   -3.099502901479363e-06   8.225617079609413e-06
9.653156517353166e-06   -3.099502901479363e-06   8.225617079609413e-06
9.653156517353166e-06   -3.099502901479363e-06   8.225617079609413e-06
1.932048820584363e-06   -1.4936264719070998e-06   -3.679369890595126e-06
1.932048820584363e-06   -1.4936264719070998e-06   -3.679369890595126e-06
1.932048820584363e-06   -1.4936264719070998e-06   -3.679369890595126e-06
1.932048820584363e-06   -1.4936264719070998e-06   -3.679369890595126e-06
1.562074491386234e-06   -3.0791576849705654e-06   9.341467257295252e-06
1.562074491386234e-06   -3.0791576849705654e-06   9.341467257295252e-06
1.562074491386234e-06   -3.0791576849705654e-06   9.341467257295252e-06
1.562074491386234e-06   -3.0791576849705654e-06   9.341467257295252e-06
9.419259596541413e-06   -1.5814903268699916e-06   -4.652441666157046e-06
9.419259596541413e-06   -1.5814903268699916e-06   -4.652441666157046e-06
9.419259596541413e-06   -1.5814903268699916e-06   -4.652441666157046e-06
9.419259596541413e-06   -1.5814903268699916e-06   -4.652441666157046e-06
5.631978571710505e-06   -2.227130332211214e-06   2.0470773784325485e-06
5.631978571710505e-06   -2.227130332211214e-06   2.0470773784325485e-06
5.631978571710505e-06   -2.227130332211214e-06   2.0470773784325485e-06
5.631978571710505e-06   -2.227130332211214e-06   2.0470773784325485e-06
9.419259596541406e-06   -3.0791576849705654e-06   8.442866842434907e-06
9.419259596541406e-06   -3.0791576849705654e-06   8.442866842434907e-06
9.419259596541406e-06   -3.0791576849705654e-06   8.442866842434907e-06
9.419259596541406e-06   -3.0791576849705654e-06   8.442866842434907e-06
1.562074491386234e-06   -1.5814903268699916e-06   -3.7538412512967082e-06
1.562074491386234e-06   -1.5814903268699916e-06   -3.7538412512967082e-06
1.562074491386234e-06   -1.5814903268699916e-06   -3.7538412512967082e-06
1.562074491386234e-06   -1.5814903268699916e-06   -3.7538412512967082e-06
1.2968740761109518e-06   -3.0318374610162433e-06   9.3398222743e-06
1.2968740761109518e-06   -3.0318374610162433e-06   9.3398222743e-06
1.2968740761109518e-06   -3.0318374610162433e-06   9.3398222743e-06
1.2968740761109518e-06   -3.0318374610162433e-06   9.3398222743e-06
9.206831472284124e-06   -1.617131585155947e-06   -4.692263578171403e-06
9.206831472284124e-06   -1.617131585155947e-06   -4.692263578171403e-06
9.206831472284124e-06   -1.617131585155947e-06   -4.692263578171403e-06
9.206831472284124e-06   -1.617131585155947e-06   -4.692263578171403e-06
5.311573068015158e-06   -2.1788853566862172e-06   2.13688602519521e-06
5.311573068015158e-06   -2.1788853566862172e-06   2.13688602519521e-06
5.311573068015158e-06   -2.1788853566862172e-06   2.13688602519521e-06
5.311573068015158e-06   -2.1788853566862172e-06   2.13688602519521e-06
9.206831472284141e-06   -3.0318374610163517e-06   8.490998748783812e-06
9.206831472284141e-06   -3.0318374610163517e-06   8.490998748783812e-06
9.206831472284141e-06   -3.0318374610163517e-06   8.490998748783812e-06
9.206831472284141e-06   -3.0318374610163517e-06   8.490998748783812e-06
1.2968740761109518e-06   -1.617131585155947e-06   -3.843440052655241e-06
1.2968740761109518e-06   -1.617131585155947e-06   -3.843440052655241e-06
1.2968740761109518e-06   -1.617131585155947e-06   -3.843440052655241e-06
1.2968740761109518e-06   -1.617131585155947e-06   -3.843440052655241e-06
1.002427693010058e-06   -2.9411807121503333e-06   9.626184719547755e-06
1.002427693010058e-06   -2.9411807121503333e-06   9.626184719547755e-06
1.002427693010058e-06   -2.9411807121503333e-06   9.626184719547755e-06
1.002427693010058e-06   -2.9411807121503333e-06   9.626184719547755e-06
8.947210081792441e-06   -1.5745631455076113e-06   -4.435089801741849e-06
8.947210081792441e-06   -1.5745631455076113e-06   -4.435089801741849e-06
8.947210081792441e-06   -1.5745631455076113e-06   -4.435089801741849e-06
8.947210081792441e-06   -1.5745631455076113e-06   -4.435089801741849e-06
5.118324360402907e-06   -2.0785618269351025e-06   2.248785609430485e-06
5.118324360402907e-06   -2.0785618269351025e-06   2.248785609430485e-06
5.118324360402907e-06   -2.0785618269351025e-06   2.248785609430485e-06
5.118324360402907e-06   -2.0785618269351025e-06   2.248785609430485e-06
1.932048820584363e-06   -3.6510283132469524e-06   8.413408805103676e-06
1.932048820584363e-06   -3.6510283132469524e-06   8.413408805103676e-06
1.932048820584363e-06   -3.6510283132469524e-06   8.413408805103676e-06
1.932048820584363e-06   -3.6510283132469524e-06   8.413408805103676e-06
-5.493937786469996e-06   -5.68078286531824e-07   -2.113465523957746e-06
-5.493937786469996e-06   -5.68078286531824e-07   -2.113465523957746e-06
-5.493937786469996e-06   -5.68078286531824e-07   -2.113465523957746e-06
-5.493937786469996e-06   -5.68078286531824e-07   -2.113465523957746e-06
-6.068448794458523e-06   -3.7249698365802737e-06   1.074099697856109e-05
-6.068448794458523e-06   -3.7249698365802737e-06   1.074099697856109e-05
-6.068448794458523e-06   -3.7249698365802737e-06   1.074099697856109e-05
-6.068448794458523e-06   -3.7249698365802737e-06   1.074099697856109e-05
1.562074491386234e-06   -5.979535746259129e-07   -3.8527515883528705e-06
1.562074491386234e-06   -5.979535746259129e-07   -3.8527515883528705e-06
1.562074491386234e-06   -5.979535746259129e-07   -3.8527515883528705e-06
1.562074491386234e-06   -5.979535746259129e-07   -3.8527515883528705e-06
-1.9541206906935996e-06   -2.0652291977088684e-06   2.887939088963325e-06
-1.9541206906935996e-06   -2.0652291977088684e-06   2.887939088963325e-06
-1.9541206906935996e-06   -2.0652291977088684e-06   2.887939088963325e-06
-1.9541206906935996e-06   -2.0652291977088684e-06   2.887939088963325e-06
1.562074491386234e-06   -3.7249698365802737e-06   8.864787221388366e-06
1.562074491386234e-06   -3.7249698365802737e-06   8.864787221388366e-06
1.562074491386234e-06   -3.7249698365802737e-06   8.864787221388366e-06
1.562074491386234e-06   -3.7249698365802737e-06   8.864787221388366e-06
-6.068448794458509e-06   -5.979535746258044e-07   -1.9765418311801252e-06
-6.068448794458509e-06   -5.979535746258044e-07   -1.9765418311801252e-06
-6.068448794458509e-06   -5.979535746258044e-07   -1.9765418311801252e-06
-6.068448794458509e-06   -5.979535746258044e-07   -1.9765418311801252e-06
-6.421863209807895e-06   -3.6993376129569253e-06   1.1142210855027404e-05
-6.421863209807895e-06   -3.6993376129569253e-06   1.1142210855027404e-05
-6.421863209807895e-06   -3.6993376129569253e-06   1.1142210855027404e-05
-6.421863209807895e-06   -3.6993376129569253e-06   1.1142210855027404e-05
1.2968740761109518e-06   -6.354708229517215e-07   -3.5606713621738685e-06
1.2968740761109518e-06   -6.354708229517215e-07   -3.5606713621738685e-06
1.2968740761109518e-06   -6.354708229517215e-07   -3.5606713621738685e-06
1.2968740761109518e-06   -6.354708229517215e-07   -3.5606713621738685e-06
-2.344163564732535e-06   -2.0524417925091515e-06   3.3579072876331e-06
-2.344163564732535e-06   -2.0524417925091515e-06   3.3579072876331e-06
-2.344163564732535e-06   -2.0524417925091515e-06   3.3579072876331e-06
-2.344163564732535e-06   -2.0524417925091515e-06   3.3579072876331e-06
1.2968740761109518e-06   -3.6993376129570337e-06   9.30389078102414e-06
1.2968740761109518e-06   -3.6993376129570337e-06   9.30389078102414e-06
1.2968740761109518e-06   -3.6993376129570337e-06   9.30389078102414e-06
1.2968740761109518e-06   -3.6993376129570337e-06   9.30389078102414e-06
-6.4218632098078815e-06   -6.354708229517215e-07   -1.722351288170707e-06
-6.4218632098078815e-06   -6.354708229517215e-07   -1.722351288170707e-06
-6.4218632098078815e-06   -6.354708229517215e-07   -1.722351288170707e-06
-6.4218632098078815e-06   -6.354708229517215e-07   -1.722351288170707e-06
-6.8348302813156505e-06   -3.5600073577411523e-06   1.165796789589287e-05
-6.8348302813156505e-06   -3.5600073577411523e-06   1.165796789589287e-05
-6.8348302813156505e-06   -3.5600073577411523e-06   1.165796789589287e-05
-6.8348302813156505e-06   -3.5600073577411523e-06   1.165796789589287e-05
1.002427693010058e-06   -6.268059555565152e-07   -3.1640495692940892e-06
1.002427693010058e-06   -6.268059555565152e-07   -3.1640495692940892e-06
1.002427693010058e-06   -6.268059555565152e-07   -3.1640495692940892e-06
1.002427693010058e-06   -6.268059555565152e-07   -3.1640495692940892e-06
-2.6629451763534685e-06   -1.962477462538791e-06   3.7463081171678215e-06
-2.6629451763534685e-06   -1.962477462538791e-06   3.7463081171678215e-06
-2.6629451763534685e-06   -1.962477462538791e-06   3.7463081171678215e-06
-2.6629451763534685e-06   -1.962477462538791e-06   3.7463081171678215e-06
-5.493937786470006e-06   -4.4662941078122765e-06   1.0128312402985786e-05
-5.493937786470006e-06   -4.4662941078122765e-06   1.0128312402985786e-05
-5.493937786470006e-06   -4.4662941078122765e-06   1.0128312402985786e-05
-5.493937786470006e-06   -4.4662941078122765e-06   1.0128312402985786e-05
-1.3882798435085144e-05   7.823318171040197e-07   -7.039464564230101e-07
-1.3882798435085144e-05   7.823318171040197e-07   -7.039464564230101e-07
-1.3882798435085144e-05   7.823318171040197e-07   -7.039464564230101e-07
-1.3882798435085144e-05   7.823318171040197e-07   -7.039464564230101e-07
-1.4581632412425611e-05   -5.0221678722293895e-06   1.4241237147356021e-05
-1.4581632412425611e-05   -5.0221678722293895e-06   1.4241237147356021e-05
-1.4581632412425611e-05   -5.0221678722293895e-06   1.4241237147356021e-05
-1.4581632412425611e-05   -5.0221678722293895e-06   1.4241237147356021e-05
-6.068448794458509e-06   7.511979448195051e-07   -3.4114217061517813e-06
-6.068448794458509e-06   7.511979448195051e-07   -3.4114217061517813e-06
-6.068448794458509e-06   7.511979448195051e-07   -3.4114217061517813e-06
-6.068448794458509e-06   7.511979448195051e-07   -3.4114217061517813e-06
-9.872379674190555e-06   -1.7762532176490969e-06   4.444933790882793e-06
-9.872379674190555e-06   -1.7762532176490969e-06   4.444933790882793e-06
-9.872379674190555e-06   -1.7762532176490969e-06   4.444933790882793e-06
-9.872379674190555e-06   -1.7762532176490969e-06   4.444933790882793e-06
-6.068448794458523e-06   -5.0221678722293895e-06   1.0777217657126706e-05
-6.068448794458523e-06   -5.0221678722293895e-06   1.0777217657126706e-05
-6.068448794458523e-06   -5.0221678722293895e-06   1.0777217657126706e-05
-6.068448794458523e-06   -5.0221678722293895e-06   1.0777217657126706e-05
-1.4581632412425584e-05   7.511979448195051e-07   5.259778407750663e-08
-1.4581632412425584e-05   7.511979448195051e-07   5.259778407750663e-08
-1.4581632412425584e-05   7.511979448195051e-07   5.259778407750663e-08
-1.4581632412425584e-05   7.511979448195051e-07   5.259778407750663e-08
-1.5005897050828756e-05   -5.0418834476226825e-06   1.5049458690071004e-05
-1.5005897050828756e-05   -5.0418834476226825e-06   1.5049458690071004e-05
-1.5005897050828756e-05   -5.0418834476226825e-06   1.5049458690071004e-05
-1.5005897050828756e-05   -5.0418834476226825e-06   1.5049458690071004e-05
-6.4218632098078815e-06   6.82999835455644e-07   -2.6921943481440783e-06
-6.4218632098078815e-06   6.82999835455644e-07   -2.6921943481440783e-06
-6.4218632098078815e-06   6.82999835455644e-07   -2.6921943481440783e-06
-6.4218632098078815e-06   6.82999835455644e-07   -2.6921943481440783e-06
-1.0320612972176006e-05   -2.0733802171046594e-06   5.459549954005597e-06
-1.0320612972176006e-05   -2.0733802171046594e-06   5.459549954005597e-06
-1.0320612972176006e-05   -2.0733802171046594e-06   5.459549954005597e-06
-1.0320612972176006e-05   -2.0733802171046594e-06   5.459549954005597e-06
-6.421863209807878e-06   -5.0418834476226825e-06   1.161452872022403e-05
-6.421863209807878e-06   -5.0418834476226825e-06   1.161452872022403e-05
-6.421863209807878e-06   -5.0418834476226825e-06   1.161452872022403e-05
-6.421863209807878e-06   -5.0418834476226825e-06   1.161452872022403e-05
-1.5005897050828733e-05   6.82999835455644e-07   7.427356217028485e-07
-1.5005897050828733e-05   6.82999835455644e-07   7.427356217028485e-07
-1.5005897050828733e-05   6.82999835455644e-07   7.427356217028485e-07
-1.5005897050828733e-05   6.82999835455644e-07   7.427356217028485e-07
-1.5464964596244178e-05   -4.551767255219744e-06   1.5384016850214163e-05
-1.5464964596244178e-05   -4.551767255219744e-06   1.5384016850214163e-05
-1.5464964596244178e-05   -4.551767255219744e-06   1.5384016850214163e-05
-1.5464964596244178e-05   -4.551767255219744e-06   1.5384016850214163e-05
-6.834830281315637e-06   6.043808080576909e-07   -2.093229179299814e-06
-6.834830281315637e-06   6.043808080576909e-07   -2.093229179299814e-06
-6.834830281315637e-06   6.043808080576909e-07   -2.093229179299814e-06
-6.834830281315637e-06   6.043808080576909e-07   -2.093229179299814e-06
-1.0789368301429676e-05   -2.083489691974633e-06   6.110389820909907e-06
-1.0789368301429676e-05   -2.083489691974633e-06   6.110389820909907e-06
-1.0789368301429676e-05   -2.083489691974633e-06   6.110389820909907e-06
-1.0789368301429676e-05   -2.083489691974633e-06   6.110389820909907e-06
-1.38827984350851e-05   0.0   1.108783013023621e-05
-1.38827984350851e-05   0.0   1.108783013023621e-05
-1.38827984350851e-05   0.0   1.108783013023621e-05
-1.38827984350851e-05   0.0   1.108783013023621e-05
-2.4250341158400558e-05   3.2027281334603194e-06   -4.269770861879967e-06
-2.4250341158400558e-05   3.2027281334603194e-06   -4.269770861879967e-06
-2.4250341158400558e-05   3.2027281334603194e-06   -4.269770861879967e-06
-2.4250341158400558e-05   3.2027281334603194e-06   -4.269770861879967e-06
-2.5198155569758053e-05   0.0   1.633186709682692e-05
-2.5198155569758053e-05   0.0   1.633186709682692e-05
-2.5198155569758053e-05   0.0   1.633186709682692e-05
-2.5198155569758053e-05   0.0   1.633186709682692e-05
-1.4581632412425584e-05   3.1102062169758573e-06   -3.2284618955794595e-06
-1.4581632412425584e-05   3.1102062169758573e-06   -3.2284618955794595e-06
-1.4581632412425584e-05   3.1102062169758573e-06   -3.2284618955794595e-06
-1.4581632412425584e-05   3.1102062169758573e-06   -3.2284618955794595e-06
-1.8650822363068914e-05   1.8987679184014625e-06   4.280384334637378e-06
-1.8650822363068914e-05   1.8987679184014625e-06   4.280384334637378e-06
-1.8650822363068914e-05   1.8987679184014625e-06   4.280384334637378e-06
-1.8650822363068914e-05   1.8987679184014625e-06   4.280384334637378e-06
-1.458163241242557e-05   0.0   1.4465743366641427e-05
-1.458163241242557e-05   0.0   1.4465743366641427e-05
-1.458163241242557e-05   0.0   1.4465743366641427e-05
-1.458163241242557e-05   0.0   1.4465743366641427e-05
-2.5198155569758097e-05   3.1102062169758573e-06   -1.3623381653939397e-06
-2.5198155569758097e-05   3.1102062169758573e-06   -1.3623381653939397e-06
-2.5198155569758097e-05   3.1102062169758573e-06   -1.3623381653939397e-06
-2.5198155569758097e-05   3.1102062169758573e-06   -1.3623381653939397e-06
-2.567354456892766e-05   0.0   1.8180949830259548e-05
-2.567354456892766e-05   0.0   1.8180949830259548e-05
-2.567354456892766e-05   0.0   1.8180949830259548e-05
-2.567354456892766e-05   0.0   1.8180949830259548e-05
-1.5005897050828733e-05   3.037523284915621e-06   -1.420976670854851e-06
-1.5005897050828733e-05   3.037523284915621e-06   -1.420976670854851e-06
-1.5005897050828733e-05   3.037523284915621e-06   -1.420976670854851e-06
-1.5005897050828733e-05   3.037523284915621e-06   -1.420976670854851e-06
-1.9585687255222895e-05   1.5907241767546855e-06   7.080086468032143e-06
-1.9585687255222895e-05   1.5907241767546855e-06   7.080086468032143e-06
-1.9585687255222895e-05   1.5907241767546855e-06   7.080086468032143e-06
-1.9585687255222895e-05   1.5907241767546855e-06   7.080086468032143e-06
-1.5005897050828733e-05   0.0   1.6358435859310132e-05
-1.5005897050828733e-05   0.0   1.6358435859310132e-05
-1.5005897050828733e-05   0.0   1.6358435859310132e-05
-1.5005897050828733e-05   0.0   1.6358435859310132e-05
-2.567354456892771e-05   3.037523284915621e-06   4.015373000945243e-07
-2.567354456892771e-05   3.037523284915621e-06   4.015373000945243e-07
-2.567354456892771e-05   3.037523284915621e-06   4.015373000945243e-07
-2.567354456892771e-05   3.037523284915621e-06   4.015373000945243e-07
-2.6195411291030902e-05   0.0   2.0642739662443026e-05
-2.6195411291030902e-05   0.0   2.0642739662443026e-05
-2.6195411291030902e-05   0.0   2.0642739662443026e-05
-2.6195411291030902e-05   0.0   2.0642739662443026e-05
-1.5464964596244178e-05   2.559317329597346e-06   1.2230714400399782e-06
-1.5464964596244178e-05   2.559317329597346e-06   1.2230714400399782e-06
-1.5464964596244178e-05   2.559317329597346e-06   1.2230714400399782e-06
-1.5464964596244178e-05   2.559317329597346e-06   1.2230714400399782e-06
-1.9722361995764123e-05   1.1305526827059273e-06   9.175992560708089e-06
-1.9722361995764123e-05   1.1305526827059273e-06   9.175992560708089e-06
-1.9722361995764123e-05   1.1305526827059273e-06   9.175992560708089e-06
-1.9722361995764123e-05   1.1305526827059273e-06   9.175992560708089e-06
1.658670272598816e-05   -2.4784682921762894e-06   1.1646273305405952e-05
1.658670272598816e-05   -2.4784682921762894e-06   1.1646273305405952e-05
1.658670272598816e-05   -2.4784682921762894e-06   1.1646273305405952e-05
1.658670272598816e-05   -2.4784682921762894e-06   1.1646273305405952e-05
8.358052220055344e-06   -1.8970961740992281e-06   -1.7193209336358018e-06
8.358052220055344e-06   -1.8970961740992281e-06   -1.7193209336358018e-06
8.358052220055344e-06   -1.8970961740992281e-06   -1.7193209336358018e-06
8.358052220055344e-06   -1.8970961740992281e-06   -1.7193209336358018e-06
8.146111195095794e-06   -2.7186476607567005e-06   1.013699587006637e-05
8.146111195095794e-06   -2.7186476607567005e-06   1.013699587006637e-05
8.146111195095794e-06   -2.7186476607567005e-06   1.013699587006637e-05
8.146111195095794e-06   -2.7186476607567005e-06   1.013699587006637e-05
1.6212087729846594e-05   -2.1426906415105687e-06   -3.6518725660659673e-06
1.6212087729846594e-05   -2.1426906415105687e-06   -3.6518725660659673e-06
1.6212087729846594e-05   -2.1426906415105687e-06   -3.6518725660659673e-06
1.6212087729846594e-05   -2.1426906415105687e-06   -3.6518725660659673e-06
1.177703073842535e-05   -2.2191330000365756e-06   3.7857545014184337e-06
1.177703073842535e-05   -2.2191330000365756e-06   3.7857545014184337e-06
1.177703073842535e-05   -2.2191330000365756e-06   3.7857545014184337e-06
1.177703073842535e-05   -2.2191330000365756e-06   3.7857545014184337e-06
1.621208772984656e-05   -2.7186476607567005e-06   9.79142165851869e-06
1.621208772984656e-05   -2.7186476607567005e-06   9.79142165851869e-06
1.621208772984656e-05   -2.7186476607567005e-06   9.79142165851869e-06
1.621208772984656e-05   -2.7186476607567005e-06   9.79142165851869e-06
8.146111195095811e-06   -2.1426906415105687e-06   -3.3062983545182408e-06
8.146111195095811e-06   -2.1426906415105687e-06   -3.3062983545182408e-06
8.146111195095811e-06   -2.1426906415105687e-06   -3.3062983545182408e-06
8.146111195095811e-06   -2.1426906415105687e-06   -3.3062983545182408e-06
7.87318068929339e-06   -2.738178798077106e-06   9.081470596111535e-06
7.87318068929339e-06   -2.738178798077106e-06   9.081470596111535e-06
7.87318068929339e-06   -2.738178798077106e-06   9.081470596111535e-06
7.87318068929339e-06   -2.738178798077106e-06   9.081470596111535e-06
1.5831448777680793e-05   -2.1774034472486076e-06   -4.5187747616978815e-06
1.5831448777680793e-05   -2.1774034472486076e-06   -4.5187747616978815e-06
1.5831448777680793e-05   -2.1774034472486076e-06   -4.5187747616978815e-06
1.5831448777680793e-05   -2.1774034472486076e-06   -4.5187747616978815e-06
1.1680563280487283e-05   -2.314286533970926e-06   2.481497585657931e-06
1.1680563280487283e-05   -2.314286533970926e-06   2.481497585657931e-06
1.1680563280487283e-05   -2.314286533970926e-06   2.481497585657931e-06
1.1680563280487283e-05   -2.314286533970926e-06   2.481497585657931e-06
1.5831448777680793e-05   -2.738178798077106e-06   8.745005385614425e-06
1.5831448777680793e-05   -2.738178798077106e-06   8.745005385614425e-06
1.5831448777680793e-05   -2.738178798077106e-06   8.745005385614425e-06
1.5831448777680793e-05   -2.738178798077106e-06   8.745005385614425e-06
7.87318068929339e-06   -2.1774034472486076e-06   -4.182309551200843e-06
7.87318068929339e-06   -2.1774034472486076e-06   -4.182309551200843e-06
7.87318068929339e-06   -2.1774034472486076e-06   -4.182309551200843e-06
7.87318068929339e-06   -2.1774034472486076e-06   -4.182309551200843e-06
7.586174525532557e-06   -2.672306172570157e-06   7.509051112445926e-06
7.586174525532557e-06   -2.672306172570157e-06   7.509051112445926e-06
7.586174525532557e-06   -2.672306172570157e-06   7.509051112445926e-06
7.586174525532557e-06   -2.672306172570157e-06   7.509051112445926e-06
1.5354427257640392e-05   -2.1556668137696694e-06   -5.748020389680787e-06
1.5354427257640392e-05   -2.1556668137696694e-06   -5.748020389680787e-06
1.5354427257640392e-05   -2.1556668137696694e-06   -5.748020389680787e-06
1.5354427257640392e-05   -2.1556668137696694e-06   -5.748020389680787e-06
1.1174513319989318e-05   -2.251042347360091e-06   1.275728159892094e-06
1.1174513319989318e-05   -2.251042347360091e-06   1.275728159892094e-06
1.1174513319989318e-05   -2.251042347360091e-06   1.275728159892094e-06
1.1174513319989318e-05   -2.251042347360091e-06   1.275728159892094e-06
8.358052220055344e-06   -1.4936264719070998e-06   1.090870652678094e-05
8.358052220055344e-06   -1.4936264719070998e-06   1.090870652678094e-05
8.358052220055344e-06   -1.4936264719070998e-06   1.090870652678094e-05
8.358052220055344e-06   -1.4936264719070998e-06   1.090870652678094e-05
8.417368618991895e-07   -6.596691154019422e-07   -1.1181113229096428e-06
8.417368618991895e-07   -6.596691154019422e-07   -1.1181113229096428e-06
8.417368618991895e-07   -6.596691154019422e-07   -1.1181113229096428e-06
8.417368618991895e-07   -6.596691154019422e-07   -1.1181113229096428e-06
6.303220278446292e-07   -1.5814903268699916e-06   1.1344563904764834e-05
6.303220278446292e-07   -1.5814903268699916e-06   1.1344563904764834e-05
6.303220278446292e-07   -1.5814903268699916e-06   1.1344563904764834e-05
6.303220278446292e-07   -1.5814903268699916e-06   1.1344563904764834e-05
8.146111195095811e-06   -7.898967713884392e-07   -1.6567075072760582e-06
8.146111195095811e-06   -7.898967713884392e-07   -1.6567075072760582e-06
8.146111195095811e-06   -7.898967713884392e-07   -1.6567075072760582e-06
8.146111195095811e-06   -7.898967713884392e-07   -1.6567075072760582e-06
4.450511487097597e-06   -1.053022704256435e-06   4.6605008991083775e-06
4.450511487097597e-06   -1.053022704256435e-06   4.6605008991083775e-06
4.450511487097597e-06   -1.053022704256435e-06   4.6605008991083775e-06
4.450511487097597e-06   -1.053022704256435e-06   4.6605008991083775e-06
8.146111195095804e-06   -1.5814903268699916e-06   1.0869607771475881e-05
8.146111195095804e-06   -1.5814903268699916e-06   1.0869607771475881e-05
8.146111195095804e-06   -1.5814903268699916e-06   1.0869607771475881e-05
8.146111195095804e-06   -1.5814903268699916e-06   1.0869607771475881e-05
6.303220278446292e-07   -7.898967713884392e-07   -1.1817513739871728e-06
6.303220278446292e-07   -7.898967713884392e-07   -1.1817513739871728e-06
6.303220278446292e-07   -7.898967713884392e-07   -1.1817513739871728e-06
6.303220278446292e-07   -7.898967713884392e-07   -1.1817513739871728e-06
3.613865386904925e-07   -1.617131585155947e-06   1.1224599625291206e-05
3.613865386904925e-07   -1.617131585155947e-06   1.1224599625291206e-05
3.613865386904925e-07   -1.617131585155947e-06   1.1224599625291206e-05
3.613865386904925e-07   -1.617131585155947e-06   1.1224599625291206e-05
7.87318068929339e-06   -8.728864569981527e-07   -1.741604369274972e-06
7.87318068929339e-06   -8.728864569981527e-07   -1.741604369274972e-06
7.87318068929339e-06   -8.728864569981527e-07   -1.741604369274972e-06
7.87318068929339e-06   -8.728864569981527e-07   -1.741604369274972e-06
4.180868953073131e-06   -1.101040206111215e-06   4.549140773893485e-06
4.180868953073131e-06   -1.101040206111215e-06   4.549140773893485e-06
4.180868953073131e-06   -1.101040206111215e-06   4.549140773893485e-06
4.180868953073131e-06   -1.101040206111215e-06   4.549140773893485e-06
7.873180689293376e-06   -1.6171315851560555e-06   1.077805254839654e-05
7.873180689293376e-06   -1.6171315851560555e-06   1.077805254839654e-05
7.873180689293376e-06   -1.6171315851560555e-06   1.077805254839654e-05
7.873180689293376e-06   -1.6171315851560555e-06   1.077805254839654e-05
3.613865386904925e-07   -8.728864569981527e-07   -1.2950572923802655e-06
3.613865386904925e-07   -8.728864569981527e-07   -1.2950572923802655e-06
3.613865386904925e-07   -8.728864569981527e-07   -1.2950572923802655e-06
3.613865386904925e-07   -8.728864569981527e-07   -1.2950572923802655e-06
6.440403570641965e-08   -1.574563145507503e-06   1.1376011687631827e-05
6.440403570641965e-08   -1.574563145507503e-06   1.1376011687631827e-05
6.440403570641965e-08   -1.574563145507503e-06   1.1376011687631827e-05
6.440403570641965e-08   -1.574563145507503e-06   1.1376011687631827e-05
7.586174525532547e-06   -9.04935513275926e-07   -1.5620490414174686e-06
7.586174525532547e-06   -9.04935513275926e-07   -1.5620490414174686e-06
7.586174525532547e-06   -9.04935513275926e-07   -1.5620490414174686e-06
7.586174525532547e-06   -9.04935513275926e-07   -1.5620490414174686e-06
3.965074643951107e-06   -1.087221086666537e-06   4.582488771919529e-06
3.965074643951107e-06   -1.087221086666537e-06   4.582488771919529e-06
3.965074643951107e-06   -1.087221086666537e-06   4.582488771919529e-06
3.965074643951107e-06   -1.087221086666537e-06   4.582488771919529e-06
8.417368618991895e-07   -5.68078286531824e-07   1.112521529129224e-05
8.417368618991895e-07   -5.68078286531824e-07   1.112521529129224e-05
8.417368618991895e-07   -5.68078286531824e-07   1.112521529129224e-05
8.417368618991895e-07   -5.68078286531824e-07   1.112521529129224e-05
-6.447128657074931e-06   6.073551117750714e-07   -3.1763386801385383e-07
-6.447128657074931e-06   6.073551117750714e-07   -3.1763386801385383e-07
-6.447128657074931e-06   6.073551117750714e-07   -3.1763386801385383e-07
-6.447128657074931e-06   6.073551117750714e-07   -3.1763386801385383e-07
-6.685690576655648e-06   -5.979535746258044e-07   1.1910942412931831e-05
-6.685690576655648e-06   -5.979535746258044e-07   1.1910942412931831e-05
-6.685690576655648e-06   -5.979535746258044e-07   1.1910942412931831e-05
-6.685690576655648e-06   -5.979535746258044e-07   1.1910942412931831e-05
6.303220278446292e-07   5.108611674128861e-07   -9.477007731251597e-07
6.303220278446292e-07   5.108611674128861e-07   -9.477007731251597e-07
6.303220278446292e-07   5.108611674128861e-07   -9.477007731251597e-07
6.303220278446292e-07   5.108611674128861e-07   -9.477007731251597e-07
-2.910165900529948e-06   3.8948457320008706e-08   5.236260066888125e-06
-2.910165900529948e-06   3.8948457320008706e-08   5.236260066888125e-06
-2.910165900529948e-06   3.8948457320008706e-08   5.236260066888125e-06
-2.910165900529948e-06   3.8948457320008706e-08   5.236260066888125e-06
6.303220278446292e-07   -5.979535746259129e-07   1.1245653567708638e-05
6.303220278446292e-07   -5.979535746259129e-07   1.1245653567708638e-05
6.303220278446292e-07   -5.979535746259129e-07   1.1245653567708638e-05
6.303220278446292e-07   -5.979535746259129e-07   1.1245653567708638e-05
-6.685690576655648e-06   5.108611674128861e-07   -2.8241192790199416e-07
-6.685690576655648e-06   5.108611674128861e-07   -2.8241192790199416e-07
-6.685690576655648e-06   5.108611674128861e-07   -2.8241192790199416e-07
-6.685690576655648e-06   5.108611674128861e-07   -2.8241192790199416e-07
-7.003387961176077e-06   -6.354708229517215e-07   1.2141288167839001e-05
-7.003387961176077e-06   -6.354708229517215e-07   1.2141288167839001e-05
-7.003387961176077e-06   -6.354708229517215e-07   1.2141288167839001e-05
-7.003387961176077e-06   -6.354708229517215e-07   1.2141288167839001e-05
3.613865386904925e-07   4.210622638256209e-07   -7.672558506716776e-07
3.613865386904925e-07   4.210622638256209e-07   -7.672558506716776e-07
3.613865386904925e-07   4.210622638256209e-07   -7.672558506716776e-07
3.613865386904925e-07   4.210622638256209e-07   -7.672558506716776e-07
-3.1449091722244806e-06   1.4028316760940525e-08   5.320790702425461e-06
-3.1449091722244806e-06   1.4028316760940525e-08   5.320790702425461e-06
-3.1449091722244806e-06   1.4028316760940525e-08   5.320790702425461e-06
-3.1449091722244806e-06   1.4028316760940525e-08   5.320790702425461e-06
3.613865386904925e-07   -6.354708229517215e-07   1.150736831577264e-05
3.613865386904925e-07   -6.354708229517215e-07   1.150736831577264e-05
3.613865386904925e-07   -6.354708229517215e-07   1.150736831577264e-05
3.613865386904925e-07   -6.354708229517215e-07   1.150736831577264e-05
-7.003387961176077e-06   4.210622638256209e-07   -1.3333599860532912e-07
-7.003387961176077e-06   4.210622638256209e-07   -1.3333599860532912e-07
-7.003387961176077e-06   4.210622638256209e-07   -1.3333599860532912e-07
-7.003387961176077e-06   4.210622638256209e-07   -1.3333599860532912e-07
-7.341817573063987e-06   -6.268059555565152e-07   1.2417467180333075e-05
-7.341817573063987e-06   -6.268059555565152e-07   1.2417467180333075e-05
-7.341817573063987e-06   -6.268059555565152e-07   1.2417467180333075e-05
-7.341817573063987e-06   -6.268059555565152e-07   1.2417467180333075e-05
6.440403570641965e-08   3.5717037817520163e-07   -5.166213011900881e-07
6.440403570641965e-08   3.5717037817520163e-07   -5.166213011900881e-07
6.440403570641965e-08   3.5717037817520163e-07   -5.166213011900881e-07
6.440403570641965e-08   3.5717037817520163e-07   -5.166213011900881e-07
-3.443442935141304e-06   -2.6465078019691224e-09   5.5456804484760295e-06
-3.443442935141304e-06   -2.6465078019691224e-09   5.5456804484760295e-06
-3.443442935141304e-06   -2.6465078019691224e-09   5.5456804484760295e-06
-3.443442935141304e-06   -2.6465078019691224e-09   5.5456804484760295e-06
-6.447128657074904e-06   7.823318171039113e-07   1.009081884286128e-05
-6.447128657074904e-06   7.823318171039113e-07   1.009081884286128e-05
-6.447128657074904e-06   7.823318171039113e-07   1.009081884286128e-05
-6.447128657074904e-06   7.823318171039113e-07   1.009081884286128e-05
-1.3612413676065609e-05   1.9510698633845363e-06   -1.150080027688199e-06
-1.3612413676065609e-05   1.9510698633845363e-06   -1.150080027688199e-06
-1.3612413676065609e-05   1.9510698633845363e-06   -1.150080027688199e-06
-1.3612413676065609e-05   1.9510698633845363e-06   -1.150080027688199e-06
-1.3955332660575923e-05   7.511979448196135e-07   1.1139004836964396e-05
-1.3955332660575923e-05   7.511979448196135e-07   1.1139004836964396e-05
-1.3955332660575923e-05   7.511979448196135e-07   1.1139004836964396e-05
-1.3955332660575923e-05   7.511979448196135e-07   1.1139004836964396e-05
-6.685690576655635e-06   1.8561017764932158e-06   -1.640007601906888e-06
-6.685690576655635e-06   1.8561017764932158e-06   -1.640007601906888e-06
-6.685690576655635e-06   1.8561017764932158e-06   -1.640007601906888e-06
-6.685690576655635e-06   1.8561017764932158e-06   -1.640007601906888e-06
-1.0097986718244128e-05   1.3534644855441556e-06   4.348735008643379e-06
-1.0097986718244128e-05   1.3534644855441556e-06   4.348735008643379e-06
-1.0097986718244128e-05   1.3534644855441556e-06   4.348735008643379e-06
-1.0097986718244128e-05   1.3534644855441556e-06   4.348735008643379e-06
-6.685690576655648e-06   7.511979448195051e-07   1.0476062537960094e-05
-6.685690576655648e-06   7.511979448195051e-07   1.0476062537960094e-05
-6.685690576655648e-06   7.511979448195051e-07   1.0476062537960094e-05
-6.685690576655648e-06   7.511979448195051e-07   1.0476062537960094e-05
-1.3955332660575896e-05   1.8561017764932158e-06   -9.77065302902667e-07
-1.3955332660575896e-05   1.8561017764932158e-06   -9.77065302902667e-07
-1.3955332660575896e-05   1.8561017764932158e-06   -9.77065302902667e-07
-1.3955332660575896e-05   1.8561017764932158e-06   -9.77065302902667e-07
-1.4377136914402824e-05   6.82999835455644e-07   1.1821632580193814e-05
-1.4377136914402824e-05   6.82999835455644e-07   1.1821632580193814e-05
-1.4377136914402824e-05   6.82999835455644e-07   1.1821632580193814e-05
-1.4377136914402824e-05   6.82999835455644e-07   1.1821632580193814e-05
-7.003387961176077e-06   1.7666456226690923e-06   -1.1181364808455715e-06
-7.003387961176077e-06   1.7666456226690923e-06   -1.1181364808455715e-06
-7.003387961176077e-06   1.7666456226690923e-06   -1.1181364808455715e-06
-7.003387961176077e-06   1.7666456226690923e-06   -1.1181364808455715e-06
-1.035027890658851e-05   1.3352549282745485e-06   4.718849511478487e-06
-1.035027890658851e-05   1.3352549282745485e-06   4.718849511478487e-06
-1.035027890658851e-05   1.3352549282745485e-06   4.718849511478487e-06
-1.035027890658851e-05   1.3352549282745485e-06   4.718849511478487e-06
-7.003387961176071e-06   6.82999835455644e-07   1.1171445107865691e-05
-7.003387961176071e-06   6.82999835455644e-07   1.1171445107865691e-05
-7.003387961176071e-06   6.82999835455644e-07   1.1171445107865691e-05
-7.003387961176071e-06   6.82999835455644e-07   1.1171445107865691e-05
-1.4377136914402797e-05   1.7666456226690923e-06   -4.679490085174212e-07
-1.4377136914402797e-05   1.7666456226690923e-06   -4.679490085174212e-07
-1.4377136914402797e-05   1.7666456226690923e-06   -4.679490085174212e-07
-1.4377136914402797e-05   1.7666456226690923e-06   -4.679490085174212e-07
-1.4821691929456574e-05   6.043808080576909e-07   1.2352459098222363e-05
-1.4821691929456574e-05   6.043808080576909e-07   1.2352459098222363e-05
-1.4821691929456574e-05   6.043808080576909e-07   1.2352459098222363e-05
-1.4821691929456574e-05   6.043808080576909e-07   1.2352459098222363e-05
-7.341817573063974e-06   1.644534756733984e-06   -7.380905316377068e-07
-7.341817573063974e-06   1.644534756733984e-06   -7.380905316377068e-07
-7.341817573063974e-06   1.644534756733984e-06   -7.380905316377068e-07
-7.341817573063974e-06   1.644534756733984e-06   -7.380905316377068e-07
-1.07815445806738e-05   1.263992634158292e-06   5.223113087924361e-06
-1.07815445806738e-05   1.263992634158292e-06   5.223113087924361e-06
-1.07815445806738e-05   1.263992634158292e-06   5.223113087924361e-06
-1.07815445806738e-05   1.263992634158292e-06   5.223113087924361e-06
-1.3612413676065609e-05   3.2027281334604278e-06   5.3046003850964855e-06
-1.3612413676065609e-05   3.2027281334604278e-06   5.3046003850964855e-06
-1.3612413676065609e-05   3.2027281334604278e-06   5.3046003850964855e-06
-1.3612413676065609e-05   3.2027281334604278e-06   5.3046003850964855e-06
-2.050506759693477e-05   3.173148069048645e-06   -6.200904188332539e-06
-2.050506759693477e-05   3.173148069048645e-06   -6.200904188332539e-06
-2.050506759693477e-05   3.173148069048645e-06   -6.200904188332539e-06
-2.050506759693477e-05   3.173148069048645e-06   -6.200904188332539e-06
-2.112325061579665e-05   3.1102062169758573e-06   7.937159860435452e-06
-2.112325061579665e-05   3.1102062169758573e-06   7.937159860435452e-06
-2.112325061579665e-05   3.1102062169758573e-06   7.937159860435452e-06
-2.112325061579665e-05   3.1102062169758573e-06   7.937159860435452e-06
-1.3955332660575896e-05   3.242230722189164e-06   -4.0885847680605314e-06
-1.3955332660575896e-05   3.242230722189164e-06   -4.0885847680605314e-06
-1.3955332660575896e-05   3.242230722189164e-06   -4.0885847680605314e-06
-1.3955332660575896e-05   3.242230722189164e-06   -4.0885847680605314e-06
-1.660266772358699e-05   3.224810009266714e-06   3.3409276471141314e-07
-1.660266772358699e-05   3.224810009266714e-06   3.3409276471141314e-07
-1.660266772358699e-05   3.224810009266714e-06   3.3409276471141314e-07
-1.660266772358699e-05   3.224810009266714e-06   3.3409276471141314e-07
-1.3955332660575889e-05   3.1102062169758573e-06   7.857945157307457e-06
-1.3955332660575889e-05   3.1102062169758573e-06   7.857945157307457e-06
-1.3955332660575889e-05   3.1102062169758573e-06   7.857945157307457e-06
-1.3955332660575889e-05   3.1102062169758573e-06   7.857945157307457e-06
-2.112325061579665e-05   3.242230722189164e-06   -4.009370064932496e-06
-2.112325061579665e-05   3.242230722189164e-06   -4.009370064932496e-06
-2.112325061579665e-05   3.242230722189164e-06   -4.009370064932496e-06
-2.112325061579665e-05   3.242230722189164e-06   -4.009370064932496e-06
-2.1729287309060618e-05   3.037523284915621e-06   9.76834705076991e-06
-2.1729287309060618e-05   3.037523284915621e-06   9.76834705076991e-06
-2.1729287309060618e-05   3.037523284915621e-06   9.76834705076991e-06
-2.1729287309060618e-05   3.037523284915621e-06   9.76834705076991e-06
-1.4377136914402797e-05   3.221567890138643e-06   -2.595663703460285e-06
-1.4377136914402797e-05   3.221567890138643e-06   -2.595663703460285e-06
-1.4377136914402797e-05   3.221567890138643e-06   -2.595663703460285e-06
-1.4377136914402797e-05   3.221567890138643e-06   -2.595663703460285e-06
-1.732597092974775e-05   3.2315911758575315e-06   2.3130456840168346e-06
-1.732597092974775e-05   3.2315911758575315e-06   2.3130456840168346e-06
-1.732597092974775e-05   3.2315911758575315e-06   2.3130456840168346e-06
-1.732597092974775e-05   3.2315911758575315e-06   2.3130456840168346e-06
-1.4377136914402797e-05   3.037523284915621e-06   9.657920287636183e-06
-1.4377136914402797e-05   3.037523284915621e-06   9.657920287636183e-06
-1.4377136914402797e-05   3.037523284915621e-06   9.657920287636183e-06
-1.4377136914402797e-05   3.037523284915621e-06   9.657920287636183e-06
-2.1729287309060652e-05   3.221567890138643e-06   -2.485236940326504e-06
-2.1729287309060652e-05   3.221567890138643e-06   -2.485236940326504e-06
-2.1729287309060652e-05   3.221567890138643e-06   -2.485236940326504e-06
-2.1729287309060652e-05   3.221567890138643e-06   -2.485236940326504e-06
-2.244539881505808e-05   2.559317329597346e-06   1.282380657739783e-05
-2.244539881505808e-05   2.559317329597346e-06   1.282380657739783e-05
-2.244539881505808e-05   2.559317329597346e-06   1.282380657739783e-05
-2.244539881505808e-05   2.559317329597346e-06   1.282380657739783e-05
-1.4821691929456554e-05   2.973876825934315e-06   -1.3110726307358862e-07
-1.4821691929456554e-05   2.973876825934315e-06   -1.3110726307358862e-07
-1.4821691929456554e-05   2.973876825934315e-06   -1.3110726307358862e-07
-1.4821691929456554e-05   2.973876825934315e-06   -1.3110726307358862e-07
-1.756437527790865e-05   3.084179474219977e-06   4.373850062042126e-06
-1.756437527790865e-05   3.084179474219977e-06   4.373850062042126e-06
-1.756437527790865e-05   3.084179474219977e-06   4.373850062042126e-06
-1.756437527790865e-05   3.084179474219977e-06   4.373850062042126e-06
1.3614741663149202e-05   -1.8970961740992281e-06   1.0372345315618739e-05
1.3614741663149202e-05   -1.8970961740992281e-06   1.0372345315618739e-05
1.3614741663149202e-05   -1.8970961740992281e-06   1.0372345315618739e-05
1.3614741663149202e-05   -1.8970961740992281e-06   1.0372345315618739e-05
6.715461638873337e-06   -1.4124566641269837e-06   -8.356710188576403e-07
6.715461638873337e-06   -1.4124566641269837e-06   -8.356710188576403e-07
6.715461638873337e-06   -1.4124566641269837e-06   -8.356710188576403e-07
6.715461638873337e-06   -1.4124566641269837e-06   -8.356710188576403e-07
6.4708551970674934e-06   -2.1426906415104603e-06   8.999766298679066e-06
6.4708551970674934e-06   -2.1426906415104603e-06   8.999766298679066e-06
6.4708551970674934e-06   -2.1426906415104603e-06   8.999766298679066e-06
6.4708551970674934e-06   -2.1426906415104603e-06   8.999766298679066e-06
1.316608280664952e-05   -1.632151402593371e-06   -2.465269927307892e-06
1.316608280664952e-05   -1.632151402593371e-06   -2.465269927307892e-06
1.316608280664952e-05   -1.632151402593371e-06   -2.465269927307892e-06
1.316608280664952e-05   -1.632151402593371e-06   -2.465269927307892e-06
9.534759193582723e-06   -1.7524891537945564e-06   3.659138745190775e-06
9.534759193582723e-06   -1.7524891537945564e-06   3.659138745190775e-06
9.534759193582723e-06   -1.7524891537945564e-06   3.659138745190775e-06
9.534759193582723e-06   -1.7524891537945564e-06   3.659138745190775e-06
1.3166082806649496e-05   -2.1426906415105687e-06   8.693442755328812e-06
1.3166082806649496e-05   -2.1426906415105687e-06   8.693442755328812e-06
1.3166082806649496e-05   -2.1426906415105687e-06   8.693442755328812e-06
1.3166082806649496e-05   -2.1426906415105687e-06   8.693442755328812e-06
6.470855197067514e-06   -1.632151402593371e-06   -2.1589463839575174e-06
6.470855197067514e-06   -1.632151402593371e-06   -2.1589463839575174e-06
6.470855197067514e-06   -1.632151402593371e-06   -2.1589463839575174e-06
6.470855197067514e-06   -1.632151402593371e-06   -2.1589463839575174e-06
6.198322061943331e-06   -2.1774034472486076e-06   8.052283702885115e-06
6.198322061943331e-06   -2.1774034472486076e-06   8.052283702885115e-06
6.198322061943331e-06   -2.1774034472486076e-06   8.052283702885115e-06
6.198322061943331e-06   -2.1774034472486076e-06   8.052283702885115e-06
1.2758287067380896e-05   -1.6750691386856892e-06   -3.1823918913152323e-06
1.2758287067380896e-05   -1.6750691386856892e-06   -3.1823918913152323e-06
1.2758287067380896e-05   -1.6750691386856892e-06   -3.1823918913152323e-06
1.2758287067380896e-05   -1.6750691386856892e-06   -3.1823918913152323e-06
9.373985728395413e-06   -1.8381887383576165e-06   2.555982100130402e-06
9.373985728395413e-06   -1.8381887383576165e-06   2.555982100130402e-06
9.373985728395413e-06   -1.8381887383576165e-06   2.555982100130402e-06
9.373985728395413e-06   -1.8381887383576165e-06   2.555982100130402e-06
1.2758287067380852e-05   -2.1774034472486076e-06   7.750883117747331e-06
1.2758287067380852e-05   -2.1774034472486076e-06   7.750883117747331e-06
1.2758287067380852e-05   -2.1774034472486076e-06   7.750883117747331e-06
1.2758287067380852e-05   -2.1774034472486076e-06   7.750883117747331e-06
6.198322061943341e-06   -1.6750691386856892e-06   -2.880991306177525e-06
6.198322061943341e-06   -1.6750691386856892e-06   -2.880991306177525e-06
6.198322061943341e-06   -1.6750691386856892e-06   -2.880991306177525e-06
6.198322061943341e-06   -1.6750691386856892e-06   -2.880991306177525e-06
5.935519179963178e-06   -2.1556668137696694e-06   6.720912173309099e-06
5.935519179963178e-06   -2.1556668137696694e-06   6.720912173309099e-06
5.935519179963178e-06   -2.1556668137696694e-06   6.720912173309099e-06
5.935519179963178e-06   -2.1556668137696694e-06   6.720912173309099e-06
1.229499040945184e-05   -1.686210547907109e-06   -4.159880302022812e-06
1.229499040945184e-05   -1.686210547907109e-06   -4.159880302022812e-06
1.229499040945184e-05   -1.686210547907109e-06   -4.159880302022812e-06
1.229499040945184e-05   -1.686210547907109e-06   -4.159880302022812e-06
8.907612470194445e-06   -1.8045924356584718e-06   1.5567787293905452e-06
8.907612470194445e-06   -1.8045924356584718e-06   1.5567787293905452e-06
8.907612470194445e-06   -1.8045924356584718e-06   1.5567787293905452e-06
8.907612470194445e-06   -1.8045924356584718e-06   1.5567787293905452e-06
6.715461638873337e-06   -6.596691154019422e-07   1.0763964218425215e-05
6.715461638873337e-06   -6.596691154019422e-07   1.0763964218425215e-05
6.715461638873337e-06   -6.596691154019422e-07   1.0763964218425215e-05
6.715461638873337e-06   -6.596691154019422e-07   1.0763964218425215e-05
2.3819642648310446e-07   -2.726095078567836e-07   2.007579623018686e-07
2.3819642648310446e-07   -2.726095078567836e-07   2.007579623018686e-07
2.3819642648310446e-07   -2.726095078567836e-07   2.007579623018686e-07
2.3819642648310446e-07   -2.726095078567836e-07   2.007579623018686e-07
2.6115307219734952e-09   -7.898967713884392e-07   1.0867194310731638e-05
2.6115307219734952e-09   -7.898967713884392e-07   1.0867194310731638e-05
2.6115307219734952e-09   -7.898967713884392e-07   1.0867194310731638e-05
2.6115307219734952e-09   -7.898967713884392e-07   1.0867194310731638e-05
6.470855197067514e-06   -4.268348300377669e-07   -1.3104896465460935e-07
6.470855197067514e-06   -4.268348300377669e-07   -1.3104896465460935e-07
6.470855197067514e-06   -4.268348300377669e-07   -1.3104896465460935e-07
6.470855197067514e-06   -4.268348300377669e-07   -1.3104896465460935e-07
3.3156240433977533e-06   -5.181674736955263e-07   5.182469210989648e-06
3.3156240433977533e-06   -5.181674736955263e-07   5.182469210989648e-06
3.3156240433977533e-06   -5.181674736955263e-07   5.182469210989648e-06
3.3156240433977533e-06   -5.181674736955263e-07   5.182469210989648e-06
6.470855197067507e-06   -7.898967713883308e-07   1.0649357145921289e-05
6.470855197067507e-06   -7.898967713883308e-07   1.0649357145921289e-05
6.470855197067507e-06   -7.898967713883308e-07   1.0649357145921289e-05
6.470855197067507e-06   -7.898967713883308e-07   1.0649357145921289e-05
2.6115307219734952e-09   -4.268348300377669e-07   8.678820015575002e-08
2.6115307219734952e-09   -4.268348300377669e-07   8.678820015575002e-08
2.6115307219734952e-09   -4.268348300377669e-07   8.678820015575002e-08
2.6115307219734952e-09   -4.268348300377669e-07   8.678820015575002e-08
-2.4232102651420493e-07   -8.728864569981527e-07   1.069306074793602e-05
-2.4232102651420493e-07   -8.728864569981527e-07   1.069306074793602e-05
-2.4232102651420493e-07   -8.728864569981527e-07   1.069306074793602e-05
-2.4232102651420493e-07   -8.728864569981527e-07   1.069306074793602e-05
6.198322061943341e-06   -5.394333517897039e-07   -2.4141626261830763e-07
6.198322061943341e-06   -5.394333517897039e-07   -2.4141626261830763e-07
6.198322061943341e-06   -5.394333517897039e-07   -2.4141626261830763e-07
6.198322061943341e-06   -5.394333517897039e-07   -2.4141626261830763e-07
3.043384679780771e-06   -5.98076375025753e-07   5.0519985215944385e-06
3.043384679780771e-06   -5.98076375025753e-07   5.0519985215944385e-06
3.043384679780771e-06   -5.98076375025753e-07   5.0519985215944385e-06
3.043384679780771e-06   -5.98076375025753e-07   5.0519985215944385e-06
6.198322061943331e-06   -8.728864569981527e-07   1.0492988884811026e-05
6.198322061943331e-06   -8.728864569981527e-07   1.0492988884811026e-05
6.198322061943331e-06   -8.728864569981527e-07   1.0492988884811026e-05
6.198322061943331e-06   -8.728864569981527e-07   1.0492988884811026e-05
-2.4232102651420493e-07   -5.394333517897039e-07   -4.134439949323972e-08
-2.4232102651420493e-07   -5.394333517897039e-07   -4.134439949323972e-08
-2.4232102651420493e-07   -5.394333517897039e-07   -4.134439949323972e-08
-2.4232102651420493e-07   -5.394333517897039e-07   -4.134439949323972e-08
-4.97334663500978e-07   -9.04935513275926e-07   1.0764326698450215e-05
-4.97334663500978e-07   -9.04935513275926e-07   1.0764326698450215e-05
-4.97334663500978e-07   -9.04935513275926e-07   1.0764326698450215e-05
-4.97334663500978e-07   -9.04935513275926e-07   1.0764326698450215e-05
5.935519179963193e-06   -6.258908596792944e-07   -1.2452316614813992e-07
5.935519179963193e-06   -6.258908596792944e-07   -1.2452316614813992e-07
5.935519179963193e-06   -6.258908596792944e-07   -1.2452316614813992e-07
5.935519179963193e-06   -6.258908596792944e-07   -1.2452316614813992e-07
2.8417878110607555e-06   -6.38613117769516e-07   5.039329136876977e-06
2.8417878110607555e-06   -6.38613117769516e-07   5.039329136876977e-06
2.8417878110607555e-06   -6.38613117769516e-07   5.039329136876977e-06
2.8417878110607555e-06   -6.38613117769516e-07   5.039329136876977e-06
2.3819642648309768e-07   6.073551117750714e-07   1.1091417398863919e-05
2.3819642648309768e-07   6.073551117750714e-07   1.1091417398863919e-05
2.3819642648309768e-07   6.073551117750714e-07   1.1091417398863919e-05
2.3819642648309768e-07   6.073551117750714e-07   1.1091417398863919e-05
-6.055217962100729e-06   8.65742481507008e-07   7.574258397299535e-07
-6.055217962100729e-06   8.65742481507008e-07   7.574258397299535e-07
-6.055217962100729e-06   8.65742481507008e-07   7.574258397299535e-07
-6.055217962100729e-06   8.65742481507008e-07   7.574258397299535e-07
-6.301819106068637e-06   5.108611674128861e-07   1.1238535169300534e-05
-6.301819106068637e-06   5.108611674128861e-07   1.1238535169300534e-05
-6.301819106068637e-06   5.108611674128861e-07   1.1238535169300534e-05
-6.301819106068637e-06   5.108611674128861e-07   1.1238535169300534e-05
2.6115307219734952e-09   7.39678263590943e-07   5.938605169426273e-07
2.6115307219734952e-09   7.39678263590943e-07   5.938605169426273e-07
2.6115307219734952e-09   7.39678263590943e-07   5.938605169426273e-07
2.6115307219734952e-09   7.39678263590943e-07   5.938605169426273e-07
-3.0335739257075734e-06   6.866023536100923e-07   5.686015156980434e-06
-3.0335739257075734e-06   6.866023536100923e-07   5.686015156980434e-06
-3.0335739257075734e-06   6.866023536100923e-07   5.686015156980434e-06
-3.0335739257075734e-06   6.866023536100923e-07   5.686015156980434e-06
2.6115307219734952e-09   5.108611674128861e-07   1.1101244911593624e-05
2.6115307219734952e-09   5.108611674128861e-07   1.1101244911593624e-05
2.6115307219734952e-09   5.108611674128861e-07   1.1101244911593624e-05
2.6115307219734952e-09   5.108611674128861e-07   1.1101244911593624e-05
-6.301819106068637e-06   7.39678263590943e-07   7.311507746495102e-07
-6.301819106068637e-06   7.39678263590943e-07   7.311507746495102e-07
-6.301819106068637e-06   7.39678263590943e-07   7.311507746495102e-07
-6.301819106068637e-06   7.39678263590943e-07   7.311507746495102e-07
-6.561621490652541e-06   4.210622638256209e-07   1.1338648458205595e-05
-6.561621490652541e-06   4.210622638256209e-07   1.1338648458205595e-05
-6.561621490652541e-06   4.210622638256209e-07   1.1338648458205595e-05
-6.561621490652541e-06   4.210622638256209e-07   1.1338648458205595e-05
-2.4232102651420493e-07   6.173727114272163e-07   6.886947494140562e-07
-2.4232102651420493e-07   6.173727114272163e-07   6.886947494140562e-07
-2.4232102651420493e-07   6.173727114272163e-07   6.886947494140562e-07
-2.4232102651420493e-07   6.173727114272163e-07   6.886947494140562e-07
-3.2622621332071866e-06   6.159012079123664e-07   5.7228128293446614e-06
-3.2622621332071866e-06   6.159012079123664e-07   5.7228128293446614e-06
-3.2622621332071866e-06   6.159012079123664e-07   5.7228128293446614e-06
-3.2622621332071866e-06   6.159012079123664e-07   5.7228128293446614e-06
-2.4232102651420493e-07   4.210622638256209e-07   1.1220862189644648e-05
-2.4232102651420493e-07   4.210622638256209e-07   1.1220862189644648e-05
-2.4232102651420493e-07   4.210622638256209e-07   1.1220862189644648e-05
-2.4232102651420493e-07   4.210622638256209e-07   1.1220862189644648e-05
-6.561621490652541e-06   6.173727114272163e-07   8.064810179750229e-07
-6.561621490652541e-06   6.173727114272163e-07   8.064810179750229e-07
-6.561621490652541e-06   6.173727114272163e-07   8.064810179750229e-07
-6.561621490652541e-06   6.173727114272163e-07   8.064810179750229e-07
-6.829372486595298e-06   3.5717037817520163e-07   1.149886496558286e-05
-6.829372486595298e-06   3.5717037817520163e-07   1.149886496558286e-05
-6.829372486595298e-06   3.5717037817520163e-07   1.149886496558286e-05
-6.829372486595298e-06   3.5717037817520163e-07   1.149886496558286e-05
-4.97334663500978e-07   5.086488885821649e-07   8.545814875147577e-07
-4.97334663500978e-07   5.086488885821649e-07   8.545814875147577e-07
-4.97334663500978e-07   5.086488885821649e-07   8.545814875147577e-07
-4.97334663500978e-07   5.086488885821649e-07   8.545814875147577e-07
-3.5097977289612334e-06   5.484268909671918e-07   5.851486461851116e-06
-3.5097977289612334e-06   5.484268909671918e-07   5.851486461851116e-06
-3.5097977289612334e-06   5.484268909671918e-07   5.851486461851116e-06
-3.5097977289612334e-06   5.484268909671918e-07   5.851486461851116e-06
-6.055217962100749e-06   1.9510698633845363e-06   9.712760833260425e-06
-6.055217962100749e-06   1.9510698633845363e-06   9.712760833260425e-06
-6.055217962100749e-06   1.9510698633845363e-06   9.712760833260425e-06
-6.055217962100749e-06   1.9510698633845363e-06   9.712760833260425e-06
-1.217360378635088e-05   1.976306928092313e-06   -4.694066349984717e-07
-1.217360378635088e-05   1.976306928092313e-06   -4.694066349984717e-07
-1.217360378635088e-05   1.976306928092313e-06   -4.694066349984717e-07
-1.217360378635088e-05   1.976306928092313e-06   -4.694066349984717e-07
-1.2459594941318348e-05   1.8561017764932158e-06   9.882046225406869e-06
-1.2459594941318348e-05   1.8561017764932158e-06   9.882046225406869e-06
-1.2459594941318348e-05   1.8561017764932158e-06   9.882046225406869e-06
-1.2459594941318348e-05   1.8561017764932158e-06   9.882046225406869e-06
-6.30181910606865e-06   1.8579463266787683e-06   -3.8202023012051396e-07
-6.30181910606865e-06   1.8579463266787683e-06   -3.8202023012051396e-07
-6.30181910606865e-06   1.8579463266787683e-06   -3.8202023012051396e-07
-6.30181910606865e-06   1.8579463266787683e-06   -3.8202023012051396e-07
-9.206341043593017e-06   1.9028086241817434e-06   4.431932287251602e-06
-9.206341043593017e-06   1.9028086241817434e-06   4.431932287251602e-06
-9.206341043593017e-06   1.9028086241817434e-06   4.431932287251602e-06
-9.206341043593017e-06   1.9028086241817434e-06   4.431932287251602e-06
-6.30181910606865e-06   1.8561017764932158e-06   9.880939495295613e-06
-6.30181910606865e-06   1.8561017764932158e-06   9.880939495295613e-06
-6.30181910606865e-06   1.8561017764932158e-06   9.880939495295613e-06
-6.30181910606865e-06   1.8561017764932158e-06   9.880939495295613e-06
-1.2459594941318348e-05   1.8579463266787683e-06   -3.8091350000932613e-07
-1.2459594941318348e-05   1.8579463266787683e-06   -3.8091350000932613e-07
-1.2459594941318348e-05   1.8579463266787683e-06   -3.8091350000932613e-07
-1.2459594941318348e-05   1.8579463266787683e-06   -3.8091350000932613e-07
-1.2775442437152201e-05   1.7666456226690923e-06   1.0342116104989545e-05
-1.2775442437152201e-05   1.7666456226690923e-06   1.0342116104989545e-05
-1.2775442437152201e-05   1.7666456226690923e-06   1.0342116104989545e-05
-1.2775442437152201e-05   1.7666456226690923e-06   1.0342116104989545e-05
-6.561621490652555e-06   1.747092504376089e-06   -2.5202682007720257e-09
-6.561621490652555e-06   1.747092504376089e-06   -2.5202682007720257e-09
-6.561621490652555e-06   1.747092504376089e-06   -2.5202682007720257e-09
-6.561621490652555e-06   1.747092504376089e-06   -2.5202682007720257e-09
-9.409549367322918e-06   1.8371280846385743e-06   4.690004844759045e-06
-9.409549367322918e-06   1.8371280846385743e-06   4.690004844759045e-06
-9.409549367322918e-06   1.8371280846385743e-06   4.690004844759045e-06
-9.409549367322918e-06   1.8371280846385743e-06   4.690004844759045e-06
-6.561621490652548e-06   1.7666456226690923e-06   1.0353847975965325e-05
-6.561621490652548e-06   1.7666456226690923e-06   1.0353847975965325e-05
-6.561621490652548e-06   1.7666456226690923e-06   1.0353847975965325e-05
-6.561621490652548e-06   1.7666456226690923e-06   1.0353847975965325e-05
-1.2775442437152201e-05   1.747092504376089e-06   -1.425213917656586e-08
-1.2775442437152201e-05   1.747092504376089e-06   -1.425213917656586e-08
-1.2775442437152201e-05   1.747092504376089e-06   -1.425213917656586e-08
-1.2775442437152201e-05   1.747092504376089e-06   -1.425213917656586e-08
-1.3075789055150868e-05   1.644534756733984e-06   1.0666370945283167e-05
-1.3075789055150868e-05   1.644534756733984e-06   1.0666370945283167e-05
-1.3075789055150868e-05   1.644534756733984e-06   1.0666370945283167e-05
-1.3075789055150868e-05   1.644534756733984e-06   1.0666370945283167e-05
-6.829372486595298e-06   1.6101364407126572e-06   2.763156539701341e-07
-6.829372486595298e-06   1.6101364407126572e-06   2.763156539701341e-07
-6.829372486595298e-06   1.6101364407126572e-06   2.763156539701341e-07
-6.829372486595298e-06   1.6101364407126572e-06   2.763156539701341e-07
-9.74077260984211e-06   1.7495463778568034e-06   5.045003230428691e-06
-9.74077260984211e-06   1.7495463778568034e-06   5.045003230428691e-06
-9.74077260984211e-06   1.7495463778568034e-06   5.045003230428691e-06
-9.74077260984211e-06   1.7495463778568034e-06   5.045003230428691e-06
-1.217360378635086e-05   3.173148069048645e-06   4.694826950087691e-06
-1.217360378635086e-05   3.173148069048645e-06   4.694826950087691e-06
-1.217360378635086e-05   3.173148069048645e-06   4.694826950087691e-06
-1.217360378635086e-05   3.173148069048645e-06   4.694826950087691e-06
-1.8028303941781585e-05   2.8652131526430043e-06   -5.247767592140104e-06
-1.8028303941781585e-05   2.8652131526430043e-06   -5.247767592140104e-06
-1.8028303941781585e-05   2.8652131526430043e-06   -5.247767592140104e-06
-1.8028303941781585e-05   2.8652131526430043e-06   -5.247767592140104e-06
-1.8479159237482802e-05   3.242230722189164e-06   6.566375116505354e-06
-1.8479159237482802e-05   3.242230722189164e-06   6.566375116505354e-06
-1.8479159237482802e-05   3.242230722189164e-06   6.566375116505354e-06
-1.8479159237482802e-05   3.242230722189164e-06   6.566375116505354e-06
-1.2459594941318348e-05   2.9019779826163633e-06   -3.262080400025122e-06
-1.2459594941318348e-05   2.9019779826163633e-06   -3.262080400025122e-06
-1.2459594941318348e-05   2.9019779826163633e-06   -3.262080400025122e-06
-1.2459594941318348e-05   2.9019779826163633e-06   -3.262080400025122e-06
-1.4698849106748482e-05   3.0241672977214832e-06   3.966962866287511e-07
-1.4698849106748482e-05   3.0241672977214832e-06   3.966962866287511e-07
-1.4698849106748482e-05   3.0241672977214832e-06   3.966962866287511e-07
-1.4698849106748482e-05   3.0241672977214832e-06   3.966962866287511e-07
-1.2459594941318308e-05   3.242230722189164e-06   6.770526760249045e-06
-1.2459594941318308e-05   3.242230722189164e-06   6.770526760249045e-06
-1.2459594941318308e-05   3.242230722189164e-06   6.770526760249045e-06
-1.2459594941318308e-05   3.242230722189164e-06   6.770526760249045e-06
-1.8479159237482816e-05   2.9019779826163633e-06   -3.46623204376884e-06
-1.8479159237482816e-05   2.9019779826163633e-06   -3.46623204376884e-06
-1.8479159237482816e-05   2.9019779826163633e-06   -3.46623204376884e-06
-1.8479159237482816e-05   2.9019779826163633e-06   -3.46623204376884e-06
-1.8917727621575766e-05   3.221567890138643e-06   8.004555882893684e-06
-1.8917727621575766e-05   3.221567890138643e-06   8.004555882893684e-06
-1.8917727621575766e-05   3.221567890138643e-06   8.004555882893684e-06
-1.8917727621575766e-05   3.221567890138643e-06   8.004555882893684e-06
-1.2775442437152201e-05   2.871825344883793e-06   -2.0227405639927404e-06
-1.2775442437152201e-05   2.871825344883793e-06   -2.0227405639927404e-06
-1.2775442437152201e-05   2.871825344883793e-06   -2.0227405639927404e-06
-1.2775442437152201e-05   2.871825344883793e-06   -2.0227405639927404e-06
-1.5264438446095034e-05   3.0818601435011767e-06   1.9995652384084526e-06
-1.5264438446095034e-05   3.0818601435011767e-06   1.9995652384084526e-06
-1.5264438446095034e-05   3.0818601435011767e-06   1.9995652384084526e-06
-1.5264438446095034e-05   3.0818601435011767e-06   1.9995652384084526e-06
-1.2775442437152201e-05   3.221567890138643e-06   8.214401410046681e-06
-1.2775442437152201e-05   3.221567890138643e-06   8.214401410046681e-06
-1.2775442437152201e-05   3.221567890138643e-06   8.214401410046681e-06
-1.2775442437152201e-05   3.221567890138643e-06   8.214401410046681e-06
-1.8917727621575807e-05   2.871825344883793e-06   -2.232586091145683e-06
-1.8917727621575807e-05   2.871825344883793e-06   -2.232586091145683e-06
-1.8917727621575807e-05   2.871825344883793e-06   -2.232586091145683e-06
-1.8917727621575807e-05   2.871825344883793e-06   -2.232586091145683e-06
-1.9428243474742704e-05   2.973876825934315e-06   1.0457891469033858e-05
-1.9428243474742704e-05   2.973876825934315e-06   1.0457891469033858e-05
-1.9428243474742704e-05   2.973876825934315e-06   1.0457891469033858e-05
-1.9428243474742704e-05   2.973876825934315e-06   1.0457891469033858e-05
-1.3075789055150868e-05   2.654926199921492e-06   6.183781198834941e-08
-1.3075789055150868e-05   2.654926199921492e-06   6.183781198834941e-08
-1.3075789055150868e-05   2.654926199921492e-06   6.183781198834941e-08
-1.3075789055150868e-05   2.654926199921492e-06   6.183781198834941e-08
-1.5390728614597482e-05   2.991979792331726e-06   3.717838255620182e-06
-1.5390728614597482e-05   2.991979792331726e-06   3.717838255620182e-06
-1.5390728614597482e-05   2.991979792331726e-06   3.717838255620182e-06
-1.5390728614597482e-05   2.991979792331726e-06   3.717838255620182e-06
1.0489611970064202e-05   -1.4124566641269837e-06   8.770806900872249e-06
1.0489611970064202e-05   -1.4124566641269837e-06   8.770806900872249e-06
1.0489611970064202e-05   -1.4124566641269837e-06   8.770806900872249e-06
1.0489611970064202e-05   -1.4124566641269837e-06   8.770806900872249e-06
4.924448684920151e-06   -9.524632317111552e-07   -2.2846918158503414e-07
4.924448684920151e-06   -9.524632317111552e-07   -2.2846918158503414e-07
4.924448684920151e-06   -9.524632317111552e-07   -2.2846918158503414e-07
4.924448684920151e-06   -9.524632317111552e-07   -2.2846918158503414e-07
4.704678695079498e-06   -1.632151402593371e-06   7.690197578849524e-06
4.704678695079498e-06   -1.632151402593371e-06   7.690197578849524e-06
4.704678695079498e-06   -1.632151402593371e-06   7.690197578849524e-06
4.704678695079498e-06   -1.632151402593371e-06   7.690197578849524e-06
1.006333611713955e-05   -1.1490870743700518e-06   -1.5307367215179218e-06
1.006333611713955e-05   -1.1490870743700518e-06   -1.5307367215179218e-06
1.006333611713955e-05   -1.1490870743700518e-06   -1.5307367215179218e-06
1.006333611713955e-05   -1.1490870743700518e-06   -1.5307367215179218e-06
7.1911323033931635e-06   -1.2949978317716281e-06   3.3438160891670606e-06
7.1911323033931635e-06   -1.2949978317716281e-06   3.3438160891670606e-06
7.1911323033931635e-06   -1.2949978317716281e-06   3.3438160891670606e-06
7.1911323033931635e-06   -1.2949978317716281e-06   3.3438160891670606e-06
1.006333611713955e-05   -1.632151402593371e-06   7.400358981915554e-06
1.006333611713955e-05   -1.632151402593371e-06   7.400358981915554e-06
1.006333611713955e-05   -1.632151402593371e-06   7.400358981915554e-06
1.006333611713955e-05   -1.632151402593371e-06   7.400358981915554e-06
4.704678695079506e-06   -1.1490870743700518e-06   -1.2408981245838808e-06
4.704678695079506e-06   -1.1490870743700518e-06   -1.2408981245838808e-06
4.704678695079506e-06   -1.1490870743700518e-06   -1.2408981245838808e-06
4.704678695079506e-06   -1.1490870743700518e-06   -1.2408981245838808e-06
4.461070769758521e-06   -1.6750691386856892e-06   6.932318706378204e-06
4.461070769758521e-06   -1.6750691386856892e-06   6.932318706378204e-06
4.461070769758521e-06   -1.6750691386856892e-06   6.932318706378204e-06
4.461070769758521e-06   -1.6750691386856892e-06   6.932318706378204e-06
9.688435929959087e-06   -1.200580065464224e-06   -2.0646500045555945e-06
9.688435929959087e-06   -1.200580065464224e-06   -2.0646500045555945e-06
9.688435929959087e-06   -1.200580065464224e-06   -2.0646500045555945e-06
9.688435929959087e-06   -1.200580065464224e-06   -2.0646500045555945e-06
7.021618039620252e-06   -1.3753510451736898e-06   2.4849090671683017e-06
7.021618039620252e-06   -1.3753510451736898e-06   2.4849090671683017e-06
7.021618039620252e-06   -1.3753510451736898e-06   2.4849090671683017e-06
7.021618039620252e-06   -1.3753510451736898e-06   2.4849090671683017e-06
9.68843592995907e-06   -1.6750691386856892e-06   6.6476252624454225e-06
9.68843592995907e-06   -1.6750691386856892e-06   6.6476252624454225e-06
9.68843592995907e-06   -1.6750691386856892e-06   6.6476252624454225e-06
9.68843592995907e-06   -1.6750691386856892e-06   6.6476252624454225e-06
4.4610707697585295e-06   -1.200580065464224e-06   -1.7799565606226877e-06
4.4610707697585295e-06   -1.200580065464224e-06   -1.7799565606226877e-06
4.4610707697585295e-06   -1.200580065464224e-06   -1.7799565606226877e-06
4.4610707697585295e-06   -1.200580065464224e-06   -1.7799565606226877e-06
4.235547719972554e-06   -1.686210547907109e-06   5.896199334455327e-06
4.235547719972554e-06   -1.686210547907109e-06   5.896199334455327e-06
4.235547719972554e-06   -1.686210547907109e-06   5.896199334455327e-06
4.235547719972554e-06   -1.686210547907109e-06   5.896199334455327e-06
9.267640819255646e-06   -1.2439023092786737e-06   -2.75600744086022e-06
9.267640819255646e-06   -1.2439023092786737e-06   -2.75600744086022e-06
9.267640819255646e-06   -1.2439023092786737e-06   -2.75600744086022e-06
9.267640819255646e-06   -1.2439023092786737e-06   -2.75600744086022e-06
6.622948059462684e-06   -1.3650398791125156e-06   1.724496367361807e-06
6.622948059462684e-06   -1.3650398791125156e-06   1.724496367361807e-06
6.622948059462684e-06   -1.3650398791125156e-06   1.724496367361807e-06
6.622948059462684e-06   -1.3650398791125156e-06   1.724496367361807e-06
4.924448684920134e-06   -2.726095078567836e-07   9.850996176954073e-06
4.924448684920134e-06   -2.726095078567836e-07   9.850996176954073e-06
4.924448684920134e-06   -2.726095078567836e-07   9.850996176954073e-06
4.924448684920134e-06   -2.726095078567836e-07   9.850996176954073e-06
-3.352469390005547e-07   -1.4878553274946978e-08   1.2394753765020443e-06
-3.352469390005547e-07   -1.4878553274946978e-08   1.2394753765020443e-06
-3.352469390005547e-07   -1.4878553274946978e-08   1.2394753765020443e-06
-3.352469390005547e-07   -1.4878553274946978e-08   1.2394753765020443e-06
-5.424403889666565e-07   -4.268348300377669e-07   9.86374022260173e-06
-5.424403889666565e-07   -4.268348300377669e-07   9.86374022260173e-06
-5.424403889666565e-07   -4.268348300377669e-07   9.86374022260173e-06
-5.424403889666565e-07   -4.268348300377669e-07   9.86374022260173e-06
4.704678695079506e-06   -1.840927892889175e-07   9.728965247421941e-07
4.704678695079506e-06   -1.840927892889175e-07   9.728965247421941e-07
4.704678695079506e-06   -1.840927892889175e-07   9.728965247421941e-07
4.704678695079506e-06   -1.840927892889175e-07   9.728965247421941e-07
2.1521023795991957e-06   -2.3104166319216132e-07   5.255359708217981e-06
2.1521023795991957e-06   -2.3104166319216132e-07   5.255359708217981e-06
2.1521023795991957e-06   -2.3104166319216132e-07   5.255359708217981e-06
2.1521023795991957e-06   -2.3104166319216132e-07   5.255359708217981e-06
4.704678695079486e-06   -4.268348300377669e-07   9.718094998152442e-06
4.704678695079486e-06   -4.268348300377669e-07   9.718094998152442e-06
4.704678695079486e-06   -4.268348300377669e-07   9.718094998152442e-06
4.704678695079486e-06   -4.268348300377669e-07   9.718094998152442e-06
-5.424403889666565e-07   -1.840927892889175e-07   1.1185417491914448e-06
-5.424403889666565e-07   -1.840927892889175e-07   1.1185417491914448e-06
-5.424403889666565e-07   -1.840927892889175e-07   1.1185417491914448e-06
-5.424403889666565e-07   -1.840927892889175e-07   1.1185417491914448e-06
-7.542788701608163e-07   -5.394333517897039e-07   9.706107703240862e-06
-7.542788701608163e-07   -5.394333517897039e-07   9.706107703240862e-06
-7.542788701608163e-07   -5.394333517897039e-07   9.706107703240862e-06
-7.542788701608163e-07   -5.394333517897039e-07   9.706107703240862e-06
4.4610707697585295e-06   -3.1574342961731856e-07   8.796443500718845e-07
4.4610707697585295e-06   -3.1574342961731856e-07   8.796443500718845e-07
4.4610707697585295e-06   -3.1574342961731856e-07   8.796443500718845e-07
4.4610707697585295e-06   -3.1574342961731856e-07   8.796443500718845e-07
1.918117795907459e-06   -3.3456206847341623e-07   5.129190489804253e-06
1.918117795907459e-06   -3.3456206847341623e-07   5.129190489804253e-06
1.918117795907459e-06   -3.3456206847341623e-07   5.129190489804253e-06
1.918117795907459e-06   -3.3456206847341623e-07   5.129190489804253e-06
4.461070769758521e-06   -5.394333517898123e-07   9.571893749937388e-06
4.461070769758521e-06   -5.394333517898123e-07   9.571893749937388e-06
4.461070769758521e-06   -5.394333517898123e-07   9.571893749937388e-06
4.461070769758521e-06   -5.394333517898123e-07   9.571893749937388e-06
-7.542788701608163e-07   -3.1574342961731856e-07   1.013858303375271e-06
-7.542788701608163e-07   -3.1574342961731856e-07   1.013858303375271e-06
-7.542788701608163e-07   -3.1574342961731856e-07   1.013858303375271e-06
-7.542788701608163e-07   -3.1574342961731856e-07   1.013858303375271e-06
-9.674115733996282e-07   -6.258908596792944e-07   9.764101988981113e-06
-9.674115733996282e-07   -6.258908596792944e-07   9.764101988981113e-06
-9.674115733996282e-07   -6.258908596792944e-07   9.764101988981113e-06
-9.674115733996282e-07   -6.258908596792944e-07   9.764101988981113e-06
4.235547719972558e-06   -4.355253960648892e-07   9.782838885254904e-07
4.235547719972558e-06   -4.355253960648892e-07   9.782838885254904e-07
4.235547719972558e-06   -4.355253960648892e-07   9.782838885254904e-07
4.235547719972558e-06   -4.355253960648892e-07   9.782838885254904e-07
1.7420183325157071e-06   -4.091239463540914e-07   5.1183253311273e-06
1.7420183325157071e-06   -4.091239463540914e-07   5.1183253311273e-06
1.7420183325157071e-06   -4.091239463540914e-07   5.1183253311273e-06
1.7420183325157071e-06   -4.091239463540914e-07   5.1183253311273e-06
-3.352469390005547e-07   8.65742481507008e-07   1.040727020529226e-05
-3.352469390005547e-07   8.65742481507008e-07   1.040727020529226e-05
-3.352469390005547e-07   8.65742481507008e-07   1.040727020529226e-05
-3.352469390005547e-07   8.65742481507008e-07   1.040727020529226e-05
-5.484357616599179e-06   8.949909594737487e-07   1.8429681627412753e-06
-5.484357616599179e-06   8.949909594737487e-07   1.8429681627412753e-06
-5.484357616599179e-06   8.949909594737487e-07   1.8429681627412753e-06
-5.484357616599179e-06   8.949909594737487e-07   1.8429681627412753e-06
-5.693249984147214e-06   7.39678263590943e-07   1.0375952477772999e-05
-5.693249984147214e-06   7.39678263590943e-07   1.0375952477772999e-05
-5.693249984147214e-06   7.39678263590943e-07   1.0375952477772999e-05
-5.693249984147214e-06   7.39678263590943e-07   1.0375952477772999e-05
-5.424403889666565e-07   7.482448275649735e-07   1.7861298807543105e-06
-5.424403889666565e-07   7.482448275649735e-07   1.7861298807543105e-06
-5.424403889666565e-07   7.482448275649735e-07   1.7861298807543105e-06
-5.424403889666565e-07   7.482448275649735e-07   1.7861298807543105e-06
-3.021519171592077e-06   7.968086830001863e-07   5.888789538535606e-06
-3.021519171592077e-06   7.968086830001863e-07   5.888789538535606e-06
-3.021519171592077e-06   7.968086830001863e-07   5.888789538535606e-06
-3.021519171592077e-06   7.968086830001863e-07   5.888789538535606e-06
-5.424403889666565e-07   7.39678263590943e-07   1.037081253938858e-05
-5.424403889666565e-07   7.39678263590943e-07   1.037081253938858e-05
-5.424403889666565e-07   7.39678263590943e-07   1.037081253938858e-05
-5.424403889666565e-07   7.39678263590943e-07   1.037081253938858e-05
-5.693249984147214e-06   7.482448275649735e-07   1.791269819138722e-06
-5.693249984147214e-06   7.482448275649735e-07   1.791269819138722e-06
-5.693249984147214e-06   7.482448275649735e-07   1.791269819138722e-06
-5.693249984147214e-06   7.482448275649735e-07   1.791269819138722e-06
-5.9070414421605785e-06   6.173727114272163e-07   1.0428074220140114e-05
-5.9070414421605785e-06   6.173727114272163e-07   1.0428074220140114e-05
-5.9070414421605785e-06   6.173727114272163e-07   1.0428074220140114e-05
-5.9070414421605785e-06   6.173727114272163e-07   1.0428074220140114e-05
-7.542788701608231e-07   6.039183247472536e-07   1.8482092321485408e-06
-7.542788701608231e-07   6.039183247472536e-07   1.8482092321485408e-06
-7.542788701608231e-07   6.039183247472536e-07   1.8482092321485408e-06
-7.542788701608231e-07   6.039183247472536e-07   1.8482092321485408e-06
-3.2149329824793833e-06   6.989992962349928e-07   5.892250836453663e-06
-3.2149329824793833e-06   6.989992962349928e-07   5.892250836453663e-06
-3.2149329824793833e-06   6.989992962349928e-07   5.892250836453663e-06
-3.2149329824793833e-06   6.989992962349928e-07   5.892250836453663e-06
-7.542788701608231e-07   6.173727114272163e-07   1.0436146852148232e-05
-7.542788701608231e-07   6.173727114272163e-07   1.0436146852148232e-05
-7.542788701608231e-07   6.173727114272163e-07   1.0436146852148232e-05
-7.542788701608231e-07   6.173727114272163e-07   1.0436146852148232e-05
-5.907041442160592e-06   6.039183247472536e-07   1.8401366001405102e-06
-5.907041442160592e-06   6.039183247472536e-07   1.8401366001405102e-06
-5.907041442160592e-06   6.039183247472536e-07   1.8401366001405102e-06
-5.907041442160592e-06   6.039183247472536e-07   1.8401366001405102e-06
-6.120457674159776e-06   5.086488885821649e-07   1.0550859115038996e-05
-6.120457674159776e-06   5.086488885821649e-07   1.0550859115038996e-05
-6.120457674159776e-06   5.086488885821649e-07   1.0550859115038996e-05
-6.120457674159776e-06   5.086488885821649e-07   1.0550859115038996e-05
-9.674115733996282e-07   4.671143295039608e-07   1.9873696825524194e-06
-9.674115733996282e-07   4.671143295039608e-07   1.9873696825524194e-06
-9.674115733996282e-07   4.671143295039608e-07   1.9873696825524194e-06
-9.674115733996282e-07   4.671143295039608e-07   1.9873696825524194e-06
-3.41768792404477e-06   6.039367187599121e-07   5.989070166741002e-06
-3.41768792404477e-06   6.039367187599121e-07   5.989070166741002e-06
-3.41768792404477e-06   6.039367187599121e-07   5.989070166741002e-06
-3.41768792404477e-06   6.039367187599121e-07   5.989070166741002e-06
-5.484357616599172e-06   1.976306928092313e-06   9.182844578519095e-06
-5.484357616599172e-06   1.976306928092313e-06   9.182844578519095e-06
-5.484357616599172e-06   1.976306928092313e-06   9.182844578519095e-06
-5.484357616599172e-06   1.976306928092313e-06   9.182844578519095e-06
-1.0536261466533546e-05   1.7733461819020987e-06   6.412283809144228e-07
-1.0536261466533546e-05   1.7733461819020987e-06   6.412283809144228e-07
-1.0536261466533546e-05   1.7733461819020987e-06   6.412283809144228e-07
-1.0536261466533546e-05   1.7733461819020987e-06   6.412283809144228e-07
-1.0761528167422044e-05   1.8579463266787683e-06   9.128704972464748e-06
-1.0761528167422044e-05   1.8579463266787683e-06   9.128704972464748e-06
-1.0761528167422044e-05   1.8579463266787683e-06   9.128704972464748e-06
-1.0761528167422044e-05   1.8579463266787683e-06   9.128704972464748e-06
-5.693249984147228e-06   1.6344854924483588e-06   8.156511675449184e-07
-5.693249984147228e-06   1.6344854924483588e-06   8.156511675449184e-07
-5.693249984147228e-06   1.6344854924483588e-06   8.156511675449184e-07
-5.693249984147228e-06   1.6344854924483588e-06   8.156511675449184e-07
-8.091572489393864e-06   1.7848702817380678e-06   4.722624469382115e-06
-8.091572489393864e-06   1.7848702817380678e-06   4.722624469382115e-06
-8.091572489393864e-06   1.7848702817380678e-06   4.722624469382115e-06
-8.091572489393864e-06   1.7848702817380678e-06   4.722624469382115e-06
-5.693249984147214e-06   1.85794632667866e-06   9.262781473002961e-06
-5.693249984147214e-06   1.85794632667866e-06   9.262781473002961e-06
-5.693249984147214e-06   1.85794632667866e-06   9.262781473002961e-06
-5.693249984147214e-06   1.85794632667866e-06   9.262781473002961e-06
-1.0761528167422017e-05   1.6344854924483588e-06   6.81574667006651e-07
-1.0761528167422017e-05   1.6344854924483588e-06   6.81574667006651e-07
-1.0761528167422017e-05   1.6344854924483588e-06   6.81574667006651e-07
-1.0761528167422017e-05   1.6344854924483588e-06   6.81574667006651e-07
-1.1008720136567606e-05   1.747092504376089e-06   9.472938010541968e-06
-1.1008720136567606e-05   1.747092504376089e-06   9.472938010541968e-06
-1.1008720136567606e-05   1.747092504376089e-06   9.472938010541968e-06
-1.1008720136567606e-05   1.747092504376089e-06   9.472938010541968e-06
-5.907041442160592e-06   1.5035342986721755e-06   1.1162751099526622e-06
-5.907041442160592e-06   1.5035342986721755e-06   1.1162751099526622e-06
-5.907041442160592e-06   1.5035342986721755e-06   1.1162751099526622e-06
-5.907041442160592e-06   1.5035342986721755e-06   1.1162751099526622e-06
-8.249926211694877e-06   1.6969308394144782e-06   4.905045134731437e-06
-8.249926211694877e-06   1.6969308394144782e-06   4.905045134731437e-06
-8.249926211694877e-06   1.6969308394144782e-06   4.905045134731437e-06
-8.249926211694877e-06   1.6969308394144782e-06   4.905045134731437e-06
-5.907041442160585e-06   1.7470925043761975e-06   9.619072933964305e-06
-5.907041442160585e-06   1.7470925043761975e-06   9.619072933964305e-06
-5.907041442160585e-06   1.7470925043761975e-06   9.619072933964305e-06
-5.907041442160585e-06   1.7470925043761975e-06   9.619072933964305e-06
-1.100872013656758e-05   1.5035342986721755e-06   9.701401865303385e-07
-1.100872013656758e-05   1.5035342986721755e-06   9.701401865303385e-07
-1.100872013656758e-05   1.5035342986721755e-06   9.701401865303385e-07
-1.100872013656758e-05   1.5035342986721755e-06   9.701401865303385e-07
-1.1233803759129205e-05   1.6101364407126572e-06   9.725384544968655e-06
-1.1233803759129205e-05   1.6101364407126572e-06   9.725384544968655e-06
-1.1233803759129205e-05   1.6101364407126572e-06   9.725384544968655e-06
-1.1233803759129205e-05   1.6101364407126572e-06   9.725384544968655e-06
-6.120457674159783e-06   1.3496003902433709e-06   1.3594627003011135e-06
-6.120457674159783e-06   1.3496003902433709e-06   1.3594627003011135e-06
-6.120457674159783e-06   1.3496003902433709e-06   1.3594627003011135e-06
-6.120457674159783e-06   1.3496003902433709e-06   1.3594627003011135e-06
-8.508787748613231e-06   1.5959995594048244e-06   5.192173322893771e-06
-8.508787748613231e-06   1.5959995594048244e-06   5.192173322893771e-06
-8.508787748613231e-06   1.5959995594048244e-06   5.192173322893771e-06
-8.508787748613231e-06   1.5959995594048244e-06   5.192173322893771e-06
-1.0536261466533546e-05   2.8652131526430043e-06   4.4674681235067244e-06
-1.0536261466533546e-05   2.8652131526430043e-06   4.4674681235067244e-06
-1.0536261466533546e-05   2.8652131526430043e-06   4.4674681235067244e-06
-1.0536261466533546e-05   2.8652131526430043e-06   4.4674681235067244e-06
-1.5371559661791383e-05   2.464519496419063e-06   -3.831778395657458e-06
-1.5371559661791383e-05   2.464519496419063e-06   -3.831778395657458e-06
-1.5371559661791383e-05   2.464519496419063e-06   -3.831778395657458e-06
-1.5371559661791383e-05   2.464519496419063e-06   -3.831778395657458e-06
-1.5778274424736797e-05   2.9019779826163633e-06   5.981296962584632e-06
-1.5778274424736797e-05   2.9019779826163633e-06   5.981296962584632e-06
-1.5778274424736797e-05   2.9019779826163633e-06   5.981296962584632e-06
-1.5778274424736797e-05   2.9019779826163633e-06   5.981296962584632e-06
-1.0761528167422044e-05   2.458242799509335e-06   -2.113705689742439e-06
-1.0761528167422044e-05   2.458242799509335e-06   -2.113705689742439e-06
-1.0761528167422044e-05   2.458242799509335e-06   -2.113705689742439e-06
-1.0761528167422044e-05   2.458242799509335e-06   -2.113705689742439e-06
-1.2612167610833708e-05   2.6309520035239665e-06   8.670678602016061e-07
-1.2612167610833708e-05   2.6309520035239665e-06   8.670678602016061e-07
-1.2612167610833708e-05   2.6309520035239665e-06   8.670678602016061e-07
-1.2612167610833708e-05   2.6309520035239665e-06   8.670678602016061e-07
-1.076152816742203e-05   2.9019779826163633e-06   6.247538072448871e-06
-1.076152816742203e-05   2.9019779826163633e-06   6.247538072448871e-06
-1.076152816742203e-05   2.9019779826163633e-06   6.247538072448871e-06
-1.076152816742203e-05   2.9019779826163633e-06   6.247538072448871e-06
-1.5778274424736824e-05   2.458242799509335e-06   -2.379946799606678e-06
-1.5778274424736824e-05   2.458242799509335e-06   -2.379946799606678e-06
-1.5778274424736824e-05   2.458242799509335e-06   -2.379946799606678e-06
-1.5778274424736824e-05   2.458242799509335e-06   -2.379946799606678e-06
-1.614068873705291e-05   2.871825344883793e-06   7.187449611465975e-06
-1.614068873705291e-05   2.871825344883793e-06   7.187449611465975e-06
-1.614068873705291e-05   2.871825344883793e-06   7.187449611465975e-06
-1.614068873705291e-05   2.871825344883793e-06   7.187449611465975e-06
-1.1008720136567606e-05   2.4101587211174114e-06   -1.0888314150831293e-06
-1.1008720136567606e-05   2.4101587211174114e-06   -1.0888314150831293e-06
-1.1008720136567606e-05   2.4101587211174114e-06   -1.0888314150831293e-06
-1.1008720136567606e-05   2.4101587211174114e-06   -1.0888314150831293e-06
-1.308824606101503e-05   2.662210192869033e-06   2.2258142426120962e-06
-1.308824606101503e-05   2.662210192869033e-06   2.2258142426120962e-06
-1.308824606101503e-05   2.662210192869033e-06   2.2258142426120962e-06
-1.308824606101503e-05   2.662210192869033e-06   2.2258142426120962e-06
-1.1008720136567606e-05   2.8718253448836847e-06   7.464449585725848e-06
-1.1008720136567606e-05   2.8718253448836847e-06   7.464449585725848e-06
-1.1008720136567606e-05   2.8718253448836847e-06   7.464449585725848e-06
-1.1008720136567606e-05   2.8718253448836847e-06   7.464449585725848e-06
-1.6140688737052922e-05   2.4101587211174114e-06   -1.3658313893429475e-06
-1.6140688737052922e-05   2.4101587211174114e-06   -1.3658313893429475e-06
-1.6140688737052922e-05   2.4101587211174114e-06   -1.3658313893429475e-06
-1.6140688737052922e-05   2.4101587211174114e-06   -1.3658313893429475e-06
-1.6555454940189165e-05   2.654926199921492e-06   9.254523339156235e-06
-1.6555454940189165e-05   2.654926199921492e-06   9.254523339156235e-06
-1.6555454940189165e-05   2.654926199921492e-06   9.254523339156235e-06
-1.6555454940189165e-05   2.654926199921492e-06   9.254523339156235e-06
-1.1233803759129205e-05   2.1932222775156726e-06   6.621270574997361e-07
-1.1233803759129205e-05   2.1932222775156726e-06   6.621270574997361e-07
-1.1233803759129205e-05   2.1932222775156726e-06   6.621270574997361e-07
-1.1233803759129205e-05   2.1932222775156726e-06   6.621270574997361e-07
-1.3176057814612571e-05   2.571688000912141e-06   3.672137715934415e-06
-1.3176057814612571e-05   2.571688000912141e-06   3.672137715934415e-06
-1.3176057814612571e-05   2.571688000912141e-06   3.672137715934415e-06
-1.3176057814612571e-05   2.571688000912141e-06   3.672137715934415e-06
7.37319065783588e-06   -9.524632317111552e-07   7.239889716198207e-06
7.37319065783588e-06   -9.524632317111552e-07   7.239889716198207e-06
7.37319065783588e-06   -9.524632317111552e-07   7.239889716198207e-06
7.37319065783588e-06   -9.524632317111552e-07   7.239889716198207e-06
3.0685989929140717e-06   -4.891698246661043e-07   3.435463188889245e-07
3.0685989929140717e-06   -4.891698246661043e-07   3.435463188889245e-07
3.0685989929140717e-06   -4.891698246661043e-07   3.435463188889245e-07
3.0685989929140717e-06   -4.891698246661043e-07   3.435463188889245e-07
2.8899870046317105e-06   -1.1490870743700518e-06   6.492367181503713e-06
2.8899870046317105e-06   -1.1490870743700518e-06   6.492367181503713e-06
2.8899870046317105e-06   -1.1490870743700518e-06   6.492367181503713e-06
2.8899870046317105e-06   -1.1490870743700518e-06   6.492367181503713e-06
6.990608713062492e-06   -6.673425371718435e-07   -6.310490548664798e-07
6.990608713062492e-06   -6.673425371718435e-07   -6.310490548664798e-07
6.990608713062492e-06   -6.673425371718435e-07   -6.310490548664798e-07
6.990608713062492e-06   -6.673425371718435e-07   -6.310490548664798e-07
4.828828733597113e-06   -8.327103274061425e-07   3.0711382517165645e-06
4.828828733597113e-06   -8.327103274061425e-07   3.0711382517165645e-06
4.828828733597113e-06   -8.327103274061425e-07   3.0711382517165645e-06
4.828828733597113e-06   -8.327103274061425e-07   3.0711382517165645e-06
6.990608713062502e-06   -1.1490870743700518e-06   6.2033204591848854e-06
6.990608713062502e-06   -1.1490870743700518e-06   6.2033204591848854e-06
6.990608713062502e-06   -1.1490870743700518e-06   6.2033204591848854e-06
6.990608713062502e-06   -1.1490870743700518e-06   6.2033204591848854e-06
2.889987004631702e-06   -6.673425371718435e-07   -3.420023325475846e-07
2.889987004631702e-06   -6.673425371718435e-07   -3.420023325475846e-07
2.889987004631702e-06   -6.673425371718435e-07   -3.420023325475846e-07
2.889987004631702e-06   -6.673425371718435e-07   -3.420023325475846e-07
2.688203870453087e-06   -1.200580065464224e-06   5.9395229897888984e-06
2.688203870453087e-06   -1.200580065464224e-06   5.9395229897888984e-06
2.688203870453087e-06   -1.200580065464224e-06   5.9395229897888984e-06
2.688203870453087e-06   -1.200580065464224e-06   5.9395229897888984e-06
6.660982254950019e-06   -7.274473789467225e-07   -9.656539296165265e-07
6.660982254950019e-06   -7.274473789467225e-07   -9.656539296165265e-07
6.660982254950019e-06   -7.274473789467225e-07   -9.656539296165265e-07
6.660982254950019e-06   -7.274473789467225e-07   -9.656539296165265e-07
4.664467018858763e-06   -9.087223696939407e-07   2.47063645831742e-06
4.664467018858763e-06   -9.087223696939407e-07   2.47063645831742e-06
4.664467018858763e-06   -9.087223696939407e-07   2.47063645831742e-06
4.664467018858763e-06   -9.087223696939407e-07   2.47063645831742e-06
6.660982254950029e-06   -1.200580065464224e-06   5.655643377878343e-06
6.660982254950029e-06   -1.200580065464224e-06   5.655643377878343e-06
6.660982254950029e-06   -1.200580065464224e-06   5.655643377878343e-06
6.660982254950029e-06   -1.200580065464224e-06   5.655643377878343e-06
2.688203870453082e-06   -7.274473789467225e-07   -6.817743177059713e-07
2.688203870453082e-06   -7.274473789467225e-07   -6.817743177059713e-07
2.688203870453082e-06   -7.274473789467225e-07   -6.817743177059713e-07
2.688203870453082e-06   -7.274473789467225e-07   -6.817743177059713e-07
2.506828868298864e-06   -1.2439023092786737e-06   5.212548533514391e-06
2.506828868298864e-06   -1.2439023092786737e-06   5.212548533514391e-06
2.506828868298864e-06   -1.2439023092786737e-06   5.212548533514391e-06
2.506828868298864e-06   -1.2439023092786737e-06   5.212548533514391e-06
6.285066200427383e-06   -8.029456062117108e-07   -1.3490877085399515e-06
6.285066200427383e-06   -8.029456062117108e-07   -1.3490877085399515e-06
6.285066200427383e-06   -8.029456062117108e-07   -1.3490877085399515e-06
6.285066200427383e-06   -8.029456062117108e-07   -1.3490877085399515e-06
4.342497826580054e-06   -9.209098492181139e-07   1.9593047936760915e-06
4.342497826580054e-06   -9.209098492181139e-07   1.9593047936760915e-06
4.342497826580054e-06   -9.209098492181139e-07   1.9593047936760915e-06
4.342497826580054e-06   -9.209098492181139e-07   1.9593047936760915e-06
3.06859899291408e-06   -1.4878553274946978e-08   8.831171745763279e-06
3.06859899291408e-06   -1.4878553274946978e-08   8.831171745763279e-06
3.06859899291408e-06   -1.4878553274946978e-08   8.831171745763279e-06
3.06859899291408e-06   -1.4878553274946978e-08   8.831171745763279e-06
-9.598659706838418e-07   2.2370718000421343e-07   2.2602149130676163e-06
-9.598659706838418e-07   2.2370718000421343e-07   2.2602149130676163e-06
-9.598659706838418e-07   2.2370718000421343e-07   2.2602149130676163e-06
-9.598659706838418e-07   2.2370718000421343e-07   2.2602149130676163e-06
-1.1244992117279433e-06   -1.840927892889175e-07   8.843924696102373e-06
-1.1244992117279433e-06   -1.840927892889175e-07   8.843924696102373e-06
-1.1244992117279433e-06   -1.840927892889175e-07   8.843924696102373e-06
-1.1244992117279433e-06   -1.840927892889175e-07   8.843924696102373e-06
2.889987004631702e-06   4.5511986165435586e-08   2.01535147023037e-06
2.889987004631702e-06   4.5511986165435586e-08   2.01535147023037e-06
2.889987004631702e-06   4.5511986165435586e-08   2.01535147023037e-06
2.889987004631702e-06   4.5511986165435586e-08   2.01535147023037e-06
9.394363921527901e-07   1.7348385572069427e-09   5.292535446260304e-06
9.394363921527901e-07   1.7348385572069427e-09   5.292535446260304e-06
9.394363921527901e-07   1.7348385572069427e-09   5.292535446260304e-06
9.394363921527901e-07   1.7348385572069427e-09   5.292535446260304e-06
2.889987004631707e-06   -1.840927892889175e-07   8.70616183082975e-06
2.889987004631707e-06   -1.840927892889175e-07   8.70616183082975e-06
2.889987004631707e-06   -1.840927892889175e-07   8.70616183082975e-06
2.889987004631707e-06   -1.840927892889175e-07   8.70616183082975e-06
-1.1244992117279433e-06   4.5511986165381376e-08   2.153114335503052e-06
-1.1244992117279433e-06   4.5511986165381376e-08   2.153114335503052e-06
-1.1244992117279433e-06   4.5511986165381376e-08   2.153114335503052e-06
-1.1244992117279433e-06   4.5511986165381376e-08   2.153114335503052e-06
-1.2930891040287913e-06   -3.1574342961731856e-07   8.729372026820934e-06
-1.2930891040287913e-06   -3.1574342961731856e-07   8.729372026820934e-06
-1.2930891040287913e-06   -3.1574342961731856e-07   8.729372026820934e-06
-1.2930891040287913e-06   -3.1574342961731856e-07   8.729372026820934e-06
2.688203870453082e-06   -9.866321905484124e-08   1.9636356096803547e-06
2.688203870453082e-06   -9.866321905484124e-08   1.9636356096803547e-06
2.688203870453082e-06   -9.866321905484124e-08   1.9636356096803547e-06
2.688203870453082e-06   -9.866321905484124e-08   1.9636356096803547e-06
7.572515558129848e-07   -1.1613907254784048e-07   5.192374979509927e-06
7.572515558129848e-07   -1.1613907254784048e-07   5.192374979509927e-06
7.572515558129848e-07   -1.1613907254784048e-07   5.192374979509927e-06
7.572515558129848e-07   -1.1613907254784048e-07   5.192374979509927e-06
2.6882038704530904e-06   -3.1574342961731856e-07   8.599123900483491e-06
2.6882038704530904e-06   -3.1574342961731856e-07   8.599123900483491e-06
2.6882038704530904e-06   -3.1574342961731856e-07   8.599123900483491e-06
2.6882038704530904e-06   -3.1574342961731856e-07   8.599123900483491e-06
-1.2930891040287845e-06   -9.866321905489545e-08   2.093883736017845e-06
-1.2930891040287845e-06   -9.866321905489545e-08   2.093883736017845e-06
-1.2930891040287845e-06   -9.866321905489545e-08   2.093883736017845e-06
-1.2930891040287845e-06   -9.866321905489545e-08   2.093883736017845e-06
-1.4604636169858218e-06   -4.355253960648892e-07   8.799570795451305e-06
-1.4604636169858218e-06   -4.355253960648892e-07   8.799570795451305e-06
-1.4604636169858218e-06   -4.355253960648892e-07   8.799570795451305e-06
-1.4604636169858218e-06   -4.355253960648892e-07   8.799570795451305e-06
2.506828868298854e-06   -2.386656031843921e-07   2.0693007775819027e-06
2.506828868298854e-06   -2.386656031843921e-07   2.0693007775819027e-06
2.506828868298854e-06   -2.386656031843921e-07   2.0693007775819027e-06
2.506828868298854e-06   -2.386656031843921e-07   2.0693007775819027e-06
6.152540343434699e-07   -2.1243952150629825e-07   5.20618985183408e-06
6.152540343434699e-07   -2.1243952150629825e-07   5.20618985183408e-06
6.152540343434699e-07   -2.1243952150629825e-07   5.20618985183408e-06
6.152540343434699e-07   -2.1243952150629825e-07   5.20618985183408e-06
-9.598659706838418e-07   8.949909594737487e-07   9.56026688518993e-06
-9.598659706838418e-07   8.949909594737487e-07   9.56026688518993e-06
-9.598659706838418e-07   8.949909594737487e-07   9.56026688518993e-06
-9.598659706838418e-07   8.949909594737487e-07   9.56026688518993e-06
-4.91784663750724e-06   8.863237472606805e-07   2.9584321131564625e-06
-4.91784663750724e-06   8.863237472606805e-07   2.9584321131564625e-06
-4.91784663750724e-06   8.863237472606805e-07   2.9584321131564625e-06
-4.91784663750724e-06   8.863237472606805e-07   2.9584321131564625e-06
-5.080847282558938e-06   7.482448275649735e-07   9.498298697153908e-06
-5.080847282558938e-06   7.482448275649735e-07   9.498298697153908e-06
-5.080847282558938e-06   7.482448275649735e-07   9.498298697153908e-06
-5.080847282558938e-06   7.482448275649735e-07   9.498298697153908e-06
-1.1244992117279433e-06   7.26221276712766e-07   2.9175993762802765e-06
-1.1244992117279433e-06   7.26221276712766e-07   2.9175993762802765e-06
-1.1244992117279433e-06   7.26221276712766e-07   2.9175993762802765e-06
-1.1244992117279433e-06   7.26221276712766e-07   2.9175993762802765e-06
-3.028476795430549e-06   7.925337612927621e-07   6.051107858370103e-06
-3.028476795430549e-06   7.925337612927621e-07   6.051107858370103e-06
-3.028476795430549e-06   7.925337612927621e-07   6.051107858370103e-06
-3.028476795430549e-06   7.925337612927621e-07   6.051107858370103e-06
-1.1244992117279433e-06   7.482448275650819e-07   9.511512827665232e-06
-1.1244992117279433e-06   7.482448275650819e-07   9.511512827665232e-06
-1.1244992117279433e-06   7.482448275650819e-07   9.511512827665232e-06
-1.1244992117279433e-06   7.482448275650819e-07   9.511512827665232e-06
-5.080847282558938e-06   7.26221276712766e-07   2.904385245768986e-06
-5.080847282558938e-06   7.26221276712766e-07   2.904385245768986e-06
-5.080847282558938e-06   7.26221276712766e-07   2.904385245768986e-06
-5.080847282558938e-06   7.26221276712766e-07   2.904385245768986e-06
-5.247535190457827e-06   6.039183247472536e-07   9.542179748936788e-06
-5.247535190457827e-06   6.039183247472536e-07   9.542179748936788e-06
-5.247535190457827e-06   6.039183247472536e-07   9.542179748936788e-06
-5.247535190457827e-06   6.039183247472536e-07   9.542179748936788e-06
-1.2930891040287845e-06   5.680129803182078e-07   2.9729794782124905e-06
-1.2930891040287845e-06   5.680129803182078e-07   2.9729794782124905e-06
-1.2930891040287845e-06   5.680129803182078e-07   2.9729794782124905e-06
-1.2930891040287845e-06   5.680129803182078e-07   2.9729794782124905e-06
-3.17718575641825e-06   6.77105553119773e-07   6.047685021847492e-06
-3.17718575641825e-06   6.77105553119773e-07   6.047685021847492e-06
-3.17718575641825e-06   6.77105553119773e-07   6.047685021847492e-06
-3.17718575641825e-06   6.77105553119773e-07   6.047685021847492e-06
-1.2930891040287845e-06   6.039183247472536e-07   9.563722955594183e-06
-1.2930891040287845e-06   6.039183247472536e-07   9.563722955594183e-06
-1.2930891040287845e-06   6.039183247472536e-07   9.563722955594183e-06
-1.2930891040287845e-06   6.039183247472536e-07   9.563722955594183e-06
-5.247535190457827e-06   5.680129803182078e-07   2.9514362715551295e-06
-5.247535190457827e-06   5.680129803182078e-07   2.9514362715551295e-06
-5.247535190457827e-06   5.680129803182078e-07   2.9514362715551295e-06
-5.247535190457827e-06   5.680129803182078e-07   2.9514362715551295e-06
-5.4120499900276085e-06   4.671143295039608e-07   9.663746798832984e-06
-5.4120499900276085e-06   4.671143295039608e-07   9.663746798832984e-06
-5.4120499900276085e-06   4.671143295039608e-07   9.663746798832984e-06
-5.4120499900276085e-06   4.671143295039608e-07   9.663746798832984e-06
-1.460463616985815e-06   4.159634753762246e-07   3.1084600229066336e-06
-1.460463616985815e-06   4.159634753762246e-07   3.1084600229066336e-06
-1.460463616985815e-06   4.159634753762246e-07   3.1084600229066336e-06
-1.460463616985815e-06   4.159634753762246e-07   3.1084600229066336e-06
-3.333030963292853e-06   5.645956861152247e-07   6.140226273641607e-06
-3.333030963292853e-06   5.645956861152247e-07   6.140226273641607e-06
-3.333030963292853e-06   5.645956861152247e-07   6.140226273641607e-06
-3.333030963292853e-06   5.645956861152247e-07   6.140226273641607e-06
-4.91784663750724e-06   1.7733461819020987e-06   8.475103223749402e-06
-4.91784663750724e-06   1.7733461819020987e-06   8.475103223749402e-06
-4.91784663750724e-06   1.7733461819020987e-06   8.475103223749402e-06
-4.91784663750724e-06   1.7733461819020987e-06   8.475103223749402e-06
-8.821412434841896e-06   1.532341892315184e-06   1.8245576544394324e-06
-8.821412434841896e-06   1.532341892315184e-06   1.8245576544394324e-06
-8.821412434841896e-06   1.532341892315184e-06   1.8245576544394324e-06
-8.821412434841896e-06   1.532341892315184e-06   1.8245576544394324e-06
-8.996944150486762e-06   1.6344854924483588e-06   8.368315920078968e-06
-8.996944150486762e-06   1.6344854924483588e-06   8.368315920078968e-06
-8.996944150486762e-06   1.6344854924483588e-06   8.368315920078968e-06
-8.996944150486762e-06   1.6344854924483588e-06   8.368315920078968e-06
-5.080847282558918e-06   1.3772119499796997e-06   1.9958519323470933e-06
-5.080847282558918e-06   1.3772119499796997e-06   1.9958519323470933e-06
-5.080847282558918e-06   1.3772119499796997e-06   1.9958519323470933e-06
-5.080847282558918e-06   1.3772119499796997e-06   1.9958519323470933e-06
-6.934212158050478e-06   1.5505285398208614e-06   4.980803437595123e-06
-6.934212158050478e-06   1.5505285398208614e-06   4.980803437595123e-06
-6.934212158050478e-06   1.5505285398208614e-06   4.980803437595123e-06
-6.934212158050478e-06   1.5505285398208614e-06   4.980803437595123e-06
-5.080847282558938e-06   1.6344854924483588e-06   8.522680045560131e-06
-5.080847282558938e-06   1.6344854924483588e-06   8.522680045560131e-06
-5.080847282558938e-06   1.6344854924483588e-06   8.522680045560131e-06
-5.080847282558938e-06   1.6344854924483588e-06   8.522680045560131e-06
-8.996944150486749e-06   1.3772119499796997e-06   1.8414878068659032e-06
-8.996944150486749e-06   1.3772119499796997e-06   1.8414878068659032e-06
-8.996944150486749e-06   1.3772119499796997e-06   1.8414878068659032e-06
-8.996944150486749e-06   1.3772119499796997e-06   1.8414878068659032e-06
-9.193861533802081e-06   1.5035342986721755e-06   8.655589370676006e-06
-9.193861533802081e-06   1.5035342986721755e-06   8.655589370676006e-06
-9.193861533802081e-06   1.5035342986721755e-06   8.655589370676006e-06
-9.193861533802081e-06   1.5035342986721755e-06   8.655589370676006e-06
-5.247535190457814e-06   1.2323194852174608e-06   2.241107686508495e-06
-5.247535190457814e-06   1.2323194852174608e-06   2.241107686508495e-06
-5.247535190457814e-06   1.2323194852174608e-06   2.241107686508495e-06
-5.247535190457814e-06   1.2323194852174608e-06   2.241107686508495e-06
-7.052995815084079e-06   1.4454382412225917e-06   5.122337473949403e-06
-7.052995815084079e-06   1.4454382412225917e-06   5.122337473949403e-06
-7.052995815084079e-06   1.4454382412225917e-06   5.122337473949403e-06
-7.052995815084079e-06   1.4454382412225917e-06   5.122337473949403e-06
-5.247535190457827e-06   1.5035342986721755e-06   8.8183182587489e-06
-5.247535190457827e-06   1.5035342986721755e-06   8.8183182587489e-06
-5.247535190457827e-06   1.5035342986721755e-06   8.8183182587489e-06
-5.247535190457827e-06   1.5035342986721755e-06   8.8183182587489e-06
-9.193861533802068e-06   1.2323194852174608e-06   2.0783787984356822e-06
-9.193861533802068e-06   1.2323194852174608e-06   2.0783787984356822e-06
-9.193861533802068e-06   1.2323194852174608e-06   2.0783787984356822e-06
-9.193861533802068e-06   1.2323194852174608e-06   2.0783787984356822e-06
-9.36793247539263e-06   1.3496003902433709e-06   8.89240981697488e-06
-9.36793247539263e-06   1.3496003902433709e-06   8.89240981697488e-06
-9.36793247539263e-06   1.3496003902433709e-06   8.89240981697488e-06
-9.36793247539263e-06   1.3496003902433709e-06   8.89240981697488e-06
-5.412049990027588e-06   1.0690158318202563e-06   2.4676230764203623e-06
-5.412049990027588e-06   1.0690158318202563e-06   2.4676230764203623e-06
-5.412049990027588e-06   1.0690158318202563e-06   2.4676230764203623e-06
-5.412049990027588e-06   1.0690158318202563e-06   2.4676230764203623e-06
-7.251932676174765e-06   1.333307096450546e-06   5.3755194612210085e-06
-7.251932676174765e-06   1.333307096450546e-06   5.3755194612210085e-06
-7.251932676174765e-06   1.333307096450546e-06   5.3755194612210085e-06
-7.251932676174765e-06   1.333307096450546e-06   5.3755194612210085e-06
-8.821412434841896e-06   2.464519496419063e-06   4.0979100671598135e-06
-8.821412434841896e-06   2.464519496419063e-06   4.0979100671598135e-06
-8.821412434841896e-06   2.464519496419063e-06   4.0979100671598135e-06
-8.821412434841896e-06   2.464519496419063e-06   4.0979100671598135e-06
-1.2517503953954375e-05   2.0297154303484987e-06   -2.323124904336614e-06
-1.2517503953954375e-05   2.0297154303484987e-06   -2.323124904336614e-06
-1.2517503953954375e-05   2.0297154303484987e-06   -2.323124904336614e-06
-1.2517503953954375e-05   2.0297154303484987e-06   -2.323124904336614e-06
-1.2887111525993776e-05   2.458242799509335e-06   5.288127175019424e-06
-1.2887111525993776e-05   2.458242799509335e-06   5.288127175019424e-06
-1.2887111525993776e-05   2.458242799509335e-06   5.288127175019424e-06
-1.2887111525993776e-05   2.458242799509335e-06   5.288127175019424e-06
-8.996944150486722e-06   1.9833954856588137e-06   -9.10576729181952e-07
-8.996944150486722e-06   1.9833954856588137e-06   -9.10576729181952e-07
-8.996944150486722e-06   1.9833954856588137e-06   -9.10576729181952e-07
-8.996944150486722e-06   1.9833954856588137e-06   -9.10576729181952e-07
-1.0399885676644857e-05   2.1910723384780556e-06   1.3030530360569077e-06
-1.0399885676644857e-05   2.1910723384780556e-06   1.3030530360569077e-06
-1.0399885676644857e-05   2.1910723384780556e-06   1.3030530360569077e-06
-1.0399885676644857e-05   2.1910723384780556e-06   1.3030530360569077e-06
-8.996944150486749e-06   2.458242799509335e-06   5.57303556332977e-06
-8.996944150486749e-06   2.458242799509335e-06   5.57303556332977e-06
-8.996944150486749e-06   2.458242799509335e-06   5.57303556332977e-06
-8.996944150486749e-06   2.458242799509335e-06   5.57303556332977e-06
-1.2887111525993803e-05   1.9833954856588137e-06   -1.19548511749227e-06
-1.2887111525993803e-05   1.9833954856588137e-06   -1.19548511749227e-06
-1.2887111525993803e-05   1.9833954856588137e-06   -1.19548511749227e-06
-1.2887111525993803e-05   1.9833954856588137e-06   -1.19548511749227e-06
-1.320786046214454e-05   2.410158721117303e-06   6.303524450947768e-06
-1.320786046214454e-05   2.410158721117303e-06   6.303524450947768e-06
-1.320786046214454e-05   2.410158721117303e-06   6.303524450947768e-06
-1.320786046214454e-05   2.410158721117303e-06   6.303524450947768e-06
-9.19386153380204e-06   1.921669857592569e-06   -9.338044484156495e-08
-9.19386153380204e-06   1.921669857592569e-06   -9.338044484156495e-08
-9.19386153380204e-06   1.921669857592569e-06   -9.338044484156495e-08
-9.19386153380204e-06   1.921669857592569e-06   -9.338044484156495e-08
-1.0797151086678479e-05   2.195021445447606e-06   2.414757857239862e-06
-1.0797151086678479e-05   2.195021445447606e-06   2.414757857239862e-06
-1.0797151086678479e-05   2.195021445447606e-06   2.414757857239862e-06
-1.0797151086678479e-05   2.195021445447606e-06   2.414757857239862e-06
-9.193861533802068e-06   2.4101587211174114e-06   6.5966177690626195e-06
-9.193861533802068e-06   2.4101587211174114e-06   6.5966177690626195e-06
-9.193861533802068e-06   2.4101587211174114e-06   6.5966177690626195e-06
-9.193861533802068e-06   2.4101587211174114e-06   6.5966177690626195e-06
-1.3207860462144567e-05   1.921669857592569e-06   -3.8647376295641617e-07
-1.3207860462144567e-05   1.921669857592569e-06   -3.8647376295641617e-07
-1.3207860462144567e-05   1.921669857592569e-06   -3.8647376295641617e-07
-1.3207860462144567e-05   1.921669857592569e-06   -3.8647376295641617e-07
-1.3578421980887744e-05   2.1932222775156726e-06   8.061793701624514e-06
-1.3578421980887744e-05   2.1932222775156726e-06   8.061793701624514e-06
-1.3578421980887744e-05   2.1932222775156726e-06   8.061793701624514e-06
-1.3578421980887744e-05   2.1932222775156726e-06   8.061793701624514e-06
-9.367932475392603e-06   1.710552106131628e-06   1.3339132952964138e-06
-9.367932475392603e-06   1.710552106131628e-06   1.3339132952964138e-06
-9.367932475392603e-06   1.710552106131628e-06   1.3339132952964138e-06
-9.367932475392603e-06   1.710552106131628e-06   1.3339132952964138e-06
-1.0874953323866434e-05   2.1027025723445686e-06   3.610324429691663e-06
-1.0874953323866434e-05   2.1027025723445686e-06   3.610324429691663e-06
-1.0874953323866434e-05   2.1027025723445686e-06   3.610324429691663e-06
-1.0874953323866434e-05   2.1027025723445686e-06   3.610324429691663e-06
4.251374482137591e-06   -4.891698246661043e-07   5.785393360745574e-06
4.251374482137591e-06   -4.891698246661043e-07   5.785393360745574e-06
4.251374482137591e-06   -4.891698246661043e-07   5.785393360745574e-06
4.251374482137591e-06   -4.891698246661043e-07   5.785393360745574e-06
1.1725069105777274e-06   -2.3739001018239798e-08   9.332059023344614e-07
1.1725069105777274e-06   -2.3739001018239798e-08   9.332059023344614e-07
1.1725069105777274e-06   -2.3739001018239798e-08   9.332059023344614e-07
1.1725069105777274e-06   -2.3739001018239798e-08   9.332059023344614e-07
1.0363987692247899e-06   -6.673425371717893e-07   5.373170542842114e-06
1.0363987692247899e-06   -6.673425371717893e-07   5.373170542842114e-06
1.0363987692247899e-06   -6.673425371717893e-07   5.373170542842114e-06
1.0363987692247899e-06   -6.673425371717893e-07   5.373170542842114e-06
3.913144565237485e-06   -1.8490691941551278e-07   2.891328455006218e-07
3.913144565237485e-06   -1.8490691941551278e-07   2.891328455006218e-07
3.913144565237485e-06   -1.8490691941551278e-07   2.891328455006218e-07
3.913144565237485e-06   -1.8490691941551278e-07   2.891328455006218e-07
2.443111506290018e-06   -3.640665308625641e-07   2.846683710614772e-06
2.443111506290018e-06   -3.640665308625641e-07   2.846683710614772e-06
2.443111506290018e-06   -3.640665308625641e-07   2.846683710614772e-06
2.443111506290018e-06   -3.640665308625641e-07   2.846683710614772e-06
3.913144565237495e-06   -6.673425371717893e-07   5.083709172188332e-06
3.913144565237495e-06   -6.673425371717893e-07   5.083709172188332e-06
3.913144565237495e-06   -6.673425371717893e-07   5.083709172188332e-06
3.913144565237495e-06   -6.673425371717893e-07   5.083709172188332e-06
1.0363987692247882e-06   -1.8490691941551278e-07   5.785942161544108e-07
1.0363987692247882e-06   -1.8490691941551278e-07   5.785942161544108e-07
1.0363987692247882e-06   -1.8490691941551278e-07   5.785942161544108e-07
1.0363987692247882e-06   -1.8490691941551278e-07   5.785942161544108e-07
8.766736771665408e-07   -7.274473789466683e-07   5.0290177216654255e-06
8.766736771665408e-07   -7.274473789466683e-07   5.0290177216654255e-06
8.766736771665408e-07   -7.274473789466683e-07   5.0290177216654255e-06
8.766736771665408e-07   -7.274473789466683e-07   5.0290177216654255e-06
3.625499719338341e-06   -2.526490830016587e-07   1.62762007145435e-07
3.625499719338341e-06   -2.526490830016587e-07   1.62762007145435e-07
3.625499719338341e-06   -2.526490830016587e-07   1.62762007145435e-07
3.625499719338341e-06   -2.526490830016587e-07   1.62762007145435e-07
2.2838915102699115e-06   -4.3458891423915494e-07   2.5079395876686553e-06
2.2838915102699115e-06   -4.3458891423915494e-07   2.5079395876686553e-06
2.2838915102699115e-06   -4.3458891423915494e-07   2.5079395876686553e-06
2.2838915102699115e-06   -4.3458891423915494e-07   2.5079395876686553e-06
3.625499719338348e-06   -7.274473789466683e-07   4.744138744098344e-06
3.625499719338348e-06   -7.274473789466683e-07   4.744138744098344e-06
3.625499719338348e-06   -7.274473789466683e-07   4.744138744098344e-06
3.625499719338348e-06   -7.274473789466683e-07   4.744138744098344e-06
8.766736771665374e-07   -2.526490830016587e-07   4.476409847124557e-07
8.766736771665374e-07   -2.526490830016587e-07   4.476409847124557e-07
8.766736771665374e-07   -2.526490830016587e-07   4.476409847124557e-07
8.766736771665374e-07   -2.526490830016587e-07   4.476409847124557e-07
7.377113339584653e-07   -8.029456062117108e-07   4.620584128166782e-06
7.377113339584653e-07   -8.029456062117108e-07   4.620584128166782e-06
7.377113339584653e-07   -8.029456062117108e-07   4.620584128166782e-06
7.377113339584653e-07   -8.029456062117108e-07   4.620584128166782e-06
3.2868464320669862e-06   -3.6218373109062497e-07   1.0756850624667414e-07
3.2868464320669862e-06   -3.6218373109062497e-07   1.0756850624667414e-07
3.2868464320669862e-06   -3.6218373109062497e-07   1.0756850624667414e-07
3.2868464320669862e-06   -3.6218373109062497e-07   1.0756850624667414e-07
2.0374683177882215e-06   -4.677775367993033e-07   2.2532216468032132e-06
2.0374683177882215e-06   -4.677775367993033e-07   2.2532216468032132e-06
2.0374683177882215e-06   -4.677775367993033e-07   2.2532216468032132e-06
2.0374683177882215e-06   -4.677775367993033e-07   2.2532216468032132e-06
1.1725069105777308e-06   2.2370718000421343e-07   7.838169009145466e-06
1.1725069105777308e-06   2.2370718000421343e-07   7.838169009145466e-06
1.1725069105777308e-06   2.2370718000421343e-07   7.838169009145466e-06
1.1725069105777308e-06   2.2370718000421343e-07   7.838169009145466e-06
-1.622222741910378e-06   4.3803292734673335e-07   3.3088817034041516e-06
-1.622222741910378e-06   4.3803292734673335e-07   3.3088817034041516e-06
-1.622222741910378e-06   4.3803292734673335e-07   3.3088817034041516e-06
-1.622222741910378e-06   4.3803292734673335e-07   3.3088817034041516e-06
-1.7423925025782276e-06   4.5511986165381376e-08   7.858159516230755e-06
-1.7423925025782276e-06   4.5511986165381376e-08   7.858159516230755e-06
-1.7423925025782276e-06   4.5511986165381376e-08   7.858159516230755e-06
-1.7423925025782276e-06   4.5511986165381376e-08   7.858159516230755e-06
1.0363987692247882e-06   2.582372705164904e-07   3.0992055592818513e-06
1.0363987692247882e-06   2.582372705164904e-07   3.0992055592818513e-06
1.0363987692247882e-06   2.582372705164904e-07   3.0992055592818513e-06
1.0363987692247882e-06   2.582372705164904e-07   3.0992055592818513e-06
-3.1056692082138765e-07   2.2244646349277525e-07   5.365622860239914e-06
-3.1056692082138765e-07   2.2244646349277525e-07   5.365622860239914e-06
-3.1056692082138765e-07   2.2244646349277525e-07   5.365622860239914e-06
-3.1056692082138765e-07   2.2244646349277525e-07   5.365622860239914e-06
1.036398769224789e-06   4.5511986165381376e-08   7.7305243456201e-06
1.036398769224789e-06   4.5511986165381376e-08   7.7305243456201e-06
1.036398769224789e-06   4.5511986165381376e-08   7.7305243456201e-06
1.036398769224789e-06   4.5511986165381376e-08   7.7305243456201e-06
-1.7423925025782276e-06   2.5823727051654463e-07   3.226840729892523e-06
-1.7423925025782276e-06   2.5823727051654463e-07   3.226840729892523e-06
-1.7423925025782276e-06   2.5823727051654463e-07   3.226840729892523e-06
-1.7423925025782276e-06   2.5823727051654463e-07   3.226840729892523e-06
-1.8663242065829452e-06   -9.866321905484124e-08   7.79817587832492e-06
-1.8663242065829452e-06   -9.866321905484124e-08   7.79817587832492e-06
-1.8663242065829452e-06   -9.866321905484124e-08   7.79817587832492e-06
-1.8663242065829452e-06   -9.866321905484124e-08   7.79817587832492e-06
8.766736771665374e-07   1.0758382973380257e-07   3.1027645094693114e-06
8.766736771665374e-07   1.0758382973380257e-07   3.1027645094693114e-06
8.766736771665374e-07   1.0758382973380257e-07   3.1027645094693114e-06
8.766736771665374e-07   1.0758382973380257e-07   3.1027645094693114e-06
-4.395634922286613e-07   9.813614289152757e-08   5.302161737233467e-06
-4.395634922286613e-07   9.813614289152757e-08   5.302161737233467e-06
-4.395634922286613e-07   9.813614289152757e-08   5.302161737233467e-06
-4.395634922286613e-07   9.813614289152757e-08   5.302161737233467e-06
8.766736771665408e-07   -9.866321905484124e-08   7.674427649051745e-06
8.766736771665408e-07   -9.866321905484124e-08   7.674427649051745e-06
8.766736771665408e-07   -9.866321905484124e-08   7.674427649051745e-06
8.766736771665408e-07   -9.866321905484124e-08   7.674427649051745e-06
-1.866324206582952e-06   1.0758382973380257e-07   3.2265127387424953e-06
-1.866324206582952e-06   1.0758382973380257e-07   3.2265127387424953e-06
-1.866324206582952e-06   1.0758382973380257e-07   3.2265127387424953e-06
-1.866324206582952e-06   1.0758382973380257e-07   3.2265127387424953e-06
-1.988695724904901e-06   -2.3866560318433786e-07   7.891039492163442e-06
-1.988695724904901e-06   -2.3866560318433786e-07   7.891039492163442e-06
-1.988695724904901e-06   -2.3866560318433786e-07   7.891039492163442e-06
-1.988695724904901e-06   -2.3866560318433786e-07   7.891039492163442e-06
7.377113339584636e-07   -4.426410365939446e-08   3.230386827676295e-06
7.377113339584636e-07   -4.426410365939446e-08   3.230386827676295e-06
7.377113339584636e-07   -4.426410365939446e-08   3.230386827676295e-06
7.377113339584636e-07   -4.426410365939446e-08   3.230386827676295e-06
-5.476268716607461e-07   -1.1443853549736403e-08   5.352925020309251e-06
-5.476268716607461e-07   -1.1443853549736403e-08   5.352925020309251e-06
-5.476268716607461e-07   -1.1443853549736403e-08   5.352925020309251e-06
-5.476268716607461e-07   -1.1443853549736403e-08   5.352925020309251e-06
-1.622222741910378e-06   8.863237472606805e-07   8.670181984967687e-06
-1.622222741910378e-06   8.863237472606805e-07   8.670181984967687e-06
-1.622222741910378e-06   8.863237472606805e-07   8.670181984967687e-06
-1.622222741910378e-06   8.863237472606805e-07   8.670181984967687e-06
-4.36284416642594e-06   8.409975612160307e-07   4.0752838991482535e-06
-4.36284416642594e-06   8.409975612160307e-07   4.0752838991482535e-06
-4.36284416642594e-06   8.409975612160307e-07   4.0752838991482535e-06
-4.36284416642594e-06   8.409975612160307e-07   4.0752838991482535e-06
-4.4786830018022915e-06   7.262212767128202e-07   8.593110930216012e-06
-4.4786830018022915e-06   7.262212767128202e-07   8.593110930216012e-06
-4.4786830018022915e-06   7.262212767128202e-07   8.593110930216012e-06
-4.4786830018022915e-06   7.262212767128202e-07   8.593110930216012e-06
-1.742392502578214e-06   6.769985653927728e-07   4.062160391634703e-06
-1.742392502578214e-06   6.769985653927728e-07   4.062160391634703e-06
-1.742392502578214e-06   6.769985653927728e-07   4.062160391634703e-06
-1.742392502578214e-06   6.769985653927728e-07   4.062160391634703e-06
-3.0577567426692888e-06   7.623351630634987e-07   6.203232166517654e-06
-3.0577567426692888e-06   7.623351630634987e-07   6.203232166517654e-06
-3.0577567426692888e-06   7.623351630634987e-07   6.203232166517654e-06
-3.0577567426692888e-06   7.623351630634987e-07   6.203232166517654e-06
-1.7423925025782276e-06   7.262212767128202e-07   8.622644557008095e-06
-1.7423925025782276e-06   7.262212767128202e-07   8.622644557008095e-06
-1.7423925025782276e-06   7.262212767128202e-07   8.622644557008095e-06
-1.7423925025782276e-06   7.262212767128202e-07   8.622644557008095e-06
-4.478683001802285e-06   6.769985653927186e-07   4.032626764842695e-06
-4.478683001802285e-06   6.769985653927186e-07   4.032626764842695e-06
-4.478683001802285e-06   6.769985653927186e-07   4.032626764842695e-06
-4.478683001802285e-06   6.769985653927186e-07   4.032626764842695e-06
-4.598112255616477e-06   5.680129803181536e-07   8.644798525640123e-06
-4.598112255616477e-06   5.680129803181536e-07   8.644798525640123e-06
-4.598112255616477e-06   5.680129803181536e-07   8.644798525640123e-06
-4.598112255616477e-06   5.680129803181536e-07   8.644798525640123e-06
-1.8663242065829452e-06   5.138911555190614e-07   4.1242915387970945e-06
-1.8663242065829452e-06   5.138911555190614e-07   4.1242915387970945e-06
-1.8663242065829452e-06   5.138911555190614e-07   4.1242915387970945e-06
-1.8663242065829452e-06   5.138911555190614e-07   4.1242915387970945e-06
-3.160469942221734e-06   6.384053332765625e-07   6.2064925915405295e-06
-3.160469942221734e-06   6.384053332765625e-07   6.2064925915405295e-06
-3.160469942221734e-06   6.384053332765625e-07   6.2064925915405295e-06
-3.160469942221734e-06   6.384053332765625e-07   6.2064925915405295e-06
-1.866324206582952e-06   5.680129803181536e-07   8.6772716205196e-06
-1.866324206582952e-06   5.680129803181536e-07   8.6772716205196e-06
-1.866324206582952e-06   5.680129803181536e-07   8.6772716205196e-06
-1.866324206582952e-06   5.680129803181536e-07   8.6772716205196e-06
-4.59811225561647e-06   5.138911555190614e-07   4.091818443917631e-06
-4.59811225561647e-06   5.138911555190614e-07   4.091818443917631e-06
-4.59811225561647e-06   5.138911555190614e-07   4.091818443917631e-06
-4.59811225561647e-06   5.138911555190614e-07   4.091818443917631e-06
-4.71553471319514e-06   4.159634753761704e-07   8.777407115643891e-06
-4.71553471319514e-06   4.159634753761704e-07   8.777407115643891e-06
-4.71553471319514e-06   4.159634753761704e-07   8.777407115643891e-06
-4.71553471319514e-06   4.159634753761704e-07   8.777407115643891e-06
-1.988695724904901e-06   3.581705651827991e-07   4.267351214609599e-06
-1.988695724904901e-06   3.581705651827991e-07   4.267351214609599e-06
-1.988695724904901e-06   3.581705651827991e-07   4.267351214609599e-06
-1.988695724904901e-06   3.581705651827991e-07   4.267351214609599e-06
-3.2699610194600712e-06   5.171888059260347e-07   6.307382427755715e-06
-3.2699610194600712e-06   5.171888059260347e-07   6.307382427755715e-06
-3.2699610194600712e-06   5.171888059260347e-07   6.307382427755715e-06
-3.2699610194600712e-06   5.171888059260347e-07   6.307382427755715e-06
-4.36284416642594e-06   1.532341892315184e-06   7.653714388376027e-06
-4.36284416642594e-06   1.532341892315184e-06   7.653714388376027e-06
-4.36284416642594e-06   1.532341892315184e-06   7.653714388376027e-06
-4.36284416642594e-06   1.532341892315184e-06   7.653714388376027e-06
-7.06312878574247e-06   1.261370957393235e-06   2.9906574618953204e-06
-7.06312878574247e-06   1.261370957393235e-06   2.9906574618953204e-06
-7.06312878574247e-06   1.261370957393235e-06   2.9906574618953204e-06
-7.06312878574247e-06   1.261370957393235e-06   2.9906574618953204e-06
-7.189982750687498e-06   1.3772119499796997e-06   7.516321351465837e-06
-7.189982750687498e-06   1.3772119499796997e-06   7.516321351465837e-06
-7.189982750687498e-06   1.3772119499796997e-06   7.516321351465837e-06
-7.189982750687498e-06   1.3772119499796997e-06   7.516321351465837e-06
-4.478683001802278e-06   1.0967848410991382e-06   3.1657447019855714e-06
-4.478683001802278e-06   1.0967848410991382e-06   3.1657447019855714e-06
-4.478683001802278e-06   1.0967848410991382e-06   3.1657447019855714e-06
-4.478683001802278e-06   1.0967848410991382e-06   3.1657447019855714e-06
-5.759495757906776e-06   1.2932891108061802e-06   5.1825300670024766e-06
-5.759495757906776e-06   1.2932891108061802e-06   5.1825300670024766e-06
-5.759495757906776e-06   1.2932891108061802e-06   5.1825300670024766e-06
-5.759495757906776e-06   1.2932891108061802e-06   5.1825300670024766e-06
-4.4786830018022915e-06   1.3772119499796997e-06   7.684577616794174e-06
-4.4786830018022915e-06   1.3772119499796997e-06   7.684577616794174e-06
-4.4786830018022915e-06   1.3772119499796997e-06   7.684577616794174e-06
-4.4786830018022915e-06   1.3772119499796997e-06   7.684577616794174e-06
-7.189982750687484e-06   1.0967848410991382e-06   2.997488436657248e-06
-7.189982750687484e-06   1.0967848410991382e-06   2.997488436657248e-06
-7.189982750687484e-06   1.0967848410991382e-06   2.997488436657248e-06
-7.189982750687484e-06   1.0967848410991382e-06   2.997488436657248e-06
-7.339504050373562e-06   1.232319485217515e-06   7.762680731011461e-06
-7.339504050373562e-06   1.232319485217515e-06   7.762680731011461e-06
-7.339504050373562e-06   1.232319485217515e-06   7.762680731011461e-06
-7.339504050373562e-06   1.232319485217515e-06   7.762680731011461e-06
-4.598112255616463e-06   9.460041359139293e-07   3.365483615998477e-06
-4.598112255616463e-06   9.460041359139293e-07   3.365483615998477e-06
-4.598112255616463e-06   9.460041359139293e-07   3.365483615998477e-06
-4.598112255616463e-06   9.460041359139293e-07   3.365483615998477e-06
-5.8398496706997106e-06   1.1775076033679137e-06   5.296143893998155e-06
-5.8398496706997106e-06   1.1775076033679137e-06   5.296143893998155e-06
-5.8398496706997106e-06   1.1775076033679137e-06   5.296143893998155e-06
-5.8398496706997106e-06   1.1775076033679137e-06   5.296143893998155e-06
-4.598112255616463e-06   1.232319485217515e-06   7.934469940593515e-06
-4.598112255616463e-06   1.232319485217515e-06   7.934469940593515e-06
-4.598112255616463e-06   1.232319485217515e-06   7.934469940593515e-06
-4.598112255616463e-06   1.232319485217515e-06   7.934469940593515e-06
-7.339504050373548e-06   9.460041359139293e-07   3.1936944064163284e-06
-7.339504050373548e-06   9.460041359139293e-07   3.1936944064163284e-06
-7.339504050373548e-06   9.460041359139293e-07   3.1936944064163284e-06
-7.339504050373548e-06   9.460041359139293e-07   3.1936944064163284e-06
-7.4669165854021e-06   1.0690158318203105e-06   7.99604780155809e-06
-7.4669165854021e-06   1.0690158318203105e-06   7.99604780155809e-06
-7.4669165854021e-06   1.0690158318203105e-06   7.99604780155809e-06
-7.4669165854021e-06   1.0690158318203105e-06   7.99604780155809e-06
-4.715534713195127e-06   7.8366103169349e-07   3.581624227956033e-06
-4.715534713195127e-06   7.8366103169349e-07   3.581624227956033e-06
-4.715534713195127e-06   7.8366103169349e-07   3.581624227956033e-06
-4.715534713195127e-06   7.8366103169349e-07   3.581624227956033e-06
-5.981491334769212e-06   1.060251748933867e-06   5.525597500235499e-06
-5.981491334769212e-06   1.060251748933867e-06   5.525597500235499e-06
-5.981491334769212e-06   1.060251748933867e-06   5.525597500235499e-06
-5.981491334769212e-06   1.060251748933867e-06   5.525597500235499e-06
-7.0631287857424836e-06   2.0297154303484445e-06   3.6043317082890794e-06
-7.0631287857424836e-06   2.0297154303484445e-06   3.6043317082890794e-06
-7.0631287857424836e-06   2.0297154303484445e-06   3.6043317082890794e-06
-7.0631287857424836e-06   2.0297154303484445e-06   3.6043317082890794e-06
-9.534969231983416e-06   1.5706544709983379e-06   -7.908389443892167e-07
-9.534969231983416e-06   1.5706544709983379e-06   -7.908389443892167e-07
-9.534969231983416e-06   1.5706544709983379e-06   -7.908389443892167e-07
-9.534969231983416e-06   1.5706544709983379e-06   -7.908389443892167e-07
-9.861758729790102e-06   1.9833954856588137e-06   4.46712392467919e-06
-9.861758729790102e-06   1.9833954856588137e-06   4.46712392467919e-06
-9.861758729790102e-06   1.9833954856588137e-06   4.46712392467919e-06
-9.861758729790102e-06   1.9833954856588137e-06   4.46712392467919e-06
-7.189982750687484e-06   1.4881740010941964e-06   3.112968502469568e-07
-7.189982750687484e-06   1.4881740010941964e-06   3.112968502469568e-07
-7.189982750687484e-06   1.4881740010941964e-06   3.112968502469568e-07
-7.189982750687484e-06   1.4881740010941964e-06   3.112968502469568e-07
-8.105105382190595e-06   1.7329423728410604e-06   1.6896402130377251e-06
-8.105105382190595e-06   1.7329423728410604e-06   1.6896402130377251e-06
-8.105105382190595e-06   1.7329423728410604e-06   1.6896402130377251e-06
-8.105105382190595e-06   1.7329423728410604e-06   1.6896402130377251e-06
-7.189982750687484e-06   1.9833954856588137e-06   4.764256815417928e-06
-7.189982750687484e-06   1.9833954856588137e-06   4.764256815417928e-06
-7.189982750687484e-06   1.9833954856588137e-06   4.764256815417928e-06
-7.189982750687484e-06   1.9833954856588137e-06   4.764256815417928e-06
-9.861758729790129e-06   1.4881740010942507e-06   1.4163959508191847e-08
-9.861758729790129e-06   1.4881740010942507e-06   1.4163959508191847e-08
-9.861758729790129e-06   1.4881740010942507e-06   1.4163959508191847e-08
-9.861758729790129e-06   1.4881740010942507e-06   1.4163959508191847e-08
-1.0141497960707198e-05   1.921669857592569e-06   5.288071890608098e-06
-1.0141497960707198e-05   1.921669857592569e-06   5.288071890608098e-06
-1.0141497960707198e-05   1.921669857592569e-06   5.288071890608098e-06
-1.0141497960707198e-05   1.921669857592569e-06   5.288071890608098e-06
-7.339504050373535e-06   1.4169205290490519e-06   9.209316371781677e-07
-7.339504050373535e-06   1.4169205290490519e-06   9.209316371781677e-07
-7.339504050373535e-06   1.4169205290490519e-06   9.209316371781677e-07
-7.339504050373535e-06   1.4169205290490519e-06   9.209316371781677e-07
-8.422404912477891e-06   1.713113447563547e-06   2.548050656243499e-06
-8.422404912477891e-06   1.713113447563547e-06   2.548050656243499e-06
-8.422404912477891e-06   1.713113447563547e-06   2.548050656243499e-06
-8.422404912477891e-06   1.713113447563547e-06   2.548050656243499e-06
-7.339504050373548e-06   1.921669857592569e-06   5.590921487734241e-06
-7.339504050373548e-06   1.921669857592569e-06   5.590921487734241e-06
-7.339504050373548e-06   1.921669857592569e-06   5.590921487734241e-06
-7.339504050373548e-06   1.921669857592569e-06   5.590921487734241e-06
-1.0141497960707211e-05   1.4169205290489977e-06   6.18082040052052e-07
-1.0141497960707211e-05   1.4169205290489977e-06   6.18082040052052e-07
-1.0141497960707211e-05   1.4169205290489977e-06   6.18082040052052e-07
-1.0141497960707211e-05   1.4169205290489977e-06   6.18082040052052e-07
-1.047449986972437e-05   1.7105521061315737e-06   6.735943379169713e-06
-1.047449986972437e-05   1.7105521061315737e-06   6.735943379169713e-06
-1.047449986972437e-05   1.7105521061315737e-06   6.735943379169713e-06
-1.047449986972437e-05   1.7105521061315737e-06   6.735943379169713e-06
-7.466916585402073e-06   1.2193098122678572e-06   2.018049948284258e-06
-7.466916585402073e-06   1.2193098122678572e-06   2.018049948284258e-06
-7.466916585402073e-06   1.2193098122678572e-06   2.018049948284258e-06
-7.466916585402073e-06   1.2193098122678572e-06   2.018049948284258e-06
-8.494058815146814e-06   1.6232315999969603e-06   3.4876005918881145e-06
-8.494058815146814e-06   1.6232315999969603e-06   3.4876005918881145e-06
-8.494058815146814e-06   1.6232315999969603e-06   3.4876005918881145e-06
-8.494058815146814e-06   1.6232315999969603e-06   3.4876005918881145e-06
1.0830116783304147e-06   -2.3739001018239798e-08   4.399294765357505e-06
1.0830116783304147e-06   -2.3739001018239798e-08   4.399294765357505e-06
1.0830116783304147e-06   -2.3739001018239798e-08   4.399294765357505e-06
1.0830116783304147e-06   -2.3739001018239798e-08   4.399294765357505e-06
-7.479553759200191e-07   4.28887870726881e-07   1.6192591313205266e-06
-7.479553759200191e-07   4.28887870726881e-07   1.6192591313205266e-06
-7.479553759200191e-07   4.28887870726881e-07   1.6192591313205266e-06
-7.479553759200191e-07   4.28887870726881e-07   1.6192591313205266e-06
-8.478849666104972e-07   -1.8490691941545857e-07   4.3096952751029555e-06
-8.478849666104972e-07   -1.8490691941545857e-07   4.3096952751029555e-06
-8.478849666104972e-07   -1.8490691941545857e-07   4.3096952751029555e-06
-8.478849666104972e-07   -1.8490691941545857e-07   4.3096952751029555e-06
7.817860614978597e-07   2.7829745087023594e-07   1.3156542727509236e-06
7.817860614978597e-07   2.7829745087023594e-07   1.3156542727509236e-06
7.817860614978597e-07   2.7829745087023594e-07   1.3156542727509236e-06
7.817860614978597e-07   2.7829745087023594e-07   1.3156542727509236e-06
1.784912424236404e-08   9.799477461989222e-08   2.6970641072603054e-06
1.784912424236404e-08   9.799477461989222e-08   2.6970641072603054e-06
1.784912424236404e-08   9.799477461989222e-08   2.6970641072603054e-06
1.784912424236404e-08   9.799477461989222e-08   2.6970641072603054e-06
7.817860614978597e-07   -1.8490691941545857e-07   4.031772652931479e-06
7.817860614978597e-07   -1.8490691941545857e-07   4.031772652931479e-06
7.817860614978597e-07   -1.8490691941545857e-07   4.031772652931479e-06
7.817860614978597e-07   -1.8490691941545857e-07   4.031772652931479e-06
-8.478849666104972e-07   2.7829745087023594e-07   1.5935768949223593e-06
-8.478849666104972e-07   2.7829745087023594e-07   1.5935768949223593e-06
-8.478849666104972e-07   2.7829745087023594e-07   1.5935768949223593e-06
-8.478849666104972e-07   2.7829745087023594e-07   1.5935768949223593e-06
-9.719227761974362e-07   -2.526490830016587e-07   4.178266903756745e-06
-9.719227761974362e-07   -2.526490830016587e-07   4.178266903756745e-06
-9.719227761974362e-07   -2.526490830016587e-07   4.178266903756745e-06
-9.719227761974362e-07   -2.526490830016587e-07   4.178266903756745e-06
5.188495500221994e-07   1.9788144153994047e-07   1.4233280453323973e-06
5.188495500221994e-07   1.9788144153994047e-07   1.4233280453323973e-06
5.188495500221994e-07   1.9788144153994047e-07   1.4233280453323973e-06
5.188495500221994e-07   1.9788144153994047e-07   1.4233280453323973e-06
-1.4212609136144524e-07   3.401646895585808e-08   2.6232730978555533e-06
-1.4212609136144524e-07   3.401646895585808e-08   2.6232730978555533e-06
-1.4212609136144524e-07   3.401646895585808e-08   2.6232730978555533e-06
-1.4212609136144524e-07   3.401646895585808e-08   2.6232730978555533e-06
5.188495500221994e-07   -2.526490830016045e-07   3.907948589031775e-06
5.188495500221994e-07   -2.526490830016045e-07   3.907948589031775e-06
5.188495500221994e-07   -2.526490830016045e-07   3.907948589031775e-06
5.188495500221994e-07   -2.526490830016045e-07   3.907948589031775e-06
-9.719227761974353e-07   1.9788144153994047e-07   1.6936463600573676e-06
-9.719227761974353e-07   1.9788144153994047e-07   1.6936463600573676e-06
-9.719227761974353e-07   1.9788144153994047e-07   1.6936463600573676e-06
-9.719227761974353e-07   1.9788144153994047e-07   1.6936463600573676e-06
-1.0765915285517968e-06   -3.6218373109062497e-07   4.104014273102963e-06
-1.0765915285517968e-06   -3.6218373109062497e-07   4.104014273102963e-06
-1.0765915285517968e-06   -3.6218373109062497e-07   4.104014273102963e-06
-1.0765915285517968e-06   -3.6218373109062497e-07   4.104014273102963e-06
1.8775627497823297e-07   2.9722004829589675e-08   1.761624492334166e-06
1.8775627497823297e-07   2.9722004829589675e-08   1.761624492334166e-06
1.8775627497823297e-07   2.9722004829589675e-08   1.761624492334166e-06
1.8775627497823297e-07   2.9722004829589675e-08   1.761624492334166e-06
-3.2316272609334285e-07   -2.0995734685233004e-08   2.643586804495701e-06
-3.2316272609334285e-07   -2.0995734685233004e-08   2.643586804495701e-06
-3.2316272609334285e-07   -2.0995734685233004e-08   2.643586804495701e-06
-3.2316272609334285e-07   -2.0995734685233004e-08   2.643586804495701e-06
-7.479553759200191e-07   4.3803292734673335e-07   6.91795124106869e-06
-7.479553759200191e-07   4.3803292734673335e-07   6.91795124106869e-06
-7.479553759200191e-07   4.3803292734673335e-07   6.91795124106869e-06
-7.479553759200191e-07   4.3803292734673335e-07   6.91795124106869e-06
-2.2755927989588136e-06   5.32061253235639e-07   4.428305864870709e-06
-2.2755927989588136e-06   5.32061253235639e-07   4.428305864870709e-06
-2.2755927989588136e-06   5.32061253235639e-07   4.428305864870709e-06
-2.2755927989588136e-06   5.32061253235639e-07   4.428305864870709e-06
-2.352199604141484e-06   2.5823727051654463e-07   6.894500926269017e-06
-2.352199604141484e-06   2.5823727051654463e-07   6.894500926269017e-06
-2.352199604141484e-06   2.5823727051654463e-07   6.894500926269017e-06
-2.352199604141484e-06   2.5823727051654463e-07   6.894500926269017e-06
-8.478849666104972e-07   3.652277839141815e-07   4.323115555678781e-06
-8.478849666104972e-07   3.652277839141815e-07   4.323115555678781e-06
-8.478849666104972e-07   3.652277839141815e-07   4.323115555678781e-06
-8.478849666104972e-07   3.652277839141815e-07   4.323115555678781e-06
-1.5677324245093418e-06   3.7763465459463843e-07   5.515417196435239e-06
-1.5677324245093418e-06   3.7763465459463843e-07   5.515417196435239e-06
-1.5677324245093418e-06   3.7763465459463843e-07   5.515417196435239e-06
-1.5677324245093418e-06   3.7763465459463843e-07   5.515417196435239e-06
-8.478849666104946e-07   2.582372705164904e-07   6.830306618230332e-06
-8.478849666104946e-07   2.582372705164904e-07   6.830306618230332e-06
-8.478849666104946e-07   2.582372705164904e-07   6.830306618230332e-06
-8.478849666104946e-07   2.582372705164904e-07   6.830306618230332e-06
-2.3521996041414773e-06   3.652277839141815e-07   4.387309863717378e-06
-2.3521996041414773e-06   3.652277839141815e-07   4.387309863717378e-06
-2.3521996041414773e-06   3.652277839141815e-07   4.387309863717378e-06
-2.3521996041414773e-06   3.652277839141815e-07   4.387309863717378e-06
-2.4313936637755524e-06   1.0758382973380257e-07   6.896912331508568e-06
-2.4313936637755524e-06   1.0758382973380257e-07   6.896912331508568e-06
-2.4313936637755524e-06   1.0758382973380257e-07   6.896912331508568e-06
-2.4313936637755524e-06   1.0758382973380257e-07   6.896912331508568e-06
-9.719227761974353e-07   2.1345366805867886e-07   4.400938949216765e-06
-9.719227761974353e-07   2.1345366805867886e-07   4.400938949216765e-06
-9.719227761974353e-07   2.1345366805867886e-07   4.400938949216765e-06
-9.719227761974353e-07   2.1345366805867886e-07   4.400938949216765e-06
-1.6463433947158414e-06   2.570377543091541e-07   5.498822861663838e-06
-1.6463433947158414e-06   2.570377543091541e-07   5.498822861663838e-06
-1.6463433947158414e-06   2.570377543091541e-07   5.498822861663838e-06
-1.6463433947158414e-06   2.570377543091541e-07   5.498822861663838e-06
-9.719227761974353e-07   1.0758382973380257e-07   6.8333904285135824e-06
-9.719227761974353e-07   1.0758382973380257e-07   6.8333904285135824e-06
-9.719227761974353e-07   1.0758382973380257e-07   6.8333904285135824e-06
-9.719227761974353e-07   1.0758382973380257e-07   6.8333904285135824e-06
-2.4313936637755456e-06   2.1345366805867886e-07   4.4644608522117016e-06
-2.4313936637755456e-06   2.1345366805867886e-07   4.4644608522117016e-06
-2.4313936637755456e-06   2.1345366805867886e-07   4.4644608522117016e-06
-2.4313936637755456e-06   2.1345366805867886e-07   4.4644608522117016e-06
-2.509549578537795e-06   -4.426410365939446e-08   7.019768532765078e-06
-2.509549578537795e-06   -4.426410365939446e-08   7.019768532765078e-06
-2.509549578537795e-06   -4.426410365939446e-08   7.019768532765078e-06
-2.509549578537795e-06   -4.426410365939446e-08   7.019768532765078e-06
-1.0765915285517943e-06   5.1391001849052185e-08   4.574112052816667e-06
-1.0765915285517943e-06   5.1391001849052185e-08   4.574112052816667e-06
-1.0765915285517943e-06   5.1391001849052185e-08   4.574112052816667e-06
-1.0765915285517943e-06   5.1391001849052185e-08   4.574112052816667e-06
-1.7240566127161218e-06   1.406428258814824e-07   5.59966943200443e-06
-1.7240566127161218e-06   1.406428258814824e-07   5.59966943200443e-06
-1.7240566127161218e-06   1.406428258814824e-07   5.59966943200443e-06
-1.7240566127161218e-06   1.406428258814824e-07   5.59966943200443e-06
-2.2755927989588136e-06   8.409975612160307e-07   7.767966143972953e-06
-2.2755927989588136e-06   8.409975612160307e-07   7.767966143972953e-06
-2.2755927989588136e-06   8.409975612160307e-07   7.767966143972953e-06
-2.2755927989588136e-06   8.409975612160307e-07   7.767966143972953e-06
-3.7855453801584387e-06   6.527789462805987e-07   5.138447339679016e-06
-3.7855453801584387e-06   6.527789462805987e-07   5.138447339679016e-06
-3.7855453801584387e-06   6.527789462805987e-07   5.138447339679016e-06
-3.7855453801584387e-06   6.527789462805987e-07   5.138447339679016e-06
-3.8512029138235485e-06   6.769985653927186e-07   7.623586222882091e-06
-3.8512029138235485e-06   6.769985653927186e-07   7.623586222882091e-06
-3.8512029138235485e-06   6.769985653927186e-07   7.623586222882091e-06
-3.8512029138235485e-06   6.769985653927186e-07   7.623586222882091e-06
-2.3521996041414773e-06   4.999412901775268e-07   5.2314817385410985e-06
-2.3521996041414773e-06   4.999412901775268e-07   5.2314817385410985e-06
-2.3521996041414773e-06   4.999412901775268e-07   5.2314817385410985e-06
-2.3521996041414773e-06   4.999412901775268e-07   5.2314817385410985e-06
-3.0685362645583927e-06   6.529548184153254e-07   6.3335680556266075e-06
-3.0685362645583927e-06   6.529548184153254e-07   6.3335680556266075e-06
-3.0685362645583927e-06   6.529548184153254e-07   6.3335680556266075e-06
-3.0685362645583927e-06   6.529548184153254e-07   6.3335680556266075e-06
-2.3521996041414773e-06   6.769985653927728e-07   7.72982058801119e-06
-2.3521996041414773e-06   6.769985653927728e-07   7.72982058801119e-06
-2.3521996041414773e-06   6.769985653927728e-07   7.72982058801119e-06
-2.3521996041414773e-06   6.769985653927728e-07   7.72982058801119e-06
-3.8512029138235485e-06   4.999412901775268e-07   5.1252473734119454e-06
-3.8512029138235485e-06   4.999412901775268e-07   5.1252473734119454e-06
-3.8512029138235485e-06   4.999412901775268e-07   5.1252473734119454e-06
-3.8512029138235485e-06   4.999412901775268e-07   5.1252473734119454e-06
-3.9212409570622375e-06   5.138911555190614e-07   7.693230093195008e-06
-3.9212409570622375e-06   5.138911555190614e-07   7.693230093195008e-06
-3.9212409570622375e-06   5.138911555190614e-07   7.693230093195008e-06
-3.9212409570622375e-06   5.138911555190614e-07   7.693230093195008e-06
-2.4313936637755456e-06   3.447894249055945e-07   5.311612309418653e-06
-2.4313936637755456e-06   3.447894249055945e-07   5.311612309418653e-06
-2.4313936637755456e-06   3.447894249055945e-07   5.311612309418653e-06
-2.4313936637755456e-06   3.447894249055945e-07   5.311612309418653e-06
-3.1246866186309763e-06   5.315259426342915e-07   6.355058656873686e-06
-3.1246866186309763e-06   5.315259426342915e-07   6.355058656873686e-06
-3.1246866186309763e-06   5.315259426342915e-07   6.355058656873686e-06
-3.1246866186309763e-06   5.315259426342915e-07   6.355058656873686e-06
-2.4313936637755456e-06   5.138911555190614e-07   7.7946911315631e-06
-2.4313936637755456e-06   5.138911555190614e-07   7.7946911315631e-06
-2.4313936637755456e-06   5.138911555190614e-07   7.7946911315631e-06
-2.4313936637755456e-06   5.138911555190614e-07   7.7946911315631e-06
-3.9212409570622375e-06   3.447894249055945e-07   5.210151271050535e-06
-3.9212409570622375e-06   3.447894249055945e-07   5.210151271050535e-06
-3.9212409570622375e-06   3.447894249055945e-07   5.210151271050535e-06
-3.9212409570622375e-06   3.447894249055945e-07   5.210151271050535e-06
-3.989852577508435e-06   3.581705651827991e-07   7.844341717256828e-06
-3.989852577508435e-06   3.581705651827991e-07   7.844341717256828e-06
-3.989852577508435e-06   3.581705651827991e-07   7.844341717256828e-06
-3.989852577508435e-06   3.581705651827991e-07   7.844341717256828e-06
-2.5095495785377883e-06   1.9858672730511473e-07   5.47292035503237e-06
-2.5095495785377883e-06   1.9858672730511473e-07   5.47292035503237e-06
-2.5095495785377883e-06   1.9858672730511473e-07   5.47292035503237e-06
-2.5095495785377883e-06   1.9858672730511473e-07   5.47292035503237e-06
-3.1871801498413693e-06   4.122869850938741e-07   6.47408448586502e-06
-3.1871801498413693e-06   4.122869850938741e-07   6.47408448586502e-06
-3.1871801498413693e-06   4.122869850938741e-07   6.47408448586502e-06
-3.1871801498413693e-06   4.122869850938741e-07   6.47408448586502e-06
-3.7855453801584522e-06   1.261370957393235e-06   6.732991098711959e-06
-3.7855453801584522e-06   1.261370957393235e-06   6.732991098711959e-06
-3.7855453801584522e-06   1.261370957393235e-06   6.732991098711959e-06
-3.7855453801584522e-06   1.261370957393235e-06   6.732991098711959e-06
-5.276525709393479e-06   8.920463625147431e-07   4.0264291263931166e-06
-5.276525709393479e-06   8.920463625147431e-07   4.0264291263931166e-06
-5.276525709393479e-06   8.920463625147431e-07   4.0264291263931166e-06
-5.276525709393479e-06   8.920463625147431e-07   4.0264291263931166e-06
-5.3489493902688105e-06   1.0967848410991382e-06   6.537511188742088e-06
-5.3489493902688105e-06   1.0967848410991382e-06   6.537511188742088e-06
-5.3489493902688105e-06   1.0967848410991382e-06   6.537511188742088e-06
-5.3489493902688105e-06   1.0967848410991382e-06   6.537511188742088e-06
-3.8512029138235485e-06   7.314632222943612e-07   4.260460032616225e-06
-3.8512029138235485e-06   7.314632222943612e-07   4.260460032616225e-06
-3.8512029138235485e-06   7.314632222943612e-07   4.260460032616225e-06
-3.8512029138235485e-06   7.314632222943612e-07   4.260460032616225e-06
-4.555837249348023e-06   9.844831524224648e-07   5.28303863374686e-06
-4.555837249348023e-06   9.844831524224648e-07   5.28303863374686e-06
-4.555837249348023e-06   9.844831524224648e-07   5.28303863374686e-06
-4.555837249348023e-06   9.844831524224648e-07   5.28303863374686e-06
-3.8512029138235485e-06   1.0967848410991382e-06   6.756704160024927e-06
-3.8512029138235485e-06   1.0967848410991382e-06   6.756704160024927e-06
-3.8512029138235485e-06   1.0967848410991382e-06   6.756704160024927e-06
-3.8512029138235485e-06   1.0967848410991382e-06   6.756704160024927e-06
-5.348949390268783e-06   7.314632222943612e-07   4.041267061333386e-06
-5.348949390268783e-06   7.314632222943612e-07   4.041267061333386e-06
-5.348949390268783e-06   7.314632222943612e-07   4.041267061333386e-06
-5.348949390268783e-06   7.314632222943612e-07   4.041267061333386e-06
-5.447349504477501e-06   9.460041359139293e-07   6.751923360375509e-06
-5.447349504477501e-06   9.460041359139293e-07   6.751923360375509e-06
-5.447349504477501e-06   9.460041359139293e-07   6.751923360375509e-06
-5.447349504477501e-06   9.460041359139293e-07   6.751923360375509e-06
-3.9212409570622375e-06   5.877176277465875e-07   4.4233810195837986e-06
-3.9212409570622375e-06   5.877176277465875e-07   4.4233810195837986e-06
-3.9212409570622375e-06   5.877176277465875e-07   4.4233810195837986e-06
-3.9212409570622375e-06   5.877176277465875e-07   4.4233810195837986e-06
-4.595078376698265e-06   8.668609542088332e-07   5.378957389766344e-06
-4.595078376698265e-06   8.668609542088332e-07   5.378957389766344e-06
-4.595078376698265e-06   8.668609542088332e-07   5.378957389766344e-06
-4.595078376698265e-06   8.668609542088332e-07   5.378957389766344e-06
-3.9212409570622375e-06   9.460041359139293e-07   6.966895265275827e-06
-3.9212409570622375e-06   9.460041359139293e-07   6.966895265275827e-06
-3.9212409570622375e-06   9.460041359139293e-07   6.966895265275827e-06
-3.9212409570622375e-06   9.460041359139293e-07   6.966895265275827e-06
-5.447349504477487e-06   5.877176277466417e-07   4.208409114683426e-06
-5.447349504477487e-06   5.877176277466417e-07   4.208409114683426e-06
-5.447349504477487e-06   5.877176277466417e-07   4.208409114683426e-06
-5.447349504477487e-06   5.877176277466417e-07   4.208409114683426e-06
-5.525842009961496e-06   7.8366103169349e-07   6.987296225984137e-06
-5.525842009961496e-06   7.8366103169349e-07   6.987296225984137e-06
-5.525842009961496e-06   7.8366103169349e-07   6.987296225984137e-06
-5.525842009961496e-06   7.8366103169349e-07   6.987296225984137e-06
-3.989852577508421e-06   4.4033728046830034e-07   4.633308089297449e-06
-3.989852577508421e-06   4.4033728046830034e-07   4.633308089297449e-06
-3.989852577508421e-06   4.4033728046830034e-07   4.633308089297449e-06
-3.989852577508421e-06   4.4033728046830034e-07   4.633308089297449e-06
-4.677513436496738e-06   7.539776982408734e-07   5.591225270281237e-06
-4.677513436496738e-06   7.539776982408734e-07   5.591225270281237e-06
-4.677513436496738e-06   7.539776982408734e-07   5.591225270281237e-06
-4.677513436496738e-06   7.539776982408734e-07   5.591225270281237e-06
-5.276525709393479e-06   1.5706544709983379e-06   3.0053365111103885e-06
-5.276525709393479e-06   1.5706544709983379e-06   3.0053365111103885e-06
-5.276525709393479e-06   1.5706544709983379e-06   3.0053365111103885e-06
-5.276525709393479e-06   1.5706544709983379e-06   3.0053365111103885e-06
-6.490795632564363e-06   1.0705068777716771e-06   6.814647498896032e-07
-6.490795632564363e-06   1.0705068777716771e-06   6.814647498896032e-07
-6.490795632564363e-06   1.0705068777716771e-06   6.814647498896032e-07
-6.490795632564363e-06   1.0705068777716771e-06   6.814647498896032e-07
-6.7599894972366915e-06   1.4881740010942507e-06   3.536755250691198e-06
-6.7599894972366915e-06   1.4881740010942507e-06   3.536755250691198e-06
-6.7599894972366915e-06   1.4881740010942507e-06   3.536755250691198e-06
-6.7599894972366915e-06   1.4881740010942507e-06   3.536755250691198e-06
-5.348949390268797e-06   9.639000816931355e-07   1.4995860907187296e-06
-5.348949390268797e-06   9.639000816931355e-07   1.4995860907187296e-06
-5.348949390268797e-06   9.639000816931355e-07   1.4995860907187296e-06
-5.348949390268797e-06   9.639000816931355e-07   1.4995860907187296e-06
-5.760886994170237e-06   1.2573448269612608e-06   2.0100819167268903e-06
-5.760886994170237e-06   1.2573448269612608e-06   2.0100819167268903e-06
-5.760886994170237e-06   1.2573448269612608e-06   2.0100819167268903e-06
-5.760886994170237e-06   1.2573448269612608e-06   2.0100819167268903e-06
-5.348949390268797e-06   1.4881740010941964e-06   3.85131960233177e-06
-5.348949390268797e-06   1.4881740010941964e-06   3.85131960233177e-06
-5.348949390268797e-06   1.4881740010941964e-06   3.85131960233177e-06
-5.348949390268797e-06   1.4881740010941964e-06   3.85131960233177e-06
-6.7599894972366915e-06   9.639000816931355e-07   1.1850217390780768e-06
-6.7599894972366915e-06   9.639000816931355e-07   1.1850217390780768e-06
-6.7599894972366915e-06   9.639000816931355e-07   1.1850217390780768e-06
-6.7599894972366915e-06   9.639000816931355e-07   1.1850217390780768e-06
-6.989829986061674e-06   1.4169205290489977e-06   4.162934456232762e-06
-6.989829986061674e-06   1.4169205290489977e-06   4.162934456232762e-06
-6.989829986061674e-06   1.4169205290489977e-06   4.162934456232762e-06
-6.989829986061674e-06   1.4169205290489977e-06   4.162934456232762e-06
-5.447349504477501e-06   8.898769708747282e-07   1.908359788497046e-06
-5.447349504477501e-06   8.898769708747282e-07   1.908359788497046e-06
-5.447349504477501e-06   8.898769708747282e-07   1.908359788497046e-06
-5.447349504477501e-06   8.898769708747282e-07   1.908359788497046e-06
-5.991163210561281e-06   1.2171527610892316e-06   2.6183504911746517e-06
-5.991163210561281e-06   1.2171527610892316e-06   2.6183504911746517e-06
-5.991163210561281e-06   1.2171527610892316e-06   2.6183504911746517e-06
-5.991163210561281e-06   1.2171527610892316e-06   2.6183504911746517e-06
-5.447349504477501e-06   1.4169205290490519e-06   4.4791605911372804e-06
-5.447349504477501e-06   1.4169205290490519e-06   4.4791605911372804e-06
-5.447349504477501e-06   1.4169205290490519e-06   4.4791605911372804e-06
-5.447349504477501e-06   1.4169205290490519e-06   4.4791605911372804e-06
-6.989829986061674e-06   8.898769708747282e-07   1.5921336535924737e-06
-6.989829986061674e-06   8.898769708747282e-07   1.5921336535924737e-06
-6.989829986061674e-06   8.898769708747282e-07   1.5921336535924737e-06
-6.989829986061674e-06   8.898769708747282e-07   1.5921336535924737e-06
-7.279679511295453e-06   1.2193098122678572e-06   5.29289645639973e-06
-7.279679511295453e-06   1.2193098122678572e-06   5.29289645639973e-06
-7.279679511295453e-06   1.2193098122678572e-06   5.29289645639973e-06
-7.279679511295453e-06   1.2193098122678572e-06   5.29289645639973e-06
-5.525842009961482e-06   7.159125289534786e-07   2.6718723241651204e-06
-5.525842009961482e-06   7.159125289534786e-07   2.6718723241651204e-06
-5.525842009961482e-06   7.159125289534786e-07   2.6718723241651204e-06
-5.525842009961482e-06   7.159125289534786e-07   2.6718723241651204e-06
-6.053366049978643e-06   1.1347048975220457e-06   3.2998036363859093e-06
-6.053366049978643e-06   1.1347048975220457e-06   3.2998036363859093e-06
-6.053366049978643e-06   1.1347048975220457e-06   3.2998036363859093e-06
-6.053366049978643e-06   1.1347048975220457e-06   3.2998036363859093e-06
-2.263810325986682e-06   4.28887870726881e-07   3.216496966497608e-06
-2.263810325986682e-06   4.28887870726881e-07   3.216496966497608e-06
-2.263810325986682e-06   4.28887870726881e-07   3.216496966497608e-06
-2.263810325986682e-06   4.28887870726881e-07   3.216496966497608e-06
-2.6473750579334886e-06   8.413274390007056e-07   2.824686154217197e-06
-2.6473750579334886e-06   8.413274390007056e-07   2.824686154217197e-06
-2.6473750579334886e-06   8.413274390007056e-07   2.824686154217197e-06
-2.6473750579334886e-06   8.413274390007056e-07   2.824686154217197e-06
-2.72409505468351e-06   2.7829745087023594e-07   3.4082177758237332e-06
-2.72409505468351e-06   2.7829745087023594e-07   3.4082177758237332e-06
-2.72409505468351e-06   2.7829745087023594e-07   3.4082177758237332e-06
-2.72409505468351e-06   2.7829745087023594e-07   3.4082177758237332e-06
-2.569692234975679e-06   6.510697231958086e-07   2.927216379582025e-06
-2.569692234975679e-06   6.510697231958086e-07   2.927216379582025e-06
-2.569692234975679e-06   6.510697231958086e-07   2.927216379582025e-06
-2.569692234975679e-06   6.510697231958086e-07   2.927216379582025e-06
-2.493018908881652e-06   5.107661645330013e-07   2.8836096379563306e-06
-2.493018908881652e-06   5.107661645330013e-07   2.8836096379563306e-06
-2.493018908881652e-06   5.107661645330013e-07   2.8836096379563306e-06
-2.493018908881652e-06   5.107661645330013e-07   2.8836096379563306e-06
-2.5696922349756826e-06   2.7829745087018173e-07   3.1845544124284168e-06
-2.5696922349756826e-06   2.7829745087018173e-07   3.1845544124284168e-06
-2.5696922349756826e-06   2.7829745087018173e-07   3.1845544124284168e-06
-2.5696922349756826e-06   2.7829745087018173e-07   3.1845544124284168e-06
-2.72409505468351e-06   6.510697231958086e-07   3.150879742977382e-06
-2.72409505468351e-06   6.510697231958086e-07   3.150879742977382e-06
-2.72409505468351e-06   6.510697231958086e-07   3.150879742977382e-06
-2.72409505468351e-06   6.510697231958086e-07   3.150879742977382e-06
-2.8233381744538567e-06   1.9788144153994047e-07   3.4888122480182797e-06
-2.8233381744538567e-06   1.9788144153994047e-07   3.4888122480182797e-06
-2.8233381744538567e-06   1.9788144153994047e-07   3.4888122480182797e-06
-2.8233381744538567e-06   1.9788144153994047e-07   3.4888122480182797e-06
-2.869184610526345e-06   5.220060481977832e-07   3.3707482108110467e-06
-2.869184610526345e-06   5.220060481977832e-07   3.3707482108110467e-06
-2.869184610526345e-06   5.220060481977832e-07   3.3707482108110467e-06
-2.869184610526345e-06   5.220060481977832e-07   3.3707482108110467e-06
-2.6741235877820694e-06   4.2943870660574384e-07   3.1011869111924456e-06
-2.6741235877820694e-06   4.2943870660574384e-07   3.1011869111924456e-06
-2.6741235877820694e-06   4.2943870660574384e-07   3.1011869111924456e-06
-2.6741235877820694e-06   4.2943870660574384e-07   3.1011869111924456e-06
-2.8691846105263482e-06   1.9788144153994047e-07   3.2943374840235145e-06
-2.8691846105263482e-06   1.9788144153994047e-07   3.2943374840235145e-06
-2.8691846105263482e-06   1.9788144153994047e-07   3.2943374840235145e-06
-2.8691846105263482e-06   1.9788144153994047e-07   3.2943374840235145e-06
-2.8233381744538567e-06   5.220060481977832e-07   3.565222974805744e-06
-2.8233381744538567e-06   5.220060481977832e-07   3.565222974805744e-06
-2.8233381744538567e-06   5.220060481977832e-07   3.565222974805744e-06
-2.8233381744538567e-06   5.220060481977832e-07   3.565222974805744e-06
-2.889635499497092e-06   2.9722004829589675e-08   3.7867803325641978e-06
-2.889635499497092e-06   2.9722004829589675e-08   3.7867803325641978e-06
-2.889635499497092e-06   2.9722004829589675e-08   3.7867803325641978e-06
-2.889635499497092e-06   2.9722004829589675e-08   3.7867803325641978e-06
-3.1893219840506274e-06   2.0592364623510037e-07   4.180536821976707e-06
-3.1893219840506274e-06   2.0592364623510037e-07   4.180536821976707e-06
-3.1893219840506274e-06   2.0592364623510037e-07   4.180536821976707e-06
-3.1893219840506274e-06   2.0592364623510037e-07   4.180536821976707e-06
-2.810489530495458e-06   3.327248622009933e-07   3.4730686698051417e-06
-2.810489530495458e-06   3.327248622009933e-07   3.4730686698051417e-06
-2.810489530495458e-06   3.327248622009933e-07   3.4730686698051417e-06
-2.810489530495458e-06   3.327248622009933e-07   3.4730686698051417e-06
-2.6473750579334886e-06   5.32061253235639e-07   6.216590445478747e-06
-2.6473750579334886e-06   5.32061253235639e-07   6.216590445478747e-06
-2.6473750579334886e-06   5.32061253235639e-07   6.216590445478747e-06
-2.6473750579334886e-06   5.32061253235639e-07   6.216590445478747e-06
-2.788523545249079e-06   2.1936036114549788e-07   5.793722431365317e-06
-2.788523545249079e-06   2.1936036114549788e-07   5.793722431365317e-06
-2.788523545249079e-06   2.1936036114549788e-07   5.793722431365317e-06
-2.788523545249079e-06   2.1936036114549788e-07   5.793722431365317e-06
-2.8168785928910214e-06   3.652277839141815e-07   5.978856419381365e-06
-2.8168785928910214e-06   3.652277839141815e-07   5.978856419381365e-06
-2.8168785928910214e-06   3.652277839141815e-07   5.978856419381365e-06
-2.8168785928910214e-06   3.652277839141815e-07   5.978856419381365e-06
-2.72409505468351e-06   1.003944219162185e-07   5.983117206234329e-06
-2.72409505468351e-06   1.003944219162185e-07   5.983117206234329e-06
-2.72409505468351e-06   1.003944219162185e-07   5.983117206234329e-06
-2.72409505468351e-06   1.003944219162185e-07   5.983117206234329e-06
-2.738120367136943e-06   2.671815571734864e-07   5.906420445835693e-06
-2.738120367136943e-06   2.671815571734864e-07   5.906420445835693e-06
-2.738120367136943e-06   2.671815571734864e-07   5.906420445835693e-06
-2.738120367136943e-06   2.671815571734864e-07   5.906420445835693e-06
-2.724095054683513e-06   3.652277839142357e-07   6.137756436580148e-06
-2.724095054683513e-06   3.652277839142357e-07   6.137756436580148e-06
-2.724095054683513e-06   3.652277839142357e-07   6.137756436580148e-06
-2.724095054683513e-06   3.652277839142357e-07   6.137756436580148e-06
-2.8168785928910214e-06   1.003944219162185e-07   5.824217189035532e-06
-2.8168785928910214e-06   1.003944219162185e-07   5.824217189035532e-06
-2.8168785928910214e-06   1.003944219162185e-07   5.824217189035532e-06
-2.8168785928910214e-06   1.003944219162185e-07   5.824217189035532e-06
-2.8511071048117244e-06   2.1345366805867886e-07   6.048104261832383e-06
-2.8511071048117244e-06   2.1345366805867886e-07   6.048104261832383e-06
-2.8511071048117244e-06   2.1345366805867886e-07   6.048104261832383e-06
-2.8511071048117244e-06   2.1345366805867886e-07   6.048104261832383e-06
-2.8233381744538567e-06   -3.321395751680156e-08   6.149823286581237e-06
-2.8233381744538567e-06   -3.321395751680156e-08   6.149823286581237e-06
-2.8233381744538567e-06   -3.321395751680156e-08   6.149823286581237e-06
-2.8233381744538567e-06   -3.321395751680156e-08   6.149823286581237e-06
-2.771883284293999e-06   1.7097003743659993e-07   5.941554739342823e-06
-2.771883284293999e-06   1.7097003743659993e-07   5.941554739342823e-06
-2.771883284293999e-06   1.7097003743659993e-07   5.941554739342823e-06
-2.771883284293999e-06   1.7097003743659993e-07   5.941554739342823e-06
-2.8233381744538567e-06   2.1345366805867886e-07   6.196104837177628e-06
-2.8233381744538567e-06   2.1345366805867886e-07   6.196104837177628e-06
-2.8233381744538567e-06   2.1345366805867886e-07   6.196104837177628e-06
-2.8233381744538567e-06   2.1345366805867886e-07   6.196104837177628e-06
-2.8511071048117244e-06   -3.321395751680156e-08   6.001822711235928e-06
-2.8511071048117244e-06   -3.321395751680156e-08   6.001822711235928e-06
-2.8511071048117244e-06   -3.321395751680156e-08   6.001822711235928e-06
-2.8511071048117244e-06   -3.321395751680156e-08   6.001822711235928e-06
-2.878640985148865e-06   5.1391001849052185e-08   6.209620482257067e-06
-2.878640985148865e-06   5.1391001849052185e-08   6.209620482257067e-06
-2.878640985148865e-06   5.1391001849052185e-08   6.209620482257067e-06
-2.878640985148865e-06   5.1391001849052185e-08   6.209620482257067e-06
-2.8896354994970834e-06   -2.0611561354674898e-07   6.3824486420748634e-06
-2.8896354994970834e-06   -2.0611561354674898e-07   6.3824486420748634e-06
-2.8896354994970834e-06   -2.0611561354674898e-07   6.3824486420748634e-06
-2.8896354994970834e-06   -2.0611561354674898e-07   6.3824486420748634e-06
-2.8210535963538165e-06   6.052986294328533e-08   6.108158184275259e-06
-2.8210535963538165e-06   6.052986294328533e-08   6.108158184275259e-06
-2.8210535963538165e-06   6.052986294328533e-08   6.108158184275259e-06
-2.8210535963538165e-06   6.052986294328533e-08   6.108158184275259e-06
-2.7885235452490927e-06   6.527789462806529e-07   6.852042553994137e-06
-2.7885235452490927e-06   6.527789462806529e-07   6.852042553994137e-06
-2.7885235452490927e-06   6.527789462806529e-07   6.852042553994137e-06
-2.7885235452490927e-06   6.527789462806529e-07   6.852042553994137e-06
-3.0877609012943167e-06   6.329867675917674e-08   5.99962546553926e-06
-3.0877609012943167e-06   6.329867675917674e-08   5.99962546553926e-06
-3.0877609012943167e-06   6.329867675917674e-08   5.99962546553926e-06
-3.0877609012943167e-06   6.329867675917674e-08   5.99962546553926e-06
-3.101876923240711e-06   4.999412901775268e-07   6.502360700028954e-06
-3.101876923240711e-06   4.999412901775268e-07   6.502360700028954e-06
-3.101876923240711e-06   4.999412901775268e-07   6.502360700028954e-06
-3.101876923240711e-06   4.999412901775268e-07   6.502360700028954e-06
-2.8168785928910214e-06   -3.450470011608412e-08   6.3480310769555985e-06
-2.8168785928910214e-06   -3.450470011608412e-08   6.3480310769555985e-06
-2.8168785928910214e-06   -3.450470011608412e-08   6.3480310769555985e-06
-2.8168785928910214e-06   -3.450470011608412e-08   6.3480310769555985e-06
-2.9448640066533263e-06   2.840246077259311e-07   6.370222515187586e-06
-2.9448640066533263e-06   2.840246077259311e-07   6.370222515187586e-06
-2.9448640066533263e-06   2.840246077259311e-07   6.370222515187586e-06
-2.9448640066533263e-06   2.840246077259311e-07   6.370222515187586e-06
-2.8168785928910214e-06   4.999412901775268e-07   6.823028294205099e-06
-2.8168785928910214e-06   4.999412901775268e-07   6.823028294205099e-06
-2.8168785928910214e-06   4.999412901775268e-07   6.823028294205099e-06
-2.8168785928910214e-06   4.999412901775268e-07   6.823028294205099e-06
-3.1018769232406973e-06   -3.4504700116057014e-08   6.027363482779454e-06
-3.1018769232406973e-06   -3.4504700116057014e-08   6.027363482779454e-06
-3.1018769232406973e-06   -3.4504700116057014e-08   6.027363482779454e-06
-3.1018769232406973e-06   -3.4504700116057014e-08   6.027363482779454e-06
-3.12224514065482e-06   3.447894249055945e-07   6.59753115437968e-06
-3.12224514065482e-06   3.447894249055945e-07   6.59753115437968e-06
-3.12224514065482e-06   3.447894249055945e-07   6.59753115437968e-06
-3.12224514065482e-06   3.447894249055945e-07   6.59753115437968e-06
-2.8511071048117244e-06   -1.5141818286053808e-07   6.443358992634169e-06
-2.8511071048117244e-06   -1.5141818286053808e-07   6.443358992634169e-06
-2.8511071048117244e-06   -1.5141818286053808e-07   6.443358992634169e-06
-2.8511071048117244e-06   -1.5141818286053808e-07   6.443358992634169e-06
-2.95295019660435e-06   1.8830754610764562e-07   6.409262041574324e-06
-2.95295019660435e-06   1.8830754610764562e-07   6.409262041574324e-06
-2.95295019660435e-06   1.8830754610764562e-07   6.409262041574324e-06
-2.95295019660435e-06   1.8830754610764562e-07   6.409262041574324e-06
-2.8511071048117244e-06   3.447894249055945e-07   6.8952557190392675e-06
-2.8511071048117244e-06   3.447894249055945e-07   6.8952557190392675e-06
-2.8511071048117244e-06   3.447894249055945e-07   6.8952557190392675e-06
-2.8511071048117244e-06   3.447894249055945e-07   6.8952557190392675e-06
-3.12224514065482e-06   -1.5141818286053808e-07   6.145634427974527e-06
-3.12224514065482e-06   -1.5141818286053808e-07   6.145634427974527e-06
-3.12224514065482e-06   -1.5141818286053808e-07   6.145634427974527e-06
-3.12224514065482e-06   -1.5141818286053808e-07   6.145634427974527e-06
-3.1379237786031397e-06   1.9858672730506052e-07   6.7716048217305745e-06
-3.1379237786031397e-06   1.9858672730506052e-07   6.7716048217305745e-06
-3.1379237786031397e-06   1.9858672730506052e-07   6.7716048217305745e-06
-3.1379237786031397e-06   1.9858672730506052e-07   6.7716048217305745e-06
-2.878640985148865e-06   -2.6713143842335327e-07   6.618897732077136e-06
-2.878640985148865e-06   -2.6713143842335327e-07   6.618897732077136e-06
-2.878640985148865e-06   -2.6713143842335327e-07   6.618897732077136e-06
-2.878640985148865e-06   -2.6713143842335327e-07   6.618897732077136e-06
-2.9663003237487884e-06   9.027033401828063e-08   6.550555566278525e-06
-2.9663003237487884e-06   9.027033401828063e-08   6.550555566278525e-06
-2.9663003237487884e-06   9.027033401828063e-08   6.550555566278525e-06
-2.9663003237487884e-06   9.027033401828063e-08   6.550555566278525e-06
-3.0877609012943167e-06   8.920463625147431e-07   5.607930935922536e-06
-3.0877609012943167e-06   8.920463625147431e-07   5.607930935922536e-06
-3.0877609012943167e-06   8.920463625147431e-07   5.607930935922536e-06
-3.0877609012943167e-06   8.920463625147431e-07   5.607930935922536e-06
-3.4829512049656014e-06   2.975394369729694e-07   4.592576274478616e-06
-3.4829512049656014e-06   2.975394369729694e-07   4.592576274478616e-06
-3.4829512049656014e-06   2.975394369729694e-07   4.592576274478616e-06
-3.4829512049656014e-06   2.975394369729694e-07   4.592576274478616e-06
-3.495556354614674e-06   7.314632222944154e-07   5.299356266961358e-06
-3.495556354614674e-06   7.314632222944154e-07   5.299356266961358e-06
-3.495556354614674e-06   7.314632222944154e-07   5.299356266961358e-06
-3.495556354614674e-06   7.314632222944154e-07   5.299356266961358e-06
-3.101876923240711e-06   1.677680685079107e-07   4.981440973609962e-06
-3.101876923240711e-06   1.677680685079107e-07   4.981440973609962e-06
-3.101876923240711e-06   1.677680685079107e-07   4.981440973609962e-06
-3.101876923240711e-06   1.677680685079107e-07   4.981440973609962e-06
-3.283631565694005e-06   5.323118397689063e-07   5.065639114942182e-06
-3.283631565694005e-06   5.323118397689063e-07   5.065639114942182e-06
-3.283631565694005e-06   5.323118397689063e-07   5.065639114942182e-06
-3.283631565694005e-06   5.323118397689063e-07   5.065639114942182e-06
-3.101876923240711e-06   7.314632222943612e-07   5.6375733592332335e-06
-3.101876923240711e-06   7.314632222943612e-07   5.6375733592332335e-06
-3.101876923240711e-06   7.314632222943612e-07   5.6375733592332335e-06
-3.101876923240711e-06   7.314632222943612e-07   5.6375733592332335e-06
-3.495556354614674e-06   1.677680685079107e-07   4.643223881338059e-06
-3.495556354614674e-06   1.677680685079107e-07   4.643223881338059e-06
-3.495556354614674e-06   1.677680685079107e-07   4.643223881338059e-06
-3.495556354614674e-06   1.677680685079107e-07   4.643223881338059e-06
-3.5390455493520043e-06   5.877176277466417e-07   5.491810950647067e-06
-3.5390455493520043e-06   5.877176277466417e-07   5.491810950647067e-06
-3.5390455493520043e-06   5.877176277466417e-07   5.491810950647067e-06
-3.5390455493520043e-06   5.877176277466417e-07   5.491810950647067e-06
-3.12224514065482e-06   5.613437397010879e-08   5.116093555084303e-06
-3.12224514065482e-06   5.613437397010879e-08   5.116093555084303e-06
-3.12224514065482e-06   5.613437397010879e-08   5.116093555084303e-06
-3.12224514065482e-06   5.613437397010879e-08   5.116093555084303e-06
-3.2804444393290985e-06   4.269639818451254e-07   5.157261288149718e-06
-3.2804444393290985e-06   4.269639818451254e-07   5.157261288149718e-06
-3.2804444393290985e-06   4.269639818451254e-07   5.157261288149718e-06
-3.2804444393290985e-06   4.269639818451254e-07   5.157261288149718e-06
-3.12224514065482e-06   5.877176277465875e-07   5.810760902912835e-06
-3.12224514065482e-06   5.877176277465875e-07   5.810760902912835e-06
-3.12224514065482e-06   5.877176277465875e-07   5.810760902912835e-06
-3.12224514065482e-06   5.877176277465875e-07   5.810760902912835e-06
-3.5390455493520043e-06   5.613437397008168e-08   4.797143602818386e-06
-3.5390455493520043e-06   5.613437397008168e-08   4.797143602818386e-06
-3.5390455493520043e-06   5.613437397008168e-08   4.797143602818386e-06
-3.5390455493520043e-06   5.613437397008168e-08   4.797143602818386e-06
-3.566854974368334e-06   4.4033728046830034e-07   5.7294990933910175e-06
-3.566854974368334e-06   4.4033728046830034e-07   5.7294990933910175e-06
-3.566854974368334e-06   4.4033728046830034e-07   5.7294990933910175e-06
-3.566854974368334e-06   4.4033728046830034e-07   5.7294990933910175e-06
-3.1379237786031397e-06   -5.673566175052572e-08   5.312857532446954e-06
-3.1379237786031397e-06   -5.673566175052572e-08   5.312857532446954e-06
-3.1379237786031397e-06   -5.673566175052572e-08   5.312857532446954e-06
-3.1379237786031397e-06   -5.673566175052572e-08   5.312857532446954e-06
-3.303462453015354e-06   3.321770447940232e-07   5.355407699207123e-06
-3.303462453015354e-06   3.321770447940232e-07   5.355407699207123e-06
-3.303462453015354e-06   3.321770447940232e-07   5.355407699207123e-06
-3.303462453015354e-06   3.321770447940232e-07   5.355407699207123e-06
-3.4829512049656014e-06   1.0705068777716771e-06   2.2063509600298763e-06
-3.4829512049656014e-06   1.0705068777716771e-06   2.2063509600298763e-06
-3.4829512049656014e-06   1.0705068777716771e-06   2.2063509600298763e-06
-3.4829512049656014e-06   1.0705068777716771e-06   2.2063509600298763e-06
-3.5371817588347254e-06   5.01937986573369e-07   1.7748253688623812e-06
-3.5371817588347254e-06   5.01937986573369e-07   1.7748253688623812e-06
-3.5371817588347254e-06   5.01937986573369e-07   1.7748253688623812e-06
-3.5371817588347254e-06   5.01937986573369e-07   1.7748253688623812e-06
-3.7195526919838503e-06   9.639000816931355e-07   2.4245179081020408e-06
-3.7195526919838503e-06   9.639000816931355e-07   2.4245179081020408e-06
-3.7195526919838503e-06   9.639000816931355e-07   2.4245179081020408e-06
-3.7195526919838503e-06   9.639000816931355e-07   2.4245179081020408e-06
-3.495556354614674e-06   4.0863776795211086e-07   2.3843480673980337e-06
-3.495556354614674e-06   4.0863776795211086e-07   2.3843480673980337e-06
-3.495556354614674e-06   4.0863776795211086e-07   2.3843480673980337e-06
-3.495556354614674e-06   4.0863776795211086e-07   2.3843480673980337e-06
-3.4422664312283693e-06   7.573828329971214e-07   2.0862844893938684e-06
-3.4422664312283693e-06   7.573828329971214e-07   2.0862844893938684e-06
-3.4422664312283693e-06   7.573828329971214e-07   2.0862844893938684e-06
-3.4422664312283693e-06   7.573828329971214e-07   2.0862844893938684e-06
-3.4955563546146604e-06   9.639000816931355e-07   2.757675296346634e-06
-3.4955563546146604e-06   9.639000816931355e-07   2.757675296346634e-06
-3.4955563546146604e-06   9.639000816931355e-07   2.757675296346634e-06
-3.4955563546146604e-06   9.639000816931355e-07   2.757675296346634e-06
-3.719552691983823e-06   4.0863776795211086e-07   2.0511906791534406e-06
-3.719552691983823e-06   4.0863776795211086e-07   2.0511906791534406e-06
-3.719552691983823e-06   4.0863776795211086e-07   2.0511906791534406e-06
-3.719552691983823e-06   4.0863776795211086e-07   2.0511906791534406e-06
-3.878949738317334e-06   8.898769708747282e-07   2.8666346940737423e-06
-3.878949738317334e-06   8.898769708747282e-07   2.8666346940737423e-06
-3.878949738317334e-06   8.898769708747282e-07   2.8666346940737423e-06
-3.878949738317334e-06   8.898769708747282e-07   2.8666346940737423e-06
-3.5390455493520043e-06   3.4799875356323956e-07   2.6252546428517226e-06
-3.5390455493520043e-06   3.4799875356323956e-07   2.6252546428517226e-06
-3.5390455493520043e-06   3.4799875356323956e-07   2.6252546428517226e-06
-3.5390455493520043e-06   3.4799875356323956e-07   2.6252546428517226e-06
-3.5747467561702024e-06   7.051705513460638e-07   2.470453575545824e-06
-3.5747467561702024e-06   7.051705513460638e-07   2.470453575545824e-06
-3.5747467561702024e-06   7.051705513460638e-07   2.470453575545824e-06
-3.5747467561702024e-06   7.051705513460638e-07   2.470453575545824e-06
-3.5390455493520043e-06   8.898769708747282e-07   3.191761624460592e-06
-3.5390455493520043e-06   8.898769708747282e-07   3.191761624460592e-06
-3.5390455493520043e-06   8.898769708747282e-07   3.191761624460592e-06
-3.5390455493520043e-06   8.898769708747282e-07   3.191761624460592e-06
-3.878949738317361e-06   3.4799875356323956e-07   2.300127712464805e-06
-3.878949738317361e-06   3.4799875356323956e-07   2.300127712464805e-06
-3.878949738317361e-06   3.4799875356323956e-07   2.300127712464805e-06
-3.878949738317361e-06   3.4799875356323956e-07   2.300127712464805e-06
-4.110115792321166e-06   7.159125289534786e-07   3.6775740785337328e-06
-4.110115792321166e-06   7.159125289534786e-07   3.6775740785337328e-06
-4.110115792321166e-06   7.159125289534786e-07   3.6775740785337328e-06
-4.110115792321166e-06   7.159125289534786e-07   3.6775740785337328e-06
-3.566854974368334e-06   2.2177336152004305e-07   3.068622882405653e-06
-3.566854974368334e-06   2.2177336152004305e-07   3.068622882405653e-06
-3.566854974368334e-06   2.2177336152004305e-07   3.068622882405653e-06
-3.566854974368334e-06   2.2177336152004305e-07   3.068622882405653e-06
-3.620110722803663e-06   6.397663837722043e-07   2.906586649779647e-06
-3.620110722803663e-06   6.397663837722043e-07   2.906586649779647e-06
-3.620110722803663e-06   6.397663837722043e-07   2.906586649779647e-06
-3.620110722803663e-06   6.397663837722043e-07   2.906586649779647e-06
-6.338000519404008e-06   8.413274390006785e-07   2.7532008050916223e-06
-6.338000519404008e-06   8.413274390006785e-07   2.7532008050916223e-06
-6.338000519404008e-06   8.413274390006785e-07   2.7532008050916223e-06
-6.338000519404008e-06   8.413274390006785e-07   2.7532008050916223e-06
-4.358000833514987e-06   1.1552625693665838e-06   6.241561359792862e-06
-4.358000833514987e-06   1.1552625693665838e-06   6.241561359792862e-06
-4.358000833514987e-06   1.1552625693665838e-06   6.241561359792862e-06
-4.358000833514987e-06   1.1552625693665838e-06   6.241561359792862e-06
-4.361412611413204e-06   6.510697231957815e-07   3.0533888834992953e-06
-4.361412611413204e-06   6.510697231957815e-07   3.0533888834992953e-06
-4.361412611413204e-06   6.510697231957815e-07   3.0533888834992953e-06
-4.361412611413204e-06   6.510697231957815e-07   3.0533888834992953e-06
-7.025507485217328e-06   4.287681608200716e-07   7.626927943931609e-06
-7.025507485217328e-06   4.287681608200716e-07   7.626927943931609e-06
-7.025507485217328e-06   4.287681608200716e-07   7.626927943931609e-06
-7.025507485217328e-06   4.287681608200716e-07   7.626927943931609e-06
-5.234191827835679e-06   6.754810420687301e-07   4.4933741195463395e-06
-5.234191827835679e-06   6.754810420687301e-07   4.4933741195463395e-06
-5.234191827835679e-06   6.754810420687301e-07   4.4933741195463395e-06
-5.234191827835679e-06   6.754810420687301e-07   4.4933741195463395e-06
-7.025507485217337e-06   6.510697231958086e-07   3.186769820924705e-06
-7.025507485217337e-06   6.510697231958086e-07   3.186769820924705e-06
-7.025507485217337e-06   6.510697231958086e-07   3.186769820924705e-06
-7.025507485217337e-06   6.510697231958086e-07   3.186769820924705e-06
-4.361412611413196e-06   4.287681608200716e-07   7.493547006506189e-06
-4.361412611413196e-06   4.287681608200716e-07   7.493547006506189e-06
-4.361412611413196e-06   4.287681608200716e-07   7.493547006506189e-06
-4.361412611413196e-06   4.287681608200716e-07   7.493547006506189e-06
-4.434855037200866e-06   5.220060481977832e-07   3.3803900203981102e-06
-4.434855037200866e-06   5.220060481977832e-07   3.3803900203981102e-06
-4.434855037200866e-06   5.220060481977832e-07   3.3803900203981102e-06
-4.434855037200866e-06   5.220060481977832e-07   3.3803900203981102e-06
-7.062880163318381e-06   2.9374686424085467e-07   7.89738740763481e-06
-7.062880163318381e-06   2.9374686424085467e-07   7.89738740763481e-06
-7.062880163318381e-06   2.9374686424085467e-07   7.89738740763481e-06
-7.062880163318381e-06   2.9374686424085467e-07   7.89738740763481e-06
-5.607665016386238e-06   4.0756514963884985e-07   5.403737858175745e-06
-5.607665016386238e-06   4.0756514963884985e-07   5.403737858175745e-06
-5.607665016386238e-06   4.0756514963884985e-07   5.403737858175745e-06
-5.607665016386238e-06   4.0756514963884985e-07   5.403737858175745e-06
-7.062880163318393e-06   5.220060481977832e-07   3.517345530772316e-06
-7.062880163318393e-06   5.220060481977832e-07   3.517345530772316e-06
-7.062880163318393e-06   5.220060481977832e-07   3.517345530772316e-06
-7.062880163318393e-06   5.220060481977832e-07   3.517345530772316e-06
-4.434855037200858e-06   2.9374686424085467e-07   7.760431897260665e-06
-4.434855037200858e-06   2.9374686424085467e-07   7.760431897260665e-06
-4.434855037200858e-06   2.9374686424085467e-07   7.760431897260665e-06
-4.434855037200858e-06   2.9374686424085467e-07   7.760431897260665e-06
-4.40125484709709e-06   2.0592364623510037e-07   3.9496394799479705e-06
-4.40125484709709e-06   2.0592364623510037e-07   3.9496394799479705e-06
-4.40125484709709e-06   2.0592364623510037e-07   3.9496394799479705e-06
-4.40125484709709e-06   2.0592364623510037e-07   3.9496394799479705e-06
-7.1611327504106665e-06   -2.8867901372428377e-07   8.846197581446189e-06
-7.1611327504106665e-06   -2.8867901372428377e-07   8.846197581446189e-06
-7.1611327504106665e-06   -2.8867901372428377e-07   8.846197581446189e-06
-7.1611327504106665e-06   -2.8867901372428377e-07   8.846197581446189e-06
-5.536226956450957e-06   1.8020828053842068e-07   5.856688881622393e-06
-5.536226956450957e-06   1.8020828053842068e-07   5.856688881622393e-06
-5.536226956450957e-06   1.8020828053842068e-07   5.856688881622393e-06
-5.536226956450957e-06   1.8020828053842068e-07   5.856688881622393e-06
-4.358000833514994e-06   2.1936036114549788e-07   6.098218695713348e-06
-4.358000833514994e-06   2.1936036114549788e-07   6.098218695713348e-06
-4.358000833514994e-06   2.1936036114549788e-07   6.098218695713348e-06
-4.358000833514994e-06   2.1936036114549788e-07   6.098218695713348e-06
-2.712055405238188e-06   -1.430722831009137e-06   7.851411160881929e-06
-2.712055405238188e-06   -1.430722831009137e-06   7.851411160881929e-06
-2.712055405238188e-06   -1.430722831009137e-06   7.851411160881929e-06
-2.712055405238188e-06   -1.430722831009137e-06   7.851411160881929e-06
-2.7264851791974982e-06   1.003944219162185e-07   5.114908430911162e-06
-2.7264851791974982e-06   1.003944219162185e-07   5.114908430911162e-06
-2.7264851791974982e-06   1.003944219162185e-07   5.114908430911162e-06
-2.7264851791974982e-06   1.003944219162185e-07   5.114908430911162e-06
-4.361412611413196e-06   -1.1841354378255945e-06   8.610505400449092e-06
-4.361412611413196e-06   -1.1841354378255945e-06   8.610505400449092e-06
-4.361412611413196e-06   -1.1841354378255945e-06   8.610505400449092e-06
-4.361412611413196e-06   -1.1841354378255945e-06   8.610505400449092e-06
-3.5240540735268863e-06   -7.100726425525211e-07   6.930470160141393e-06
-3.5240540735268863e-06   -7.100726425525211e-07   6.930470160141393e-06
-3.5240540735268863e-06   -7.100726425525211e-07   6.930470160141393e-06
-3.5240540735268863e-06   -7.100726425525211e-07   6.930470160141393e-06
-4.361412611413199e-06   1.003944219161914e-07   5.88562634675616e-06
-4.361412611413199e-06   1.003944219161914e-07   5.88562634675616e-06
-4.361412611413199e-06   1.003944219161914e-07   5.88562634675616e-06
-4.361412611413199e-06   1.003944219161914e-07   5.88562634675616e-06
-2.7264851791974982e-06   -1.1841354378255945e-06   7.839787484604019e-06
-2.7264851791974982e-06   -1.1841354378255945e-06   7.839787484604019e-06
-2.7264851791974982e-06   -1.1841354378255945e-06   7.839787484604019e-06
-2.7264851791974982e-06   -1.1841354378255945e-06   7.839787484604019e-06
-2.7499286763331033e-06   -3.3213957516828665e-08   5.260865435864371e-06
-2.7499286763331033e-06   -3.3213957516828665e-08   5.260865435864371e-06
-2.7499286763331033e-06   -3.3213957516828665e-08   5.260865435864371e-06
-2.7499286763331033e-06   -3.3213957516828665e-08   5.260865435864371e-06
-4.434855037200858e-06   -1.206755451365501e-06   8.773200933619863e-06
-4.434855037200858e-06   -1.206755451365501e-06   8.773200933619863e-06
-4.434855037200858e-06   -1.206755451365501e-06   8.773200933619863e-06
-4.434855037200858e-06   -1.206755451365501e-06   8.773200933619863e-06
-3.5074455444947135e-06   -6.210024695947256e-07   6.8760666567138195e-06
-3.5074455444947135e-06   -6.210024695947256e-07   6.8760666567138195e-06
-3.5074455444947135e-06   -6.210024695947256e-07   6.8760666567138195e-06
-3.5074455444947135e-06   -6.210024695947256e-07   6.8760666567138195e-06
-4.434855037200866e-06   -3.321395751680156e-08   5.964990332173634e-06
-4.434855037200866e-06   -3.321395751680156e-08   5.964990332173634e-06
-4.434855037200866e-06   -3.321395751680156e-08   5.964990332173634e-06
-4.434855037200866e-06   -3.321395751680156e-08   5.964990332173634e-06
-2.7499286763331033e-06   -1.206755451365501e-06   8.069076037310661e-06
-2.7499286763331033e-06   -1.206755451365501e-06   8.069076037310661e-06
-2.7499286763331033e-06   -1.206755451365501e-06   8.069076037310661e-06
-2.7499286763331033e-06   -1.206755451365501e-06   8.069076037310661e-06
-2.73836286276631e-06   -2.0611561354674898e-07   5.445976246790004e-06
-2.73836286276631e-06   -2.0611561354674898e-07   5.445976246790004e-06
-2.73836286276631e-06   -2.0611561354674898e-07   5.445976246790004e-06
-2.73836286276631e-06   -2.0611561354674898e-07   5.445976246790004e-06
-4.401254847097078e-06   -1.2058723942347596e-06   8.817316955754039e-06
-4.401254847097078e-06   -1.2058723942347596e-06   8.817316955754039e-06
-4.401254847097078e-06   -1.2058723942347596e-06   8.817316955754039e-06
-4.401254847097078e-06   -1.2058723942347596e-06   8.817316955754039e-06
-3.5372912441829947e-06   -6.891701505753578e-07   7.067356271368281e-06
-3.5372912441829947e-06   -6.891701505753578e-07   7.067356271368281e-06
-3.5372912441829947e-06   -6.891701505753578e-07   7.067356271368281e-06
-3.5372912441829947e-06   -6.891701505753578e-07   7.067356271368281e-06
-2.712055405238188e-06   6.329867675920384e-08   5.667759976307388e-06
-2.712055405238188e-06   6.329867675920384e-08   5.667759976307388e-06
-2.712055405238188e-06   6.329867675920384e-08   5.667759976307388e-06
-2.712055405238188e-06   6.329867675920384e-08   5.667759976307388e-06
-2.0410161155901615e-06   -1.1190603240201531e-06   6.0767433919198e-06
-2.0410161155901615e-06   -1.1190603240201531e-06   6.0767433919198e-06
-2.0410161155901615e-06   -1.1190603240201531e-06   6.0767433919198e-06
-2.0410161155901615e-06   -1.1190603240201531e-06   6.0767433919198e-06
-2.0330098633991996e-06   -3.450470011608412e-08   4.999961287739077e-06
-2.0330098633991996e-06   -3.450470011608412e-08   4.999961287739077e-06
-2.0330098633991996e-06   -3.450470011608412e-08   4.999961287739077e-06
-2.0330098633991996e-06   -3.450470011608412e-08   4.999961287739077e-06
-2.7264851791974982e-06   -1.0991064186029718e-06   6.794514511828409e-06
-2.7264851791974982e-06   -1.0991064186029718e-06   6.794514511828409e-06
-2.7264851791974982e-06   -1.0991064186029718e-06   6.794514511828409e-06
-2.7264851791974982e-06   -1.0991064186029718e-06   6.794514511828409e-06
-2.365076893879358e-06   -5.628123089279255e-07   5.870390903826476e-06
-2.365076893879358e-06   -5.628123089279255e-07   5.870390903826476e-06
-2.365076893879358e-06   -5.628123089279255e-07   5.870390903826476e-06
-2.365076893879358e-06   -5.628123089279255e-07   5.870390903826476e-06
-2.7264851791974982e-06   -3.450470011608412e-08   5.638722318831188e-06
-2.7264851791974982e-06   -3.450470011608412e-08   5.638722318831188e-06
-2.7264851791974982e-06   -3.450470011608412e-08   5.638722318831188e-06
-2.7264851791974982e-06   -3.450470011608412e-08   5.638722318831188e-06
-2.0330098633991996e-06   -1.0991064186029718e-06   6.155753480736257e-06
-2.0330098633991996e-06   -1.0991064186029718e-06   6.155753480736257e-06
-2.0330098633991996e-06   -1.0991064186029718e-06   6.155753480736257e-06
-2.0330098633991996e-06   -1.0991064186029718e-06   6.155753480736257e-06
-2.0295897565479767e-06   -1.5141818286053808e-07   5.115119271010258e-06
-2.0295897565479767e-06   -1.5141818286053808e-07   5.115119271010258e-06
-2.0295897565479767e-06   -1.5141818286053808e-07   5.115119271010258e-06
-2.0295897565479767e-06   -1.5141818286053808e-07   5.115119271010258e-06
-2.7499286763331033e-06   -1.13022225994783e-06   6.902966583571167e-06
-2.7499286763331033e-06   -1.13022225994783e-06   6.902966583571167e-06
-2.7499286763331033e-06   -1.13022225994783e-06   6.902966583571167e-06
-2.7499286763331033e-06   -1.13022225994783e-06   6.902966583571167e-06
-2.35449565045087e-06   -5.946912519554982e-07   5.922592935638619e-06
-2.35449565045087e-06   -5.946912519554982e-07   5.922592935638619e-06
-2.35449565045087e-06   -5.946912519554982e-07   5.922592935638619e-06
-2.35449565045087e-06   -5.946912519554982e-07   5.922592935638619e-06
-2.7499286763331033e-06   -1.5141818286053808e-07   5.702401717262666e-06
-2.7499286763331033e-06   -1.5141818286053808e-07   5.702401717262666e-06
-2.7499286763331033e-06   -1.5141818286053808e-07   5.702401717262666e-06
-2.7499286763331033e-06   -1.5141818286053808e-07   5.702401717262666e-06
-2.0295897565479767e-06   -1.13022225994783e-06   6.315684137318773e-06
-2.0295897565479767e-06   -1.13022225994783e-06   6.315684137318773e-06
-2.0295897565479767e-06   -1.13022225994783e-06   6.315684137318773e-06
-2.0295897565479767e-06   -1.13022225994783e-06   6.315684137318773e-06
-2.00415629225151e-06   -2.6713143842332617e-07   5.295024531460897e-06
-2.00415629225151e-06   -2.6713143842332617e-07   5.295024531460897e-06
-2.00415629225151e-06   -2.6713143842332617e-07   5.295024531460897e-06
-2.00415629225151e-06   -2.6713143842332617e-07   5.295024531460897e-06
-2.738362862766303e-06   -1.1703060627047524e-06   7.060606923554413e-06
-2.738362862766303e-06   -1.1703060627047524e-06   7.060606923554413e-06
-2.738362862766303e-06   -1.1703060627047524e-06   7.060606923554413e-06
-2.738362862766303e-06   -1.1703060627047524e-06   7.060606923554413e-06
-2.3428997451392525e-06   -6.435967409018509e-07   6.085476134427587e-06
-2.3428997451392525e-06   -6.435967409018509e-07   6.085476134427587e-06
-2.3428997451392525e-06   -6.435967409018509e-07   6.085476134427587e-06
-2.3428997451392525e-06   -6.435967409018509e-07   6.085476134427587e-06
-2.0410161155901615e-06   2.975394369729423e-07   3.907999540104224e-06
-2.0410161155901615e-06   2.975394369729423e-07   3.907999540104224e-06
-2.0410161155901615e-06   2.975394369729423e-07   3.907999540104224e-06
-2.0410161155901615e-06   2.975394369729423e-07   3.907999540104224e-06
-1.7555095792391831e-06   -4.6380691837300664e-07   3.927035954148314e-06
-1.7555095792391831e-06   -4.6380691837300664e-07   3.927035954148314e-06
-1.7555095792391831e-06   -4.6380691837300664e-07   3.927035954148314e-06
-1.7555095792391831e-06   -4.6380691837300664e-07   3.927035954148314e-06
-1.7295793707894591e-06   1.677680685079107e-07   3.530213772987825e-06
-1.7295793707894591e-06   1.677680685079107e-07   3.530213772987825e-06
-1.7295793707894591e-06   1.677680685079107e-07   3.530213772987825e-06
-1.7295793707894591e-06   1.677680685079107e-07   3.530213772987825e-06
-2.0330098633991996e-06   -5.386069407949866e-07   4.459756266252495e-06
-2.0330098633991996e-06   -5.386069407949866e-07   4.459756266252495e-06
-2.0330098633991996e-06   -5.386069407949866e-07   4.459756266252495e-06
-2.0330098633991996e-06   -5.386069407949866e-07   4.459756266252495e-06
-1.8765152447806658e-06   -1.0656354877084263e-07   3.9397058666737635e-06
-1.8765152447806658e-06   -1.0656354877084263e-07   3.9397058666737635e-06
-1.8765152447806658e-06   -1.0656354877084263e-07   3.9397058666737635e-06
-1.8765152447806658e-06   -1.0656354877084263e-07   3.9397058666737635e-06
-2.0330098633991996e-06   1.677680685079107e-07   3.9540387785695446e-06
-2.0330098633991996e-06   1.677680685079107e-07   3.9540387785695446e-06
-2.0330098633991996e-06   1.677680685079107e-07   3.9540387785695446e-06
-2.0330098633991996e-06   1.677680685079107e-07   3.9540387785695446e-06
-1.7295793707894727e-06   -5.386069407949866e-07   4.035931260670762e-06
-1.7295793707894727e-06   -5.386069407949866e-07   4.035931260670762e-06
-1.7295793707894727e-06   -5.386069407949866e-07   4.035931260670762e-06
-1.7295793707894727e-06   -5.386069407949866e-07   4.035931260670762e-06
-1.7247334168986908e-06   5.613437397010879e-08   3.69385739959786e-06
-1.7247334168986908e-06   5.613437397010879e-08   3.69385739959786e-06
-1.7247334168986908e-06   5.613437397010879e-08   3.69385739959786e-06
-1.7247334168986908e-06   5.613437397010879e-08   3.69385739959786e-06
-2.0295897565479767e-06   -5.967339569001856e-07   4.593672297535461e-06
-2.0295897565479767e-06   -5.967339569001856e-07   4.593672297535461e-06
-2.0295897565479767e-06   -5.967339569001856e-07   4.593672297535461e-06
-2.0295897565479767e-06   -5.967339569001856e-07   4.593672297535461e-06
-1.8504153318433034e-06   -1.8391189541988747e-07   4.047355019472747e-06
-1.8504153318433034e-06   -1.8391189541988747e-07   4.047355019472747e-06
-1.8504153318433034e-06   -1.8391189541988747e-07   4.047355019472747e-06
-1.8504153318433034e-06   -1.8391189541988747e-07   4.047355019472747e-06
-2.0295897565479767e-06   5.613437397010879e-08   4.085578398120007e-06
-2.0295897565479767e-06   5.613437397010879e-08   4.085578398120007e-06
-2.0295897565479767e-06   5.613437397010879e-08   4.085578398120007e-06
-2.0295897565479767e-06   5.613437397010879e-08   4.085578398120007e-06
-1.7247334168986908e-06   -5.967339569001856e-07   4.201951299013314e-06
-1.7247334168986908e-06   -5.967339569001856e-07   4.201951299013314e-06
-1.7247334168986908e-06   -5.967339569001856e-07   4.201951299013314e-06
-1.7247334168986908e-06   -5.967339569001856e-07   4.201951299013314e-06
-1.709253664107372e-06   -5.673566175052572e-08   3.899326504752025e-06
-1.709253664107372e-06   -5.673566175052572e-08   3.899326504752025e-06
-1.709253664107372e-06   -5.673566175052572e-08   3.899326504752025e-06
-1.709253664107372e-06   -5.673566175052572e-08   3.899326504752025e-06
-2.00415629225151e-06   -6.718835392767968e-07   4.759919611507969e-06
-2.00415629225151e-06   -6.718835392767968e-07   4.759919611507969e-06
-2.00415629225151e-06   -6.718835392767968e-07   4.759919611507969e-06
-2.00415629225151e-06   -6.718835392767968e-07   4.759919611507969e-06
-1.8343994993654496e-06   -2.5279447436963036e-07   4.225538184420377e-06
-1.8343994993654496e-06   -2.5279447436963036e-07   4.225538184420377e-06
-1.8343994993654496e-06   -2.5279447436963036e-07   4.225538184420377e-06
-1.8343994993654496e-06   -2.5279447436963036e-07   4.225538184420377e-06
-1.7555095792391696e-06   5.01937986573369e-07   9.74582155999386e-07
-1.7555095792391696e-06   5.01937986573369e-07   9.74582155999386e-07
-1.7555095792391696e-06   5.01937986573369e-07   9.74582155999386e-07
-1.7555095792391696e-06   5.01937986573369e-07   9.74582155999386e-07
-1.0985758068405985e-06   -4.44212673145043e-08   1.7416562243309877e-06
-1.0985758068405985e-06   -4.44212673145043e-08   1.7416562243309877e-06
-1.0985758068405985e-06   -4.44212673145043e-08   1.7416562243309877e-06
-1.0985758068405985e-06   -4.44212673145043e-08   1.7416562243309877e-06
-1.1702201677526178e-06   4.0863776795213797e-07   9.871157275738278e-07
-1.1702201677526178e-06   4.0863776795213797e-07   9.871157275738278e-07
-1.1702201677526178e-06   4.0863776795213797e-07   9.871157275738278e-07
-1.1702201677526178e-06   4.0863776795213797e-07   9.871157275738278e-07
-1.7295793707894591e-06   -6.506595117128898e-08   2.203603297442594e-06
-1.7295793707894591e-06   -6.506595117128898e-08   2.203603297442594e-06
-1.7295793707894591e-06   -6.506595117128898e-08   2.203603297442594e-06
-1.7295793707894591e-06   -6.506595117128898e-08   2.203603297442594e-06
-1.3887622479995701e-06   2.598918938627318e-07   1.4406000524390112e-06
-1.3887622479995701e-06   2.598918938627318e-07   1.4406000524390112e-06
-1.3887622479995701e-06   2.598918938627318e-07   1.4406000524390112e-06
-1.3887622479995701e-06   2.598918938627318e-07   1.4406000524390112e-06
-1.7295793707894727e-06   4.0863776795211086e-07   1.2713379590477728e-06
-1.7295793707894727e-06   4.0863776795211086e-07   1.2713379590477728e-06
-1.7295793707894727e-06   4.0863776795211086e-07   1.2713379590477728e-06
-1.7295793707894727e-06   4.0863776795211086e-07   1.2713379590477728e-06
-1.1702201677526178e-06   -6.506595117130253e-08   1.919381065968568e-06
-1.1702201677526178e-06   -6.506595117130253e-08   1.919381065968568e-06
-1.1702201677526178e-06   -6.506595117130253e-08   1.919381065968568e-06
-1.1702201677526178e-06   -6.506595117130253e-08   1.919381065968568e-06
-1.230546216329857e-06   3.4799875356323956e-07   1.257985290338689e-06
-1.230546216329857e-06   3.4799875356323956e-07   1.257985290338689e-06
-1.230546216329857e-06   3.4799875356323956e-07   1.257985290338689e-06
-1.230546216329857e-06   3.4799875356323956e-07   1.257985290338689e-06
-1.7247334168986908e-06   -9.197316192425067e-08   2.3456137739126135e-06
-1.7247334168986908e-06   -9.197316192425067e-08   2.3456137739126135e-06
-1.7247334168986908e-06   -9.197316192425067e-08   2.3456137739126135e-06
-1.7247334168986908e-06   -9.197316192425067e-08   2.3456137739126135e-06
-1.42551042906194e-06   2.1565669100652896e-07   1.6623308824262068e-06
-1.42551042906194e-06   2.1565669100652896e-07   1.6623308824262068e-06
-1.42551042906194e-06   2.1565669100652896e-07   1.6623308824262068e-06
-1.42551042906194e-06   2.1565669100652896e-07   1.6623308824262068e-06
-1.7247334168986908e-06   3.4799875356323956e-07   1.5219684396312237e-06
-1.7247334168986908e-06   3.4799875356323956e-07   1.5219684396312237e-06
-1.7247334168986908e-06   3.4799875356323956e-07   1.5219684396312237e-06
-1.7247334168986908e-06   3.4799875356323956e-07   1.5219684396312237e-06
-1.230546216329857e-06   -9.197316192425067e-08   2.0816306246200923e-06
-1.230546216329857e-06   -9.197316192425067e-08   2.0816306246200923e-06
-1.230546216329857e-06   -9.197316192425067e-08   2.0816306246200923e-06
-1.230546216329857e-06   -9.197316192425067e-08   2.0816306246200923e-06
-1.3588076641787785e-06   2.2177336152004305e-07   1.7433791962351351e-06
-1.3588076641787785e-06   2.2177336152004305e-07   1.7433791962351351e-06
-1.3588076641787785e-06   2.2177336152004305e-07   1.7433791962351351e-06
-1.3588076641787785e-06   2.2177336152004305e-07   1.7433791962351351e-06
-1.709253664107372e-06   -1.2815401149153072e-07   2.537412286589708e-06
-1.709253664107372e-06   -1.2815401149153072e-07   2.537412286589708e-06
-1.709253664107372e-06   -1.2815401149153072e-07   2.537412286589708e-06
-1.709253664107372e-06   -1.2815401149153072e-07   2.537412286589708e-06
-1.4389789069995502e-06   1.838627059915594e-07   1.8997443275867924e-06
-1.4389789069995502e-06   1.838627059915594e-07   1.8997443275867924e-06
-1.4389789069995502e-06   1.838627059915594e-07   1.8997443275867924e-06
-1.4389789069995502e-06   1.838627059915594e-07   1.8997443275867924e-06
-1.528716769256024e-05   1.1552625693665974e-06   7.066401870527954e-06
-1.528716769256024e-05   1.1552625693665974e-06   7.066401870527954e-06
-1.528716769256024e-05   1.1552625693665974e-06   7.066401870527954e-06
-1.528716769256024e-05   1.1552625693665974e-06   7.066401870527954e-06
-3.534475803857338e-06   -8.102002599844683e-06   2.109986258350604e-05
-3.534475803857338e-06   -8.102002599844683e-06   2.109986258350604e-05
-3.534475803857338e-06   -8.102002599844683e-06   2.109986258350604e-05
-3.534475803857338e-06   -8.102002599844683e-06   2.109986258350604e-05
-4.189193386282858e-06   4.287681608200716e-07   3.8271431352320324e-06
-4.189193386282858e-06   4.287681608200716e-07   3.8271431352320324e-06
-4.189193386282858e-06   4.287681608200716e-07   3.8271431352320324e-06
-4.189193386282858e-06   4.287681608200716e-07   3.8271431352320324e-06
-1.3942755335517982e-05   -6.3927159542599475e-06   2.4175970186338553e-05
-1.3942755335517982e-05   -6.3927159542599475e-06   2.4175970186338553e-05
-1.3942755335517982e-05   -6.3927159542599475e-06   2.4175970186338553e-05
-1.3942755335517982e-05   -6.3927159542599475e-06   2.4175970186338553e-05
-9.28061820789105e-06   -3.1783733907935337e-06   1.4477136102213813e-05
-9.28061820789105e-06   -3.1783733907935337e-06   1.4477136102213813e-05
-9.28061820789105e-06   -3.1783733907935337e-06   1.4477136102213813e-05
-9.28061820789105e-06   -3.1783733907935337e-06   1.4477136102213813e-05
-1.3942755335517958e-05   4.287681608200716e-07   7.920033604280036e-06
-1.3942755335517958e-05   4.287681608200716e-07   7.920033604280036e-06
-1.3942755335517958e-05   4.287681608200716e-07   7.920033604280036e-06
-1.3942755335517958e-05   4.287681608200716e-07   7.920033604280036e-06
-4.189193386282867e-06   -6.3927159542599475e-06   2.008307971729054e-05
-4.189193386282867e-06   -6.3927159542599475e-06   2.008307971729054e-05
-4.189193386282867e-06   -6.3927159542599475e-06   2.008307971729054e-05
-4.189193386282867e-06   -6.3927159542599475e-06   2.008307971729054e-05
-4.304223807377546e-06   2.9374686424085467e-07   4.209234367612821e-06
-4.304223807377546e-06   2.9374686424085467e-07   4.209234367612821e-06
-4.304223807377546e-06   2.9374686424085467e-07   4.209234367612821e-06
-4.304223807377546e-06   2.9374686424085467e-07   4.209234367612821e-06
-1.3159851789769534e-05   -5.5818185006625655e-06   2.2493953557208146e-05
-1.3159851789769534e-05   -5.5818185006625655e-06   2.2493953557208146e-05
-1.3159851789769534e-05   -5.5818185006625655e-06   2.2493953557208146e-05
-1.3159851789769534e-05   -5.5818185006625655e-06   2.2493953557208146e-05
-9.019008200468192e-06   -3.0213012151909907e-06   1.405623720375632e-05
-9.019008200468192e-06   -3.0213012151909907e-06   1.405623720375632e-05
-9.019008200468192e-06   -3.0213012151909907e-06   1.405623720375632e-05
-9.019008200468192e-06   -3.0213012151909907e-06   1.405623720375632e-05
-1.315985178976951e-05   2.9374686424085467e-07   7.734573586554864e-06
-1.315985178976951e-05   2.9374686424085467e-07   7.734573586554864e-06
-1.315985178976951e-05   2.9374686424085467e-07   7.734573586554864e-06
-1.315985178976951e-05   2.9374686424085467e-07   7.734573586554864e-06
-4.304223807377553e-06   -5.5818185006625655e-06   1.8968614338266092e-05
-4.304223807377553e-06   -5.5818185006625655e-06   1.8968614338266092e-05
-4.304223807377553e-06   -5.5818185006625655e-06   1.8968614338266092e-05
-4.304223807377553e-06   -5.5818185006625655e-06   1.8968614338266092e-05
-4.756231743590534e-06   -2.8867901372428377e-07   5.251964431849639e-06
-4.756231743590534e-06   -2.8867901372428377e-07   5.251964431849639e-06
-4.756231743590534e-06   -2.8867901372428377e-07   5.251964431849639e-06
-4.756231743590534e-06   -2.8867901372428377e-07   5.251964431849639e-06
-1.2149500076967701e-05   -4.496787058239774e-06   2.009894314752084e-05
-1.2149500076967701e-05   -4.496787058239774e-06   2.009894314752084e-05
-1.2149500076967701e-05   -4.496787058239774e-06   2.009894314752084e-05
-1.2149500076967701e-05   -4.496787058239774e-06   2.009894314752084e-05
-8.696274829325207e-06   -2.7934374185372216e-06   1.3321557950961835e-05
-8.696274829325207e-06   -2.7934374185372216e-06   1.3321557950961835e-05
-8.696274829325207e-06   -2.7934374185372216e-06   1.3321557950961835e-05
-8.696274829325207e-06   -2.7934374185372216e-06   1.3321557950961835e-05
-3.534475803857333e-06   -1.430722831009137e-06   4.11194248538302e-06
-3.534475803857333e-06   -1.430722831009137e-06   4.11194248538302e-06
-3.534475803857333e-06   -1.430722831009137e-06   4.11194248538302e-06
-3.534475803857333e-06   -1.430722831009137e-06   4.11194248538302e-06
-1.2138346301314703e-06   -2.6861574659788473e-06   7.226416993944289e-06
-1.2138346301314703e-06   -2.6861574659788473e-06   7.226416993944289e-06
-1.2138346301314703e-06   -2.6861574659788473e-06   7.226416993944289e-06
-1.2138346301314703e-06   -2.6861574659788473e-06   7.226416993944289e-06
-1.3798593398134956e-06   -1.1841354378255945e-06   3.561519900472e-06
-1.3798593398134956e-06   -1.1841354378255945e-06   3.561519900472e-06
-1.3798593398134956e-06   -1.1841354378255945e-06   3.561519900472e-06
-1.3798593398134956e-06   -1.1841354378255945e-06   3.561519900472e-06
-4.189193386282867e-06   -3.4884381523304807e-06   9.62632493995719e-06
-4.189193386282867e-06   -3.4884381523304807e-06   9.62632493995719e-06
-4.189193386282867e-06   -3.4884381523304807e-06   9.62632493995719e-06
-4.189193386282867e-06   -3.4884381523304807e-06   9.62632493995719e-06
-2.4444876370366045e-06   -1.801336662951042e-06   5.706221130919066e-06
-2.4444876370366045e-06   -1.801336662951042e-06   5.706221130919066e-06
-2.4444876370366045e-06   -1.801336662951042e-06   5.706221130919066e-06
-2.4444876370366045e-06   -1.801336662951042e-06   5.706221130919066e-06
-4.189193386282855e-06   -1.1841354378255945e-06   4.944101529174891e-06
-4.189193386282855e-06   -1.1841354378255945e-06   4.944101529174891e-06
-4.189193386282855e-06   -1.1841354378255945e-06   4.944101529174891e-06
-4.189193386282855e-06   -1.1841354378255945e-06   4.944101529174891e-06
-1.3798593398135024e-06   -3.4884381523304807e-06   8.243743311254259e-06
-1.3798593398135024e-06   -3.4884381523304807e-06   8.243743311254259e-06
-1.3798593398135024e-06   -3.4884381523304807e-06   8.243743311254259e-06
-1.3798593398135024e-06   -3.4884381523304807e-06   8.243743311254259e-06
-1.5239350479901389e-06   -1.2067554513655145e-06   4.007536751905662e-06
-1.5239350479901389e-06   -1.2067554513655145e-06   4.007536751905662e-06
-1.5239350479901389e-06   -1.2067554513655145e-06   4.007536751905662e-06
-1.5239350479901389e-06   -1.2067554513655145e-06   4.007536751905662e-06
-4.304223807377553e-06   -3.2308665381427753e-06   9.855818002951016e-06
-4.304223807377553e-06   -3.2308665381427753e-06   9.855818002951016e-06
-4.304223807377553e-06   -3.2308665381427753e-06   9.855818002951016e-06
-4.304223807377553e-06   -3.2308665381427753e-06   9.855818002951016e-06
-2.78333965343203e-06   -2.1793176581656347e-06   6.690081751722246e-06
-2.78333965343203e-06   -2.1793176581656347e-06   6.690081751722246e-06
-2.78333965343203e-06   -2.1793176581656347e-06   6.690081751722246e-06
-2.78333965343203e-06   -2.1793176581656347e-06   6.690081751722246e-06
-4.304223807377553e-06   -1.2067554513655145e-06   5.222003403972029e-06
-4.304223807377553e-06   -1.2067554513655145e-06   5.222003403972029e-06
-4.304223807377553e-06   -1.2067554513655145e-06   5.222003403972029e-06
-4.304223807377553e-06   -1.2067554513655145e-06   5.222003403972029e-06
-1.5239350479901389e-06   -3.2308665381427753e-06   8.641351350884656e-06
-1.5239350479901389e-06   -3.2308665381427753e-06   8.641351350884656e-06
-1.5239350479901389e-06   -3.2308665381427753e-06   8.641351350884656e-06
-1.5239350479901389e-06   -3.2308665381427753e-06   8.641351350884656e-06
-1.7622938194525136e-06   -1.2058723942347596e-06   4.404899247146494e-06
-1.7622938194525136e-06   -1.2058723942347596e-06   4.404899247146494e-06
-1.7622938194525136e-06   -1.2058723942347596e-06   4.404899247146494e-06
-1.7622938194525136e-06   -1.2058723942347596e-06   4.404899247146494e-06
-4.756231743590538e-06   -3.064115985879183e-06   1.0509741942363145e-05
-4.756231743590538e-06   -3.064115985879183e-06   1.0509741942363145e-05
-4.756231743590538e-06   -3.064115985879183e-06   1.0509741942363145e-05
-4.756231743590538e-06   -3.064115985879183e-06   1.0509741942363145e-05
-2.994958295882926e-06   -1.9936243799661456e-06   6.931991232635982e-06
-2.994958295882926e-06   -1.9936243799661456e-06   6.931991232635982e-06
-2.994958295882926e-06   -1.9936243799661456e-06   6.931991232635982e-06
-2.994958295882926e-06   -1.9936243799661456e-06   6.931991232635982e-06
-1.2138346301314703e-06   -1.1190603240201531e-06   2.2934293359066837e-06
-1.2138346301314703e-06   -1.1190603240201531e-06   2.2934293359066837e-06
-1.2138346301314703e-06   -1.1190603240201531e-06   2.2934293359066837e-06
-1.2138346301314703e-06   -1.1190603240201531e-06   2.2934293359066837e-06
-6.879752008910709e-07   -8.491736153766696e-07   3.3317937431601467e-06
-6.879752008910709e-07   -8.491736153766696e-07   3.3317937431601467e-06
-6.879752008910709e-07   -8.491736153766696e-07   3.3317937431601467e-06
-6.879752008910709e-07   -8.491736153766696e-07   3.3317937431601467e-06
-6.736907637116369e-07   -1.0991064186029718e-06   2.5282412028801925e-06
-6.736907637116369e-07   -1.0991064186029718e-06   2.5282412028801925e-06
-6.736907637116369e-07   -1.0991064186029718e-06   2.5282412028801925e-06
-6.736907637116369e-07   -1.0991064186029718e-06   2.5282412028801925e-06
-1.3798593398135024e-06   -1.0791159599633496e-06   3.6931945545327964e-06
-1.3798593398135024e-06   -1.0791159599633496e-06   3.6931945545327964e-06
-1.3798593398135024e-06   -1.0791159599633496e-06   3.6931945545327964e-06
-1.3798593398135024e-06   -1.0791159599633496e-06   3.6931945545327964e-06
-9.250889434070816e-07   -9.652783530405767e-07   2.8669413297017235e-06
-9.250889434070816e-07   -9.652783530405767e-07   2.8669413297017235e-06
-9.250889434070816e-07   -9.652783530405767e-07   2.8669413297017235e-06
-9.250889434070816e-07   -9.652783530405767e-07   2.8669413297017235e-06
-1.3798593398134956e-06   -1.0991064186029718e-06   2.516246927696397e-06
-1.3798593398134956e-06   -1.0991064186029718e-06   2.516246927696397e-06
-1.3798593398134956e-06   -1.0991064186029718e-06   2.516246927696397e-06
-1.3798593398134956e-06   -1.0991064186029718e-06   2.516246927696397e-06
-6.736907637116369e-07   -1.0791159599633479e-06   3.7051888297165583e-06
-6.736907637116369e-07   -1.0791159599633479e-06   3.7051888297165583e-06
-6.736907637116369e-07   -1.0791159599633479e-06   3.7051888297165583e-06
-6.736907637116369e-07   -1.0791159599633479e-06   3.7051888297165583e-06
-6.876296156108704e-07   -1.1302222599478165e-06   2.7115348802264497e-06
-6.876296156108704e-07   -1.1302222599478165e-06   2.7115348802264497e-06
-6.876296156108704e-07   -1.1302222599478165e-06   2.7115348802264497e-06
-6.876296156108704e-07   -1.1302222599478165e-06   2.7115348802264497e-06
-1.5239350479901389e-06   -1.3467096231807298e-06   4.2352696854649075e-06
-1.5239350479901389e-06   -1.3467096231807298e-06   4.2352696854649075e-06
-1.5239350479901389e-06   -1.3467096231807298e-06   4.2352696854649075e-06
-1.5239350479901389e-06   -1.3467096231807298e-06   4.2352696854649075e-06
-9.967708582969014e-07   -1.0546288772094972e-06   3.1814142550601142e-06
-9.967708582969014e-07   -1.0546288772094972e-06   3.1814142550601142e-06
-9.967708582969014e-07   -1.0546288772094972e-06   3.1814142550601142e-06
-9.967708582969014e-07   -1.0546288772094972e-06   3.1814142550601142e-06
-1.5239350479901389e-06   -1.13022225994783e-06   2.841427298166165e-06
-1.5239350479901389e-06   -1.13022225994783e-06   2.841427298166165e-06
-1.5239350479901389e-06   -1.13022225994783e-06   2.841427298166165e-06
-1.5239350479901389e-06   -1.13022225994783e-06   2.841427298166165e-06
-6.876296156108704e-07   -1.3467096231807298e-06   4.105377267525165e-06
-6.876296156108704e-07   -1.3467096231807298e-06   4.105377267525165e-06
-6.876296156108704e-07   -1.3467096231807298e-06   4.105377267525165e-06
-6.876296156108704e-07   -1.3467096231807298e-06   4.105377267525165e-06
-7.211971447890279e-07   -1.170306062704766e-06   2.990771628295924e-06
-7.211971447890279e-07   -1.170306062704766e-06   2.990771628295924e-06
-7.211971447890279e-07   -1.170306062704766e-06   2.990771628295924e-06
-7.211971447890279e-07   -1.170306062704766e-06   2.990771628295924e-06
-1.7622938194525136e-06   -1.5990921544775874e-06   4.983204407798728e-06
-1.7622938194525136e-06   -1.5990921544775874e-06   4.983204407798728e-06
-1.7622938194525136e-06   -1.5990921544775874e-06   4.983204407798728e-06
-1.7622938194525136e-06   -1.5990921544775874e-06   4.983204407798728e-06
-1.0814895318716926e-06   -1.1399121209900898e-06   3.573022575071547e-06
-1.0814895318716926e-06   -1.1399121209900898e-06   3.573022575071547e-06
-1.0814895318716926e-06   -1.1399121209900898e-06   3.573022575071547e-06
-1.0814895318716926e-06   -1.1399121209900898e-06   3.573022575071547e-06
-6.879752008910709e-07   -4.6380691837300664e-07   7.62461736528851e-07
-6.879752008910709e-07   -4.6380691837300664e-07   7.62461736528851e-07
-6.879752008910709e-07   -4.6380691837300664e-07   7.62461736528851e-07
-6.879752008910709e-07   -4.6380691837300664e-07   7.62461736528851e-07
-5.35209406162909e-07   3.340904886395515e-08   1.3154009747512832e-06
-5.35209406162909e-07   3.340904886395515e-08   1.3154009747512832e-06
-5.35209406162909e-07   3.340904886395515e-08   1.3154009747512832e-06
-5.35209406162909e-07   3.340904886395515e-08   1.3154009747512832e-06
-4.4374620373223677e-07   -5.386069407949866e-07   1.120730487544927e-06
-4.4374620373223677e-07   -5.386069407949866e-07   1.120730487544927e-06
-4.4374620373223677e-07   -5.386069407949866e-07   1.120730487544927e-06
-4.4374620373223677e-07   -5.386069407949866e-07   1.120730487544927e-06
-6.736907637116369e-07   -5.779610888081216e-08   1.2154849216953762e-06
-6.736907637116369e-07   -5.779610888081216e-08   1.2154849216953762e-06
-6.736907637116369e-07   -5.779610888081216e-08   1.2154849216953762e-06
-6.736907637116369e-07   -5.779610888081216e-08   1.2154849216953762e-06
-5.481162257731215e-07   -2.5193984967765865e-07   1.122680269609246e-06
-5.481162257731215e-07   -2.5193984967765865e-07   1.122680269609246e-06
-5.481162257731215e-07   -2.5193984967765865e-07   1.122680269609246e-06
-5.481162257731215e-07   -2.5193984967765865e-07   1.122680269609246e-06
-6.736907637116369e-07   -5.386069407949866e-07   8.322439883964099e-07
-6.736907637116369e-07   -5.386069407949866e-07   8.322439883964099e-07
-6.736907637116369e-07   -5.386069407949866e-07   8.322439883964099e-07
-6.736907637116369e-07   -5.386069407949866e-07   8.322439883964099e-07
-4.4374620373223677e-07   -5.779610888081216e-08   1.5039714208439002e-06
-4.4374620373223677e-07   -5.779610888081216e-08   1.5039714208439002e-06
-4.4374620373223677e-07   -5.779610888081216e-08   1.5039714208439002e-06
-4.4374620373223677e-07   -5.779610888081216e-08   1.5039714208439002e-06
-3.981468122391424e-07   -5.967339569001992e-07   1.2323140013564555e-06
-3.981468122391424e-07   -5.967339569001992e-07   1.2323140013564555e-06
-3.981468122391424e-07   -5.967339569001992e-07   1.2323140013564555e-06
-3.981468122391424e-07   -5.967339569001992e-07   1.2323140013564555e-06
-6.876296156108704e-07   -1.9208235537799933e-07   1.4719943793960037e-06
-6.876296156108704e-07   -1.9208235537799933e-07   1.4719943793960037e-06
-6.876296156108704e-07   -1.9208235537799933e-07   1.4719943793960037e-06
-6.876296156108704e-07   -1.9208235537799933e-07   1.4719943793960037e-06
-5.067495561499684e-07   -3.1530441534040115e-07   1.2444608496052663e-06
-5.067495561499684e-07   -3.1530441534040115e-07   1.2444608496052663e-06
-5.067495561499684e-07   -3.1530441534040115e-07   1.2444608496052663e-06
-5.067495561499684e-07   -3.1530441534040115e-07   1.2444608496052663e-06
-6.876296156108704e-07   -5.967339569001992e-07   9.89523040443083e-07
-6.876296156108704e-07   -5.967339569001992e-07   9.89523040443083e-07
-6.876296156108704e-07   -5.967339569001992e-07   9.89523040443083e-07
-6.876296156108704e-07   -5.967339569001992e-07   9.89523040443083e-07
-3.981468122391424e-07   -1.9208235537799933e-07   1.7147853403093083e-06
-3.981468122391424e-07   -1.9208235537799933e-07   1.7147853403093083e-06
-3.981468122391424e-07   -1.9208235537799933e-07   1.7147853403093083e-06
-3.981468122391424e-07   -1.9208235537799933e-07   1.7147853403093083e-06
-3.2886477603288823e-07   -6.718835392767968e-07   1.3621216980019683e-06
-3.2886477603288823e-07   -6.718835392767968e-07   1.3621216980019683e-06
-3.2886477603288823e-07   -6.718835392767968e-07   1.3621216980019683e-06
-3.2886477603288823e-07   -6.718835392767968e-07   1.3621216980019683e-06
-7.211971447890279e-07   -4.549958606373903e-07   1.8858763720785575e-06
-7.211971447890279e-07   -4.549958606373903e-07   1.8858763720785575e-06
-7.211971447890279e-07   -4.549958606373903e-07   1.8858763720785575e-06
-7.211971447890279e-07   -4.549958606373903e-07   1.8858763720785575e-06
-4.782018406122285e-07   -4.0726918681613925e-07   1.4522481941579195e-06
-4.782018406122285e-07   -4.0726918681613925e-07   1.4522481941579195e-06
-4.782018406122285e-07   -4.0726918681613925e-07   1.4522481941579195e-06
-4.782018406122285e-07   -4.0726918681613925e-07   1.4522481941579195e-06
-5.35209406162909e-07   -4.44212673145043e-08   -7.967728606135779e-07
-5.35209406162909e-07   -4.44212673145043e-08   -7.967728606135779e-07
-5.35209406162909e-07   -4.44212673145043e-08   -7.967728606135779e-07
-5.35209406162909e-07   -4.44212673145043e-08   -7.967728606135779e-07
-1.2526077273699817e-07   6.629836674480275e-08   -4.7093357801451016e-08
-1.2526077273699817e-07   6.629836674480275e-08   -4.7093357801451016e-08
-1.2526077273699817e-07   6.629836674480275e-08   -4.7093357801451016e-08
-1.2526077273699817e-07   6.629836674480275e-08   -4.7093357801451016e-08
-3.639292070166931e-08   -6.506595117128898e-08   -6.061896575315694e-07
-3.639292070166931e-08   -6.506595117128898e-08   -6.061896575315694e-07
-3.639292070166931e-08   -6.506595117128898e-08   -6.061896575315694e-07
-3.639292070166931e-08   -6.506595117128898e-08   -6.061896575315694e-07
-4.4374620373223677e-07   1.1061374574812792e-07   -3.267533729901144e-08
-4.4374620373223677e-07   1.1061374574812792e-07   -3.267533729901144e-08
-4.4374620373223677e-07   1.1061374574812792e-07   -3.267533729901144e-08
-4.4374620373223677e-07   1.1061374574812792e-07   -3.267533729901144e-08
-2.604858226168237e-07   3.3755335504664636e-08   -2.919942596786855e-07
-2.604858226168237e-07   3.3755335504664636e-08   -2.919942596786855e-07
-2.604858226168237e-07   3.3755335504664636e-08   -2.919942596786855e-07
-2.604858226168237e-07   3.3755335504664636e-08   -2.919942596786855e-07
-4.437462037322232e-07   -6.506595117128898e-08   -7.11597475683268e-07
-4.437462037322232e-07   -6.506595117128898e-08   -7.11597475683268e-07
-4.437462037322232e-07   -6.506595117128898e-08   -7.11597475683268e-07
-4.437462037322232e-07   -6.506595117128898e-08   -7.11597475683268e-07
-3.639292070166931e-08   1.1061374574812792e-07   7.273248085263293e-08
-3.639292070166931e-08   1.1061374574812792e-07   7.273248085263293e-08
-3.639292070166931e-08   1.1061374574812792e-07   7.273248085263293e-08
-3.639292070166931e-08   1.1061374574812792e-07   7.273248085263293e-08
5.352433925763511e-09   -9.197316192425067e-08   -5.188058183814475e-07
5.352433925763511e-09   -9.197316192425067e-08   -5.188058183814475e-07
5.352433925763511e-09   -9.197316192425067e-08   -5.188058183814475e-07
5.352433925763511e-09   -9.197316192425067e-08   -5.188058183814475e-07
-3.981468122391424e-07   8.338968034716298e-08   4.847521986389106e-08
-3.981468122391424e-07   8.338968034716298e-08   4.847521986389106e-08
-3.981468122391424e-07   8.338968034716298e-08   4.847521986389106e-08
-3.981468122391424e-07   8.338968034716298e-08   4.847521986389106e-08
-1.9723052163952222e-07   2.11224821380305e-08   -2.4902494554323424e-07
-1.9723052163952222e-07   2.11224821380305e-08   -2.4902494554323424e-07
-1.9723052163952222e-07   2.11224821380305e-08   -2.4902494554323424e-07
-1.9723052163952222e-07   2.11224821380305e-08   -2.4902494554323424e-07
-3.981468122391424e-07   -9.197316192425067e-08   -6.240235237442584e-07
-3.981468122391424e-07   -9.197316192425067e-08   -6.240235237442584e-07
-3.981468122391424e-07   -9.197316192425067e-08   -6.240235237442584e-07
-3.981468122391424e-07   -9.197316192425067e-08   -6.240235237442584e-07
5.352433925763511e-09   8.338968034716298e-08   1.5369292522674264e-07
5.352433925763511e-09   8.338968034716298e-08   1.5369292522674264e-07
5.352433925763511e-09   8.338968034716298e-08   1.5369292522674264e-07
5.352433925763511e-09   8.338968034716298e-08   1.5369292522674264e-07
5.4131261280365196e-08   -1.2815401149151716e-07   -3.8449180779642094e-07
5.4131261280365196e-08   -1.2815401149151716e-07   -3.8449180779642094e-07
5.4131261280365196e-08   -1.2815401149151716e-07   -3.8449180779642094e-07
5.4131261280365196e-08   -1.2815401149151716e-07   -3.8449180779642094e-07
-3.2886477603288823e-07   4.985447618204493e-08   1.4702982845479383e-07
-3.2886477603288823e-07   4.985447618204493e-08   1.4702982845479383e-07
-3.2886477603288823e-07   4.985447618204493e-08   1.4702982845479383e-07
-3.2886477603288823e-07   4.985447618204493e-08   1.4702982845479383e-07
-1.4108674226032434e-07   3.654417640154247e-09   -1.3821352604098279e-07
-1.4108674226032434e-07   3.654417640154247e-09   -1.3821352604098279e-07
-1.4108674226032434e-07   3.654417640154247e-09   -1.3821352604098279e-07
-1.4108674226032434e-07   3.654417640154247e-09   -1.3821352604098279e-07
              </DataArray>   
             <DataArray type="Float64" NumberOfComponents="3" Name="Stress" format="ascii">   
-0.8027376327462155   -0.20068440818655386   -0.20068440818655386
-0.8027376327462155   -0.20068440818655386   -0.20068440818655386
-0.8027376327462155   -0.20068440818655386   -0.20068440818655386
-0.8027376327462155   -0.20068440818655386   -0.20068440818655386
-0.4641892613006482   -0.01543953908282232   -0.00959423351256226
-0.4641892613006482   -0.01543953908282232   -0.00959423351256226
-0.4641892613006482   -0.01543953908282232   -0.00959423351256226
-0.4641892613006482   -0.01543953908282232   -0.00959423351256226
-0.49970264116331825   -0.12492566029082956   -0.12492566029082956
-0.49970264116331825   -0.12492566029082956   -0.12492566029082956
-0.49970264116331825   -0.12492566029082956   -0.12492566029082956
-0.49970264116331825   -0.12492566029082956   -0.12492566029082956
-0.7733924641822618   -0.06408951856250528   -0.02469109403118002
-0.7733924641822618   -0.06408951856250528   -0.02469109403118002
-0.7733924641822618   -0.06408951856250528   -0.02469109403118002
-0.7733924641822618   -0.06408951856250528   -0.02469109403118002
-0.6063923473967132   -0.09975667534750719   -0.0017144453396130558
-0.6063923473967132   -0.09975667534750719   -0.0017144453396130558
-0.6063923473967132   -0.09975667534750719   -0.0017144453396130558
-0.6063923473967132   -0.09975667534750719   -0.0017144453396130558
-0.8395959351816957   -0.20989898379542393   -0.20989898379542393
-0.8395959351816957   -0.20989898379542393   -0.20989898379542393
-0.8395959351816957   -0.20989898379542393   -0.20989898379542393
-0.8395959351816957   -0.20989898379542393   -0.20989898379542393
-0.44925878218932525   0.005124192916649506   -0.0027562186283435867
-0.44925878218932525   0.005124192916649506   -0.0027562186283435867
-0.44925878218932525   0.005124192916649506   -0.0027562186283435867
-0.44925878218932525   0.005124192916649506   -0.0027562186283435867
-0.5006685636250211   -0.12516714090625528   -0.12516714090625528
-0.5006685636250211   -0.12516714090625528   -0.12516714090625528
-0.5006685636250211   -0.12516714090625528   -0.12516714090625528
-0.5006685636250211   -0.12516714090625528   -0.12516714090625528
-0.7988868142635174   -0.06456500849605883   -0.036119696193244885
-0.7988868142635174   -0.06456500849605883   -0.036119696193244885
-0.7988868142635174   -0.06456500849605883   -0.036119696193244885
-0.7988868142635174   -0.06456500849605883   -0.036119696193244885
-0.6285337517150446   -0.09376245290045575   -0.03331118335965998
-0.6285337517150446   -0.09376245290045575   -0.03331118335965998
-0.6285337517150446   -0.09376245290045575   -0.03331118335965998
-0.6285337517150446   -0.09376245290045575   -0.03331118335965998
-0.8652776370285089   -0.21631940925712723   -0.21631940925712723
-0.8652776370285089   -0.21631940925712723   -0.21631940925712723
-0.8652776370285089   -0.21631940925712723   -0.21631940925712723
-0.8652776370285089   -0.21631940925712723   -0.21631940925712723
-0.4475395728799754   0.013325427834867648   0.0019852440778455292
-0.4475395728799754   0.013325427834867648   0.0019852440778455292
-0.4475395728799754   0.013325427834867648   0.0019852440778455292
-0.4475395728799754   0.013325427834867648   0.0019852440778455292
-0.4999056473572318   -0.12497641183930795   -0.12497641183930795
-0.4999056473572318   -0.12497641183930795   -0.12497641183930795
-0.4999056473572318   -0.12497641183930795   -0.12497641183930795
-0.4999056473572318   -0.12497641183930795   -0.12497641183930795
-0.8445818922511605   -0.05631019229918671   -0.021905535184471435
-0.8445818922511605   -0.05631019229918671   -0.021905535184471435
-0.8445818922511605   -0.05631019229918671   -0.021905535184471435
-0.8445818922511605   -0.05631019229918671   -0.021905535184471435
-0.6447890100186783   -0.09216801512440206   -0.06011464510107754
-0.6447890100186783   -0.09216801512440206   -0.06011464510107754
-0.6447890100186783   -0.09216801512440206   -0.06011464510107754
-0.6447890100186783   -0.09216801512440206   -0.06011464510107754
-0.5102027853128579   -0.12755069632821447   -0.12755069632821447
-0.5102027853128579   -0.12755069632821447   -0.12755069632821447
-0.5102027853128579   -0.12755069632821447   -0.12755069632821447
-0.5102027853128579   -0.12755069632821447   -0.12755069632821447
-0.2134583659518171   -0.014685457238725406   -0.00472834799467357
-0.2134583659518171   -0.014685457238725406   -0.00472834799467357
-0.2134583659518171   -0.014685457238725406   -0.00472834799467357
-0.2134583659518171   -0.014685457238725406   -0.00472834799467357
-0.2235310848614686   -0.05588277121536715   -0.05588277121536715
-0.2235310848614686   -0.05588277121536715   -0.05588277121536715
-0.2235310848614686   -0.05588277121536715   -0.05588277121536715
-0.2235310848614686   -0.05588277121536715   -0.05588277121536715
-0.4642063728950897   -0.05488352602135877   -0.01748645321915756
-0.4642063728950897   -0.05488352602135877   -0.01748645321915756
-0.4642063728950897   -0.05488352602135877   -0.01748645321915756
-0.4642063728950897   -0.05488352602135877   -0.01748645321915756
-0.3426757385504356   -0.06508085151790222   0.0026033666579569304
-0.3426757385504356   -0.06508085151790222   0.0026033666579569304
-0.3426757385504356   -0.06508085151790222   0.0026033666579569304
-0.3426757385504356   -0.06508085151790222   0.0026033666579569304
-0.49970264116331786   -0.12492566029082947   -0.12492566029082947
-0.49970264116331786   -0.12492566029082947   -0.12492566029082947
-0.49970264116331786   -0.12492566029082947   -0.12492566029082947
-0.49970264116331786   -0.12492566029082947   -0.12492566029082947
-0.200988604576933   0.0012055750704106291   -0.000258716078466812
-0.200988604576933   0.0012055750704106291   -0.000258716078466812
-0.200988604576933   0.0012055750704106291   -0.000258716078466812
-0.200988604576933   0.0012055750704106291   -0.000258716078466812
-0.21810945627396733   -0.05452736406849183   -0.05452736406849183
-0.21810945627396733   -0.05452736406849183   -0.05452736406849183
-0.21810945627396733   -0.05452736406849183   -0.05452736406849183
-0.21810945627396733   -0.05452736406849183   -0.05452736406849183
-0.46260922623872985   -0.04465537404958337   -0.01538222083147109
-0.46260922623872985   -0.04465537404958337   -0.01538222083147109
-0.46260922623872985   -0.04465537404958337   -0.01538222083147109
-0.46260922623872985   -0.04465537404958337   -0.01538222083147109
-0.33747486495264245   -0.05469999903314235   -0.01759710649617953
-0.33747486495264245   -0.05469999903314235   -0.01759710649617953
-0.33747486495264245   -0.05469999903314235   -0.01759710649617953
-0.33747486495264245   -0.05469999903314235   -0.01759710649617953
-0.5006685636250211   -0.12516714090625528   -0.12516714090625528
-0.5006685636250211   -0.12516714090625528   -0.12516714090625528
-0.5006685636250211   -0.12516714090625528   -0.12516714090625528
-0.5006685636250211   -0.12516714090625528   -0.12516714090625528
-0.19259747959225765   0.013437042083598826   0.005068113187967653
-0.19259747959225765   0.013437042083598826   0.005068113187967653
-0.19259747959225765   0.013437042083598826   0.005068113187967653
-0.19259747959225765   0.013437042083598826   0.005068113187967653
-0.21309940358335214   -0.053274850895838034   -0.053274850895838034
-0.21309940358335214   -0.053274850895838034   -0.053274850895838034
-0.21309940358335214   -0.053274850895838034   -0.053274850895838034
-0.21309940358335214   -0.053274850895838034   -0.053274850895838034
-0.45873877465338225   -0.03433231526296751   -0.009786144896402664
-0.45873877465338225   -0.03433231526296751   -0.009786144896402664
-0.45873877465338225   -0.03433231526296751   -0.009786144896402664
-0.45873877465338225   -0.03433231526296751   -0.009786144896402664
-0.338680227921373   -0.04828315403040223   -0.0391400593576236
-0.338680227921373   -0.04828315403040223   -0.0391400593576236
-0.338680227921373   -0.04828315403040223   -0.0391400593576236
-0.338680227921373   -0.04828315403040223   -0.0391400593576236
-0.23286178322793072   -0.05821544580698268   -0.05821544580698268
-0.23286178322793072   -0.05821544580698268   -0.05821544580698268
-0.23286178322793072   -0.05821544580698268   -0.05821544580698268
-0.23286178322793072   -0.05821544580698268   -0.05821544580698268
0.026259066145674064   0.0014853498081701059   0.00023481494053673863
0.026259066145674064   0.0014853498081701059   0.00023481494053673863
0.026259066145674064   0.0014853498081701059   0.00023481494053673863
0.026259066145674064   0.0014853498081701059   0.00023481494053673863
0.0349557577575358   0.00873893943938395   0.00873893943938395
0.0349557577575358   0.00873893943938395   0.00873893943938395
0.0349557577575358   0.00873893943938395   0.00873893943938395
0.0349557577575358   0.00873893943938395   0.00873893943938395
-0.21011564869575672   -0.03630470708871546   -0.008383654513459406
-0.21011564869575672   -0.03630470708871546   -0.008383654513459406
-0.21011564869575672   -0.03630470708871546   -0.008383654513459406
-0.21011564869575672   -0.03630470708871546   -0.008383654513459406
-0.09064256805502875   -0.02296509445207163   0.015040811485315404
-0.09064256805502875   -0.02296509445207163   0.015040811485315404
-0.09064256805502875   -0.02296509445207163   0.015040811485315404
-0.09064256805502875   -0.02296509445207163   0.015040811485315404
-0.223531084861469   -0.05588277121536725   -0.05588277121536725
-0.223531084861469   -0.05588277121536725   -0.05588277121536725
-0.223531084861469   -0.05588277121536725   -0.05588277121536725
-0.223531084861469   -0.05588277121536725   -0.05588277121536725
0.035644388064611184   0.0155901977073991   0.00533083270674547
0.035644388064611184   0.0155901977073991   0.00533083270674547
0.035644388064611184   0.0155901977073991   0.00533083270674547
0.035644388064611184   0.0155901977073991   0.00533083270674547
0.03987722418139422   0.009969306045348555   0.009969306045348555
0.03987722418139422   0.009969306045348555   0.009969306045348555
0.03987722418139422   0.009969306045348555   0.009969306045348555
0.03987722418139422   0.009969306045348555   0.009969306045348555
-0.20228129125071834   -0.02429627882786209   -0.005617624192878428
-0.20228129125071834   -0.02429627882786209   -0.005617624192878428
-0.20228129125071834   -0.02429627882786209   -0.005617624192878428
-0.20228129125071834   -0.02429627882786209   -0.005617624192878428
-0.08652617444351081   -0.01413212019989513   -0.005277565487491518
-0.08652617444351081   -0.01413212019989513   -0.005277565487491518
-0.08652617444351081   -0.01413212019989513   -0.005277565487491518
-0.08652617444351081   -0.01413212019989513   -0.005277565487491518
-0.21810945627396772   -0.05452736406849193   -0.05452736406849193
-0.21810945627396772   -0.05452736406849193   -0.05452736406849193
-0.21810945627396772   -0.05452736406849193   -0.05452736406849193
-0.21810945627396772   -0.05452736406849193   -0.05452736406849193
0.04323575659799412   0.02773075867932953   0.009000515494366715
0.04323575659799412   0.02773075867932953   0.009000515494366715
0.04323575659799412   0.02773075867932953   0.009000515494366715
0.04323575659799412   0.02773075867932953   0.009000515494366715
0.04635191552724064   0.01158797888181016   0.01158797888181016
0.04635191552724064   0.01158797888181016   0.01158797888181016
0.04635191552724064   0.01158797888181016   0.01158797888181016
0.04635191552724064   0.01158797888181016   0.01158797888181016
-0.1937624001317498   -0.010010337664178998   0.0001456531305136545
-0.1937624001317498   -0.010010337664178998   0.0001456531305136545
-0.1937624001317498   -0.010010337664178998   0.0001456531305136545
-0.1937624001317498   -0.010010337664178998   0.0001456531305136545
-0.08349690749546763   -0.005616203372776168   -0.02541386742442695
-0.08349690749546763   -0.005616203372776168   -0.02541386742442695
-0.08349690749546763   -0.005616203372776168   -0.02541386742442695
-0.08349690749546763   -0.005616203372776168   -0.02541386742442695
0.028794481328814157   0.007198620332203539   0.007198620332203539
0.028794481328814157   0.007198620332203539   0.007198620332203539
0.028794481328814157   0.007198620332203539   0.007198620332203539
0.028794481328814157   0.007198620332203539   0.007198620332203539
0.2890243942775322   0.02657498432734167   0.009166924658555614
0.2890243942775322   0.02657498432734167   0.009166924658555614
0.2890243942775322   0.02657498432734167   0.009166924658555614
0.2890243942775322   0.02657498432734167   0.009166924658555614
0.31430460127289733   0.07857615031822433   0.07857615031822433
0.31430460127289733   0.07857615031822433   0.07857615031822433
0.31430460127289733   0.07857615031822433   0.07857615031822433
0.31430460127289733   0.07857615031822433   0.07857615031822433
0.02658716314497107   -0.020307048802348647   -0.004058045381707659
0.02658716314497107   -0.020307048802348647   -0.004058045381707659
0.02658716314497107   -0.020307048802348647   -0.004058045381707659
0.02658716314497107   -0.020307048802348647   -0.004058045381707659
0.16444914039577077   0.02049992932755094   0.029772836797452143
0.16444914039577077   0.02049992932755094   0.029772836797452143
0.16444914039577077   0.02049992932755094   0.029772836797452143
0.16444914039577077   0.02049992932755094   0.029772836797452143
0.03495575775753592   0.00873893943938398   0.00873893943938398
0.03495575775753592   0.00873893943938398   0.00873893943938398
0.03495575775753592   0.00873893943938398   0.00873893943938398
0.03495575775753592   0.00873893943938398   0.00873893943938398
0.2929881939015492   0.0365823493177084   0.013987914461999488
0.2929881939015492   0.0365823493177084   0.013987914461999488
0.2929881939015492   0.0365823493177084   0.013987914461999488
0.2929881939015492   0.0365823493177084   0.013987914461999488
0.31343428456440575   0.07835857114110144   0.07835857114110144
0.31343428456440575   0.07835857114110144   0.07835857114110144
0.31343428456440575   0.07835857114110144   0.07835857114110144
0.31343428456440575   0.07835857114110144   0.07835857114110144
0.03422407913219722   -0.008546537111725898   0.00021942395643767803
0.03422407913219722   -0.008546537111725898   0.00021942395643767803
0.03422407913219722   -0.008546537111725898   0.00021942395643767803
0.03422407913219722   -0.008546537111725898   0.00021942395643767803
0.16372013005874664   0.027085057642197728   0.0076379974271667
0.16372013005874664   0.027085057642197728   0.0076379974271667
0.16372013005874664   0.027085057642197728   0.0076379974271667
0.16372013005874664   0.027085057642197728   0.0076379974271667
0.03987722418139426   0.009969306045348564   0.009969306045348564
0.03987722418139426   0.009969306045348564   0.009969306045348564
0.03987722418139426   0.009969306045348564   0.009969306045348564
0.03987722418139426   0.009969306045348564   0.009969306045348564
0.2949604589309606   0.04702204739977892   0.017325966715198378
0.2949604589309606   0.04702204739977892   0.017325966715198378
0.2949604589309606   0.04702204739977892   0.017325966715198378
0.2949604589309606   0.04702204739977892   0.017325966715198378
0.31996174828740415   0.07999043707185104   0.07999043707185104
0.31996174828740415   0.07999043707185104   0.07999043707185104
0.31996174828740415   0.07999043707185104   0.07999043707185104
0.31996174828740415   0.07999043707185104   0.07999043707185104
0.04411506177992126   0.00696788686011399   0.005023802166909035
0.04411506177992126   0.00696788686011399   0.005023802166909035
0.04411506177992126   0.00696788686011399   0.005023802166909035
0.04411506177992126   0.00696788686011399   0.005023802166909035
0.16672337272092116   0.03686230514191194   -0.012883129592102083
0.16672337272092116   0.03686230514191194   -0.012883129592102083
0.16672337272092116   0.03686230514191194   -0.012883129592102083
0.16672337272092116   0.03686230514191194   -0.012883129592102083
0.3131955694226141   0.07829889235565353   0.07829889235565353
0.3131955694226141   0.07829889235565353   0.07829889235565353
0.3131955694226141   0.07829889235565353   0.07829889235565353
0.3131955694226141   0.07829889235565353   0.07829889235565353
0.6525179389448678   0.04989107974864182   0.017685201456439897
0.6525179389448678   0.04989107974864182   0.017685201456439897
0.6525179389448678   0.04989107974864182   0.017685201456439897
0.6525179389448678   0.04989107974864182   0.017685201456439897
0.6675245386539729   0.16688113466349322   0.16688113466349322
0.6675245386539729   0.16688113466349322   0.16688113466349322
0.6675245386539729   0.16688113466349322   0.16688113466349322
0.6675245386539729   0.16688113466349322   0.16688113466349322
0.279502275276421   -0.01567236111566493   -0.0011869682302679853
0.279502275276421   -0.01567236111566493   -0.0011869682302679853
0.279502275276421   -0.01567236111566493   -0.0011869682302679853
0.279502275276421   -0.01567236111566493   -0.0011869682302679853
0.46497961512835423   0.06597579322996452   0.05230203923948602
0.46497961512835423   0.06597579322996452   0.05230203923948602
0.46497961512835423   0.06597579322996452   0.05230203923948602
0.46497961512835423   0.06597579322996452   0.05230203923948602
0.31430460127289706   0.07857615031822426   0.07857615031822426
0.31430460127289706   0.07857615031822426   0.07857615031822426
0.31430460127289706   0.07857615031822426   0.07857615031822426
0.31430460127289706   0.07857615031822426   0.07857615031822426
0.6188276642098632   0.058738074781972474   0.03153982232447586
0.6188276642098632   0.058738074781972474   0.03153982232447586
0.6188276642098632   0.058738074781972474   0.03153982232447586
0.6188276642098632   0.058738074781972474   0.03153982232447586
0.6481509465084148   0.1620377366271037   0.1620377366271037
0.6481509465084148   0.1620377366271037   0.1620377366271037
0.6481509465084148   0.1620377366271037   0.1620377366271037
0.6481509465084148   0.1620377366271037   0.1620377366271037
0.2809293940766029   -0.008389162325233318   0.0025818521684218415
0.2809293940766029   -0.008389162325233318   0.0025818521684218415
0.2809293940766029   -0.008389162325233318   0.0025818521684218415
0.2809293940766029   -0.008389162325233318   0.0025818521684218415
0.4517208108066232   0.06802844916812852   0.0250506223570364
0.4517208108066232   0.06802844916812852   0.0250506223570364
0.4517208108066232   0.06802844916812852   0.0250506223570364
0.4517208108066232   0.06802844916812852   0.0250506223570364
0.31343428456440575   0.07835857114110144   0.07835857114110144
0.31343428456440575   0.07835857114110144   0.07835857114110144
0.31343428456440575   0.07835857114110144   0.07835857114110144
0.31343428456440575   0.07835857114110144   0.07835857114110144
0.59942545427601   0.05906940141616884   0.02137861067602459
0.59942545427601   0.05906940141616884   0.02137861067602459
0.59942545427601   0.05906940141616884   0.02137861067602459
0.59942545427601   0.05906940141616884   0.02137861067602459
0.6189765568651364   0.1547441392162841   0.1547441392162841
0.6189765568651364   0.1547441392162841   0.1547441392162841
0.6189765568651364   0.1547441392162841   0.1547441392162841
0.6189765568651364   0.1547441392162841   0.1547441392162841
0.29180823116954563   0.009935147392877104   0.009278141161535155
0.29180823116954563   0.009935147392877104   0.009278141161535155
0.29180823116954563   0.009935147392877104   0.009278141161535155
0.29180823116954563   0.009935147392877104   0.009278141161535155
0.43303167045532975   0.07393661478942223   -0.006702655729243287
0.43303167045532975   0.07393661478942223   -0.006702655729243287
0.43303167045532975   0.07393661478942223   -0.006702655729243287
0.43303167045532975   0.07393661478942223   -0.006702655729243287
-0.6303374249849331   -0.045211210013551786   0.007695575518076137
-0.6303374249849331   -0.045211210013551786   0.007695575518076137
-0.6303374249849331   -0.045211210013551786   0.007695575518076137
-0.6303374249849331   -0.045211210013551786   0.007695575518076137
-0.4018097596395553   -0.009837664784530784   -0.0028087299393141536
-0.4018097596395553   -0.009837664784530784   -0.0028087299393141536
-0.4018097596395553   -0.009837664784530784   -0.0028087299393141536
-0.4018097596395553   -0.009837664784530784   -0.0028087299393141536
-0.40405302884830624   0.01647997028064152   0.008816914850598899
-0.40405302884830624   0.01647997028064152   0.008816914850598899
-0.40405302884830624   0.01647997028064152   0.008816914850598899
-0.40405302884830624   0.01647997028064152   0.008816914850598899
-0.6394801883647584   -0.04392339158937064   -0.007837191605467489
-0.6394801883647584   -0.04392339158937064   -0.007837191605467489
-0.6394801883647584   -0.04392339158937064   -0.007837191605467489
-0.6394801883647584   -0.04392339158937064   -0.007837191605467489
-0.4985601861351259   -0.017206425360643   -0.0022842502302955967
-0.4985601861351259   -0.017206425360643   -0.0022842502302955967
-0.4985601861351259   -0.017206425360643   -0.0022842502302955967
-0.4985601861351259   -0.017206425360643   -0.0022842502302955967
-0.634559562628975   -0.030680175290663525   0.0035227207747424508
-0.634559562628975   -0.030680175290663525   0.0035227207747424508
-0.634559562628975   -0.030680175290663525   0.0035227207747424508
-0.634559562628975   -0.030680175290663525   0.0035227207747424508
-0.4096158183624664   0.002594590203559191   -0.0051116526431122696
-0.4096158183624664   0.002594590203559191   -0.0051116526431122696
-0.4096158183624664   0.002594590203559191   -0.0051116526431122696
-0.4096158183624664   0.002594590203559191   -0.0051116526431122696
-0.40424350933995185   0.023574990832232662   0.009936995524647534
-0.40424350933995185   0.023574990832232662   0.009936995524647534
-0.40424350933995185   0.023574990832232662   0.009936995524647534
-0.40424350933995185   0.023574990832232662   0.009936995524647534
-0.6429480162017754   -0.038580803364892974   -0.010316658023279537
-0.6429480162017754   -0.038580803364892974   -0.010316658023279537
-0.6429480162017754   -0.038580803364892974   -0.010316658023279537
-0.6429480162017754   -0.038580803364892974   -0.010316658023279537
-0.5121962837001119   -0.011400747335014214   -0.005006228939242678
-0.5121962837001119   -0.011400747335014214   -0.005006228939242678
-0.5121962837001119   -0.011400747335014214   -0.005006228939242678
-0.5121962837001119   -0.011400747335014214   -0.005006228939242678
-0.63110136677102   -0.0180973521714914   0.02843313793709541
-0.63110136677102   -0.0180973521714914   0.02843313793709541
-0.63110136677102   -0.0180973521714914   0.02843313793709541
-0.63110136677102   -0.0180973521714914   0.02843313793709541
-0.41122846133196345   0.00795323707757542   -0.009366010680749451
-0.41122846133196345   0.00795323707757542   -0.009366010680749451
-0.41122846133196345   0.00795323707757542   -0.009366010680749451
-0.41122846133196345   0.00795323707757542   -0.009366010680749451
-0.39656320231549413   0.04122681171832766   0.017760794967433755
-0.39656320231549413   0.04122681171832766   0.017760794967433755
-0.39656320231549413   0.04122681171832766   0.017760794967433755
-0.39656320231549413   0.04122681171832766   0.017760794967433755
-0.6245681153427635   -0.030876232728471967   -0.016736336909412734
-0.6245681153427635   -0.030876232728471967   -0.016736336909412734
-0.6245681153427635   -0.030876232728471967   -0.016736336909412734
-0.6245681153427635   -0.030876232728471967   -0.016736336909412734
-0.49215320665353546   0.004862290977519557   0.011006049522319525
-0.49215320665353546   0.004862290977519557   0.011006049522319525
-0.49215320665353546   0.004862290977519557   0.011006049522319525
-0.49215320665353546   0.004862290977519557   0.011006049522319525
-0.41162180851790015   -0.05476150331343442   -0.006945135802135075
-0.41162180851790015   -0.05476150331343442   -0.006945135802135075
-0.41162180851790015   -0.05476150331343442   -0.006945135802135075
-0.41162180851790015   -0.05476150331343442   -0.006945135802135075
-0.19037904033178982   -0.004604403895425456   0.0019318351772620694
-0.19037904033178982   -0.004604403895425456   0.0019318351772620694
-0.19037904033178982   -0.004604403895425456   0.0019318351772620694
-0.19037904033178982   -0.004604403895425456   0.0019318351772620694
-0.19284811667414703   0.0034912234670650064   0.003029038002018628
-0.19284811667414703   0.0034912234670650064   0.003029038002018628
-0.19284811667414703   0.0034912234670650064   0.003029038002018628
-0.19284811667414703   0.0034912234670650064   0.003029038002018628
-0.41959932889633983   -0.040029586895968784   -0.01240502821295856
-0.41959932889633983   -0.040029586895968784   -0.01240502821295856
-0.41959932889633983   -0.040029586895968784   -0.01240502821295856
-0.41959932889633983   -0.040029586895968784   -0.01240502821295856
-0.3036313931559008   -0.024831385423634056   -0.007112703187067887
-0.3036313931559008   -0.024831385423634056   -0.007112703187067887
-0.3036313931559008   -0.024831385423634056   -0.007112703187067887
-0.3036313931559008   -0.024831385423634056   -0.007112703187067887
-0.4191455236307039   -0.04367265273400009   -0.006492936046749432
-0.4191455236307039   -0.04367265273400009   -0.006492936046749432
-0.4191455236307039   -0.04367265273400009   -0.006492936046749432
-0.4191455236307039   -0.04367265273400009   -0.006492936046749432
-0.1925604425414941   0.007875768703384495   8.286342896209574e-05
-0.1925604425414941   0.007875768703384495   8.286342896209574e-05
-0.1925604425414941   0.007875768703384495   8.286342896209574e-05
-0.1925604425414941   0.007875768703384495   8.286342896209574e-05
-0.19186055468629812   0.01337079187949252   0.003999937261476591
-0.19186055468629812   0.01337079187949252   0.003999937261476591
-0.19186055468629812   0.01337079187949252   0.003999937261476591
-0.19186055468629812   0.01337079187949252   0.003999937261476591
-0.41947093611333536   -0.02918629439669926   -0.013438853113337933
-0.41947093611333536   -0.02918629439669926   -0.013438853113337933
-0.41947093611333536   -0.02918629439669926   -0.013438853113337933
-0.41947093611333536   -0.02918629439669926   -0.013438853113337933
-0.30277921886828707   -0.0137574915846898   -0.003392826644837659
-0.30277921886828707   -0.0137574915846898   -0.003392826644837659
-0.30277921886828707   -0.0137574915846898   -0.003392826644837659
-0.30277921886828707   -0.0137574915846898   -0.003392826644837659
-0.4177812883316633   -0.032873936685176096   -0.0013029719165008214
-0.4177812883316633   -0.032873936685176096   -0.0013029719165008214
-0.4177812883316633   -0.032873936685176096   -0.0013029719165008214
-0.4177812883316633   -0.032873936685176096   -0.0013029719165008214
-0.19216974174542817   0.01843889489051124   -0.002614101045190685
-0.19216974174542817   0.01843889489051124   -0.002614101045190685
-0.19216974174542817   0.01843889489051124   -0.002614101045190685
-0.19216974174542817   0.01843889489051124   -0.002614101045190685
-0.1883989573466686   0.02326766564763437   0.007873942349892575
-0.1883989573466686   0.02326766564763437   0.007873942349892575
-0.1883989573466686   0.02326766564763437   0.007873942349892575
-0.1883989573466686   0.02326766564763437   0.007873942349892575
-0.4146871344754123   -0.016653051157394586   -0.014979002956433122
-0.4146871344754123   -0.016653051157394586   -0.014979002956433122
-0.4146871344754123   -0.016653051157394586   -0.014979002956433122
-0.4146871344754123   -0.016653051157394586   -0.014979002956433122
-0.30123017358087056   -0.003272725826763301   0.001498764864807503
-0.30123017358087056   -0.003272725826763301   0.001498764864807503
-0.30123017358087056   -0.003272725826763301   0.001498764864807503
-0.30123017358087056   -0.003272725826763301   0.001498764864807503
-0.20063642114396268   -0.04561050432805836   -0.008348968450969324
-0.20063642114396268   -0.04561050432805836   -0.008348968450969324
-0.20063642114396268   -0.04561050432805836   -0.008348968450969324
-0.20063642114396268   -0.04561050432805836   -0.008348968450969324
0.019349961488482007   0.004383358777369896   0.007814144994688594
0.019349961488482007   0.004383358777369896   0.007814144994688594
0.019349961488482007   0.004383358777369896   0.007814144994688594
0.019349961488482007   0.004383358777369896   0.007814144994688594
0.018667490914290173   0.011263060127615505   0.0006720419581489928
0.018667490914290173   0.011263060127615505   0.0006720419581489928
0.018667490914290173   0.011263060127615505   0.0006720419581489928
0.018667490914290173   0.011263060127615505   0.0006720419581489928
-0.20124331187135375   -0.03011298013782172   -0.005342734379129968
-0.20124331187135375   -0.03011298013782172   -0.005342734379129968
-0.20124331187135375   -0.03011298013782172   -0.005342734379129968
-0.20124331187135375   -0.03011298013782172   -0.005342734379129968
-0.09185004064139998   -0.015224153186759234   -0.002984710432776016
-0.09185004064139998   -0.015224153186759234   -0.002984710432776016
-0.09185004064139998   -0.015224153186759234   -0.002984710432776016
-0.09185004064139998   -0.015224153186759234   -0.002984710432776016
-0.20264323124885789   -0.034687129147948643   -0.007768182256523697
-0.20264323124885789   -0.034687129147948643   -0.007768182256523697
-0.20264323124885789   -0.034687129147948643   -0.007768182256523697
-0.20264323124885789   -0.034687129147948643   -0.007768182256523697
0.020823502431264733   0.016593301277212837   0.006121858393424322
0.020823502431264733   0.016593301277212837   0.006121858393424322
0.020823502431264733   0.016593301277212837   0.006121858393424322
0.020823502431264733   0.016593301277212837   0.006121858393424322
0.02050520574288619   0.02210576744751931   0.003606110190424512
0.02050520574288619   0.02210576744751931   0.003606110190424512
0.02050520574288619   0.02210576744751931   0.003606110190424512
0.02050520574288619   0.02210576744751931   0.003606110190424512
-0.20031501158692536   -0.018215292701139908   -0.00668626266102904
-0.20031501158692536   -0.018215292701139908   -0.00668626266102904
-0.20031501158692536   -0.018215292701139908   -0.00668626266102904
-0.20031501158692536   -0.018215292701139908   -0.00668626266102904
-0.09016055549789882   -0.0037192073532962035   0.0010151416136635607
-0.09016055549789882   -0.0037192073532962035   0.0010151416136635607
-0.09016055549789882   -0.0037192073532962035   0.0010151416136635607
-0.09016055549789882   -0.0037192073532962035   0.0010151416136635607
-0.2008764158631694   -0.023694578550378775   -0.004013998193010311
-0.2008764158631694   -0.023694578550378775   -0.004013998193010311
-0.2008764158631694   -0.023694578550378775   -0.004013998193010311
-0.2008764158631694   -0.023694578550378775   -0.004013998193010311
0.021882833443350014   0.028401276720977947   0.004198739419284852
0.021882833443350014   0.028401276720977947   0.004198739419284852
0.021882833443350014   0.028401276720977947   0.004198739419284852
0.021882833443350014   0.028401276720977947   0.004198739419284852
0.021261309107971513   0.03414288376016844   0.005888051012529975
0.021261309107971513   0.03414288376016844   0.005888051012529975
0.021261309107971513   0.03414288376016844   0.005888051012529975
0.021261309107971513   0.03414288376016844   0.005888051012529975
-0.19742187462213642   -0.0055172264843153795   -0.00845575189549766
-0.19742187462213642   -0.0055172264843153795   -0.00845575189549766
-0.19742187462213642   -0.0055172264843153795   -0.00845575189549766
-0.19742187462213642   -0.0055172264843153795   -0.00845575189549766
-0.08763950538514836   0.008311322276807684   0.005394659725830003
-0.08763950538514836   0.008311322276807684   0.005394659725830003
-0.08763950538514836   0.008311322276807684   0.005394659725830003
-0.08763950538514836   0.008311322276807684   0.005394659725830003
0.008129026451714809   -0.03351575704324028   -0.010391414368537237
0.008129026451714809   -0.03351575704324028   -0.010391414368537237
0.008129026451714809   -0.03351575704324028   -0.010391414368537237
0.008129026451714809   -0.03351575704324028   -0.010391414368537237
0.23607617184532423   0.01612905179807029   0.014433158346798895
0.23607617184532423   0.01612905179807029   0.014433158346798895
0.23607617184532423   0.01612905179807029   0.014433158346798895
0.23607617184532423   0.01612905179807029   0.014433158346798895
0.23602660644599796   0.021919711437035895   -0.0023636874858123293
0.23602660644599796   0.021919711437035895   -0.0023636874858123293
0.23602660644599796   0.021919711437035895   -0.0023636874858123293
0.23602660644599796   0.021919711437035895   -0.0023636874858123293
0.012609692968810217   -0.019952755980763064   0.0015988683391276442
0.012609692968810217   -0.019952755980763064   0.0015988683391276442
0.012609692968810217   -0.019952755980763064   0.0015988683391276442
0.012609692968810217   -0.019952755980763064   0.0015988683391276442
0.12167493403051056   -0.002990352198308916   0.00016791667778947705
0.12167493403051056   -0.002990352198308916   0.00016791667778947705
0.12167493403051056   -0.002990352198308916   0.00016791667778947705
0.12167493403051056   -0.002990352198308916   0.00016791667778947705
0.009831368107192035   -0.024413084269590053   -0.007832427680136145
0.009831368107192035   -0.024413084269590053   -0.007832427680136145
0.009831368107192035   -0.024413084269590053   -0.007832427680136145
0.009831368107192035   -0.024413084269590053   -0.007832427680136145
0.2401805499908784   0.027755658409125483   0.012570083266500259
0.2401805499908784   0.027755658409125483   0.012570083266500259
0.2401805499908784   0.027755658409125483   0.012570083266500259
0.2401805499908784   0.027755658409125483   0.012570083266500259
0.23823067329455522   0.032661338567572876   0.002252208190573547
0.23823067329455522   0.032661338567572876   0.002252208190573547
0.23823067329455522   0.032661338567572876   0.002252208190573547
0.23823067329455522   0.032661338567572876   0.002252208190573547
0.013393659484040954   -0.00930256933734937   -0.0005432843189329714
0.013393659484040954   -0.00930256933734937   -0.0005432843189329714
0.013393659484040954   -0.00930256933734937   -0.0005432843189329714
0.013393659484040954   -0.00930256933734937   -0.0005432843189329714
0.12362833987706003   0.007266119513580253   0.0050860058193491426
0.12362833987706003   0.007266119513580253   0.0050860058193491426
0.12362833987706003   0.007266119513580253   0.0050860058193491426
0.12362833987706003   0.007266119513580253   0.0050860058193491426
0.01133980432517745   -0.014325252295447705   -0.005789877155152065
0.01133980432517745   -0.014325252295447705   -0.005789877155152065
0.01133980432517745   -0.014325252295447705   -0.005789877155152065
0.01133980432517745   -0.014325252295447705   -0.005789877155152065
0.24128273121996333   0.03868222429221656   0.011491612092972375
0.24128273121996333   0.03868222429221656   0.011491612092972375
0.24128273121996333   0.03868222429221656   0.011491612092972375
0.24128273121996333   0.03868222429221656   0.011491612092972375
0.23467678621265226   0.045050454012077794   0.004874913493996569
0.23467678621265226   0.045050454012077794   0.004874913493996569
0.23467678621265226   0.045050454012077794   0.004874913493996569
0.23467678621265226   0.045050454012077794   0.004874913493996569
0.013545514500521365   0.003834117874103452   -0.0023821561386557777
0.013545514500521365   0.003834117874103452   -0.0023821561386557777
0.013545514500521365   0.003834117874103452   -0.0023821561386557777
0.013545514500521365   0.003834117874103452   -0.0023821561386557777
0.12577843437663763   0.01898125910119175   0.00965581761656774
0.12577843437663763   0.01898125910119175   0.00965581761656774
0.12577843437663763   0.01898125910119175   0.00965581761656774
0.12577843437663763   0.01898125910119175   0.00965581761656774
0.21715344996426744   -0.04460761515904099   -0.01944378410137377
0.21715344996426744   -0.04460761515904099   -0.01944378410137377
0.21715344996426744   -0.04460761515904099   -0.01944378410137377
0.21715344996426744   -0.04460761515904099   -0.01944378410137377
0.44854511613202463   0.029643855307149927   0.014334404457787695
0.44854511613202463   0.029643855307149927   0.014334404457787695
0.44854511613202463   0.029643855307149927   0.014334404457787695
0.44854511613202463   0.029643855307149927   0.014334404457787695
0.4539757943861927   0.013603591324310757   -0.029280725140161685
0.4539757943861927   0.013603591324310757   -0.029280725140161685
0.4539757943861927   0.013603591324310757   -0.029280725140161685
0.4539757943861927   0.013603591324310757   -0.029280725140161685
0.23210347389260982   -0.008727039343634044   0.008667400527915148
0.23210347389260982   -0.008727039343634044   0.008667400527915148
0.23210347389260982   -0.008727039343634044   0.008667400527915148
0.23210347389260982   -0.008727039343634044   0.008667400527915148
0.32108694414642824   -0.005916866282372549   -0.00826397394843768
0.32108694414642824   -0.005916866282372549   -0.00826397394843768
0.32108694414642824   -0.005916866282372549   -0.00826397394843768
0.32108694414642824   -0.005916866282372549   -0.00826397394843768
0.22366666386562906   -0.029209022951577963   -0.013034665999041708
0.22366666386562906   -0.029209022951577963   -0.013034665999041708
0.22366666386562906   -0.029209022951577963   -0.013034665999041708
0.22366666386562906   -0.029209022951577963   -0.013034665999041708
0.4665962301884801   0.03826920070756158   0.009155844488024898
0.4665962301884801   0.03826920070756158   0.009155844488024898
0.4665962301884801   0.03826920070756158   0.009155844488024898
0.4665962301884801   0.03826920070756158   0.009155844488024898
0.4594879567481909   0.025407325990155577   -0.0069942689262222635
0.4594879567481909   0.025407325990155577   -0.0069942689262222635
0.4594879567481909   0.025407325990155577   -0.0069942689262222635
0.4594879567481909   0.025407325990155577   -0.0069942689262222635
0.2314924826014496   -0.0033822873451423707   0.004604880637760834
0.2314924826014496   -0.0033822873451423707   0.004604880637760834
0.2314924826014496   -0.0033822873451423707   0.004604880637760834
0.2314924826014496   -0.0033822873451423707   0.004604880637760834
0.3384549019919887   0.008484579118956559   0.0056204330964937065
0.3384549019919887   0.008484579118956559   0.0056204330964937065
0.3384549019919887   0.008484579118956559   0.0056204330964937065
0.3384549019919887   0.008484579118956559   0.0056204330964937065
0.22467497490180968   -0.022274504695826577   -0.01059044050975273
0.22467497490180968   -0.022274504695826577   -0.01059044050975273
0.22467497490180968   -0.022274504695826577   -0.01059044050975273
0.22467497490180968   -0.022274504695826577   -0.01059044050975273
0.4657851863364735   0.04377926522948291   0.006119939775863363
0.4657851863364735   0.04377926522948291   0.006119939775863363
0.4657851863364735   0.04377926522948291   0.006119939775863363
0.4657851863364735   0.04377926522948291   0.006119939775863363
0.45929855643977807   0.039464014978880614   -0.010567846178679724
0.45929855643977807   0.039464014978880614   -0.010567846178679724
0.45929855643977807   0.039464014978880614   -0.010567846178679724
0.45929855643977807   0.039464014978880614   -0.010567846178679724
0.22698824474242213   0.008821991846584172   0.0026606683083375635
0.22698824474242213   0.008821991846584172   0.0026606683083375635
0.22698824474242213   0.008821991846584172   0.0026606683083375635
0.22698824474242213   0.008821991846584172   0.0026606683083375635
0.33020231837315295   0.0150717045289459   0.004350840854281826
0.33020231837315295   0.0150717045289459   0.004350840854281826
0.33020231837315295   0.0150717045289459   0.004350840854281826
0.33020231837315295   0.0150717045289459   0.004350840854281826
-0.4920738557318647   -0.022128111840971187   0.02600313087079125
-0.4920738557318647   -0.022128111840971187   0.02600313087079125
-0.4920738557318647   -0.022128111840971187   0.02600313087079125
-0.4920738557318647   -0.022128111840971187   0.02600313087079125
-0.32783417164973133   -0.012888967104036461   -0.006765744959534546
-0.32783417164973133   -0.012888967104036461   -0.006765744959534546
-0.32783417164973133   -0.012888967104036461   -0.006765744959534546
-0.32783417164973133   -0.012888967104036461   -0.006765744959534546
-0.31564061254272946   0.02676092539950012   0.021744817516857293
-0.31564061254272946   0.02676092539950012   0.021744817516857293
-0.31564061254272946   0.02676092539950012   0.021744817516857293
-0.31564061254272946   0.02676092539950012   0.021744817516857293
-0.4942074876070878   -0.03543660141968416   -0.010559904176598144
-0.4942074876070878   -0.03543660141968416   -0.010559904176598144
-0.4942074876070878   -0.03543660141968416   -0.010559904176598144
-0.4942074876070878   -0.03543660141968416   -0.010559904176598144
-0.39096504307856766   -0.0060362431035285435   -0.0010235465964893754
-0.39096504307856766   -0.0060362431035285435   -0.0010235465964893754
-0.39096504307856766   -0.0060362431035285435   -0.0010235465964893754
-0.39096504307856766   -0.0060362431035285435   -0.0010235465964893754
-0.4801398765712769   -0.004682984160855275   0.029024533743627803
-0.4801398765712769   -0.004682984160855275   0.029024533743627803
-0.4801398765712769   -0.004682984160855275   0.029024533743627803
-0.4801398765712769   -0.004682984160855275   0.029024533743627803
-0.3274992872023671   -0.0017837554831554997   -0.009003874898675542
-0.3274992872023671   -0.0017837554831554997   -0.009003874898675542
-0.3274992872023671   -0.0017837554831554997   -0.009003874898675542
-0.3274992872023671   -0.0017837554831554997   -0.009003874898675542
-0.3142061026491577   0.03325123483547286   0.020101619425932013
-0.3142061026491577   0.03325123483547286   0.020101619425932013
-0.3142061026491577   0.03325123483547286   0.020101619425932013
-0.3142061026491577   0.03325123483547286   0.020101619425932013
-0.4862265877987568   -0.02953710894275227   -0.0144103332740275
-0.4862265877987568   -0.02953710894275227   -0.0144103332740275
-0.4862265877987568   -0.02953710894275227   -0.0144103332740275
-0.4862265877987568   -0.02953710894275227   -0.0144103332740275
-0.3915269696497871   0.0015850143889296064   0.004364405064870049
-0.3915269696497871   0.0015850143889296064   0.004364405064870049
-0.3915269696497871   0.0015850143889296064   0.004364405064870049
-0.3915269696497871   0.0015850143889296064   0.004364405064870049
-0.47314548145462537   0.0014455442416403952   0.020012545262237266
-0.47314548145462537   0.0014455442416403952   0.020012545262237266
-0.47314548145462537   0.0014455442416403952   0.020012545262237266
-0.47314548145462537   0.0014455442416403952   0.020012545262237266
-0.3265610685917174   0.0029947220526525403   -0.011416697504042853
-0.3265610685917174   0.0029947220526525403   -0.011416697504042853
-0.3265610685917174   0.0029947220526525403   -0.011416697504042853
-0.3265610685917174   0.0029947220526525403   -0.011416697504042853
-0.3143770703391152   0.037699966327709625   0.01595361336784695
-0.3143770703391152   0.037699966327709625   0.01595361336784695
-0.3143770703391152   0.037699966327709625   0.01595361336784695
-0.3143770703391152   0.037699966327709625   0.01595361336784695
-0.47595575708236854   -0.023185205092700722   -0.018334071788643436
-0.47595575708236854   -0.023185205092700722   -0.018334071788643436
-0.47595575708236854   -0.023185205092700722   -0.018334071788643436
-0.47595575708236854   -0.023185205092700722   -0.018334071788643436
-0.38004550166110573   0.008449634143431306   0.00934067533633716
-0.38004550166110573   0.008449634143431306   0.00934067533633716
-0.38004550166110573   0.008449634143431306   0.00934067533633716
-0.38004550166110573   0.008449634143431306   0.00934067533633716
-0.32861309024085705   -0.031122868263775985   0.007573563244576555
-0.32861309024085705   -0.031122868263775985   0.007573563244576555
-0.32861309024085705   -0.031122868263775985   0.007573563244576555
-0.32861309024085705   -0.031122868263775985   0.007573563244576555
-0.16692142592485595   -0.006280051361192588   0.0002730778418948516
-0.16692142592485595   -0.006280051361192588   0.0002730778418948516
-0.16692142592485595   -0.006280051361192588   0.0002730778418948516
-0.16692142592485595   -0.006280051361192588   0.0002730778418948516
-0.1620035319155136   0.016329314240321517   0.011793680487666712
-0.1620035319155136   0.016329314240321517   0.011793680487666712
-0.1620035319155136   0.016329314240321517   0.011793680487666712
-0.1620035319155136   0.016329314240321517   0.011793680487666712
-0.33378312788584097   -0.030690909177709134   -0.011515924621491003
-0.33378312788584097   -0.030690909177709134   -0.011515924621491003
-0.33378312788584097   -0.030690909177709134   -0.011515924621491003
-0.33378312788584097   -0.030690909177709134   -0.011515924621491003
-0.246984280066296   -0.01212371089852584   -0.005148743175612756
-0.246984280066296   -0.01212371089852584   -0.005148743175612756
-0.246984280066296   -0.01212371089852584   -0.005148743175612756
-0.246984280066296   -0.01212371089852584   -0.005148743175612756
-0.32741754638595616   -0.017656675009379987   0.007277748709601758
-0.32741754638595616   -0.017656675009379987   0.007277748709601758
-0.32741754638595616   -0.017656675009379987   0.007277748709601758
-0.32741754638595616   -0.017656675009379987   0.007277748709601758
-0.16709051393131757   0.004573679556073733   -0.001885594907103886
-0.16709051393131757   0.004573679556073733   -0.001885594907103886
-0.16709051393131757   0.004573679556073733   -0.001885594907103886
-0.16709051393131757   0.004573679556073733   -0.001885594907103886
-0.16136169298497932   0.02715918413703873   0.010179296426995995
-0.16136169298497932   0.02715918413703873   0.010179296426995995
-0.16136169298497932   0.02715918413703873   0.010179296426995995
-0.16136169298497932   0.02715918413703873   0.010179296426995995
-0.3317207245931598   -0.0206073701486688   -0.013612885309936745
-0.3317207245931598   -0.0206073701486688   -0.013612885309936745
-0.3317207245931598   -0.0206073701486688   -0.013612885309936745
-0.3317207245931598   -0.0206073701486688   -0.013612885309936745
-0.24414724855932524   -0.0012105537085943252   -9.722636488743684e-05
-0.24414724855932524   -0.0012105537085943252   -9.722636488743684e-05
-0.24414724855932524   -0.0012105537085943252   -9.722636488743684e-05
-0.24414724855932524   -0.0012105537085943252   -9.722636488743684e-05
-0.3252283323297198   -0.006668051537991396   0.004909757396585824
-0.3252283323297198   -0.006668051537991396   0.004909757396585824
-0.3252283323297198   -0.006668051537991396   0.004909757396585824
-0.3252283323297198   -0.006668051537991396   0.004909757396585824
-0.1668138654063608   0.014260085368419419   -0.004182466911290818
-0.1668138654063608   0.014260085368419419   -0.004182466911290818
-0.1668138654063608   0.014260085368419419   -0.004182466911290818
-0.1668138654063608   0.014260085368419419   -0.004182466911290818
-0.16118842491955745   0.03856392501399919   0.007607168344680951
-0.16118842491955745   0.03856392501399919   0.007607168344680951
-0.16118842491955745   0.03856392501399919   0.007607168344680951
-0.16118842491955745   0.03856392501399919   0.007607168344680951
-0.329973693695673   -0.009692808459890526   -0.014636728627342676
-0.329973693695673   -0.009692808459890526   -0.014636728627342676
-0.329973693695673   -0.009692808459890526   -0.014636728627342676
-0.329973693695673   -0.009692808459890526   -0.014636728627342676
-0.24415193860070172   0.008842170140507297   0.003784776112363799
-0.24415193860070172   0.008842170140507297   0.003784776112363799
-0.24415193860070172   0.008842170140507297   0.003784776112363799
-0.24415193860070172   0.008842170140507297   0.003784776112363799
-0.17305585093903986   -0.03583037702092996   -0.0008487215692888374
-0.17305585093903986   -0.03583037702092996   -0.0008487215692888374
-0.17305585093903986   -0.03583037702092996   -0.0008487215692888374
-0.17305585093903986   -0.03583037702092996   -0.0008487215692888374
-0.007427938128485667   0.0014516527994938501   0.007379572173136707
-0.007427938128485667   0.0014516527994938501   0.007379572173136707
-0.007427938128485667   0.0014516527994938501   0.007379572173136707
-0.007427938128485667   0.0014516527994938501   0.007379572173136707
-0.007937800888218518   0.010325680299381483   0.0035450568237508054
-0.007937800888218518   0.010325680299381483   0.0035450568237508054
-0.007937800888218518   0.010325680299381483   0.0035450568237508054
-0.007937800888218518   0.010325680299381483   0.0035450568237508054
-0.17304563142069007   -0.02282645817738492   -0.00426104462051053
-0.17304563142069007   -0.02282645817738492   -0.00426104462051053
-0.17304563142069007   -0.02282645817738492   -0.00426104462051053
-0.17304563142069007   -0.02282645817738492   -0.00426104462051053
-0.09065144962527956   -0.011327655306551849   -0.002912574982511288
-0.09065144962527956   -0.011327655306551849   -0.002912574982511288
-0.09065144962527956   -0.011327655306551849   -0.002912574982511288
-0.09065144962527956   -0.011327655306551849   -0.002912574982511288
-0.17285791559321828   -0.023830948948729728   -0.0023179747118054856
-0.17285791559321828   -0.023830948948729728   -0.0023179747118054856
-0.17285791559321828   -0.023830948948729728   -0.0023179747118054856
-0.17285791559321828   -0.023830948948729728   -0.0023179747118054856
-0.00717480352520191   0.012280884261215543   0.0054048396769997885
-0.00717480352520191   0.012280884261215543   0.0054048396769997885
-0.00717480352520191   0.012280884261215543   0.0054048396769997885
-0.00717480352520191   0.012280884261215543   0.0054048396769997885
-0.00701818666999771   0.02211280924791384   0.0016574221673120336
-0.00701818666999771   0.02211280924791384   0.0016574221673120336
-0.00701818666999771   0.02211280924791384   0.0016574221673120336
-0.00701818666999771   0.02211280924791384   0.0016574221673120336
-0.17247817795024747   -0.011971733866834498   -0.006272210395471515
-0.17247817795024747   -0.011971733866834498   -0.006272210395471515
-0.17247817795024747   -0.011971733866834498   -0.006272210395471515
-0.17247817795024747   -0.011971733866834498   -0.006272210395471515
-0.08964704497205846   -0.0004469161422947475   0.0011757375238635546
-0.08964704497205846   -0.0004469161422947475   0.0011757375238635546
-0.08964704497205846   -0.0004469161422947475   0.0011757375238635546
-0.08964704497205846   -0.0004469161422947475   0.0011757375238635546
-0.17222236831025042   -0.012210408938386052   -0.004754487123934695
-0.17222236831025042   -0.012210408938386052   -0.004754487123934695
-0.17222236831025042   -0.012210408938386052   -0.004754487123934695
-0.17222236831025042   -0.012210408938386052   -0.004754487123934695
-0.006490034586592119   0.023135446042868036   0.003275545789385796
-0.006490034586592119   0.023135446042868036   0.003275545789385796
-0.006490034586592119   0.023135446042868036   0.003275545789385796
-0.006490034586592119   0.023135446042868036   0.003275545789385796
-0.0067197406250487125   0.034243692235920414   -0.0003532922914064006
-0.0067197406250487125   0.034243692235920414   -0.0003532922914064006
-0.0067197406250487125   0.034243692235920414   -0.0003532922914064006
-0.0067197406250487125   0.034243692235920414   -0.0003532922914064006
-0.1722735827889666   -0.0009402237723909468   -0.008314472215974051
-0.1722735827889666   -0.0009402237723909468   -0.008314472215974051
-0.1722735827889666   -0.0009402237723909468   -0.008314472215974051
-0.1722735827889666   -0.0009402237723909468   -0.008314472215974051
-0.08883768194703633   0.0104448976549164   0.004927103990435023
-0.08883768194703633   0.0104448976549164   0.004927103990435023
-0.08883768194703633   0.0104448976549164   0.004927103990435023
-0.08883768194703633   0.0104448976549164   0.004927103990435023
-0.018800573830801016   -0.03944943309525345   -0.008582520443692681
-0.018800573830801016   -0.03944943309525345   -0.008582520443692681
-0.018800573830801016   -0.03944943309525345   -0.008582520443692681
-0.018800573830801016   -0.03944943309525345   -0.008582520443692681
0.1512380661774631   0.010462797367053977   0.014048135200969217
0.1512380661774631   0.010462797367053977   0.014048135200969217
0.1512380661774631   0.010462797367053977   0.014048135200969217
0.1512380661774631   0.010462797367053977   0.014048135200969217
0.14625236036010064   0.005317209341351995   -0.005693972441589391
0.14625236036010064   0.005317209341351995   -0.005693972441589391
0.14625236036010064   0.005317209341351995   -0.005693972441589391
0.14625236036010064   0.005317209341351995   -0.005693972441589391
-0.01293912728042334   -0.014269082183951853   0.003133187346060032
-0.01293912728042334   -0.014269082183951853   0.003133187346060032
-0.01293912728042334   -0.014269082183951853   0.003133187346060032
-0.01293912728042334   -0.014269082183951853   0.003133187346060032
0.0654835483693613   -0.009326508348612473   -0.0016761793367747885
0.0654835483693613   -0.009326508348612473   -0.0016761793367747885
0.0654835483693613   -0.009326508348612473   -0.0016761793367747885
0.0654835483693613   -0.009326508348612473   -0.0016761793367747885
-0.018612156622778153   -0.028680923230699214   -0.010820118318966666
-0.018612156622778153   -0.028680923230699214   -0.010820118318966666
-0.018612156622778153   -0.028680923230699214   -0.010820118318966666
-0.018612156622778153   -0.028680923230699214   -0.010820118318966666
0.15300768010568028   0.02081134079132397   0.012588494836335515
0.15300768010568028   0.02081134079132397   0.012588494836335515
0.15300768010568028   0.02081134079132397   0.012588494836335515
0.15300768010568028   0.02081134079132397   0.012588494836335515
0.1488363486305583   0.016296507935690548   -0.007990587100250744
0.1488363486305583   0.016296507935690548   -0.007990587100250744
0.1488363486305583   0.016296507935690548   -0.007990587100250744
0.1488363486305583   0.016296507935690548   -0.007990587100250744
-0.012484293419893435   -0.0045392226500592   0.000978920315806535
-0.012484293419893435   -0.0045392226500592   0.000978920315806535
-0.012484293419893435   -0.0045392226500592   0.000978920315806535
-0.012484293419893435   -0.0045392226500592   0.000978920315806535
0.06623980022439432   0.0005487257840888354   0.0023982405865762353
0.06623980022439432   0.0005487257840888354   0.0023982405865762353
0.06623980022439432   0.0005487257840888354   0.0023982405865762353
0.06623980022439432   0.0005487257840888354   0.0023982405865762353
-0.01800546077670088   -0.01808913695780763   -0.013077002160482444
-0.01800546077670088   -0.01808913695780763   -0.013077002160482444
-0.01800546077670088   -0.01808913695780763   -0.013077002160482444
-0.01800546077670088   -0.01808913695780763   -0.013077002160482444
0.15553800390762385   0.0310269101636975   0.010787287057068964
0.15553800390762385   0.0310269101636975   0.010787287057068964
0.15553800390762385   0.0310269101636975   0.010787287057068964
0.15553800390762385   0.0310269101636975   0.010787287057068964
0.1504882112310877   0.03001910530760275   -0.008399915701725609
0.1504882112310877   0.03001910530760275   -0.008399915701725609
0.1504882112310877   0.03001910530760275   -0.008399915701725609
0.1504882112310877   0.03001910530760275   -0.008399915701725609
-0.012374744378547752   0.006786555462164905   -0.0011711742851459573
-0.012374744378547752   0.006786555462164905   -0.0011711742851459573
-0.012374744378547752   0.006786555462164905   -0.0011711742851459573
-0.012374744378547752   0.006786555462164905   -0.0011711742851459573
0.06874106601179196   0.011511643665459165   0.007215955576793584
0.06874106601179196   0.011511643665459165   0.007215955576793584
0.06874106601179196   0.011511643665459165   0.007215955576793584
0.06874106601179196   0.011511643665459165   0.007215955576793584
0.1351121065174279   -0.03927783387813108   -0.01684103185402056
0.1351121065174279   -0.03927783387813108   -0.01684103185402056
0.1351121065174279   -0.03927783387813108   -0.01684103185402056
0.1351121065174279   -0.03927783387813108   -0.01684103185402056
0.2987483578605284   0.02222118827863461   0.015829908028385124
0.2987483578605284   0.02222118827863461   0.015829908028385124
0.2987483578605284   0.02222118827863461   0.015829908028385124
0.2987483578605284   0.02222118827863461   0.015829908028385124
0.2964661014856666   -0.002072945663738404   -0.022424758665661498
0.2964661014856666   -0.002072945663738404   -0.022424758665661498
0.2964661014856666   -0.002072945663738404   -0.022424758665661498
0.2964661014856666   -0.002072945663738404   -0.022424758665661498
0.14786730711901608   -0.002986211017940922   0.01068418171228083
0.14786730711901608   -0.002986211017940922   0.01068418171228083
0.14786730711901608   -0.002986211017940922   0.01068418171228083
0.14786730711901608   -0.002986211017940922   0.01068418171228083
0.20888037426270684   -0.007827330453994898   -0.006977999646956218
0.20888037426270684   -0.007827330453994898   -0.006977999646956218
0.20888037426270684   -0.007827330453994898   -0.006977999646956218
0.20888037426270684   -0.007827330453994898   -0.006977999646956218
0.1353923553553757   -0.033948417317863515   -0.020728370805998084
0.1353923553553757   -0.033948417317863515   -0.020728370805998084
0.1353923553553757   -0.033948417317863515   -0.020728370805998084
0.1353923553553757   -0.033948417317863515   -0.020728370805998084
0.30983265160607837   0.029780858992955926   0.012554187279702823
0.30983265160607837   0.029780858992955926   0.012554187279702823
0.30983265160607837   0.029780858992955926   0.012554187279702823
0.30983265160607837   0.029780858992955926   0.012554187279702823
0.30411264468640453   0.0041894024932457655   -0.030156832255253382
0.30411264468640453   0.0041894024932457655   -0.030156832255253382
0.30411264468640453   0.0041894024932457655   -0.030156832255253382
0.30411264468640453   0.0041894024932457655   -0.030156832255253382
0.14913672369316675   0.0017964672940961879   0.008011328854387254
0.14913672369316675   0.0017964672940961879   0.008011328854387254
0.14913672369316675   0.0017964672940961879   0.008011328854387254
0.14913672369316675   0.0017964672940961879   0.008011328854387254
0.21865427557401598   -0.0010265749494740156   -0.0020581912416019147
0.21865427557401598   -0.0010265749494740156   -0.0020581912416019147
0.21865427557401598   -0.0010265749494740156   -0.0020581912416019147
0.21865427557401598   -0.0010265749494740156   -0.0020581912416019147
0.13711042190317593   -0.027703681810536417   -0.022620030990935694
0.13711042190317593   -0.027703681810536417   -0.022620030990935694
0.13711042190317593   -0.027703681810536417   -0.022620030990935694
0.13711042190317593   -0.027703681810536417   -0.022620030990935694
0.318113881675562   0.03566448679704519   0.008374268386737063
0.318113881675562   0.03566448679704519   0.008374268386737063
0.318113881675562   0.03566448679704519   0.008374268386737063
0.318113881675562   0.03566448679704519   0.008374268386737063
0.3162337089932466   0.02044761384098525   -0.02845668597048155
0.3162337089932466   0.02044761384098525   -0.02845668597048155
0.3162337089932466   0.02044761384098525   -0.02845668597048155
0.3162337089932466   0.02044761384098525   -0.02845668597048155
0.14979154681876716   0.012252711614764766   0.005883155929511077
0.14979154681876716   0.012252711614764766   0.005883155929511077
0.14979154681876716   0.012252711614764766   0.005883155929511077
0.14979154681876716   0.012252711614764766   0.005883155929511077
0.22060173462420224   0.006703377610173623   0.0034321744388652164
0.22060173462420224   0.006703377610173623   0.0034321744388652164
0.22060173462420224   0.006703377610173623   0.0034321744388652164
0.22060173462420224   0.006703377610173623   0.0034321744388652164
-0.3488924037340969   -0.01107226870064093   0.023375979141808688
-0.3488924037340969   -0.01107226870064093   0.023375979141808688
-0.3488924037340969   -0.01107226870064093   0.023375979141808688
-0.3488924037340969   -0.01107226870064093   0.023375979141808688
-0.24542831506656346   -0.016733437116427226   -0.008748327908117243
-0.24542831506656346   -0.016733437116427226   -0.008748327908117243
-0.24542831506656346   -0.016733437116427226   -0.008748327908117243
-0.24542831506656346   -0.016733437116427226   -0.008748327908117243
-0.23079067896037253   0.023336344317507737   0.01988801586264605
-0.23079067896037253   0.023336344317507737   0.01988801586264605
-0.23079067896037253   0.023336344317507737   0.01988801586264605
-0.23079067896037253   0.023336344317507737   0.01988801586264605
-0.34890433147161787   -0.02879554878917858   -0.01281380889318492
-0.34890433147161787   -0.02879554878917858   -0.01281380889318492
-0.34890433147161787   -0.02879554878917858   -0.01281380889318492
-0.34890433147161787   -0.02879554878917858   -0.01281380889318492
-0.28155236756146157   -0.0044104746853739635   -0.0008927346944037993
-0.28155236756146157   -0.0044104746853739635   -0.0008927346944037993
-0.28155236756146157   -0.0044104746853739635   -0.0008927346944037993
-0.28155236756146157   -0.0044104746853739635   -0.0008927346944037993
-0.3355751546470148   0.002840959413150365   0.022195567027501435
-0.3355751546470148   0.002840959413150365   0.022195567027501435
-0.3355751546470148   0.002840959413150365   0.022195567027501435
-0.3355751546470148   0.002840959413150365   0.022195567027501435
-0.2430290886807385   -0.007209396780583632   -0.010758291641089561
-0.2430290886807385   -0.007209396780583632   -0.010758291641089561
-0.2430290886807385   -0.007209396780583632   -0.010758291641089561
-0.2430290886807385   -0.007209396780583632   -0.010758291641089561
-0.22860487961186177   0.02822463634650372   0.016776684985357372
-0.22860487961186177   0.02822463634650372   0.016776684985357372
-0.22860487961186177   0.02822463634650372   0.016776684985357372
-0.22860487961186177   0.02822463634650372   0.016776684985357372
-0.340476526491311   -0.023339490203458116   -0.016156917215551805
-0.340476526491311   -0.023339490203458116   -0.016156917215551805
-0.340476526491311   -0.023339490203458116   -0.016156917215551805
-0.340476526491311   -0.023339490203458116   -0.016156917215551805
-0.27946233687141164   0.0020197454227625644   0.0027746962528614125
-0.27946233687141164   0.0020197454227625644   0.0027746962528614125
-0.27946233687141164   0.0020197454227625644   0.0027746962528614125
-0.27946233687141164   0.0020197454227625644   0.0027746962528614125
-0.3272846066977391   0.008688326868355509   0.017774864680493697
-0.3272846066977391   0.008688326868355509   0.017774864680493697
-0.3272846066977391   0.008688326868355509   0.017774864680493697
-0.3272846066977391   0.008688326868355509   0.017774864680493697
-0.24081652861642358   -0.002822909936299564   -0.013234013754646404
-0.24081652861642358   -0.002822909936299564   -0.013234013754646404
-0.24081652861642358   -0.002822909936299564   -0.013234013754646404
-0.24081652861642358   -0.002822909936299564   -0.013234013754646404
-0.22740026511523953   0.03307917855687392   0.0144323544920969
-0.22740026511523953   0.03307917855687392   0.0144323544920969
-0.22740026511523953   0.03307917855687392   0.0144323544920969
-0.22740026511523953   0.03307917855687392   0.0144323544920969
-0.3292372663984726   -0.016083685798975247   -0.019318927778737224
-0.3292372663984726   -0.016083685798975247   -0.019318927778737224
-0.3292372663984726   -0.016083685798975247   -0.019318927778737224
-0.3292372663984726   -0.016083685798975247   -0.019318927778737224
-0.26888868153317663   0.008085456896458051   0.00786705703546623
-0.26888868153317663   0.008085456896458051   0.00786705703546623
-0.26888868153317663   0.008085456896458051   0.00786705703546623
-0.26888868153317663   0.008085456896458051   0.00786705703546623
-0.24247204088888832   -0.01965405729134351   0.008953663155172643
-0.24247204088888832   -0.01965405729134351   0.008953663155172643
-0.24247204088888832   -0.01965405729134351   0.008953663155172643
-0.24247204088888832   -0.01965405729134351   0.008953663155172643
-0.1418107036231386   -0.010834684143762291   -0.0014170340116638099
-0.1418107036231386   -0.010834684143762291   -0.0014170340116638099
-0.1418107036231386   -0.010834684143762291   -0.0014170340116638099
-0.1418107036231386   -0.010834684143762291   -0.0014170340116638099
-0.13457563663674962   0.013597315823707323   0.010717709136496101
-0.13457563663674962   0.013597315823707323   0.010717709136496101
-0.13457563663674962   0.013597315823707323   0.010717709136496101
-0.13457563663674962   0.013597315823707323   0.010717709136496101
-0.24618019005293446   -0.023475983167124875   -0.010247212115530976
-0.24618019005293446   -0.023475983167124875   -0.010247212115530976
-0.24618019005293446   -0.023475983167124875   -0.010247212115530976
-0.24618019005293446   -0.023475983167124875   -0.010247212115530976
-0.19052712031032643   -0.009208025108498753   -0.004006601827171937
-0.19052712031032643   -0.009208025108498753   -0.004006601827171937
-0.19052712031032643   -0.009208025108498753   -0.004006601827171937
-0.19052712031032643   -0.009208025108498753   -0.004006601827171937
-0.23958904695095193   -0.00808533668415147   0.007317856911408299
-0.23958904695095193   -0.00808533668415147   0.007317856911408299
-0.23958904695095193   -0.00808533668415147   0.007317856911408299
-0.23958904695095193   -0.00808533668415147   0.007317856911408299
-0.1403193551041564   -0.0009459060246903364   -0.003457661352140177
-0.1403193551041564   -0.0009459060246903364   -0.003457661352140177
-0.1403193551041564   -0.0009459060246903364   -0.003457661352140177
-0.1403193551041564   -0.0009459060246903364   -0.003457661352140177
-0.13286870470676204   0.023640017808246448   0.008772034588241762
-0.13286870470676204   0.023640017808246448   0.008772034588241762
-0.13286870470676204   0.023640017808246448   0.008772034588241762
-0.13286870470676204   0.023640017808246448   0.008772034588241762
-0.24282936549219641   -0.014037200352123157   -0.012083907717689052
-0.24282936549219641   -0.014037200352123157   -0.012083907717689052
-0.24282936549219641   -0.014037200352123157   -0.012083907717689052
-0.24282936549219641   -0.014037200352123157   -0.012083907717689052
-0.18685984115111887   0.000616740123939051   0.00021717139339338248
-0.18685984115111887   0.000616740123939051   0.00021717139339338248
-0.18685984115111887   0.000616740123939051   0.00021717139339338248
-0.18685984115111887   0.000616740123939051   0.00021717139339338248
-0.23574018107700426   0.0026468986814827955   0.006677915324665728
-0.23574018107700426   0.0026468986814827955   0.006677915324665728
-0.23574018107700426   0.0026468986814827955   0.006677915324665728
-0.23574018107700426   0.0026468986814827955   0.006677915324665728
-0.1389056775953177   0.00800813030127788   -0.005780942347566424
-0.1389056775953177   0.00800813030127788   -0.005780942347566424
-0.1389056775953177   0.00800813030127788   -0.005780942347566424
-0.1389056775953177   0.00800813030127788   -0.005780942347566424
-0.1312180695207319   0.03437770535312129   0.006960216262775338
-0.1312180695207319   0.03437770535312129   0.006960216262775338
-0.1312180695207319   0.03437770535312129   0.006960216262775338
-0.1312180695207319   0.03437770535312129   0.006960216262775338
-0.24033574626473422   -0.0038271645012131136   -0.013338708197291438
-0.24033574626473422   -0.0038271645012131136   -0.013338708197291438
-0.24033574626473422   -0.0038271645012131136   -0.013338708197291438
-0.24033574626473422   -0.0038271645012131136   -0.013338708197291438
-0.1854204006813141   0.009910832920523159   0.004257858794617061
-0.1854204006813141   0.009910832920523159   0.004257858794617061
-0.1854204006813141   0.009910832920523159   0.004257858794617061
-0.1854204006813141   0.009910832920523159   0.004257858794617061
-0.14474076129959565   -0.027389356314081667   0.0004873497763690975
-0.14474076129959565   -0.027389356314081667   0.0004873497763690975
-0.14474076129959565   -0.027389356314081667   0.0004873497763690975
-0.14474076129959565   -0.027389356314081667   0.0004873497763690975
-0.03914646368799366   -0.0034758307859912535   0.0058741647524985065
-0.03914646368799366   -0.0034758307859912535   0.0058741647524985065
-0.03914646368799366   -0.0034758307859912535   0.0058741647524985065
-0.03914646368799366   -0.0034758307859912535   0.0058741647524985065
-0.038240894184913624   0.005387529452358033   0.002004156292423953
-0.038240894184913624   0.005387529452358033   0.002004156292423953
-0.038240894184913624   0.005387529452358033   0.002004156292423953
-0.038240894184913624   0.005387529452358033   0.002004156292423953
-0.14315872525646126   -0.015900597190650345   -0.0026998209477059527
-0.14315872525646126   -0.015900597190650345   -0.0026998209477059527
-0.14315872525646126   -0.015900597190650345   -0.0026998209477059527
-0.14315872525646126   -0.015900597190650345   -0.0026998209477059527
-0.09148334150319026   -0.009894092982970325   -0.0028624033411460774
-0.09148334150319026   -0.009894092982970325   -0.0028624033411460774
-0.09148334150319026   -0.009894092982970325   -0.0028624033411460774
-0.09148334150319026   -0.009894092982970325   -0.0028624033411460774
-0.14291719931009977   -0.01618926709372813   -0.0012035213128207007
-0.14291719931009977   -0.01618926709372813   -0.0012035213128207007
-0.14291719931009977   -0.01618926709372813   -0.0012035213128207007
-0.14291719931009977   -0.01618926709372813   -0.0012035213128207007
-0.037632617455351375   0.006526002031359555   0.003907067361233668
-0.037632617455351375   0.006526002031359555   0.003907067361233668
-0.037632617455351375   0.006526002031359555   0.003907067361233668
-0.037632617455351375   0.006526002031359555   0.003907067361233668
-0.03617646610525976   0.01663824650313164   0.00047597960937143923
-0.03617646610525976   0.01663824650313164   0.00047597960937143923
-0.03617646610525976   0.01663824650313164   0.00047597960937143923
-0.03617646610525976   0.01663824650313164   0.00047597960937143923
-0.14144794085730036   -0.005824942548643505   -0.004659185807559793
-0.14144794085730036   -0.005824942548643505   -0.004659185807559793
-0.14144794085730036   -0.005824942548643505   -0.004659185807559793
-0.14144794085730036   -0.005824942548643505   -0.004659185807559793
-0.08927644729965592   0.00019659141296809318   0.0011267571954112123
-0.08927644729965592   0.00019659141296809318   0.0011267571954112123
-0.08927644729965592   0.00019659141296809318   0.0011267571954112123
-0.08927644729965592   0.00019659141296809318   0.0011267571954112123
-0.14091606329045334   -0.004974847466812503   -0.0028498930551557108
-0.14091606329045334   -0.004974847466812503   -0.0028498930551557108
-0.14091606329045334   -0.004974847466812503   -0.0028498930551557108
-0.14091606329045334   -0.004974847466812503   -0.0028498930551557108
-0.03592349168040758   0.01657300341299983   0.0018060948237641214
-0.03592349168040758   0.01657300341299983   0.0018060948237641214
-0.03592349168040758   0.01657300341299983   0.0018060948237641214
-0.03592349168040758   0.01657300341299983   0.0018060948237641214
-0.034318493786498996   0.028052334811941193   -0.0013067682967809503
-0.034318493786498996   0.028052334811941193   -0.0013067682967809503
-0.034318493786498996   0.028052334811941193   -0.0013067682967809503
-0.034318493786498996   0.028052334811941193   -0.0013067682967809503
-0.13995699589700494   0.004363434835576073   -0.006720145101044241
-0.13995699589700494   0.004363434835576073   -0.006720145101044241
-0.13995699589700494   0.004363434835576073   -0.006720145101044241
-0.13995699589700494   0.004363434835576073   -0.006720145101044241
-0.0872627719555002   0.01033604863705035   0.004970117294117352
-0.0872627719555002   0.01033604863705035   0.004970117294117352
-0.0872627719555002   0.01033604863705035   0.004970117294117352
-0.0872627719555002   0.01033604863705035   0.004970117294117352
-0.04792337099857711   -0.03373029802135831   -0.007755904565052012
-0.04792337099857711   -0.03373029802135831   -0.007755904565052012
-0.04792337099857711   -0.03373029802135831   -0.007755904565052012
-0.04792337099857711   -0.03373029802135831   -0.007755904565052012
0.06189524598699081   0.004751901344755694   0.012722868244768436
0.06189524598699081   0.004751901344755694   0.012722868244768436
0.06189524598699081   0.004751901344755694   0.012722868244768436
0.06189524598699081   0.004751901344755694   0.012722868244768436
0.05726831740920844   -0.0023144849171416737   -0.007301271009520849
0.05726831740920844   -0.0023144849171416737   -0.007301271009520849
0.05726831740920844   -0.0023144849171416737   -0.007301271009520849
0.05726831740920844   -0.0023144849171416737   -0.007301271009520849
-0.04030663942585792   -0.007728613518386307   0.004791573058446454
-0.04030663942585792   -0.007728613518386307   0.004791573058446454
-0.04030663942585792   -0.007728613518386307   0.004791573058446454
-0.04030663942585792   -0.007728613518386307   0.004791573058446454
0.007348810426736314   -0.009481612818603592   -0.00204828148549031
0.007348810426736314   -0.009481612818603592   -0.00204828148549031
0.007348810426736314   -0.009481612818603592   -0.00204828148549031
0.007348810426736314   -0.009481612818603592   -0.00204828148549031
-0.04633366555632284   -0.023490884608997144   -0.009581286503266933
-0.04633366555632284   -0.023490884608997144   -0.009581286503266933
-0.04633366555632284   -0.023490884608997144   -0.009581286503266933
-0.04633366555632284   -0.023490884608997144   -0.009581286503266933
0.06430543095414641   0.01445787358794229   0.011111938210085097
0.06430543095414641   0.01445787358794229   0.011111938210085097
0.06430543095414641   0.01445787358794229   0.011111938210085097
0.06430543095414641   0.01445787358794229   0.011111938210085097
0.06113031441570578   0.008331318293660937   -0.00828298280119199
0.06113031441570578   0.008331318293660937   -0.00828298280119199
0.06113031441570578   0.008331318293660937   -0.00828298280119199
0.06113031441570578   0.008331318293660937   -0.00828298280119199
-0.03881882696463153   0.0012814973021151362   0.002620924513528753
-0.03881882696463153   0.0012814973021151362   0.002620924513528753
-0.03881882696463153   0.0012814973021151362   0.002620924513528753
-0.03881882696463153   0.0012814973021151362   0.002620924513528753
0.009416202599348241   -0.0003046154199679656   0.0020187537748107658
0.009416202599348241   -0.0003046154199679656   0.0020187537748107658
0.009416202599348241   -0.0003046154199679656   0.0020187537748107658
0.009416202599348241   -0.0003046154199679656   0.0020187537748107658
-0.04463581384504237   -0.013501511096276946   -0.011681001490133253
-0.04463581384504237   -0.013501511096276946   -0.011681001490133253
-0.04463581384504237   -0.013501511096276946   -0.011681001490133253
-0.04463581384504237   -0.013501511096276946   -0.011681001490133253
0.06782415493915371   0.023991180335090057   0.009526357774618114
0.06782415493915371   0.023991180335090057   0.009526357774618114
0.06782415493915371   0.023991180335090057   0.009526357774618114
0.06782415493915371   0.023991180335090057   0.009526357774618114
0.0642486037766278   0.0204273593227651   -0.009590503137316724
0.0642486037766278   0.0204273593227651   -0.009590503137316724
0.0642486037766278   0.0204273593227651   -0.009590503137316724
0.0642486037766278   0.0204273593227651   -0.009590503137316724
-0.03723089229139092   0.011627966643110976   0.0005556073475896824
-0.03723089229139092   0.011627966643110976   0.0005556073475896824
-0.03723089229139092   0.011627966643110976   0.0005556073475896824
-0.03723089229139092   0.011627966643110976   0.0005556073475896824
0.01256560962179551   0.009625815888219503   0.0062130579984043515
0.01256560962179551   0.009625815888219503   0.0062130579984043515
0.01256560962179551   0.009625815888219503   0.0062130579984043515
0.01256560962179551   0.009625815888219503   0.0062130579984043515
0.0485040738525726   -0.03407489028762237   -0.015406200794944059
0.0485040738525726   -0.03407489028762237   -0.015406200794944059
0.0485040738525726   -0.03407489028762237   -0.015406200794944059
0.0485040738525726   -0.03407489028762237   -0.015406200794944059
0.15083664866855861   0.015034609065140016   0.01664793668435599
0.15083664866855861   0.015034609065140016   0.01664793668435599
0.15083664866855861   0.015034609065140016   0.01664793668435599
0.15083664866855861   0.015034609065140016   0.01664793668435599
0.14922685856400916   -0.008911315592424605   -0.020300892605130648
0.14922685856400916   -0.008911315592424605   -0.020300892605130648
0.14922685856400916   -0.008911315592424605   -0.020300892605130648
0.14922685856400916   -0.008911315592424605   -0.020300892605130648
0.06228181934050491   0.003001625902749803   0.012450127827070077
0.06228181934050491   0.003001625902749803   0.012450127827070077
0.06228181934050491   0.003001625902749803   0.012450127827070077
0.06228181934050491   0.003001625902749803   0.012450127827070077
0.09733982854099385   -0.0072142011273695975   -0.005303209315481148
0.09733982854099385   -0.0072142011273695975   -0.005303209315481148
0.09733982854099385   -0.0072142011273695975   -0.005303209315481148
0.09733982854099385   -0.0072142011273695975   -0.005303209315481148
0.049970571180804925   -0.028269409968146038   -0.01783507710053356
0.049970571180804925   -0.028269409968146038   -0.01783507710053356
0.049970571180804925   -0.028269409968146038   -0.01783507710053356
0.049970571180804925   -0.028269409968146038   -0.01783507710053356
0.16256782829072952   0.023389441845491677   0.014103198590554832
0.16256782829072952   0.023389441845491677   0.014103198590554832
0.16256782829072952   0.023389441845491677   0.014103198590554832
0.16256782829072952   0.023389441845491677   0.014103198590554832
0.1577732096943729   -0.0029596623508186884   -0.02440580537139328
0.1577732096943729   -0.0029596623508186884   -0.02440580537139328
0.1577732096943729   -0.0029596623508186884   -0.02440580537139328
0.1577732096943729   -0.0029596623508186884   -0.02440580537139328
0.06454180203409246   0.007365113229930064   0.00974066035447186
0.06454180203409246   0.007365113229930064   0.00974066035447186
0.06454180203409246   0.007365113229930064   0.00974066035447186
0.06454180203409246   0.007365113229930064   0.00974066035447186
0.10587509242619829   -0.0011860641530681386   -0.0005370303229431236
0.10587509242619829   -0.0011860641530681386   -0.0005370303229431236
0.10587509242619829   -0.0011860641530681386   -0.0005370303229431236
0.10587509242619829   -0.0011860641530681386   -0.0005370303229431236
0.05231215286006617   -0.023316005917122663   -0.020726466368606408
0.05231215286006617   -0.023316005917122663   -0.020726466368606408
0.05231215286006617   -0.023316005917122663   -0.020726466368606408
0.05231215286006617   -0.023316005917122663   -0.020726466368606408
0.17108099349295514   0.02879959142079006   0.010373859849909173
0.17108099349295514   0.02879959142079006   0.010373859849909173
0.17108099349295514   0.02879959142079006   0.010373859849909173
0.17108099349295514   0.02879959142079006   0.010373859849909173
0.17095150119257257   0.01007276071851006   -0.026176552925567847
0.17095150119257257   0.01007276071851006   -0.026176552925567847
0.17095150119257257   0.01007276071851006   -0.026176552925567847
0.17095150119257257   0.01007276071851006   -0.026176552925567847
0.06685114900595959   0.016096718175954573   0.007752864156152193
0.06685114900595959   0.016096718175954573   0.007752864156152193
0.06685114900595959   0.016096718175954573   0.007752864156152193
0.06685114900595959   0.016096718175954573   0.007752864156152193
0.11028949145660659   0.005412186722426882   0.0036061419824383384
0.11028949145660659   0.005412186722426882   0.0036061419824383384
0.11028949145660659   0.005412186722426882   0.0036061419824383384
0.11028949145660659   0.005412186722426882   0.0036061419824383384
-0.2066458180807485   -0.00307069940528739   0.020782863661767008
-0.2066458180807485   -0.00307069940528739   0.020782863661767008
-0.2066458180807485   -0.00307069940528739   0.020782863661767008
-0.2066458180807485   -0.00307069940528739   0.020782863661767008
-0.1628910439342065   -0.02095974239216636   -0.010150424780278687
-0.1628910439342065   -0.02095974239216636   -0.010150424780278687
-0.1628910439342065   -0.02095974239216636   -0.010150424780278687
-0.1628910439342065   -0.02095974239216636   -0.010150424780278687
-0.14737588240512278   0.017619450012759053   0.01773273605000815
-0.14737588240512278   0.017619450012759053   0.01773273605000815
-0.14737588240512278   0.017619450012759053   0.01773273605000815
-0.14737588240512278   0.017619450012759053   0.01773273605000815
-0.20585739897717564   -0.022489085469198755   -0.013868803256800394
-0.20585739897717564   -0.022489085469198755   -0.013868803256800394
-0.20585739897717564   -0.022489085469198755   -0.013868803256800394
-0.20585739897717564   -0.022489085469198755   -0.013868803256800394
-0.1738567562971821   -0.004697927117161896   -0.00282685455891212
-0.1738567562971821   -0.004697927117161896   -0.00282685455891212
-0.1738567562971821   -0.004697927117161896   -0.00282685455891212
-0.1738567562971821   -0.004697927117161896   -0.00282685455891212
-0.19283025542242208   0.008947995007376086   0.01982983404039261
-0.19283025542242208   0.008947995007376086   0.01982983404039261
-0.19283025542242208   0.008947995007376086   0.01982983404039261
-0.19283025542242208   0.008947995007376086   0.01982983404039261
-0.15948246875128322   -0.012897073255222324   -0.012283672412810665
-0.15948246875128322   -0.012897073255222324   -0.012283672412810665
-0.15948246875128322   -0.012897073255222324   -0.012283672412810665
-0.15948246875128322   -0.012897073255222324   -0.012283672412810665
-0.14381088954817628   0.022219235558944856   0.014971074653328385
-0.14381088954817628   0.022219235558944856   0.014971074653328385
-0.14381088954817628   0.022219235558944856   0.014971074653328385
-0.14381088954817628   0.022219235558944856   0.014971074653328385
-0.19631518396187145   -0.01727265524367128   -0.017282595668242647
-0.19631518396187145   -0.01727265524367128   -0.017282595668242647
-0.19631518396187145   -0.01727265524367128   -0.017282595668242647
-0.19631518396187145   -0.01727265524367128   -0.017282595668242647
-0.16886591387341549   0.001302996989663692   0.001028501722674961
-0.16886591387341549   0.001302996989663692   0.001028501722674961
-0.16886591387341549   0.001302996989663692   0.001028501722674961
-0.16886591387341549   0.001302996989663692   0.001028501722674961
-0.18330113164424622   0.014524978620256056   0.015990032055954312
-0.18330113164424622   0.014524978620256056   0.015990032055954312
-0.18330113164424622   0.014524978620256056   0.015990032055954312
-0.18330113164424622   0.014524978620256056   0.015990032055954312
-0.1559594101646007   -0.008712866603781632   -0.014839426266065176
-0.1559594101646007   -0.008712866603781632   -0.014839426266065176
-0.1559594101646007   -0.008712866603781632   -0.014839426266065176
-0.1559594101646007   -0.008712866603781632   -0.014839426266065176
-0.14095110981179884   0.02801881403418107   0.012907414800374472
-0.14095110981179884   0.02801881403418107   0.012907414800374472
-0.14095110981179884   0.02801881403418107   0.012907414800374472
-0.14095110981179884   0.02801881403418107   0.012907414800374472
-0.18350845959572695   -0.0089072533146859   -0.019982922564056635
-0.18350845959572695   -0.0089072533146859   -0.019982922564056635
-0.18350845959572695   -0.0089072533146859   -0.019982922564056635
-0.18350845959572695   -0.0089072533146859   -0.019982922564056635
-0.15886061153835637   0.007260373787247823   0.005778994611365041
-0.15886061153835637   0.007260373787247823   0.005778994611365041
-0.15886061153835637   0.007260373787247823   0.005778994611365041
-0.15886061153835637   0.007260373787247823   0.005778994611365041
-0.15699476557977501   -0.011594870677344656   0.009966095277056955
-0.15699476557977501   -0.011594870677344656   0.009966095277056955
-0.15699476557977501   -0.011594870677344656   0.009966095277056955
-0.15699476557977501   -0.011594870677344656   0.009966095277056955
-0.11677682199512752   -0.01587069216881728   -0.0029956328463596137
-0.11677682199512752   -0.01587069216881728   -0.0029956328463596137
-0.11677682199512752   -0.01587069216881728   -0.0029956328463596137
-0.11677682199512752   -0.01587069216881728   -0.0029956328463596137
-0.10819340230717596   0.00798488481373881   0.009070340043028945
-0.10819340230717596   0.00798488481373881   0.009070340043028945
-0.10819340230717596   0.00798488481373881   0.009070340043028945
-0.10819340230717596   0.00798488481373881   0.009070340043028945
-0.15947333570453143   -0.016550121481969104   -0.008584958952304027
-0.15947333570453143   -0.016550121481969104   -0.008584958952304027
-0.15947333570453143   -0.016550121481969104   -0.008584958952304027
-0.15947333570453143   -0.016550121481969104   -0.008584958952304027
-0.1350231327725963   -0.008273425713273108   -0.003727396559272354
-0.1350231327725963   -0.008273425713273108   -0.003727396559272354
-0.1350231327725963   -0.008273425713273108   -0.003727396559272354
-0.1350231327725963   -0.008273425713273108   -0.003727396559272354
-0.15296843770915589   -0.0010885903056190305   0.008477999848219685
-0.15296843770915589   -0.0010885903056190305   0.008477999848219685
-0.15296843770915589   -0.0010885903056190305   0.008477999848219685
-0.15296843770915589   -0.0010885903056190305   0.008477999848219685
-0.11395634064426836   -0.00673468670432735   -0.005024780124365976
-0.11395634064426836   -0.00673468670432735   -0.005024780124365976
-0.11395634064426836   -0.00673468670432735   -0.005024780124365976
-0.11395634064426836   -0.00673468670432735   -0.005024780124365976
-0.10512928884204936   0.01736823244009159   0.007243179593237614
-0.10512928884204936   0.01736823244009159   0.007243179593237614
-0.10512928884204936   0.01736823244009159   0.007243179593237614
-0.10512928884204936   0.01736823244009159   0.007243179593237614
-0.15482098708823575   -0.007573513382386342   -0.010286664105633976
-0.15482098708823575   -0.007573513382386342   -0.010286664105633976
-0.15482098708823575   -0.007573513382386342   -0.010286664105633976
-0.15482098708823575   -0.007573513382386342   -0.010286664105633976
-0.13054713952520372   0.0007288903562992118   0.0003037926890285111
-0.13054713952520372   0.0007288903562992118   0.0003037926890285111
-0.13054713952520372   0.0007288903562992118   0.0003037926890285111
-0.13054713952520372   0.0007288903562992118   0.0003037926890285111
-0.14793235503243657   0.00889631653463413   0.007686666256337536
-0.14793235503243657   0.00889631653463413   0.007686666256337536
-0.14793235503243657   0.00889631653463413   0.007686666256337536
-0.14793235503243657   0.00889631653463413   0.007686666256337536
-0.11116160855427067   0.0017547148666481882   -0.007304901394426423
-0.11116160855427067   0.0017547148666481882   -0.007304901394426423
-0.11116160855427067   0.0017547148666481882   -0.007304901394426423
-0.11116160855427067   0.0017547148666481882   -0.007304901394426423
-0.1020732294926853   0.027593609099162343   0.005502643032536943
-0.1020732294926853   0.027593609099162343   0.005502643032536943
-0.1020732294926853   0.027593609099162343   0.005502643032536943
-0.1020732294926853   0.027593609099162343   0.005502643032536943
-0.15101271675997097   0.0022714236317332784   -0.011653229538036247
-0.15101271675997097   0.0022714236317332784   -0.011653229538036247
-0.15101271675997097   0.0022714236317332784   -0.011653229538036247
-0.15101271675997097   0.0022714236317332784   -0.011653229538036247
-0.12732464906928187   0.009602446953597854   0.004264364318110853
-0.12732464906928187   0.009602446953597854   0.004264364318110853
-0.12732464906928187   0.009602446953597854   0.004264364318110853
-0.12732464906928187   0.009602446953597854   0.004264364318110853
-0.11658987650709542   -0.019771388179429847   0.0018397906044111258
-0.11658987650709542   -0.019771388179429847   0.0018397906044111258
-0.11658987650709542   -0.019771388179429847   0.0018397906044111258
-0.11658987650709542   -0.019771388179429847   0.0018397906044111258
-0.0711707739258699   -0.008589438867645046   0.00423669791171085
-0.0711707739258699   -0.008589438867645046   0.00423669791171085
-0.0711707739258699   -0.008589438867645046   0.00423669791171085
-0.0711707739258699   -0.008589438867645046   0.00423669791171085
-0.06892523653388556   -0.00040752082134490504   0.0005320721762493946
-0.06892523653388556   -0.00040752082134490504   0.0005320721762493946
-0.06892523653388556   -0.00040752082134490504   0.0005320721762493946
-0.06892523653388556   -0.00040752082134490504   0.0005320721762493946
-0.11358312058055098   -0.008925510317021918   -0.0009678561930854253
-0.11358312058055098   -0.008925510317021918   -0.0009678561930854253
-0.11358312058055098   -0.008925510317021918   -0.0009678561930854253
-0.11358312058055098   -0.008925510317021918   -0.0009678561930854253
-0.09271768849910085   -0.008977524148030127   -0.0027283779384552594
-0.09271768849910085   -0.008977524148030127   -0.0027283779384552594
-0.09271768849910085   -0.008977524148030127   -0.0027283779384552594
-0.09271768849910085   -0.008977524148030127   -0.0027283779384552594
-0.11343091283064047   -0.009367946723380783   0.00023561896282491652
-0.11343091283064047   -0.009367946723380783   0.00023561896282491652
-0.11343091283064047   -0.009367946723380783   0.00023561896282491652
-0.11343091283064047   -0.009367946723380783   0.00023561896282491652
-0.06833840321242657   0.0007739566563832855   0.0022847613058161955
-0.06833840321242657   0.0007739566563832855   0.0022847613058161955
-0.06833840321242657   0.0007739566563832855   0.0022847613058161955
-0.06833840321242657   0.0007739566563832855   0.0022847613058161955
-0.06558394225316053   0.010085432013308755   -0.0009713116019383211
-0.06558394225316053   0.010085432013308755   -0.0009713116019383211
-0.06558394225316053   0.010085432013308755   -0.0009713116019383211
-0.06558394225316053   0.010085432013308755   -0.0009713116019383211
-0.11051176763375618   0.0005732885468276161   -0.0028742704720325493
-0.11051176763375618   0.0005732885468276161   -0.0028742704720325493
-0.11051176763375618   0.0005732885468276161   -0.0028742704720325493
-0.11051176763375618   0.0005732885468276161   -0.0028742704720325493
-0.08918622105304692   0.0004357943897366455   0.0011908531867732778
-0.08918622105304692   0.0004357943897366455   0.0011908531867732778
-0.08918622105304692   0.0004357943897366455   0.0011908531867732778
-0.08918622105304692   0.0004357943897366455   0.0011908531867732778
-0.11011423197202483   0.0010924797221779498   -0.0014057833387280325
-0.11011423197202483   0.0010924797221779498   -0.0014057833387280325
-0.11011423197202483   0.0010924797221779498   -0.0014057833387280325
-0.11011423197202483   0.0010924797221779498   -0.0014057833387280325
-0.06531236881350473   0.010235349939345237   0.00023663767030410437
-0.06531236881350473   0.010235349939345237   0.00023663767030410437
-0.06531236881350473   0.010235349939345237   0.00023663767030410437
-0.06531236881350473   0.010235349939345237   0.00023663767030410437
-0.06242604146645578   0.020679012061130896   -0.0026732134038193033
-0.06242604146645578   0.020679012061130896   -0.0026732134038193033
-0.06242604146645578   0.020679012061130896   -0.0026732134038193033
-0.06242604146645578   0.020679012061130896   -0.0026732134038193033
-0.10764861102845011   0.010143824429555963   -0.004924479976680758
-0.10764861102845011   0.010143824429555963   -0.004924479976680758
-0.10764861102845011   0.010143824429555963   -0.004924479976680758
-0.10764861102845011   0.010143824429555963   -0.004924479976680758
-0.08585394589650816   0.009883557242417868   0.004951257171113445
-0.08585394589650816   0.009883557242417868   0.004951257171113445
-0.08585394589650816   0.009883557242417868   0.004951257171113445
-0.08585394589650816   0.009883557242417868   0.004951257171113445
-0.07693722244250868   -0.026830135581602514   -0.006354847957526939
-0.07693722244250868   -0.026830135581602514   -0.006354847957526939
-0.07693722244250868   -0.026830135581602514   -0.006354847957526939
-0.07693722244250868   -0.026830135581602514   -0.006354847957526939
-0.02714176182109433   -0.0008652044818017444   0.011084716178042754
-0.02714176182109433   -0.0008652044818017444   0.011084716178042754
-0.02714176182109433   -0.0008652044818017444   0.011084716178042754
-0.02714176182109433   -0.0008652044818017444   0.011084716178042754
-0.03046431501510206   -0.00839411259671241   -0.008378246743943761
-0.03046431501510206   -0.00839411259671241   -0.008378246743943761
-0.03046431501510206   -0.00839411259671241   -0.008378246743943761
-0.03046431501510206   -0.00839411259671241   -0.008378246743943761
-0.06787020478911761   -0.0010124911948720602   0.006412201273615712
-0.06787020478911761   -0.0010124911948720602   0.006412201273615712
-0.06787020478911761   -0.0010124911948720602   0.006412201273615712
-0.06787020478911761   -0.0010124911948720602   0.006412201273615712
-0.05056048059114854   -0.00887555186532226   -0.001972973486022074
-0.05056048059114854   -0.00887555186532226   -0.001972973486022074
-0.05056048059114854   -0.00887555186532226   -0.001972973486022074
-0.05056048059114854   -0.00887555186532226   -0.001972973486022074
-0.07397161028287137   -0.017034488149569513   -0.008072829240456145
-0.07397161028287137   -0.017034488149569513   -0.008072829240456145
-0.07397161028287137   -0.017034488149569513   -0.008072829240456145
-0.07397161028287137   -0.017034488149569513   -0.008072829240456145
-0.023536803229134998   0.008453990650197623   0.009411208938981517
-0.023536803229134998   0.008453990650197623   0.009411208938981517
-0.023536803229134998   0.008453990650197623   0.009411208938981517
-0.023536803229134998   0.008453990650197623   0.009411208938981517
-0.025513969400368493   0.001530813121438256   -0.009437353954118691
-0.025513969400368493   0.001530813121438256   -0.009437353954118691
-0.025513969400368493   0.001530813121438256   -0.009437353954118691
-0.025513969400368493   0.001530813121438256   -0.009437353954118691
-0.06504599118941262   0.0075128527924724665   0.004291022937636819
-0.06504599118941262   0.0075128527924724665   0.004291022937636819
-0.06504599118941262   0.0075128527924724665   0.004291022937636819
-0.06504599118941262   0.0075128527924724665   0.004291022937636819
-0.04677549983756845   -8.590410815397485e-05   0.002028943542111626
-0.04677549983756845   -8.590410815397485e-05   0.002028943542111626
-0.04677549983756845   -8.590410815397485e-05   0.002028943542111626
-0.04677549983756845   -8.590410815397485e-05   0.002028943542111626
-0.07095272085337663   -0.007679517413568296   -0.010050255176143313
-0.07095272085337663   -0.007679517413568296   -0.010050255176143313
-0.07095272085337663   -0.007679517413568296   -0.010050255176143313
-0.07095272085337663   -0.007679517413568296   -0.010050255176143313
-0.01883754361581371   0.017492879448069654   0.007982708642023825
-0.01883754361581371   0.017492879448069654   0.007982708642023825
-0.01883754361581371   0.017492879448069654   0.007982708642023825
-0.01883754361581371   0.017492879448069654   0.007982708642023825
-0.021332149711235628   0.012579131088675569   -0.010587313004742648
-0.021332149711235628   0.012579131088675569   -0.010587313004742648
-0.021332149711235628   0.012579131088675569   -0.010587313004742648
-0.021332149711235628   0.012579131088675569   -0.010587313004742648
-0.062153969703827236   0.017120758305070247   0.0022453991653846074
-0.062153969703827236   0.017120758305070247   0.0022453991653846074
-0.062153969703827236   0.017120758305070247   0.0022453991653846074
-0.062153969703827236   0.017120758305070247   0.0022453991653846074
-0.04288928682433762   0.009026142833625482   0.006014048550176829
-0.04288928682433762   0.009026142833625482   0.006014048550176829
-0.04288928682433762   0.009026142833625482   0.006014048550176829
-0.04288928682433762   0.009026142833625482   0.006014048550176829
-0.03772542385233152   -0.028789293723248587   -0.013909504736696889
-0.03772542385233152   -0.028789293723248587   -0.013909504736696889
-0.03772542385233152   -0.028789293723248587   -0.013909504736696889
-0.03772542385233152   -0.028789293723248587   -0.013909504736696889
0.005021755646792912   0.008002130114661703   0.0170703027117422
0.005021755646792912   0.008002130114661703   0.0170703027117422
0.005021755646792912   0.008002130114661703   0.0170703027117422
0.005021755646792912   0.008002130114661703   0.0170703027117422
0.004955414451287342   -0.014646590661388521   -0.01846455010440397
0.004955414451287342   -0.014646590661388521   -0.01846455010440397
0.004955414451287342   -0.014646590661388521   -0.01846455010440397
0.004955414451287342   -0.014646590661388521   -0.01846455010440397
-0.022518702915005705   0.008977776920170256   0.013977924239654878
-0.022518702915005705   0.008977776920170256   0.013977924239654878
-0.022518702915005705   0.008977776920170256   0.013977924239654878
-0.022518702915005705   0.008977776920170256   0.013977924239654878
-0.012686763340565305   -0.006279135608028948   -0.003122160069874985
-0.012686763340565305   -0.006279135608028948   -0.003122160069874985
-0.012686763340565305   -0.006279135608028948   -0.003122160069874985
-0.012686763340565305   -0.006279135608028948   -0.003122160069874985
-0.034729127449161214   -0.022091561102323347   -0.016004860408629557
-0.034729127449161214   -0.022091561102323347   -0.016004860408629557
-0.034729127449161214   -0.022091561102323347   -0.016004860408629557
-0.034729127449161214   -0.022091561102323347   -0.016004860408629557
0.018046517296707316   0.01730342567236947   0.015040947788937921
0.018046517296707316   0.01730342567236947   0.015040947788937921
0.018046517296707316   0.01730342567236947   0.015040947788937921
0.018046517296707316   0.01730342567236947   0.015040947788937921
0.014536603882090608   -0.00897942229522726   -0.021976819119316735
0.014536603882090608   -0.00897942229522726   -0.021976819119316735
0.014536603882090608   -0.00897942229522726   -0.021976819119316735
0.014536603882090608   -0.00897942229522726   -0.021976819119316735
-0.019067851527189192   0.013091539486570915   0.011232509046645144
-0.019067851527189192   0.013091539486570915   0.011232509046645144
-0.019067851527189192   0.013091539486570915   0.011232509046645144
-0.019067851527189192   0.013091539486570915   0.011232509046645144
-0.004913487586964709   -0.0004247428731617937   0.0011885945880944077
-0.004913487586964709   -0.0004247428731617937   0.0011885945880944077
-0.004913487586964709   -0.0004247428731617937   0.0011885945880944077
-0.004913487586964709   -0.0004247428731617937   0.0011885945880944077
-0.031127425962039528   -0.017426357640330882   -0.01854746600070472
-0.031127425962039528   -0.017426357640330882   -0.01854746600070472
-0.031127425962039528   -0.017426357640330882   -0.01854746600070472
-0.031127425962039528   -0.017426357640330882   -0.01854746600070472
0.027481852992014368   0.02242414950674924   0.011345854628325554
0.027481852992014368   0.02242414950674924   0.011345854628325554
0.027481852992014368   0.02242414950674924   0.011345854628325554
0.027481852992014368   0.02242414950674924   0.011345854628325554
0.028060233844693788   0.002072833583012001   -0.023575643647298708
0.028060233844693788   0.002072833583012001   -0.023575643647298708
0.028060233844693788   0.002072833583012001   -0.023575643647298708
0.028060233844693788   0.002072833583012001   -0.023575643647298708
-0.01585210953596224   0.020258999493266223   0.009133019467033623
-0.01585210953596224   0.020258999493266223   0.009133019467033623
-0.01585210953596224   0.020258999493266223   0.009133019467033623
-0.01585210953596224   0.020258999493266223   0.009133019467033623
0.0022606750636829124   0.005683466265705509   0.005439283361128791
0.0022606750636829124   0.005683466265705509   0.005439283361128791
0.0022606750636829124   0.005683466265705509   0.005439283361128791
0.0022606750636829124   0.005683466265705509   0.005439283361128791
-0.06577591093258837   0.0043983660972962135   0.019524984665416054
-0.06577591093258837   0.0043983660972962135   0.019524984665416054
-0.06577591093258837   0.0043983660972962135   0.019524984665416054
-0.06577591093258837   0.0043983660972962135   0.019524984665416054
-0.08140542850803067   -0.025290934203581694   -0.01135666652861347
-0.08140542850803067   -0.025290934203581694   -0.01135666652861347
-0.08140542850803067   -0.025290934203581694   -0.01135666652861347
-0.08140542850803067   -0.025290934203581694   -0.01135666652861347
-0.06499557343544037   0.011647045677177021   0.015950026933343214
-0.06499557343544037   0.011647045677177021   0.015950026933343214
-0.06499557343544037   0.011647045677177021   0.015950026933343214
-0.06499557343544037   0.011647045677177021   0.015950026933343214
-0.0639641058805064   -0.016206532687910682   -0.014703856769123445
-0.0639641058805064   -0.016206532687910682   -0.014703856769123445
-0.0639641058805064   -0.016206532687910682   -0.014703856769123445
-0.0639641058805064   -0.016206532687910682   -0.014703856769123445
-0.06739284827069593   -0.005165882961450603   -0.005487515304738096
-0.06739284827069593   -0.005165882961450603   -0.005487515304738096
-0.06739284827069593   -0.005165882961450603   -0.005487515304738096
-0.06739284827069593   -0.005165882961450603   -0.005487515304738096
-0.05117694022387071   0.014854878915042311   0.018170559911100025
-0.05117694022387071   0.014854878915042311   0.018170559911100025
-0.05117694022387071   0.014854878915042311   0.018170559911100025
-0.05117694022387071   0.014854878915042311   0.018170559911100025
-0.07695914936442208   -0.018590776198122178   -0.013630030836265244
-0.07695914936442208   -0.018590776198122178   -0.013630030836265244
-0.07695914936442208   -0.018590776198122178   -0.013630030836265244
-0.07695914936442208   -0.018590776198122178   -0.013630030836265244
-0.060091442829029895   0.016107710001127554   0.013395489422909974
-0.060091442829029895   0.016107710001127554   0.013395489422909974
-0.060091442829029895   0.016107710001127554   0.013395489422909974
-0.060091442829029895   0.016107710001127554   0.013395489422909974
-0.053187151596896874   -0.01116539951432321   -0.01826175384651255
-0.053187151596896874   -0.01116539951432321   -0.01826175384651255
-0.053187151596896874   -0.01116539951432321   -0.01826175384651255
-0.053187151596896874   -0.01116539951432321   -0.01826175384651255
-0.0594480980520709   0.0005105402020312046   -0.0012808191185400015
-0.0594480980520709   0.0005105402020312046   -0.0012808191185400015
-0.0594480980520709   0.0005105402020312046   -0.0012808191185400015
-0.0594480980520709   0.0005105402020312046   -0.0012808191185400015
-0.0403499341662615   0.02027391717297288   0.014485016619368213
-0.0403499341662615   0.02027391717297288   0.014485016619368213
-0.0403499341662615   0.02027391717297288   0.014485016619368213
-0.0403499341662615   0.02027391717297288   0.014485016619368213
-0.07215895926345804   -0.014561905689961156   -0.016272477058141114
-0.07215895926345804   -0.014561905689961156   -0.016272477058141114
-0.07215895926345804   -0.014561905689961156   -0.016272477058141114
-0.07215895926345804   -0.014561905689961156   -0.016272477058141114
-0.05562762142548971   0.022978541450705287   0.011565213092654401
-0.05562762142548971   0.022978541450705287   0.011565213092654401
-0.05562762142548971   0.022978541450705287   0.011565213092654401
-0.05562762142548971   0.022978541450705287   0.011565213092654401
-0.038790589631708554   -0.0015885685484490902   -0.020555425770747482
-0.038790589631708554   -0.0015885685484490902   -0.020555425770747482
-0.038790589631708554   -0.0015885685484490902   -0.020555425770747482
-0.038790589631708554   -0.0015885685484490902   -0.020555425770747482
-0.04996255020962186   0.006480686633560415   0.0031957815294289295
-0.04996255020962186   0.006480686633560415   0.0031957815294289295
-0.04996255020962186   0.006480686633560415   0.0031957815294289295
-0.04996255020962186   0.006480686633560415   0.0031957815294289295
-0.07266669504496916   -0.004200272410742988   0.011246338993853454
-0.07266669504496916   -0.004200272410742988   0.011246338993853454
-0.07266669504496916   -0.004200272410742988   0.011246338993853454
-0.07266669504496916   -0.004200272410742988   0.011246338993853454
-0.09235400767362972   -0.020644032474845312   -0.004432407235938427
-0.09235400767362972   -0.020644032474845312   -0.004432407235938427
-0.09235400767362972   -0.020644032474845312   -0.004432407235938427
-0.09235400767362972   -0.020644032474845312   -0.004432407235938427
-0.08263338805772363   0.0020169774091996634   0.0074105878567243605
-0.08263338805772363   0.0020169774091996634   0.0074105878567243605
-0.08263338805772363   0.0020169774091996634   0.0074105878567243605
-0.08263338805772363   0.0020169774091996634   0.0074105878567243605
-0.0737289016134464   -0.009421994975440627   -0.006647573304068402
-0.0737289016134464   -0.009421994975440627   -0.006647573304068402
-0.0737289016134464   -0.009421994975440627   -0.006647573304068402
-0.0737289016134464   -0.009421994975440627   -0.006647573304068402
-0.0804378818051584   -0.00742508679166788   -0.003787148486859256
-0.0804378818051584   -0.00742508679166788   -0.003787148486859256
-0.0804378818051584   -0.00742508679166788   -0.003787148486859256
-0.0804378818051584   -0.00742508679166788   -0.003787148486859256
-0.06744616066452477   0.00553427717459388   0.009809859290504264
-0.06744616066452477   0.00553427717459388   0.009809859290504264
-0.06744616066452477   0.00553427717459388   0.009809859290504264
-0.06744616066452477   0.00553427717459388   0.009809859290504264
-0.08826850963553459   -0.01229167536972699   -0.006456367253404361
-0.08826850963553459   -0.01229167536972699   -0.006456367253404361
-0.08826850963553459   -0.01229167536972699   -0.006456367253404361
-0.08826850963553459   -0.01229167536972699   -0.006456367253404361
-0.07826749151073313   0.010923441628002382   0.005644615368807017
-0.07826749151073313   0.010923441628002382   0.005644615368807017
-0.07826749151073313   0.010923441628002382   0.005644615368807017
-0.07826749151073313   0.010923441628002382   0.005644615368807017
-0.06782101339209265   -0.0008836708242510767   -0.008260982567025137
-0.06782101339209265   -0.0008836708242510767   -0.008260982567025137
-0.06782101339209265   -0.0008836708242510767   -0.008260982567025137
-0.06782101339209265   -0.0008836708242510767   -0.008260982567025137
-0.07518957004196489   0.0008450119713367919   8.224848638050015e-05
-0.07518957004196489   0.0008450119713367919   8.224848638050015e-05
-0.07518957004196489   0.0008450119713367919   8.224848638050015e-05
-0.07518957004196489   0.0008450119713367919   8.224848638050015e-05
-0.061229245808708525   0.01497083716647897   0.008843347359165374
-0.061229245808708525   0.01497083716647897   0.008843347359165374
-0.061229245808708525   0.01497083716647897   0.008843347359165374
-0.061229245808708525   0.01497083716647897   0.008843347359165374
-0.0841680762557098   -0.004239883524320458   -0.008694983203754905
-0.0841680762557098   -0.004239883524320458   -0.008694983203754905
-0.0841680762557098   -0.004239883524320458   -0.008694983203754905
-0.0841680762557098   -0.004239883524320458   -0.008694983203754905
-0.07387665566285027   0.020822407292573196   0.003965627669042656
-0.07387665566285027   0.020822407292573196   0.003965627669042656
-0.07387665566285027   0.020822407292573196   0.003965627669042656
-0.07387665566285027   0.020822407292573196   0.003965627669042656
-0.0627600232287718   0.008635045200134833   -0.009753299673184671
-0.0627600232287718   0.008635045200134833   -0.009753299673184671
-0.0627600232287718   0.008635045200134833   -0.009753299673184671
-0.0627600232287718   0.008635045200134833   -0.009753299673184671
-0.07022344217382977   0.009431909440051022   0.004036982662883103
-0.07022344217382977   0.009431909440051022   0.004036982662883103
-0.07022344217382977   0.009431909440051022   0.004036982662883103
-0.07022344217382977   0.009431909440051022   0.004036982662883103
-0.08917323127896508   -0.01239315122341561   0.003220593485953209
-0.08917323127896508   -0.01239315122341561   0.003220593485953209
-0.08917323127896508   -0.01239315122341561   0.003220593485953209
-0.08917323127896508   -0.01239315122341561   0.003220593485953209
-0.10315809875898987   -0.013276082828479176   0.002653626428145866
-0.10315809875898987   -0.013276082828479176   0.002653626428145866
-0.10315809875898987   -0.013276082828479176   0.002653626428145866
-0.10315809875898987   -0.013276082828479176   0.002653626428145866
-0.09970287168661014   -0.00615235007604154   -0.0009823038821166912
-0.09970287168661014   -0.00615235007604154   -0.0009823038821166912
-0.09970287168661014   -0.00615235007604154   -0.0009823038821166912
-0.09970287168661014   -0.00615235007604154   -0.0009823038821166912
-0.08467550391881706   -0.0016792617079467859   0.00089624766840362
-0.08467550391881706   -0.0016792617079467859   0.00089624766840362
-0.08467550391881706   -0.0016792617079467859   0.00089624766840362
-0.08467550391881706   -0.0016792617079467859   0.00089624766840362
-0.09431929883801235   -0.007901790408356023   -0.0025371943395907774
-0.09431929883801235   -0.007901790408356023   -0.0025371943395907774
-0.09431929883801235   -0.007901790408356023   -0.0025371943395907774
-0.09431929883801235   -0.007901790408356023   -0.0025371943395907774
-0.08471597057238157   -0.0026296487818703983   0.0016443014745027716
-0.08471597057238157   -0.0026296487818703983   0.0016443014745027716
-0.08471597057238157   -0.0026296487818703983   0.0016443014745027716
-0.08471597057238157   -0.0026296487818703983   0.0016443014745027716
-0.0990487767459957   -0.0045883347150655895   0.0007241554599805543
-0.0990487767459957   -0.0045883347150655895   0.0007241554599805543
-0.0990487767459957   -0.0045883347150655895   0.0007241554599805543
-0.0990487767459957   -0.0045883347150655895   0.0007241554599805543
-0.09510334206415443   0.003734608537492988   -0.0024760960883074374
-0.09510334206415443   0.003734608537492988   -0.0024760960883074374
-0.09510334206415443   0.003734608537492988   -0.0024760960883074374
-0.09510334206415443   0.003734608537492988   -0.0024760960883074374
-0.08032392276711753   0.0072458462672190735   -0.0009599455523317353
-0.08032392276711753   0.0072458462672190735   -0.0009599455523317353
-0.08032392276711753   0.0072458462672190735   -0.0009599455523317353
-0.08032392276711753   0.0072458462672190735   -0.0009599455523317353
-0.08950545353750676   0.0009171587196979067   0.0012938954628093878
-0.08950545353750676   0.0009171587196979067   0.0012938954628093878
-0.08950545353750676   0.0009171587196979067   0.0012938954628093878
-0.08950545353750676   0.0009171587196979067   0.0012938954628093878
-0.08013817725813767   0.007221488640262393   -6.860380477174098e-06
-0.08013817725813767   0.007221488640262393   -6.860380477174098e-06
-0.08013817725813767   0.007221488640262393   -6.860380477174098e-06
-0.08013817725813767   0.007221488640262393   -6.860380477174098e-06
-0.09475183575204228   0.004296217985541442   -0.0012801739757951338
-0.09475183575204228   0.004296217985541442   -0.0012801739757951338
-0.09475183575204228   0.004296217985541442   -0.0012801739757951338
-0.09475183575204228   0.004296217985541442   -0.0012801739757951338
-0.09069773402022845   0.013688952869535951   -0.004149714785002496
-0.09069773402022845   0.013688952869535951   -0.004149714785002496
-0.09069773402022845   0.013688952869535951   -0.004149714785002496
-0.09069773402022845   0.013688952869535951   -0.004149714785002496
-0.07619492004913049   0.016207573573158503   -0.0030108605429432517
-0.07619492004913049   0.016207573573158503   -0.0030108605429432517
-0.07619492004913049   0.016207573573158503   -0.0030108605429432517
-0.07619492004913049   0.016207573573158503   -0.0030108605429432517
-0.08492493343208242   0.009754042874722445   0.004944429592864315
-0.08492493343208242   0.009754042874722445   0.004944429592864315
-0.08492493343208242   0.009754042874722445   0.004944429592864315
-0.08492493343208242   0.009754042874722445   0.004944429592864315
-0.10599985688846371   -0.019850013450354156   -0.004981233597349927
-0.10599985688846371   -0.019850013450354156   -0.004981233597349927
-0.10599985688846371   -0.019850013450354156   -0.004981233597349927
-0.10599985688846371   -0.019850013450354156   -0.004981233597349927
-0.11501610709865125   -0.006050750717424339   0.009399332040472212
-0.11501610709865125   -0.006050750717424339   0.009399332040472212
-0.11501610709865125   -0.006050750717424339   0.009399332040472212
-0.11501610709865125   -0.006050750717424339   0.009399332040472212
-0.11701970014447607   -0.01402957983200161   -0.009523746556673568
-0.11701970014447607   -0.01402957983200161   -0.009523746556673568
-0.11701970014447607   -0.01402957983200161   -0.009523746556673568
-0.11701970014447607   -0.01402957983200161   -0.009523746556673568
-0.09549644967413179   0.005880236077850369   0.0080172200263832
-0.09549644967413179   0.005880236077850369   0.0080172200263832
-0.09549644967413179   0.005880236077850369   0.0080172200263832
-0.09549644967413179   0.005880236077850369   0.0080172200263832
-0.1079104711136889   -0.007977059090625108   -0.001604340422282319
-0.1079104711136889   -0.007977059090625108   -0.001604340422282319
-0.1079104711136889   -0.007977059090625108   -0.001604340422282319
-0.1079104711136889   -0.007977059090625108   -0.001604340422282319
-0.10167416762629408   -0.010378292290287246   -0.006612841366291413
-0.10167416762629408   -0.010378292290287246   -0.006612841366291413
-0.10167416762629408   -0.010378292290287246   -0.006612841366291413
-0.10167416762629408   -0.010378292290287246   -0.006612841366291413
-0.1101991415370428   0.002871789191406869   0.0076776774570843824
-0.1101991415370428   0.002871789191406869   0.0076776774570843824
-0.1101991415370428   0.002871789191406869   0.0076776774570843824
-0.1101991415370428   0.002871789191406869   0.0076776774570843824
-0.11092250561272471   -0.0046583339721588575   -0.010688396462207725
-0.11092250561272471   -0.0046583339721588575   -0.010688396462207725
-0.11092250561272471   -0.0046583339721588575   -0.010688396462207725
-0.11092250561272471   -0.0046583339721588575   -0.010688396462207725
-0.09137814287462961   0.013923799349618952   0.00596070904719068
-0.09137814287462961   0.013923799349618952   0.00596070904719068
-0.09137814287462961   0.013923799349618952   0.00596070904719068
-0.09137814287462961   0.013923799349618952   0.00596070904719068
-0.10239222463471573   0.0005323407692980169   0.002358302024984423
-0.10239222463471573   0.0005323407692980169   0.002358302024984423
-0.10239222463471573   0.0005323407692980169   0.002358302024984423
-0.10239222463471573   0.0005323407692980169   0.002358302024984423
-0.09736230286888913   -0.0015132270382068325   -0.008523064536283188
-0.09736230286888913   -0.0015132270382068325   -0.008523064536283188
-0.09736230286888913   -0.0015132270382068325   -0.008523064536283188
-0.09736230286888913   -0.0015132270382068325   -0.008523064536283188
-0.104288845208693   0.01142819282543878   0.006393378760353202
-0.104288845208693   0.01142819282543878   0.006393378760353202
-0.104288845208693   0.01142819282543878   0.006393378760353202
-0.104288845208693   0.01142819282543878   0.006393378760353202
-0.10559716487961954   0.005634876184129847   -0.01174081626352511
-0.10559716487961954   0.005634876184129847   -0.01174081626352511
-0.10559716487961954   0.005634876184129847   -0.01174081626352511
-0.10559716487961954   0.005634876184129847   -0.01174081626352511
-0.08724924416731566   0.022850488837546024   0.003931198511551295
-0.08724924416731566   0.022850488837546024   0.003931198511551295
-0.08724924416731566   0.022850488837546024   0.003931198511551295
-0.08724924416731566   0.022850488837546024   0.003931198511551295
-0.09777045952033675   0.008930781447641607   0.0061314439211181525
-0.09777045952033675   0.008930781447641607   0.0061314439211181525
-0.09777045952033675   0.008930781447641607   0.0061314439211181525
-0.09777045952033675   0.008930781447641607   0.0061314439211181525
-0.1229092959920735   -0.02351801115356096   -0.012599351990504729
-0.1229092959920735   -0.02351801115356096   -0.012599351990504729
-0.1229092959920735   -0.02351801115356096   -0.012599351990504729
-0.1229092959920735   -0.02351801115356096   -0.012599351990504729
-0.13814001002775259   0.001302021366543546   0.017116992501822793
-0.13814001002775259   0.001302021366543546   0.017116992501822793
-0.13814001002775259   0.001302021366543546   0.017116992501822793
-0.13814001002775259   0.001302021366543546   0.017116992501822793
-0.136612427759836   -0.02000827593253125   -0.016858615179022367
-0.136612427759836   -0.02000827593253125   -0.016858615179022367
-0.136612427759836   -0.02000827593253125   -0.016858615179022367
-0.136612427759836   -0.02000827593253125   -0.016858615179022367
-0.10626359409386774   0.014889349232876645   0.015337854631488922
-0.10626359409386774   0.014889349232876645   0.015337854631488922
-0.10626359409386774   0.014889349232876645   0.015337854631488922
-0.10626359409386774   0.014889349232876645   0.015337854631488922
-0.12088609627499552   -0.005222089839869257   -0.000620123421868549
-0.12088609627499552   -0.005222089839869257   -0.000620123421868549
-0.12088609627499552   -0.005222089839869257   -0.000620123421868549
-0.12088609627499552   -0.005222089839869257   -0.000620123421868549
-0.11836734315470959   -0.015871536886393388   -0.014420004553451793
-0.11836734315470959   -0.015871536886393388   -0.014420004553451793
-0.11836734315470959   -0.015871536886393388   -0.014420004553451793
-0.11836734315470959   -0.015871536886393388   -0.014420004553451793
-0.12383023672889479   0.011431052156836125   0.0156130118863134
-0.12383023672889479   0.011431052156836125   0.0156130118863134
-0.12383023672889479   0.011431052156836125   0.0156130118863134
-0.12383023672889479   0.011431052156836125   0.0156130118863134
-0.125939753081361   -0.014554938456065002   -0.020127979112362637
-0.125939753081361   -0.014554938456065002   -0.020127979112362637
-0.125939753081361   -0.014554938456065002   -0.020127979112362637
-0.125939753081361   -0.014554938456065002   -0.020127979112362637
-0.10159264721252001   0.018731619235790437   0.012570942330865463
-0.10159264721252001   0.018731619235790437   0.012570942330865463
-0.10159264721252001   0.018731619235790437   0.012570942330865463
-0.10159264721252001   0.018731619235790437   0.012570942330865463
-0.11381294068965857   0.0004995245872392688   0.0031600261267984023
-0.11381294068965857   0.0004995245872392688   0.0031600261267984023
-0.11381294068965857   0.0004995245872392688   0.0031600261267984023
-0.11381294068965857   0.0004995245872392688   0.0031600261267984023
-0.11347288573476436   -0.011379746144322078   -0.016718884900244653
-0.11347288573476436   -0.011379746144322078   -0.016718884900244653
-0.11347288573476436   -0.011379746144322078   -0.016718884900244653
-0.11347288573476436   -0.011379746144322078   -0.016718884900244653
-0.11334652909513446   0.0162694123880294   0.012013789974674725
-0.11334652909513446   0.0162694123880294   0.012013789974674725
-0.11334652909513446   0.0162694123880294   0.012013789974674725
-0.11334652909513446   0.0162694123880294   0.012013789974674725
-0.1118250414730405   -0.005169022521626744   -0.02203415867036062
-0.1118250414730405   -0.005169022521626744   -0.02203415867036062
-0.1118250414730405   -0.005169022521626744   -0.02203415867036062
-0.1118250414730405   -0.005169022521626744   -0.02203415867036062
-0.09743049569837377   0.0243733297745869   0.010354076052246674
-0.09743049569837377   0.0243733297745869   0.010354076052246674
-0.09743049569837377   0.0243733297745869   0.010354076052246674
-0.09743049569837377   0.0243733297745869   0.010354076052246674
-0.10383108536456444   0.006176116974782819   0.007575089504493251
-0.10383108536456444   0.006176116974782819   0.007575089504493251
-0.10383108536456444   0.006176116974782819   0.007575089504493251
-0.10383108536456444   0.006176116974782819   0.007575089504493251
0.07478257560487646   0.011953497018572377   0.01867748546924974
0.07478257560487646   0.011953497018572377   0.01867748546924974
0.07478257560487646   0.011953497018572377   0.01867748546924974
0.07478257560487646   0.011953497018572377   0.01867748546924974
-0.0009002666754146585   -0.029874883178638286   -0.012214713646111274
-0.0009002666754146585   -0.029874883178638286   -0.012214713646111274
-0.0009002666754146585   -0.029874883178638286   -0.012214713646111274
-0.0009002666754146585   -0.029874883178638286   -0.012214713646111274
0.016379341388383876   0.005681898935383001   0.014394854078462378
0.016379341388383876   0.005681898935383001   0.014394854078462378
0.016379341388383876   0.005681898935383001   0.014394854078462378
0.016379341388383876   0.005681898935383001   0.014394854078462378
0.07761207024848975   -0.010006422188365742   -0.01535195200863103
0.07761207024848975   -0.010006422188365742   -0.01535195200863103
0.07761207024848975   -0.010006422188365742   -0.01535195200863103
0.07761207024848975   -0.010006422188365742   -0.01535195200863103
0.038253931379152215   -0.0056288499125864465   -0.008986415713406169
0.038253931379152215   -0.0056288499125864465   -0.008986415713406169
0.038253931379152215   -0.0056288499125864465   -0.008986415713406169
0.038253931379152215   -0.0056288499125864465   -0.008986415713406169
0.09024188793591711   0.020944650231020993   0.01684606400911909
0.09024188793591711   0.020944650231020993   0.01684606400911909
0.09024188793591711   0.020944650231020993   0.01684606400911909
0.09024188793591711   0.020944650231020993   0.01684606400911909
0.004549260662044036   -0.024469436522914924   -0.014604214094938884
0.004549260662044036   -0.024469436522914924   -0.014604214094938884
0.004549260662044036   -0.024469436522914924   -0.014604214094938884
0.004549260662044036   -0.024469436522914924   -0.014604214094938884
0.02250618106458237   0.01002276654698663   0.011985743798557406
0.02250618106458237   0.01002276654698663   0.011985743798557406
0.02250618106458237   0.01002276654698663   0.011985743798557406
0.02250618106458237   0.01002276654698663   0.011985743798557406
0.08959969538498312   -0.005108822831965558   -0.019137455455448142
0.08959969538498312   -0.005108822831965558   -0.019137455455448142
0.08959969538498312   -0.005108822831965558   -0.019137455455448142
0.08959969538498312   -0.005108822831965558   -0.019137455455448142
0.04909928755123162   -0.0002446961229771588   -0.004300987191111543
0.04909928755123162   -0.0002446961229771588   -0.004300987191111543
0.04909928755123162   -0.0002446961229771588   -0.004300987191111543
0.04909928755123162   -0.0002446961229771588   -0.004300987191111543
0.10234460878041839   0.026240800890329055   0.013237487799433532
0.10234460878041839   0.026240800890329055   0.013237487799433532
0.10234460878041839   0.026240800890329055   0.013237487799433532
0.10234460878041839   0.026240800890329055   0.013237487799433532
0.010533312207359403   -0.020554812637095694   -0.0173010213034751
0.010533312207359403   -0.020554812637095694   -0.0173010213034751
0.010533312207359403   -0.020554812637095694   -0.0173010213034751
0.010533312207359403   -0.020554812637095694   -0.0173010213034751
0.02844172053626679   0.018042694424223637   0.01036857892464081
0.02844172053626679   0.018042694424223637   0.01036857892464081
0.02844172053626679   0.018042694424223637   0.01036857892464081
0.02844172053626679   0.018042694424223637   0.01036857892464081
0.105540710057066   0.005837509067677618   -0.021083141133968048
0.105540710057066   0.005837509067677618   -0.021083141133968048
0.105540710057066   0.005837509067677618   -0.021083141133968048
0.105540710057066   0.005837509067677618   -0.021083141133968048
0.058068239631630894   0.005827723978534056   9.696741405258681e-05
0.058068239631630894   0.005827723978534056   9.696741405258681e-05
0.058068239631630894   0.005827723978534056   9.696741405258681e-05
0.058068239631630894   0.005827723978534056   9.696741405258681e-05
0.010768463133032872   0.0034314613143104234   0.012822590903177663
0.010768463133032872   0.0034314613143104234   0.012822590903177663
0.010768463133032872   0.0034314613143104234   0.012822590903177663
0.010768463133032872   0.0034314613143104234   0.012822590903177663
-0.06890183641929012   -0.02543030144460723   -0.0056162163504312294
-0.06890183641929012   -0.02543030144460723   -0.0056162163504312294
-0.06890183641929012   -0.02543030144460723   -0.0056162163504312294
-0.06890183641929012   -0.02543030144460723   -0.0056162163504312294
-0.05809927455093118   -0.0038094642973035466   0.005785453024109443
-0.05809927455093118   -0.0038094642973035466   0.005785453024109443
-0.05809927455093118   -0.0038094642973035466   0.005785453024109443
-0.05809927455093118   -0.0038094642973035466   0.005785453024109443
0.010974608124704955   -0.002568459378491267   -0.004378453926057947
0.010974608124704955   -0.002568459378491267   -0.004378453926057947
0.010974608124704955   -0.002568459378491267   -0.004378453926057947
0.010974608124704955   -0.002568459378491267   -0.004378453926057947
-0.026902302741303105   -0.0064441098719962035   -0.00428245029290563
-0.026902302741303105   -0.0064441098719962035   -0.00428245029290563
-0.026902302741303105   -0.0064441098719962035   -0.00428245029290563
-0.026902302741303105   -0.0064441098719962035   -0.00428245029290563
0.017108115951879204   0.012349206970585485   0.011371418860736546
0.017108115951879204   0.012349206970585485   0.011371418860736546
0.017108115951879204   0.012349206970585485   0.011371418860736546
0.017108115951879204   0.012349206970585485   0.011371418860736546
-0.0636435599812301   -0.018137908249503683   -0.007607530175184979
-0.0636435599812301   -0.018137908249503683   -0.007607530175184979
-0.0636435599812301   -0.018137908249503683   -0.007607530175184979
-0.0636435599812301   -0.018137908249503683   -0.007607530175184979
-0.05252571045968399   0.004643428965393661   0.004079213448789892
-0.05252571045968399   0.004643428965393661   0.004079213448789892
-0.05252571045968399   0.004643428965393661   0.004079213448789892
-0.05252571045968399   0.004643428965393661   0.004079213448789892
0.01799903445542572   0.005410957776199489   -0.005938180476439665
0.01799903445542572   0.005410957776199489   -0.005938180476439665
0.01799903445542572   0.005410957776199489   -0.005938180476439665
0.01799903445542572   0.005410957776199489   -0.005938180476439665
-0.020987351451112544   0.0009804599903935314   -0.0005539457480148253
-0.020987351451112544   0.0009804599903935314   -0.0005539457480148253
-0.020987351451112544   0.0009804599903935314   -0.0005539457480148253
-0.020987351451112544   0.0009804599903935314   -0.0005539457480148253
0.0243950945227804   0.0212519689995295   0.010201108637004706
0.0243950945227804   0.0212519689995295   0.010201108637004706
0.0243950945227804   0.0212519689995295   0.010201108637004706
0.0243950945227804   0.0212519689995295   0.010201108637004706
-0.05835187168598634   -0.010627683416885138   -0.009780480300443076
-0.05835187168598634   -0.010627683416885138   -0.009780480300443076
-0.05835187168598634   -0.010627683416885138   -0.009780480300443076
-0.05835187168598634   -0.010627683416885138   -0.009780480300443076
-0.046912950061284084   0.01424575366277931   0.002453169472549998
-0.046912950061284084   0.01424575366277931   0.002453169472549998
-0.046912950061284084   0.01424575366277931   0.002453169472549998
-0.046912950061284084   0.01424575366277931   0.002453169472549998
0.02414680060203056   0.014503362312337686   -0.007566688634654381
0.02414680060203056   0.014503362312337686   -0.007566688634654381
0.02414680060203056   0.014503362312337686   -0.007566688634654381
0.02414680060203056   0.014503362312337686   -0.007566688634654381
-0.014400599433708694   0.009222438628171691   0.003437618296916925
-0.014400599433708694   0.009222438628171691   0.003437618296916925
-0.014400599433708694   0.009222438628171691   0.003437618296916925
-0.014400599433708694   0.009222438628171691   0.003437618296916925
-0.06271614416935617   -0.004785023754378167   0.0046669672090095225
-0.06271614416935617   -0.004785023754378167   0.0046669672090095225
-0.06271614416935617   -0.004785023754378167   0.0046669672090095225
-0.06271614416935617   -0.004785023754378167   0.0046669672090095225
-0.13563770095685013   -0.01831854511594195   0.0011065659958503418
-0.13563770095685013   -0.01831854511594195   0.0011065659958503418
-0.13563770095685013   -0.01831854511594195   0.0011065659958503418
-0.13563770095685013   -0.01831854511594195   0.0011065659958503418
-0.13080562325257583   -0.011592361968077496   -0.002539134298491178
-0.13080562325257583   -0.011592361968077496   -0.002539134298491178
-0.13080562325257583   -0.011592361968077496   -0.002539134298491178
-0.13080562325257583   -0.011592361968077496   -0.002539134298491178
-0.05696460893223508   0.004826689486987652   0.002822627333298755
-0.05696460893223508   0.004826689486987652   0.002822627333298755
-0.05696460893223508   0.004826689486987652   0.002822627333298755
-0.05696460893223508   0.004826689486987652   0.002822627333298755
-0.09667024685453456   -0.006869696086483839   -0.002525658069790617
-0.09667024685453456   -0.006869696086483839   -0.002525658069790617
-0.09667024685453456   -0.006869696086483839   -0.002525658069790617
-0.09667024685453456   -0.006869696086483839   -0.002525658069790617
-0.05701267497094065   0.004296543227749729   0.0031124433990097726
-0.05701267497094065   0.004296543227749729   0.0031124433990097726
-0.05701267497094065   0.004296543227749729   0.0031124433990097726
-0.05701267497094065   0.004296543227749729   0.0031124433990097726
-0.13024580729741536   -0.010550465792384733   -0.0007819506983828646
-0.13024580729741536   -0.010550465792384733   -0.0007819506983828646
-0.13024580729741536   -0.010550465792384733   -0.0007819506983828646
-0.13024580729741536   -0.010550465792384733   -0.0007819506983828646
-0.1249334708899621   -0.0022823932625452223   -0.003991595078308651
-0.1249334708899621   -0.0022823932625452223   -0.003991595078308651
-0.1249334708899621   -0.0022823932625452223   -0.003991595078308651
-0.1249334708899621   -0.0022823932625452223   -0.003991595078308651
-0.051448434758411946   0.013041620334386966   0.0010674005861567816
-0.051448434758411946   0.013041620334386966   0.0010674005861567816
-0.051448434758411946   0.013041620334386966   0.0010674005861567816
-0.051448434758411946   0.013041620334386966   0.0010674005861567816
-0.09059888106749765   0.001292055550455154   0.0012421152646231596
-0.09059888106749765   0.001292055550455154   0.0012421152646231596
-0.09059888106749765   0.001292055550455154   0.0012421152646231596
-0.09059888106749765   0.001292055550455154   0.0012421152646231596
-0.05127547974631186   0.013535235981712822   0.0014385599993313363
-0.05127547974631186   0.013535235981712822   0.0014385599993313363
-0.05127547974631186   0.013535235981712822   0.0014385599993313363
-0.05127547974631186   0.013535235981712822   0.0014385599993313363
-0.12469267500413646   -0.0023622580119442294   -0.002707750899782339
-0.12469267500413646   -0.0023622580119442294   -0.002707750899782339
-0.12469267500413646   -0.0023622580119442294   -0.002707750899782339
-0.12469267500413646   -0.0023622580119442294   -0.002707750899782339
-0.11929561427490114   0.007062471021977105   -0.005635679073079582
-0.11929561427490114   0.007062471021977105   -0.005635679073079582
-0.11929561427490114   0.007062471021977105   -0.005635679073079582
-0.11929561427490114   0.007062471021977105   -0.005635679073079582
-0.04618992823485393   0.02128048932859971   -0.0009664570611196237
-0.04618992823485393   0.02128048932859971   -0.0009664570611196237
-0.04618992823485393   0.02128048932859971   -0.0009664570611196237
-0.04618992823485393   0.02128048932859971   -0.0009664570611196237
-0.08485558579990503   0.009435713999373842   0.004764257624190501
-0.08485558579990503   0.009435713999373842   0.004764257624190501
-0.08485558579990503   0.009435713999373842   0.004764257624190501
-0.08485558579990503   0.009435713999373842   0.004764257624190501
-0.13549115374763296   -0.012767895891764667   -0.0037113471822400384
-0.13549115374763296   -0.012767895891764667   -0.0037113471822400384
-0.13549115374763296   -0.012767895891764667   -0.0037113471822400384
-0.13549115374763296   -0.012767895891764667   -0.0037113471822400384
-0.202038186746174   -0.011622287157120114   0.007678819285433768
-0.202038186746174   -0.011622287157120114   0.007678819285433768
-0.202038186746174   -0.011622287157120114   0.007678819285433768
-0.202038186746174   -0.011622287157120114   0.007678819285433768
-0.2023948493603961   -0.019245980331622444   -0.010715462334716569
-0.2023948493603961   -0.019245980331622444   -0.010715462334716569
-0.2023948493603961   -0.019245980331622444   -0.010715462334716569
-0.2023948493603961   -0.019245980331622444   -0.010715462334716569
-0.12367296582274047   0.011973807363955286   0.009557983518651718
-0.12367296582274047   0.011973807363955286   0.009557983518651718
-0.12367296582274047   0.011973807363955286   0.009557983518651718
-0.12367296582274047   0.011973807363955286   0.009557983518651718
-0.16495747305222588   -0.007137226960023665   -0.0010889279912672254
-0.16495747305222588   -0.007137226960023665   -0.0010889279912672254
-0.16495747305222588   -0.007137226960023665   -0.0010889279912672254
-0.16495747305222588   -0.007137226960023665   -0.0010889279912672254
-0.12974712117707093   -0.0036176161715191432   -0.005221369717525205
-0.12974712117707093   -0.0036176161715191432   -0.005221369717525205
-0.12974712117707093   -0.0036176161715191432   -0.005221369717525205
-0.12974712117707093   -0.0036176161715191432   -0.005221369717525205
-0.19588934612248535   -0.003223208912568616   0.005789282435784733
-0.19588934612248535   -0.003223208912568616   0.005789282435784733
-0.19588934612248535   -0.003223208912568616   0.005789282435784733
-0.19588934612248535   -0.003223208912568616   0.005789282435784733
-0.19497592238822062   -0.010373235075858217   -0.011926683566604198
-0.19497592238822062   -0.010373235075858217   -0.011926683566604198
-0.19497592238822062   -0.010373235075858217   -0.011926683566604198
-0.19497592238822062   -0.010373235075858217   -0.011926683566604198
-0.11826823078480629   0.01944046201859028   0.007611750166333952
-0.11826823078480629   0.01944046201859028   0.007611750166333952
-0.11826823078480629   0.01944046201859028   0.007611750166333952
-0.11826823078480629   0.01944046201859028   0.007611750166333952
-0.15760524031451237   0.0010984436268480433   0.002805078864096037
-0.15760524031451237   0.0010984436268480433   0.002805078864096037
-0.15760524031451237   0.0010984436268480433   0.002805078864096037
-0.15760524031451237   0.0010984436268480433   0.002805078864096037
-0.12413790477626473   0.004767061337816927   -0.007063219110184336
-0.12413790477626473   0.004767061337816927   -0.007063219110184336
-0.12413790477626473   0.004767061337816927   -0.007063219110184336
-0.12413790477626473   0.004767061337816927   -0.007063219110184336
-0.1886230608756712   0.004783353126004898   0.004681035794279609
-0.1886230608756712   0.004783353126004898   0.004681035794279609
-0.1886230608756712   0.004783353126004898   0.004681035794279609
-0.1886230608756712   0.004783353126004898   0.004681035794279609
-0.18834798797866525   -0.0007253305195624518   -0.012849154462641496
-0.18834798797866525   -0.0007253305195624518   -0.012849154462641496
-0.18834798797866525   -0.0007253305195624518   -0.012849154462641496
-0.18834798797866525   -0.0007253305195624518   -0.012849154462641496
-0.11292205675659567   0.027646462656925157   0.005648116883499697
-0.11292205675659567   0.027646462656925157   0.005648116883499697
-0.11292205675659567   0.027646462656925157   0.005648116883499697
-0.11292205675659567   0.027646462656925157   0.005648116883499697
-0.15220458865032846   0.008740732759872194   0.006283404561502243
-0.15220458865032846   0.008740732759872194   0.006283404561502243
-0.15220458865032846   0.008740732759872194   0.006283404561502243
-0.15220458865032846   0.008740732759872194   0.006283404561502243
-0.2071885122810917   -0.018225080578119827   -0.01147001496815497
-0.2071885122810917   -0.018225080578119827   -0.01147001496815497
-0.2071885122810917   -0.018225080578119827   -0.01147001496815497
-0.2071885122810917   -0.018225080578119827   -0.01147001496815497
-0.2780399130779006   -0.005303186158704759   0.016919522393929305
-0.2780399130779006   -0.005303186158704759   0.016919522393929305
-0.2780399130779006   -0.005303186158704759   0.016919522393929305
-0.2780399130779006   -0.005303186158704759   0.016919522393929305
-0.27459197233448857   -0.02492776894594989   -0.015419358022022898
-0.27459197233448857   -0.02492776894594989   -0.015419358022022898
-0.27459197233448857   -0.02492776894594989   -0.015419358022022898
-0.27459197233448857   -0.02492776894594989   -0.015419358022022898
-0.18900042526605224   0.02033320732708186   0.016677470478298317
-0.18900042526605224   0.02033320732708186   0.016677470478298317
-0.18900042526605224   0.02033320732708186   0.016677470478298317
-0.18900042526605224   0.02033320732708186   0.016677470478298317
-0.2269476173170027   -0.004073716899859976   0.002021879539496556
-0.2269476173170027   -0.004073716899859976   0.002021879539496556
-0.2269476173170027   -0.004073716899859976   0.002021879539496556
-0.2269476173170027   -0.004073716899859976   0.002021879539496556
-0.20094238840470827   -0.009711506777640905   -0.012987631110258267
-0.20094238840470827   -0.009711506777640905   -0.012987631110258267
-0.20094238840470827   -0.009711506777640905   -0.012987631110258267
-0.20094238840470827   -0.009711506777640905   -0.012987631110258267
-0.26225273422793327   0.005514220126671632   0.015834843438128236
-0.26225273422793327   0.005514220126671632   0.015834843438128236
-0.26225273422793327   0.005514220126671632   0.015834843438128236
-0.26225273422793327   0.005514220126671632   0.015834843438128236
-0.2626993188079211   -0.019680527647536084   -0.018383120490366098
-0.2626993188079211   -0.019680527647536084   -0.018383120490366098
-0.2626993188079211   -0.019680527647536084   -0.018383120490366098
-0.2626993188079211   -0.019680527647536084   -0.018383120490366098
-0.18300505672786851   0.023786356301728824   0.013768053357567402
-0.18300505672786851   0.023786356301728824   0.013768053357567402
-0.18300505672786851   0.023786356301728824   0.013768053357567402
-0.18300505672786851   0.023786356301728824   0.013768053357567402
-0.22042263497094405   0.0014555977807850645   0.005147833887054778
-0.22042263497094405   0.0014555977807850645   0.005147833887054778
-0.22042263497094405   0.0014555977807850645   0.005147833887054778
-0.22042263497094405   0.0014555977807850645   0.005147833887054778
-0.19460063477494086   -0.005390719048399634   -0.015032761527664052
-0.19460063477494086   -0.005390719048399634   -0.015032761527664052
-0.19460063477494086   -0.005390719048399634   -0.015032761527664052
-0.19460063477494086   -0.005390719048399634   -0.015032761527664052
-0.2506235368308871   0.009976751632553432   0.012338510114709066
-0.2506235368308871   0.009976751632553432   0.012338510114709066
-0.2506235368308871   0.009976751632553432   0.012338510114709066
-0.2506235368308871   0.009976751632553432   0.012338510114709066
-0.24794418710725702   -0.01190848806115647   -0.020541321717586956
-0.24794418710725702   -0.01190848806115647   -0.020541321717586956
-0.24794418710725702   -0.01190848806115647   -0.020541321717586956
-0.24794418710725702   -0.01190848806115647   -0.020541321717586956
-0.17777032370385668   0.02784910315699783   0.011464733234841103
-0.17777032370385668   0.02784910315699783   0.011464733234841103
-0.17777032370385668   0.02784910315699783   0.011464733234841103
-0.17777032370385668   0.02784910315699783   0.011464733234841103
-0.20763794465241595   0.006597028350863156   0.009597425138705607
-0.20763794465241595   0.006597028350863156   0.009597425138705607
-0.20763794465241595   0.006597028350863156   0.009597425138705607
-0.20763794465241595   0.006597028350863156   0.009597425138705607
0.21668511210433436   0.019768670277683267   0.0184176748557475
0.21668511210433436   0.019768670277683267   0.0184176748557475
0.21668511210433436   0.019768670277683267   0.0184176748557475
0.21668511210433436   0.019768670277683267   0.0184176748557475
0.07890540865293942   -0.035253691992023155   -0.012103546858405673
0.07890540865293942   -0.035253691992023155   -0.012103546858405673
0.07890540865293942   -0.035253691992023155   -0.012103546858405673
0.07890540865293942   -0.035253691992023155   -0.012103546858405673
0.0968134430726276   -0.00045328774371562394   0.01321234739048171
0.0968134430726276   -0.00045328774371562394   0.01321234739048171
0.0968134430726276   -0.00045328774371562394   0.01321234739048171
0.0968134430726276   -0.00045328774371562394   0.01321234739048171
0.2202550236516516   -0.0043187508637881   -0.015479444948071323
0.2202550236516516   -0.0043187508637881   -0.015479444948071323
0.2202550236516516   -0.0043187508637881   -0.015479444948071323
0.2202550236516516   -0.0043187508637881   -0.015479444948071323
0.14375078879336323   -0.006202317857252625   -0.013698851806429086
0.14375078879336323   -0.006202317857252625   -0.013698851806429086
0.14375078879336323   -0.006202317857252625   -0.013698851806429086
0.14375078879336323   -0.006202317857252625   -0.013698851806429086
0.23287904873714108   0.027318124861839627   0.016003804753744487
0.23287904873714108   0.027318124861839627   0.016003804753744487
0.23287904873714108   0.027318124861839627   0.016003804753744487
0.23287904873714108   0.027318124861839627   0.016003804753744487
0.08510110828128764   -0.031178473175194156   -0.014624141134737633
0.08510110828128764   -0.031178473175194156   -0.014624141134737633
0.08510110828128764   -0.031178473175194156   -0.014624141134737633
0.08510110828128764   -0.031178473175194156   -0.014624141134737633
0.10371745746589627   0.0037155033222808394   0.010866413234870715
0.10371745746589627   0.0037155033222808394   0.010866413234870715
0.10371745746589627   0.0037155033222808394   0.010866413234870715
0.10371745746589627   0.0037155033222808394   0.010866413234870715
0.23307138364365804   0.0004060495339805806   -0.019415426238292406
0.23307138364365804   0.0004060495339805806   -0.019415426238292406
0.23307138364365804   0.0004060495339805806   -0.019415426238292406
0.23307138364365804   0.0004060495339805806   -0.019415426238292406
0.15721576044163188   -0.0011216294477102776   -0.008348677265398617
0.15721576044163188   -0.0011216294477102776   -0.008348677265398617
0.15721576044163188   -0.0011216294477102776   -0.008348677265398617
0.15721576044163188   -0.0011216294477102776   -0.008348677265398617
0.2458147167114709   0.03241927520947611   0.012288013425272432
0.2458147167114709   0.03241927520947611   0.012288013425272432
0.2458147167114709   0.03241927520947611   0.012288013425272432
0.2458147167114709   0.03241927520947611   0.012288013425272432
0.09192772920828249   -0.02734411754301611   -0.01702260718790028
0.09192772920828249   -0.02734411754301611   -0.01702260718790028
0.09192772920828249   -0.02734411754301611   -0.01702260718790028
0.09192772920828249   -0.02734411754301611   -0.01702260718790028
0.11061574199570533   0.012952530331793437   0.009416933247971722
0.11061574199570533   0.012952530331793437   0.009416933247971722
0.11061574199570533   0.012952530331793437   0.009416933247971722
0.11061574199570533   0.012952530331793437   0.009416933247971722
0.24994322604752184   0.01271749634249144   -0.02091644802894292
0.24994322604752184   0.01271749634249144   -0.02091644802894292
0.24994322604752184   0.01271749634249144   -0.02091644802894292
0.24994322604752184   0.01271749634249144   -0.02091644802894292
0.1653100875231813   0.005100788462784233   -0.003768839608632572
0.1653100875231813   0.005100788462784233   -0.003768839608632572
0.1653100875231813   0.005100788462784233   -0.003768839608632572
0.1653100875231813   0.005100788462784233   -0.003768839608632572
0.09358918086837165   0.01116955810696469   0.014892064119766582
0.09358918086837165   0.01116955810696469   0.014892064119766582
0.09358918086837165   0.01116955810696469   0.014892064119766582
0.09358918086837165   0.01116955810696469   0.014892064119766582
-0.04645338427393119   -0.03292516643555557   -0.006370716523121053
-0.04645338427393119   -0.03292516643555557   -0.006370716523121053
-0.04645338427393119   -0.03292516643555557   -0.006370716523121053
-0.04645338427393119   -0.03292516643555557   -0.006370716523121053
-0.03424936003317463   -0.009851556647617596   0.004430027886189987
-0.03424936003317463   -0.009851556647617596   0.004430027886189987
-0.03424936003317463   -0.009851556647617596   0.004430027886189987
-0.03424936003317463   -0.009851556647617596   0.004430027886189987
0.09406032487339086   0.0008460782220784079   -0.0018526095714950725
0.09406032487339086   0.0008460782220784079   -0.0018526095714950725
0.09406032487339086   0.0008460782220784079   -0.0018526095714950725
0.09406032487339086   0.0008460782220784079   -0.0018526095714950725
0.02549987507695416   -0.0067923827776841415   -0.0057741488379406646
0.02549987507695416   -0.0067923827776841415   -0.0057741488379406646
0.02549987507695416   -0.0067923827776841415   -0.0057741488379406646
0.02549987507695416   -0.0067923827776841415   -0.0057741488379406646
0.10070518206447561   0.01891408092989639   0.013303673676109691
0.10070518206447561   0.01891408092989639   0.013303673676109691
0.10070518206447561   0.01891408092989639   0.013303673676109691
0.10070518206447561   0.01891408092989639   0.013303673676109691
-0.0403303445717357   -0.027355686702912062   -0.00847076475132086
-0.0403303445717357   -0.027355686702912062   -0.00847076475132086
-0.0403303445717357   -0.027355686702912062   -0.00847076475132086
-0.0403303445717357   -0.027355686702912062   -0.00847076475132086
-0.027829021488497765   -0.0020108598777550312   0.002780787197711218
-0.027829021488497765   -0.0020108598777550312   0.002780787197711218
-0.027829021488497765   -0.0020108598777550312   0.002780787197711218
-0.027829021488497765   -0.0020108598777550312   0.002780787197711218
0.10167024533557643   0.007850395828662106   -0.0035045399231088147
0.10167024533557643   0.007850395828662106   -0.0035045399231088147
0.10167024533557643   0.007850395828662106   -0.0035045399231088147
0.10167024533557643   0.007850395828662106   -0.0035045399231088147
0.03168145726494608   -0.0006138340300620585   -0.0022871518762756244
0.03168145726494608   -0.0006138340300620585   -0.0022871518762756244
0.03168145726494608   -0.0006138340300620585   -0.0022871518762756244
0.03168145726494608   -0.0006138340300620585   -0.0022871518762756244
0.10858510066131613   0.027083194682929735   0.01183693785132114
0.10858510066131613   0.027083194682929735   0.01183693785132114
0.10858510066131613   0.027083194682929735   0.01183693785132114
0.10858510066131613   0.027083194682929735   0.01183693785132114
-0.03418119659321306   -0.020680978510998406   -0.01030996969262189
-0.03418119659321306   -0.020680978510998406   -0.01030996969262189
-0.03418119659321306   -0.020680978510998406   -0.01030996969262189
-0.03418119659321306   -0.020680978510998406   -0.01030996969262189
-0.021479495756307514   0.00712015320976551   0.0011435622108228178
-0.021479495756307514   0.00712015320976551   0.0011435622108228178
-0.021479495756307514   0.00712015320976551   0.0011435622108228178
-0.021479495756307514   0.00712015320976551   0.0011435622108228178
0.10838500534919487   0.016231757331939572   -0.005015976984726665
0.10838500534919487   0.016231757331939572   -0.005015976984726665
0.10838500534919487   0.016231757331939572   -0.005015976984726665
0.10838500534919487   0.016231757331939572   -0.005015976984726665
0.03941705636428673   0.0070031298270406845   0.001796185112856613
0.03941705636428673   0.0070031298270406845   0.001796185112856613
0.03941705636428673   0.0070031298270406845   0.001796185112856613
0.03941705636428673   0.0070031298270406845   0.001796185112856613
-0.03681637156393812   0.0025018697347734386   0.006387310856515305
-0.03681637156393812   0.0025018697347734386   0.006387310856515305
-0.03681637156393812   0.0025018697347734386   0.006387310856515305
-0.03681637156393812   0.0025018697347734386   0.006387310856515305
-0.16934349789055111   -0.02917892227368911   -0.0009100616485755238
-0.16934349789055111   -0.02917892227368911   -0.0009100616485755238
-0.16934349789055111   -0.02917892227368911   -0.0009100616485755238
-0.16934349789055111   -0.02917892227368911   -0.0009100616485755238
-0.16177758393101088   -0.017491636765193688   -0.00395602892883216
-0.16177758393101088   -0.017491636765193688   -0.00395602892883216
-0.16177758393101088   -0.017491636765193688   -0.00395602892883216
-0.16177758393101088   -0.017491636765193688   -0.00395602892883216
-0.03136147602623313   0.004820994049791838   0.00419689722348804
-0.03136147602623313   0.004820994049791838   0.00419689722348804
-0.03136147602623313   0.004820994049791838   0.00419689722348804
-0.03136147602623313   0.004820994049791838   0.00419689722348804
-0.09999433227461926   -0.008915413432191866   -0.0036191652113136347
-0.09999433227461926   -0.008915413432191866   -0.0036191652113136347
-0.09999433227461926   -0.008915413432191866   -0.0036191652113136347
-0.09999433227461926   -0.008915413432191866   -0.0036191652113136347
-0.030071213290505435   0.010612236782547925   0.004856968169370466
-0.030071213290505435   0.010612236782547925   0.004856968169370466
-0.030071213290505435   0.010612236782547925   0.004856968169370466
-0.030071213290505435   0.010612236782547925   0.004856968169370466
-0.1626773188337955   -0.022892351665006708   -0.0030539885429423257
-0.1626773188337955   -0.022892351665006708   -0.0030539885429423257
-0.1626773188337955   -0.022892351665006708   -0.0030539885429423257
-0.1626773188337955   -0.022892351665006708   -0.0030539885429423257
-0.15469234830974707   -0.008888412126651948   -0.005338848167702648
-0.15469234830974707   -0.008888412126651948   -0.005338848167702648
-0.15469234830974707   -0.008888412126651948   -0.005338848167702648
-0.15469234830974707   -0.008888412126651948   -0.005338848167702648
-0.025117653956625952   0.011903211889193136   0.0024235530901221287
-0.025117653956625952   0.011903211889193136   0.0024235530901221287
-0.025117653956625952   0.011903211889193136   0.0024235530901221287
-0.025117653956625952   0.011903211889193136   0.0024235530901221287
-0.09284102758802262   -0.001723434436943394   -4.7158375647190706e-05
-0.09284102758802262   -0.001723434436943394   -4.7158375647190706e-05
-0.09284102758802262   -0.001723434436943394   -4.7158375647190706e-05
-0.09284102758802262   -0.001723434436943394   -4.7158375647190706e-05
-0.02355521386694099   0.019028814567498338   0.0031101508602426886
-0.02355521386694099   0.019028814567498338   0.0031101508602426886
-0.02355521386694099   0.019028814567498338   0.0031101508602426886
-0.02355521386694099   0.019028814567498338   0.0031101508602426886
-0.15589495661940006   -0.01565418302492499   -0.004586118817694422
-0.15589495661940006   -0.01565418302492499   -0.004586118817694422
-0.15589495661940006   -0.01565418302492499   -0.004586118817694422
-0.15589495661940006   -0.01565418302492499   -0.004586118817694422
-0.1480913767888473   -0.0003015801050439276   -0.006975355675344443
-0.1480913767888473   -0.0003015801050439276   -0.006975355675344443
-0.1480913767888473   -0.0003015801050439276   -0.006975355675344443
-0.1480913767888473   -0.0003015801050439276   -0.006975355675344443
-0.019177128154163118   0.01912376144493545   0.0006517919863748695
-0.019177128154163118   0.01912376144493545   0.0006517919863748695
-0.019177128154163118   0.01912376144493545   0.0006517919863748695
-0.019177128154163118   0.01912376144493545   0.0006517919863748695
-0.08628126513681632   0.005444473683967145   0.0033460729428341565
-0.08628126513681632   0.005444473683967145   0.0033460729428341565
-0.08628126513681632   0.005444473683967145   0.0033460729428341565
-0.08628126513681632   0.005444473683967145   0.0033460729428341565
-0.16504316746637696   -0.006230427932104984   -0.002356903869287631
-0.16504316746637696   -0.006230427932104984   -0.002356903869287631
-0.16504316746637696   -0.006230427932104984   -0.002356903869287631
-0.16504316746637696   -0.006230427932104984   -0.002356903869287631
-0.2899210291650503   -0.023834675215842087   0.005275659314800438
-0.2899210291650503   -0.023834675215842087   0.005275659314800438
-0.2899210291650503   -0.023834675215842087   0.005275659314800438
-0.2899210291650503   -0.023834675215842087   0.005275659314800438
-0.2864909712463986   -0.024873798397025124   -0.011862039862592155
-0.2864909712463986   -0.024873798397025124   -0.011862039862592155
-0.2864909712463986   -0.024873798397025124   -0.011862039862592155
-0.2864909712463986   -0.024873798397025124   -0.011862039862592155
-0.15313456251031826   0.011333276272691171   0.010434165136747298
-0.15313456251031826   0.011333276272691171   0.010434165136747298
-0.15313456251031826   0.011333276272691171   0.010434165136747298
-0.15313456251031826   0.011333276272691171   0.010434165136747298
-0.22210195939794034   -0.009570371720890064   -0.0012764961352851201
-0.22210195939794034   -0.009570371720890064   -0.0012764961352851201
-0.22210195939794034   -0.009570371720890064   -0.0012764961352851201
-0.22210195939794034   -0.009570371720890064   -0.0012764961352851201
-0.1577161376179093   0.0025212412295731457   -0.0036616753580900815
-0.1577161376179093   0.0025212412295731457   -0.0036616753580900815
-0.1577161376179093   0.0025212412295731457   -0.0036616753580900815
-0.1577161376179093   0.0025212412295731457   -0.0036616753580900815
-0.2818488827936316   -0.016001250008731212   0.0024758540129487406
-0.2818488827936316   -0.016001250008731212   0.0024758540129487406
-0.2818488827936316   -0.016001250008731212   0.0024758540129487406
-0.2818488827936316   -0.016001250008731212   0.0024758540129487406
-0.2771835875286297   -0.01648952518336174   -0.01312282909960276
-0.2771835875286297   -0.01648952518336174   -0.01312282909960276
-0.2771835875286297   -0.01648952518336174   -0.01312282909960276
-0.2771835875286297   -0.01648952518336174   -0.01312282909960276
-0.14656242017921972   0.01806243236442462   0.008359947993859099
-0.14656242017921972   0.01806243236442462   0.008359947993859099
-0.14656242017921972   0.01806243236442462   0.008359947993859099
-0.14656242017921972   0.01806243236442462   0.008359947993859099
-0.21258182010897736   -0.0016333941925630938   0.0023238512494894534
-0.21258182010897736   -0.0016333941925630938   0.0023238512494894534
-0.21258182010897736   -0.0016333941925630938   0.0023238512494894534
-0.21258182010897736   -0.0016333941925630938   0.0023238512494894534
-0.1508646086549407   0.010317603339360194   -0.00540616535968211
-0.1508646086549407   0.010317603339360194   -0.00540616535968211
-0.1508646086549407   0.010317603339360194   -0.00540616535968211
-0.1508646086549407   0.010317603339360194   -0.00540616535968211
-0.27261227392343595   -0.008475571028824715   0.001719784771828714
-0.27261227392343595   -0.008475571028824715   0.001719784771828714
-0.27261227392343595   -0.008475571028824715   0.001719784771828714
-0.27261227392343595   -0.008475571028824715   0.001719784771828714
-0.26886628063497714   -0.007434230470841248   -0.01381112487695081
-0.26886628063497714   -0.007434230470841248   -0.01381112487695081
-0.26886628063497714   -0.007434230470841248   -0.01381112487695081
-0.26886628063497714   -0.007434230470841248   -0.01381112487695081
-0.1401978427042258   0.025422161726995726   0.00676857291572457
-0.1401978427042258   0.025422161726995726   0.00676857291572457
-0.1401978427042258   0.025422161726995726   0.00676857291572457
-0.1401978427042258   0.025422161726995726   0.00676857291572457
-0.206285065080063   0.005121195896319347   0.005418545506099317
-0.206285065080063   0.005121195896319347   0.005418545506099317
-0.206285065080063   0.005121195896319347   0.005418545506099317
-0.206285065080063   0.005121195896319347   0.005418545506099317
-0.2909736383042176   -0.013365206668440079   -0.010456854928437983
-0.2909736383042176   -0.013365206668440079   -0.010456854928437983
-0.2909736383042176   -0.013365206668440079   -0.010456854928437983
-0.2909736383042176   -0.013365206668440079   -0.010456854928437983
-0.4156913584326456   -0.015130376104637855   0.018062215162429052
-0.4156913584326456   -0.015130376104637855   0.018062215162429052
-0.4156913584326456   -0.015130376104637855   0.018062215162429052
-0.4156913584326456   -0.015130376104637855   0.018062215162429052
-0.4083359710657255   -0.02967208991967854   -0.014013469955830436
-0.4083359710657255   -0.02967208991967854   -0.014013469955830436
-0.4083359710657255   -0.02967208991967854   -0.014013469955830436
-0.4083359710657255   -0.02967208991967854   -0.014013469955830436
-0.270871556751649   0.02292395447789969   0.018437279736228863
-0.270871556751649   0.02292395447789969   0.018437279736228863
-0.270871556751649   0.02292395447789969   0.018437279736228863
-0.270871556751649   0.02292395447789969   0.018437279736228863
-0.3310649014841593   -0.00407824245713681   0.004045844069465562
-0.3310649014841593   -0.00407824245713681   0.004045844069465562
-0.3310649014841593   -0.00407824245713681   0.004045844069465562
-0.3310649014841593   -0.00407824245713681   0.004045844069465562
-0.2822682285140196   -0.003983560281430001   -0.011638564316293634
-0.2822682285140196   -0.003983560281430001   -0.011638564316293634
-0.2822682285140196   -0.003983560281430001   -0.011638564316293634
-0.2822682285140196   -0.003983560281430001   -0.011638564316293634
-0.3967175458009745   -0.0025428216579689994   0.016949388106210987
-0.3967175458009745   -0.0025428216579689994   0.016949388106210987
-0.3967175458009745   -0.0025428216579689994   0.016949388106210987
-0.3967175458009745   -0.0025428216579689994   0.016949388106210987
-0.3940877032218193   -0.02449039848517859   -0.016533074083018816
-0.3940877032218193   -0.02449039848517859   -0.016533074083018816
-0.3940877032218193   -0.02449039848517859   -0.016533074083018816
-0.3940877032218193   -0.02449039848517859   -0.016533074083018816
-0.26310865617892615   0.026115127606597524   0.014647174858955583
-0.26310865617892615   0.026115127606597524   0.014647174858955583
-0.26310865617892615   0.026115127606597524   0.014647174858955583
-0.26310865617892615   0.026115127606597524   0.014647174858955583
-0.3240216821522238   0.0015914331541340143   0.006987579362389883
-0.3240216821522238   0.0015914331541340143   0.006987579362389883
-0.3240216821522238   0.0015914331541340143   0.006987579362389883
-0.3240216821522238   0.0015914331541340143   0.006987579362389883
-0.27387825899115115   0.00020080238203699918   -0.013286513977609007
-0.27387825899115115   0.00020080238203699918   -0.013286513977609007
-0.27387825899115115   0.00020080238203699918   -0.013286513977609007
-0.27387825899115115   0.00020080238203699918   -0.013286513977609007
-0.3830899599440525   0.0016520672049226137   0.012313176615707393
-0.3830899599440525   0.0016520672049226137   0.012313176615707393
-0.3830899599440525   0.0016520672049226137   0.012313176615707393
-0.3830899599440525   0.0016520672049226137   0.012313176615707393
-0.3784193969058575   -0.018350896433051725   -0.018886191513405842
-0.3784193969058575   -0.018350896433051725   -0.018886191513405842
-0.3784193969058575   -0.018350896433051725   -0.018886191513405842
-0.3784193969058575   -0.018350896433051725   -0.018886191513405842
-0.2563319968595447   0.028962590949165083   0.012463472580204919
-0.2563319968595447   0.028962590949165083   0.012463472580204919
-0.2563319968595447   0.028962590949165083   0.012463472580204919
-0.2563319968595447   0.028962590949165083   0.012463472580204919
-0.3080756815467813   0.006266802410175812   0.01152250617265892
-0.3080756815467813   0.006266802410175812   0.01152250617265892
-0.3080756815467813   0.006266802410175812   0.01152250617265892
-0.3080756815467813   0.006266802410175812   0.01152250617265892
0.3594549354738105   0.027001854439221575   0.018624658476962208
0.3594549354738105   0.027001854439221575   0.018624658476962208
0.3594549354738105   0.027001854439221575   0.018624658476962208
0.3594549354738105   0.027001854439221575   0.018624658476962208
0.15786439334546445   -0.04154407942092499   -0.008737902663988124
0.15786439334546445   -0.04154407942092499   -0.008737902663988124
0.15786439334546445   -0.04154407942092499   -0.008737902663988124
0.15786439334546445   -0.04154407942092499   -0.008737902663988124
0.17543394606633878   -0.007642184986146494   0.012724462025449532
0.17543394606633878   -0.007642184986146494   0.012724462025449532
0.17543394606633878   -0.007642184986146494   0.012724462025449532
0.17543394606633878   -0.007642184986146494   0.012724462025449532
0.3630829946188997   0.00012733231858845506   -0.01357145182100734
0.3630829946188997   0.00012733231858845506   -0.01357145182100734
0.3630829946188997   0.00012733231858845506   -0.01357145182100734
0.3630829946188997   0.00012733231858845506   -0.01357145182100734
0.24853443163486083   -0.007215763817166973   -0.019156202419031817
0.24853443163486083   -0.007215763817166973   -0.019156202419031817
0.24853443163486083   -0.007215763817166973   -0.019156202419031817
0.24853443163486083   -0.007215763817166973   -0.019156202419031817
0.3754729151664479   0.032934844229874284   0.015570639005444304
0.3754729151664479   0.032934844229874284   0.015570639005444304
0.3754729151664479   0.032934844229874284   0.015570639005444304
0.3754729151664479   0.032934844229874284   0.015570639005444304
0.16424110832929564   -0.03925261408692754   -0.011629297558983304
0.16424110832929564   -0.03925261408692754   -0.011629297558983304
0.16424110832929564   -0.03925261408692754   -0.011629297558983304
0.16424110832929564   -0.03925261408692754   -0.011629297558983304
0.18217402802694124   -0.003838655053973794   0.01025840643863716
0.18217402802694124   -0.003838655053973794   0.01025840643863716
0.18217402802694124   -0.003838655053973794   0.01025840643863716
0.18217402802694124   -0.003838655053973794   0.01025840643863716
0.3750567382977089   0.004308400233192622   -0.016873558354959767
0.3750567382977089   0.004308400233192622   -0.016873558354959767
0.3750567382977089   0.004308400233192622   -0.016873558354959767
0.3750567382977089   0.004308400233192622   -0.016873558354959767
0.263702154115464   -0.002775914664476159   -0.013079939033464601
0.263702154115464   -0.002775914664476159   -0.013079939033464601
0.263702154115464   -0.002775914664476159   -0.013079939033464601
0.263702154115464   -0.002775914664476159   -0.013079939033464601
0.3873625958983929   0.03745016934076636   0.011513960540886272
0.3873625958983929   0.03745016934076636   0.011513960540886272
0.3873625958983929   0.03745016934076636   0.011513960540886272
0.3873625958983929   0.03745016934076636   0.011513960540886272
0.17090845338556582   -0.035940141202239026   -0.013967980619974833
0.17090845338556582   -0.035940141202239026   -0.013967980619974833
0.17090845338556582   -0.035940141202239026   -0.013967980619974833
0.17090845338556582   -0.035940141202239026   -0.013967980619974833
0.18829735486093477   0.006370458334592995   0.008994233118151994
0.18829735486093477   0.006370458334592995   0.008994233118151994
0.18829735486093477   0.006370458334592995   0.008994233118151994
0.18829735486093477   0.006370458334592995   0.008994233118151994
0.3898513455451281   0.01656897279858785   -0.017640759031979467
0.3898513455451281   0.01656897279858785   -0.017640759031979467
0.3898513455451281   0.01656897279858785   -0.017640759031979467
0.3898513455451281   0.01656897279858785   -0.017640759031979467
0.26911505428651933   0.0032510079395974695   -0.008919465151683584
0.26911505428651933   0.0032510079395974695   -0.008919465151683584
0.26911505428651933   0.0032510079395974695   -0.008919465151683584
0.26911505428651933   0.0032510079395974695   -0.008919465151683584
0.17458025627307083   0.016012642907577184   0.01728468964554068
0.17458025627307083   0.016012642907577184   0.01728468964554068
0.17458025627307083   0.016012642907577184   0.01728468964554068
0.17458025627307083   0.016012642907577184   0.01728468964554068
-0.022971978310327854   -0.0508687504058112   -0.00502326480655561
-0.022971978310327854   -0.0508687504058112   -0.00502326480655561
-0.022971978310327854   -0.0508687504058112   -0.00502326480655561
-0.022971978310327854   -0.0508687504058112   -0.00502326480655561
-0.007981048658408357   -0.018343664367253643   0.004240051013643899
-0.007981048658408357   -0.018343664367253643   0.004240051013643899
-0.007981048658408357   -0.018343664367253643   0.004240051013643899
-0.007981048658408357   -0.018343664367253643   0.004240051013643899
0.17297280893057213   -0.008180004147290365   0.000956595507760144
0.17297280893057213   -0.008180004147290365   0.000956595507760144
0.17297280893057213   -0.008180004147290365   0.000956595507760144
0.17297280893057213   -0.008180004147290365   0.000956595507760144
0.07699794067822043   -0.013829229981729831   -0.008979574411769515
0.07699794067822043   -0.013829229981729831   -0.008979574411769515
0.07699794067822043   -0.013829229981729831   -0.008979574411769515
0.07699794067822043   -0.013829229981729831   -0.008979574411769515
0.1818516193443486   0.021840823097032964   0.015329820332319982
0.1818516193443486   0.021840823097032964   0.015329820332319982
0.1818516193443486   0.021840823097032964   0.015329820332319982
0.1818516193443486   0.021840823097032964   0.015329820332319982
-0.01621454258140054   -0.04771917512079255   -0.007551907847778118
-0.01621454258140054   -0.04771917512079255   -0.007551907847778118
-0.01621454258140054   -0.04771917512079255   -0.007551907847778118
-0.01621454258140054   -0.04771917512079255   -0.007551907847778118
-0.0011156358135053592   -0.011497093279532293   0.0025438956850009696
-0.0011156358135053592   -0.011497093279532293   0.0025438956850009696
-0.0011156358135053592   -0.011497093279532293   0.0025438956850009696
-0.0011156358135053592   -0.011497093279532293   0.0025438956850009696
0.1800434450072947   -0.0030123802563096075   -0.00122078345725991
0.1800434450072947   -0.0030123802563096075   -0.00122078345725991
0.1800434450072947   -0.0030123802563096075   -0.00122078345725991
0.1800434450072947   -0.0030123802563096075   -0.00122078345725991
0.08290870350240681   -0.009613278981346146   -0.00579266196344346
0.08290870350240681   -0.009613278981346146   -0.00579266196344346
0.08290870350240681   -0.009613278981346146   -0.00579266196344346
0.08290870350240681   -0.009613278981346146   -0.00579266196344346
0.18939951006256842   0.02883882422603252   0.013708337336766633
0.18939951006256842   0.02883882422603252   0.013708337336766633
0.18939951006256842   0.02883882422603252   0.013708337336766633
0.18939951006256842   0.02883882422603252   0.013708337336766633
-0.01007508903604683   -0.042951685929144875   -0.010798777778094756
-0.01007508903604683   -0.042951685929144875   -0.010798777778094756
-0.01007508903604683   -0.042951685929144875   -0.010798777778094756
-0.01007508903604683   -0.042951685929144875   -0.010798777778094756
0.004281923292193771   -0.0034186392554026576   0.000835122135578626
0.004281923292193771   -0.0034186392554026576   0.000835122135578626
0.004281923292193771   -0.0034186392554026576   0.000835122135578626
0.004281923292193771   -0.0034186392554026576   0.000835122135578626
0.18531301642821615   0.0036183658834552657   -0.003175366594306093
0.18531301642821615   0.0036183658834552657   -0.003175366594306093
0.18531301642821615   0.0036183658834552657   -0.003175366594306093
0.18531301642821615   0.0036183658834552657   -0.003175366594306093
0.09029850976851186   -0.0032832748093358823   -0.002334798576901365
0.09029850976851186   -0.0032832748093358823   -0.002334798576901365
0.09029850976851186   -0.0032832748093358823   -0.002334798576901365
0.09029850976851186   -0.0032832748093358823   -0.002334798576901365
-0.009110421616250664   0.004777382468744147   0.008638385789274996
-0.009110421616250664   0.004777382468744147   0.008638385789274996
-0.009110421616250664   0.004777382468744147   0.008638385789274996
-0.009110421616250664   0.004777382468744147   0.008638385789274996
-0.20234968684812418   -0.06350920896708454   -0.003949749696717113
-0.20234968684812418   -0.06350920896708454   -0.003949749696717113
-0.20234968684812418   -0.06350920896708454   -0.003949749696717113
-0.20234968684812418   -0.06350920896708454   -0.003949749696717113
-0.18735992267986776   -0.028076653287474974   -0.004292892809196024
-0.18735992267986776   -0.028076653287474974   -0.004292892809196024
-0.18735992267986776   -0.028076653287474974   -0.004292892809196024
-0.18735992267986776   -0.028076653287474974   -0.004292892809196024
-0.00844124717736877   -0.020384364541341883   0.0039797585929300695
-0.00844124717736877   -0.020384364541341883   0.0039797585929300695
-0.00844124717736877   -0.020384364541341883   0.0039797585929300695
-0.00844124717736877   -0.020384364541341883   0.0039797585929300695
-0.10224916371206831   -0.025356351464730264   -0.007980301012518589
-0.10224916371206831   -0.025356351464730264   -0.007980301012518589
-0.10224916371206831   -0.025356351464730264   -0.007980301012518589
-0.10224916371206831   -0.025356351464730264   -0.007980301012518589
-0.0014780423991108756   0.01136715409924262   0.0070442638436350406
-0.0014780423991108756   0.01136715409924262   0.0070442638436350406
-0.0014780423991108756   0.01136715409924262   0.0070442638436350406
-0.0014780423991108756   0.01136715409924262   0.0070442638436350406
-0.1938515588893485   -0.059356603359282306   -0.00547112378479233
-0.1938515588893485   -0.059356603359282306   -0.00547112378479233
-0.1938515588893485   -0.059356603359282306   -0.00547112378479233
-0.1938515588893485   -0.059356603359282306   -0.00547112378479233
-0.1788314753875217   -0.02048493012410897   -0.005803335545508017
-0.1788314753875217   -0.02048493012410897   -0.005803335545508017
-0.1788314753875217   -0.02048493012410897   -0.005803335545508017
-0.1788314753875217   -0.02048493012410897   -0.005803335545508017
-0.0020580942878965953   -0.015407255667974702   0.0017417657014862408
-0.0020580942878965953   -0.015407255667974702   0.0017417657014862408
-0.0020580942878965953   -0.015407255667974702   0.0017417657014862408
-0.0020580942878965953   -0.015407255667974702   0.0017417657014862408
-0.09396983440652436   -0.019877132690799618   -0.00437976797282477
-0.09396983440652436   -0.019877132690799618   -0.00437976797282477
-0.09396983440652436   -0.019877132690799618   -0.00437976797282477
-0.09396983440652436   -0.019877132690799618   -0.00437976797282477
0.005501253392311547   0.018640443689891442   0.005490804744660809
0.005501253392311547   0.018640443689891442   0.005490804744660809
0.005501253392311547   0.018640443689891442   0.005490804744660809
0.005501253392311547   0.018640443689891442   0.005490804744660809
-0.18636169206660244   -0.054503498480847706   -0.009435850584172938
-0.18636169206660244   -0.054503498480847706   -0.009435850584172938
-0.18636169206660244   -0.054503498480847706   -0.009435850584172938
-0.18636169206660244   -0.054503498480847706   -0.009435850584172938
-0.17279735967613508   -0.013226870647442959   -0.0074811369535452135
-0.17279735967613508   -0.013226870647442959   -0.0074811369535452135
-0.17279735967613508   -0.013226870647442959   -0.0074811369535452135
-0.17279735967613508   -0.013226870647442959   -0.0074811369535452135
0.0021141817391619844   -0.011376365373132457   -0.0020458595118505087
0.0021141817391619844   -0.011376365373132457   -0.0020458595118505087
0.0021141817391619844   -0.011376365373132457   -0.0020458595118505087
0.0021141817391619844   -0.011376365373132457   -0.0020458595118505087
-0.08790533633071752   -0.014738962439285925   -0.00208679850533132
-0.08790533633071752   -0.014738962439285925   -0.00208679850533132
-0.08790533633071752   -0.014738962439285925   -0.00208679850533132
-0.08790533633071752   -0.014738962439285925   -0.00208679850533132
-0.1898729887008269   -0.0049127438095196915   -0.00016272411779564948
-0.1898729887008269   -0.0049127438095196915   -0.00016272411779564948
-0.1898729887008269   -0.0049127438095196915   -0.00016272411779564948
-0.1898729887008269   -0.0049127438095196915   -0.00016272411779564948
-0.3828661642672086   -0.06827984555754715   -0.003089126043275325
-0.3828661642672086   -0.06827984555754715   -0.003089126043275325
-0.3828661642672086   -0.06827984555754715   -0.003089126043275325
-0.3828661642672086   -0.06827984555754715   -0.003089126043275325
-0.3669469990138905   -0.03602975414347142   -0.012568550440493471
-0.3669469990138905   -0.03602975414347142   -0.012568550440493471
-0.3669469990138905   -0.03602975414347142   -0.012568550440493471
-0.3669469990138905   -0.03602975414347142   -0.012568550440493471
-0.18347634987302505   -0.021232034628480834   0.008280352566023453
-0.18347634987302505   -0.021232034628480834   0.008280352566023453
-0.18347634987302505   -0.021232034628480834   0.008280352566023453
-0.18347634987302505   -0.021232034628480834   0.008280352566023453
-0.27837854674050966   -0.03065805237213414   -0.005601861108353602
-0.27837854674050966   -0.03065805237213414   -0.005601861108353602
-0.27837854674050966   -0.03065805237213414   -0.005601861108353602
-0.27837854674050966   -0.03065805237213414   -0.005601861108353602
-0.1804474312605305   0.0035187097460852718   -0.001325798746069971
-0.1804474312605305   0.0035187097460852718   -0.001325798746069971
-0.1804474312605305   0.0035187097460852718   -0.001325798746069971
-0.1804474312605305   0.0035187097460852718   -0.001325798746069971
-0.370071536251953   -0.06087611714360503   -0.0033448736306695578
-0.370071536251953   -0.06087611714360503   -0.0033448736306695578
-0.370071536251953   -0.06087611714360503   -0.0033448736306695578
-0.370071536251953   -0.06087611714360503   -0.0033448736306695578
-0.3547061454338623   -0.028143095820777037   -0.014523967677506563
-0.3547061454338623   -0.028143095820777037   -0.014523967677506563
-0.3547061454338623   -0.028143095820777037   -0.014523967677506563
-0.3547061454338623   -0.028143095820777037   -0.014523967677506563
-0.17523103354204592   -0.015341965332301276   0.007055908890064582
-0.17523103354204592   -0.015341965332301276   0.007055908890064582
-0.17523103354204592   -0.015341965332301276   0.007055908890064582
-0.17523103354204592   -0.015341965332301276   0.007055908890064582
-0.2657170502092422   -0.02308792726436138   -0.0017276503065672515
-0.2657170502092422   -0.02308792726436138   -0.0017276503065672515
-0.2657170502092422   -0.02308792726436138   -0.0017276503065672515
-0.2657170502092422   -0.02308792726436138   -0.0017276503065672515
-0.17190795919492347   0.010822665017655636   -0.002493349724282022
-0.17190795919492347   0.010822665017655636   -0.002493349724282022
-0.17190795919492347   0.010822665017655636   -0.002493349724282022
-0.17190795919492347   0.010822665017655636   -0.002493349724282022
-0.35857442614935864   -0.05485293253910758   -0.007155534536654228
-0.35857442614935864   -0.05485293253910758   -0.007155534536654228
-0.35857442614935864   -0.05485293253910758   -0.007155534536654228
-0.35857442614935864   -0.05485293253910758   -0.007155534536654228
-0.34486076735596577   -0.019865726800291292   -0.015007945068970564
-0.34486076735596577   -0.019865726800291292   -0.015007945068970564
-0.34486076735596577   -0.019865726800291292   -0.015007945068970564
-0.34486076735596577   -0.019865726800291292   -0.015007945068970564
-0.17051207853385275   -0.01159697809010118   0.0023153762005263057
-0.17051207853385275   -0.01159697809010118   0.0023153762005263057
-0.17051207853385275   -0.01159697809010118   0.0023153762005263057
-0.17051207853385275   -0.01159697809010118   0.0023153762005263057
-0.25895996884051586   -0.018489904191301088   -0.00043800088128278375
-0.25895996884051586   -0.018489904191301088   -0.00043800088128278375
-0.25895996884051586   -0.018489904191301088   -0.00043800088128278375
-0.25895996884051586   -0.018489904191301088   -0.00043800088128278375
-0.37276311862438727   -0.011939933210681847   -0.008913810176033949
-0.37276311862438727   -0.011939933210681847   -0.008913810176033949
-0.37276311862438727   -0.011939933210681847   -0.008913810176033949
-0.37276311862438727   -0.011939933210681847   -0.008913810176033949
-0.5622739916600334   -0.046947940346603656   0.020395729579618604
-0.5622739916600334   -0.046947940346603656   0.020395729579618604
-0.5622739916600334   -0.046947940346603656   0.020395729579618604
-0.5622739916600334   -0.046947940346603656   0.020395729579618604
-0.5439887230986539   -0.03781372005074586   -0.012133926559993992
-0.5439887230986539   -0.03781372005074586   -0.012133926559993992
-0.5439887230986539   -0.03781372005074586   -0.012133926559993992
-0.5439887230986539   -0.03781372005074586   -0.012133926559993992
-0.351353441097096   0.010416747748123192   0.018952737251881062
-0.351353441097096   0.010416747748123192   0.018952737251881062
-0.351353441097096   0.010416747748123192   0.018952737251881062
-0.351353441097096   0.010416747748123192   0.018952737251881062
-0.43702980862153834   -0.014500346659864646   0.0025684972974732642
-0.43702980862153834   -0.014500346659864646   0.0025684972974732642
-0.43702980862153834   -0.014500346659864646   0.0025684972974732642
-0.43702980862153834   -0.014500346659864646   0.0025684972974732642
-0.35929240609277363   -0.0004272827777057897   -0.009898057200673806
-0.35929240609277363   -0.0004272827777057897   -0.009898057200673806
-0.35929240609277363   -0.0004272827777057897   -0.009898057200673806
-0.35929240609277363   -0.0004272827777057897   -0.009898057200673806
-0.5347728404774106   -0.025692771899351402   0.02182453839482259
-0.5347728404774106   -0.025692771899351402   0.02182453839482259
-0.5347728404774106   -0.025692771899351402   0.02182453839482259
-0.5347728404774106   -0.025692771899351402   0.02182453839482259
-0.5243141046969958   -0.03194548847613589   -0.014450457036626448
-0.5243141046969958   -0.03194548847613589   -0.014450457036626448
-0.5243141046969958   -0.03194548847613589   -0.014450457036626448
-0.5243141046969958   -0.03194548847613589   -0.014450457036626448
-0.3392871072578511   0.01620074315408404   0.01822738422768863
-0.3392871072578511   0.01620074315408404   0.01822738422768863
-0.3392871072578511   0.01620074315408404   0.01822738422768863
-0.3392871072578511   0.01620074315408404   0.01822738422768863
-0.42583994404387715   -0.005842994492116907   0.008836392372572412
-0.42583994404387715   -0.005842994492116907   0.008836392372572412
-0.42583994404387715   -0.005842994492116907   0.008836392372572412
-0.42583994404387715   -0.005842994492116907   0.008836392372572412
-0.347485042584431   0.004165087919567198   -0.010726637170691142
-0.347485042584431   0.004165087919567198   -0.010726637170691142
-0.347485042584431   0.004165087919567198   -0.010726637170691142
-0.347485042584431   0.004165087919567198   -0.010726637170691142
-0.5158292900050714   -0.01962295387627068   0.01565108182313539
-0.5158292900050714   -0.01962295387627068   0.01565108182313539
-0.5158292900050714   -0.01962295387627068   0.01565108182313539
-0.5158292900050714   -0.01962295387627068   0.01565108182313539
-0.5039216480903707   -0.02654661323328039   -0.017492897101196624
-0.5039216480903707   -0.02654661323328039   -0.017492897101196624
-0.5039216480903707   -0.02654661323328039   -0.017492897101196624
-0.5039216480903707   -0.02654661323328039   -0.017492897101196624
-0.33050634551711056   0.02289147435616677   0.014006962968850255
-0.33050634551711056   0.02289147435616677   0.014006962968850255
-0.33050634551711056   0.02289147435616677   0.014006962968850255
-0.33050634551711056   0.02289147435616677   0.014006962968850255
-0.4036746643345284   0.0015046798198526251   0.015255366034457297
-0.4036746643345284   0.0015046798198526251   0.015255366034457297
-0.4036746643345284   0.0015046798198526251   0.015255366034457297
-0.4036746643345284   0.0015046798198526251   0.015255366034457297
0.4875193501148213   0.029575586488162317   0.017205470112091562
0.4875193501148213   0.029575586488162317   0.017205470112091562
0.4875193501148213   0.029575586488162317   0.017205470112091562
0.4875193501148213   0.029575586488162317   0.017205470112091562
0.23149338223975957   -0.04280526696621434   0.003373007007150871
0.23149338223975957   -0.04280526696621434   0.003373007007150871
0.23149338223975957   -0.04280526696621434   0.003373007007150871
0.23149338223975957   -0.04280526696621434   0.003373007007150871
0.24384514614287264   -0.01838805651716647   0.013089452476245027
0.24384514614287264   -0.01838805651716647   0.013089452476245027
0.24384514614287264   -0.01838805651716647   0.013089452476245027
0.24384514614287264   -0.01838805651716647   0.013089452476245027
0.4898310526694844   0.005092382172892845   -0.004230343119901954
0.4898310526694844   0.005092382172892845   -0.004230343119901954
0.4898310526694844   0.005092382172892845   -0.004230343119901954
0.4898310526694844   0.005092382172892845   -0.004230343119901954
0.3422265056033889   -0.008925155420678524   -0.02242493463287277
0.3422265056033889   -0.008925155420678524   -0.02242493463287277
0.3422265056033889   -0.008925155420678524   -0.02242493463287277
0.3422265056033889   -0.008925155420678524   -0.02242493463287277
0.4989202825370598   0.03272559828716286   0.013582590103704637
0.4989202825370598   0.03272559828716286   0.013582590103704637
0.4989202825370598   0.03272559828716286   0.013582590103704637
0.4989202825370598   0.03272559828716286   0.013582590103704637
0.2369050955523304   -0.043872093354403396   0.0038732363607707695
0.2369050955523304   -0.043872093354403396   0.0038732363607707695
0.2369050955523304   -0.043872093354403396   0.0038732363607707695
0.2369050955523304   -0.043872093354403396   0.0038732363607707695
0.24842052642638884   -0.01565907155678671   0.00992529456646369
0.24842052642638884   -0.01565907155678671   0.00992529456646369
0.24842052642638884   -0.01565907155678671   0.00992529456646369
0.24842052642638884   -0.01565907155678671   0.00992529456646369
0.4980852868855168   0.008151386595280405   -0.0016739950416248574
0.4980852868855168   0.008151386595280405   -0.0016739950416248574
0.4980852868855168   0.008151386595280405   -0.0016739950416248574
0.4980852868855168   0.008151386595280405   -0.0016739950416248574
0.35601221695021246   -0.006989971833738548   -0.015412232947460514
0.35601221695021246   -0.006989971833738548   -0.015412232947460514
0.35601221695021246   -0.006989971833738548   -0.015412232947460514
0.35601221695021246   -0.006989971833738548   -0.015412232947460514
0.5058072710675175   0.035708900792398385   0.009378411671260509
0.5058072710675175   0.035708900792398385   0.009378411671260509
0.5058072710675175   0.035708900792398385   0.009378411671260509
0.5058072710675175   0.035708900792398385   0.009378411671260509
0.24219263520459902   -0.04172249279369386   0.004849259694421643
0.24219263520459902   -0.04172249279369386   0.004849259694421643
0.24219263520459902   -0.04172249279369386   0.004849259694421643
0.24219263520459902   -0.04172249279369386   0.004849259694421643
0.2552023900782031   -0.0050176036422961215   0.009075314230541018
0.2552023900782031   -0.0050176036422961215   0.009075314230541018
0.2552023900782031   -0.0050176036422961215   0.009075314230541018
0.2552023900782031   -0.0050176036422961215   0.009075314230541018
0.5067441391220315   0.01533328095435231   -0.0006897427880216654
0.5067441391220315   0.01533328095435231   -0.0006897427880216654
0.5067441391220315   0.01533328095435231   -0.0006897427880216654
0.5067441391220315   0.01533328095435231   -0.0006897427880216654
0.35742599409438724   -0.0030281936108802615   -0.011647754545674415
0.35742599409438724   -0.0030281936108802615   -0.011647754545674415
0.35742599409438724   -0.0030281936108802615   -0.011647754545674415
0.35742599409438724   -0.0030281936108802615   -0.011647754545674415
0.24451324158193286   0.007305294903593891   0.01836174184820914
0.24451324158193286   0.007305294903593891   0.01836174184820914
0.24451324158193286   0.007305294903593891   0.01836174184820914
0.24451324158193286   0.007305294903593891   0.01836174184820914
0.010638946690702773   -0.083953652318973   0.008172452273762076
0.010638946690702773   -0.083953652318973   0.008172452273762076
0.010638946690702773   -0.083953652318973   0.008172452273762076
0.010638946690702773   -0.083953652318973   0.008172452273762076
0.026553811425479912   -0.036087493859900135   0.007838144449788155
0.026553811425479912   -0.036087493859900135   0.007838144449788155
0.026553811425479912   -0.036087493859900135   0.007838144449788155
0.026553811425479912   -0.036087493859900135   0.007838144449788155
0.2383651914644458   -0.03833899973199134   0.0056406222989325225
0.2383651914644458   -0.03833899973199134   0.0056406222989325225
0.2383651914644458   -0.03833899973199134   0.0056406222989325225
0.2383651914644458   -0.03833899973199134   0.0056406222989325225
0.12584820122272855   -0.03694608448659232   -0.014010417555493648
0.12584820122272855   -0.03694608448659232   -0.014010417555493648
0.12584820122272855   -0.03694608448659232   -0.014010417555493648
0.12584820122272855   -0.03694608448659232   -0.014010417555493648
0.2500073851005046   0.010115091778829167   0.015397498968410013
0.2500073851005046   0.010115091778829167   0.015397498968410013
0.2500073851005046   0.010115091778829167   0.015397498968410013
0.2500073851005046   0.010115091778829167   0.015397498968410013
0.017989987016660408   -0.08146321614348068   0.010394744689271193
0.017989987016660408   -0.08146321614348068   0.010394744689271193
0.017989987016660408   -0.08146321614348068   0.010394744689271193
0.017989987016660408   -0.08146321614348068   0.010394744689271193
0.03288777561741542   -0.031080082582918427   0.005596374299559901
0.03288777561741542   -0.031080082582918427   0.005596374299559901
0.03288777561741542   -0.031080082582918427   0.005596374299559901
0.03288777561741542   -0.031080082582918427   0.005596374299559901
0.24381521196451097   -0.03565835634483332   0.006898007045120894
0.24381521196451097   -0.03565835634483332   0.006898007045120894
0.24381521196451097   -0.03565835634483332   0.006898007045120894
0.24381521196451097   -0.03565835634483332   0.006898007045120894
0.13117045608846178   -0.03498381174631313   -0.007012447425258923
0.13117045608846178   -0.03498381174631313   -0.007012447425258923
0.13117045608846178   -0.03498381174631313   -0.007012447425258923
0.13117045608846178   -0.03498381174631313   -0.007012447425258923
0.25514738102079365   0.014860552361818616   0.013039943619882258
0.25514738102079365   0.014860552361818616   0.013039943619882258
0.25514738102079365   0.014860552361818616   0.013039943619882258
0.25514738102079365   0.014860552361818616   0.013039943619882258
0.024511458391885187   -0.0786431394588205   0.011277845047810788
0.024511458391885187   -0.0786431394588205   0.011277845047810788
0.024511458391885187   -0.0786431394588205   0.011277845047810788
0.024511458391885187   -0.0786431394588205   0.011277845047810788
0.042653036109266504   -0.02355324997303549   0.0036265344421897872
0.042653036109266504   -0.02355324997303549   0.0036265344421897872
0.042653036109266504   -0.02355324997303549   0.0036265344421897872
0.042653036109266504   -0.02355324997303549   0.0036265344421897872
0.2497453358057227   -0.03160988262295095   0.008382321848794769
0.2497453358057227   -0.03160988262295095   0.008382321848794769
0.2497453358057227   -0.03160988262295095   0.008382321848794769
0.2497453358057227   -0.03160988262295095   0.008382321848794769
0.14074548321415925   -0.030307218093960538   0.0011584100257070878
0.14074548321415925   -0.030307218093960538   0.0011584100257070878
0.14074548321415925   -0.030307218093960538   0.0011584100257070878
0.14074548321415925   -0.030307218093960538   0.0011584100257070878
0.025187862799314634   -0.014849227498905618   0.011812607996754003
0.025187862799314634   -0.014849227498905618   0.011812607996754003
0.025187862799314634   -0.014849227498905618   0.011812607996754003
0.025187862799314634   -0.014849227498905618   0.011812607996754003
-0.2116837219147104   -0.14322688640659983   0.012169796206155038
-0.2116837219147104   -0.14322688640659983   0.012169796206155038
-0.2116837219147104   -0.14322688640659983   0.012169796206155038
-0.2116837219147104   -0.14322688640659983   0.012169796206155038
-0.18669887234314306   -0.05672436488910786   0.0005373820198744453
-0.18669887234314306   -0.05672436488910786   0.0005373820198744453
-0.18669887234314306   -0.05672436488910786   0.0005373820198744453
-0.18669887234314306   -0.05672436488910786   0.0005373820198744453
0.012842631181723227   -0.10184097522054683   0.0050357245916514
0.012842631181723227   -0.10184097522054683   0.0050357245916514
0.012842631181723227   -0.10184097522054683   0.0050357245916514
0.012842631181723227   -0.10184097522054683   0.0050357245916514
-0.09270552821663511   -0.07970540276949287   -0.01679290231433702
-0.09270552821663511   -0.07970540276949287   -0.01679290231433702
-0.09270552821663511   -0.07970540276949287   -0.01679290231433702
-0.09270552821663511   -0.07970540276949287   -0.01679290231433702
0.031821526138393216   -0.01125826397157049   0.009347488126025046
0.031821526138393216   -0.01125826397157049   0.009347488126025046
0.031821526138393216   -0.01125826397157049   0.009347488126025046
0.031821526138393216   -0.01125826397157049   0.009347488126025046
-0.20116878333758137   -0.14279809217585238   0.014261554334428286
-0.20116878333758137   -0.14279809217585238   0.014261554334428286
-0.20116878333758137   -0.14279809217585238   0.014261554334428286
-0.20116878333758137   -0.14279809217585238   0.014261554334428286
-0.17705083151579254   -0.05083550810572508   -0.0004067592593696963
-0.17705083151579254   -0.05083550810572508   -0.0004067592593696963
-0.17705083151579254   -0.05083550810572508   -0.0004067592593696963
-0.17705083151579254   -0.05083550810572508   -0.0004067592593696963
0.019537834767861032   -0.09935864166611497   0.007125229134984461
0.019537834767861032   -0.09935864166611497   0.007125229134984461
0.019537834767861032   -0.09935864166611497   0.007125229134984461
0.019537834767861032   -0.09935864166611497   0.007125229134984461
-0.08288674239711233   -0.07675027475141653   -0.006121948414799901
-0.08288674239711233   -0.07675027475141653   -0.006121948414799901
-0.08288674239711233   -0.07675027475141653   -0.006121948414799901
-0.08288674239711233   -0.07675027475141653   -0.006121948414799901
0.03788907121127763   -0.006551351476038837   0.006074121161991345
0.03788907121127763   -0.006551351476038837   0.006074121161991345
0.03788907121127763   -0.006551351476038837   0.006074121161991345
0.03788907121127763   -0.006551351476038837   0.006074121161991345
-0.1913814574389365   -0.1396221877755255   0.016726790794713866
-0.1913814574389365   -0.1396221877755255   0.016726790794713866
-0.1913814574389365   -0.1396221877755255   0.016726790794713866
-0.1913814574389365   -0.1396221877755255   0.016726790794713866
-0.16111676700323457   -0.04407355874407368   -0.0023008776241447565
-0.16111676700323457   -0.04407355874407368   -0.0023008776241447565
-0.16111676700323457   -0.04407355874407368   -0.0023008776241447565
-0.16111676700323457   -0.04407355874407368   -0.0023008776241447565
0.029974858305240555   -0.09284729789435131   0.009529693343375889
0.029974858305240555   -0.09284729789435131   0.009529693343375889
0.029974858305240555   -0.09284729789435131   0.009529693343375889
0.029974858305240555   -0.09284729789435131   0.009529693343375889
-0.07019764726838573   -0.07048743569626427   0.004905537358466067
-0.07019764726838573   -0.07048743569626427   0.004905537358466067
-0.07019764726838573   -0.07048743569626427   0.004905537358466067
-0.07019764726838573   -0.07048743569626427   0.004905537358466067
-0.18993221486878065   -0.027945951219471667   0.0056463962486741626
-0.18993221486878065   -0.027945951219471667   0.0056463962486741626
-0.18993221486878065   -0.027945951219471667   0.0056463962486741626
-0.18993221486878065   -0.027945951219471667   0.0056463962486741626
-0.46636698592170817   -0.22155112456793685   -0.009408020662539061
-0.46636698592170817   -0.22155112456793685   -0.009408020662539061
-0.46636698592170817   -0.22155112456793685   -0.009408020662539061
-0.46636698592170817   -0.22155112456793685   -0.009408020662539061
-0.4253231409231455   -0.07379413937947944   -0.012683380138849164
-0.4253231409231455   -0.07379413937947944   -0.012683380138849164
-0.4253231409231455   -0.07379413937947944   -0.012683380138849164
-0.4253231409231455   -0.07379413937947944   -0.012683380138849164
-0.21133925999746125   -0.18356082250979072   0.004171901368966308
-0.21133925999746125   -0.18356082250979072   0.004171901368966308
-0.21133925999746125   -0.18356082250979072   0.004171901368966308
-0.21133925999746125   -0.18356082250979072   0.004171901368966308
-0.3229143605606508   -0.13113799303625034   -0.01774709582863368
-0.3229143605606508   -0.13113799303625034   -0.01774709582863368
-0.3229143605606508   -0.13113799303625034   -0.01774709582863368
-0.3229143605606508   -0.13113799303625034   -0.01774709582863368
-0.17857450821648116   -0.020850641047967945   0.00528547881204401
-0.17857450821648116   -0.020850641047967945   0.00528547881204401
-0.17857450821648116   -0.020850641047967945   0.00528547881204401
-0.17857450821648116   -0.020850641047967945   0.00528547881204401
-0.4568224622280136   -0.23523889036518963   -0.008735235677475917
-0.4568224622280136   -0.23523889036518963   -0.008735235677475917
-0.4568224622280136   -0.23523889036518963   -0.008735235677475917
-0.4568224622280136   -0.23523889036518963   -0.008735235677475917
-0.41235567543937657   -0.06677434489340309   -0.012981347018113891
-0.41235567543937657   -0.06677434489340309   -0.012981347018113891
-0.41235567543937657   -0.06677434489340309   -0.012981347018113891
-0.41235567543937657   -0.06677434489340309   -0.012981347018113891
-0.20189996786158407   -0.18180240413237408   0.006314455038323202
-0.20189996786158407   -0.18180240413237408   0.006314455038323202
-0.20189996786158407   -0.18180240413237408   0.006314455038323202
-0.20189996786158407   -0.18180240413237408   0.006314455038323202
-0.30911432799369454   -0.1272150995441806   -0.011924735759825462
-0.30911432799369454   -0.1272150995441806   -0.011924735759825462
-0.30911432799369454   -0.1272150995441806   -0.011924735759825462
-0.30911432799369454   -0.1272150995441806   -0.011924735759825462
-0.16949424029102303   -0.015248042256965785   0.0017887310157191343
-0.16949424029102303   -0.015248042256965785   0.0017887310157191343
-0.16949424029102303   -0.015248042256965785   0.0017887310157191343
-0.16949424029102303   -0.015248042256965785   0.0017887310157191343
-0.4445522086992876   -0.233119512458161   -0.007618845752907812
-0.4445522086992876   -0.233119512458161   -0.007618845752907812
-0.4445522086992876   -0.233119512458161   -0.007618845752907812
-0.4445522086992876   -0.233119512458161   -0.007618845752907812
-0.3920129978192025   -0.0593070517289966   -0.014734072708600991
-0.3920129978192025   -0.0593070517289966   -0.014734072708600991
-0.3920129978192025   -0.0593070517289966   -0.014734072708600991
-0.3920129978192025   -0.0593070517289966   -0.014734072708600991
-0.18145972566763258   -0.16227067032857223   0.014181440638365114
-0.18145972566763258   -0.16227067032857223   0.014181440638365114
-0.18145972566763258   -0.16227067032857223   0.014181440638365114
-0.18145972566763258   -0.16227067032857223   0.014181440638365114
-0.2938851445582372   -0.11462317003806681   -0.005983963412340389
-0.2938851445582372   -0.11462317003806681   -0.005983963412340389
-0.2938851445582372   -0.11462317003806681   -0.005983963412340389
-0.2938851445582372   -0.11462317003806681   -0.005983963412340389
-0.4255924554198038   -0.024256731298890985   -0.0028297614220631276
-0.4255924554198038   -0.024256731298890985   -0.0028297614220631276
-0.4255924554198038   -0.024256731298890985   -0.0028297614220631276
-0.4255924554198038   -0.024256731298890985   -0.0028297614220631276
-0.7460088765754427   -0.14766421328455942   0.0076878101526455245
-0.7460088765754427   -0.14766421328455942   0.0076878101526455245
-0.7460088765754427   -0.14766421328455942   0.0076878101526455245
-0.7460088765754427   -0.14766421328455942   0.0076878101526455245
-0.7173682027629477   -0.06960776765599161   -0.015155078102841425
-0.7173682027629477   -0.06960776765599161   -0.015155078102841425
-0.7173682027629477   -0.06960776765599161   -0.015155078102841425
-0.7173682027629477   -0.06960776765599161   -0.015155078102841425
-0.41775970740070256   -0.07773667655113611   0.029076324645022023
-0.41775970740070256   -0.07773667655113611   0.029076324645022023
-0.41775970740070256   -0.07773667655113611   0.029076324645022023
-0.41775970740070256   -0.07773667655113611   0.029076324645022023
-0.553437327312396   -0.08523230758238115   0.007262621973347061
-0.553437327312396   -0.08523230758238115   0.007262621973347061
-0.553437327312396   -0.08523230758238115   0.007262621973347061
-0.553437327312396   -0.08523230758238115   0.007262621973347061
-0.40899138958675335   -0.004887618306214814   6.885546984840979e-05
-0.40899138958675335   -0.004887618306214814   6.885546984840979e-05
-0.40899138958675335   -0.004887618306214814   6.885546984840979e-05
-0.40899138958675335   -0.004887618306214814   6.885546984840979e-05
-0.7287172870228424   -0.14503759234685937   0.003529325288545687
-0.7287172870228424   -0.14503759234685937   0.003529325288545687
-0.7287172870228424   -0.14503759234685937   0.003529325288545687
-0.7287172870228424   -0.14503759234685937   0.003529325288545687
-0.7020366842614395   -0.06384644196728531   -0.019258964375569773
-0.7020366842614395   -0.06384644196728531   -0.019258964375569773
-0.7020366842614395   -0.06384644196728531   -0.019258964375569773
-0.7020366842614395   -0.06384644196728531   -0.019258964375569773
-0.40442808705198063   -0.07409097283775247   0.0339732228632183
-0.40442808705198063   -0.07409097283775247   0.0339732228632183
-0.40442808705198063   -0.07409097283775247   0.0339732228632183
-0.40442808705198063   -0.07409097283775247   0.0339732228632183
-0.5457187914098445   -0.07035830521910057   0.007135750023809579
-0.5457187914098445   -0.07035830521910057   0.007135750023809579
-0.5457187914098445   -0.07035830521910057   0.007135750023809579
-0.5457187914098445   -0.07035830521910057   0.007135750023809579
-0.3971320897964277   0.00021559755123091995   -0.003853361248000342
-0.3971320897964277   0.00021559755123091995   -0.003853361248000342
-0.3971320897964277   0.00021559755123091995   -0.003853361248000342
-0.3971320897964277   0.00021559755123091995   -0.003853361248000342
-0.7101496679727893   -0.13896999881206662   0.015299673912456263
-0.7101496679727893   -0.13896999881206662   0.015299673912456263
-0.7101496679727893   -0.13896999881206662   0.015299673912456263
-0.7101496679727893   -0.13896999881206662   0.015299673912456263
-0.6701543143917433   -0.05218476923783208   -0.02172628612651136
-0.6701543143917433   -0.05218476923783208   -0.02172628612651136
-0.6701543143917433   -0.05218476923783208   -0.02172628612651136
-0.6701543143917433   -0.05218476923783208   -0.02172628612651136
-0.3835843314578201   -0.0692470206814171   0.03734922805073464
-0.3835843314578201   -0.0692470206814171   0.03734922805073464
-0.3835843314578201   -0.0692470206814171   0.03734922805073464
-0.3835843314578201   -0.0692470206814171   0.03734922805073464
-0.514183060794304   -0.053905573763659544   0.015262866817569212
-0.514183060794304   -0.053905573763659544   0.015262866817569212
-0.514183060794304   -0.053905573763659544   0.015262866817569212
-0.514183060794304   -0.053905573763659544   0.015262866817569212
0.5340893233767517   0.018499882059529696   0.007302810998878886
0.5340893233767517   0.018499882059529696   0.007302810998878886
0.5340893233767517   0.018499882059529696   0.007302810998878886
0.5340893233767517   0.018499882059529696   0.007302810998878886
0.2711961243462884   -0.01490802741178121   0.004967001937750425
0.2711961243462884   -0.01490802741178121   0.004967001937750425
0.2711961243462884   -0.01490802741178121   0.004967001937750425
0.2711961243462884   -0.01490802741178121   0.004967001937750425
0.26107439181775166   -0.03775294678153632   0.010299672959684904
0.26107439181775166   -0.03775294678153632   0.010299672959684904
0.26107439181775166   -0.03775294678153632   0.010299672959684904
0.26107439181775166   -0.03775294678153632   0.010299672959684904
0.5302732619536192   0.02980618444107465   0.003446304248827227
0.5302732619536192   0.02980618444107465   0.003446304248827227
0.5302732619536192   0.02980618444107465   0.003446304248827227
0.5302732619536192   0.02980618444107465   0.003446304248827227
0.3778944242420044   -0.005105692562750799   -0.014043184939556929
0.3778944242420044   -0.005105692562750799   -0.014043184939556929
0.3778944242420044   -0.005105692562750799   -0.014043184939556929
0.3778944242420044   -0.005105692562750799   -0.014043184939556929
0.5276505464965965   0.014608443202711097   0.005530468202077206
0.5276505464965965   0.014608443202711097   0.005530468202077206
0.5276505464965965   0.014608443202711097   0.005530468202077206
0.5276505464965965   0.014608443202711097   0.005530468202077206
0.2628956202407971   -0.023356692577150055   0.005009560870525745
0.2628956202407971   -0.023356692577150055   0.005009560870525745
0.2628956202407971   -0.023356692577150055   0.005009560870525745
0.2628956202407971   -0.023356692577150055   0.005009560870525745
0.25454141300284727   -0.03852875569643496   0.008469167382467831
0.25454141300284727   -0.03852875569643496   0.008469167382467831
0.25454141300284727   -0.03852875569643496   0.008469167382467831
0.25454141300284727   -0.03852875569643496   0.008469167382467831
0.5243662903923461   0.028628487760777824   0.006228448339453664
0.5243662903923461   0.028628487760777824   0.006228448339453664
0.5243662903923461   0.028628487760777824   0.006228448339453664
0.5243662903923461   0.028628487760777824   0.006228448339453664
0.377123777692146   -0.007024247551655233   -0.016023701908468635
0.377123777692146   -0.007024247551655233   -0.016023701908468635
0.377123777692146   -0.007024247551655233   -0.016023701908468635
0.377123777692146   -0.007024247551655233   -0.016023701908468635
0.5203731983645571   0.013268385909725025   0.0016230900515579842
0.5203731983645571   0.013268385909725025   0.0016230900515579842
0.5203731983645571   0.013268385909725025   0.0016230900515579842
0.5203731983645571   0.013268385909725025   0.0016230900515579842
0.25706147254533623   -0.024641686330682804   0.007182395729160296
0.25706147254533623   -0.024641686330682804   0.007182395729160296
0.25706147254533623   -0.024641686330682804   0.007182395729160296
0.25706147254533623   -0.024641686330682804   0.007182395729160296
0.24769494837741562   -0.034874754645231085   0.007319269958677325
0.24769494837741562   -0.034874754645231085   0.007319269958677325
0.24769494837741562   -0.034874754645231085   0.007319269958677325
0.24769494837741562   -0.034874754645231085   0.007319269958677325
0.5153163707164329   0.02927068553906423   0.00916838039756546
0.5153163707164329   0.02927068553906423   0.00916838039756546
0.5153163707164329   0.02927068553906423   0.00916838039756546
0.5153163707164329   0.02927068553906423   0.00916838039756546
0.3632942718253708   -0.006953279492601938   -0.021426867943554473
0.3632942718253708   -0.006953279492601938   -0.021426867943554473
0.3632942718253708   -0.006953279492601938   -0.021426867943554473
0.3632942718253708   -0.006953279492601938   -0.021426867943554473
0.2696268804458206   -0.03112333751497985   0.013336092538609987
0.2696268804458206   -0.03112333751497985   0.013336092538609987
0.2696268804458206   -0.03112333751497985   0.013336092538609987
0.2696268804458206   -0.03112333751497985   0.013336092538609987
0.04875129478631024   -0.032037547528280086   0.0024091133471439395
0.04875129478631024   -0.032037547528280086   0.0024091133471439395
0.04875129478631024   -0.032037547528280086   0.0024091133471439395
0.04875129478631024   -0.032037547528280086   0.0024091133471439395
0.03125612870546411   -0.0781995967869504   0.013446699783118868
0.03125612870546411   -0.0781995967869504   0.013446699783118868
0.03125612870546411   -0.0781995967869504   0.013446699783118868
0.03125612870546411   -0.0781995967869504   0.013446699783118868
0.2708926090635878   0.011458256703135522   0.010179555704193642
0.2708926090635878   0.011458256703135522   0.010179555704193642
0.2708926090635878   0.011458256703135522   0.010179555704193642
0.2708926090635878   0.011458256703135522   0.010179555704193642
0.1527302350325582   -0.0326137499515957   -0.0006600427826498369
0.1527302350325582   -0.0326137499515957   -0.0006600427826498369
0.1527302350325582   -0.0326137499515957   -0.0006600427826498369
0.1527302350325582   -0.0326137499515957   -0.0006600427826498369
0.2623296277125015   -0.03242471317648912   0.011247618828387845
0.2623296277125015   -0.03242471317648912   0.011247618828387845
0.2623296277125015   -0.03242471317648912   0.011247618828387845
0.2623296277125015   -0.03242471317648912   0.011247618828387845
0.03764794372715757   -0.03648779323671842   0.0036939713413541696
0.03764794372715757   -0.03648779323671842   0.0036939713413541696
0.03764794372715757   -0.03648779323671842   0.0036939713413541696
0.03764794372715757   -0.03648779323671842   0.0036939713413541696
0.023359593273232036   -0.07872585381068432   0.01201613840714479
0.023359593273232036   -0.07872585381068432   0.01201613840714479
0.023359593273232036   -0.07872585381068432   0.01201613840714479
0.023359593273232036   -0.07872585381068432   0.01201613840714479
0.26487507615012384   0.009609947378828844   0.011998780043586874
0.26487507615012384   0.009609947378828844   0.011998780043586874
0.26487507615012384   0.009609947378828844   0.011998780043586874
0.26487507615012384   0.009609947378828844   0.011998780043586874
0.14194893792037416   -0.03470103992883326   -0.007141859593440752
0.14194893792037416   -0.03470103992883326   -0.007141859593440752
0.14194893792037416   -0.03470103992883326   -0.007141859593440752
0.14194893792037416   -0.03470103992883326   -0.007141859593440752
0.2558798760355674   -0.03274873297476927   0.009381459824400043
0.2558798760355674   -0.03274873297476927   0.009381459824400043
0.2558798760355674   -0.03274873297476927   0.009381459824400043
0.2558798760355674   -0.03274873297476927   0.009381459824400043
0.029988036902747397   -0.038733929942130305   0.0051664326861675935
0.029988036902747397   -0.038733929942130305   0.0051664326861675935
0.029988036902747397   -0.038733929942130305   0.0051664326861675935
0.029988036902747397   -0.038733929942130305   0.0051664326861675935
0.014539883876689495   -0.07846354767834307   0.009319448500867328
0.014539883876689495   -0.07846354767834307   0.009319448500867328
0.014539883876689495   -0.07846354767834307   0.009319448500867328
0.014539883876689495   -0.07846354767834307   0.009319448500867328
0.25804513409090796   0.009906648813748364   0.014288795067160876
0.25804513409090796   0.009906648813748364   0.014288795067160876
0.25804513409090796   0.009906648813748364   0.014288795067160876
0.25804513409090796   0.009906648813748364   0.014288795067160876
0.135477615841812   -0.03424895007624276   -0.012605867711708775
0.135477615841812   -0.03424895007624276   -0.012605867711708775
0.135477615841812   -0.03424895007624276   -0.012605867711708775
0.135477615841812   -0.03424895007624276   -0.012605867711708775
0.03839422739574368   -0.0932733416771115   0.011859570543142562
0.03839422739574368   -0.0932733416771115   0.011859570543142562
0.03839422739574368   -0.0932733416771115   0.011859570543142562
0.03839422739574368   -0.0932733416771115   0.011859570543142562
-0.1653565443872797   -0.049188357847071124   -0.00020216730382285279
-0.1653565443872797   -0.049188357847071124   -0.00020216730382285279
-0.1653565443872797   -0.049188357847071124   -0.00020216730382285279
-0.1653565443872797   -0.049188357847071124   -0.00020216730382285279
-0.19700364778819707   -0.1417366023649017   0.01540386783979733
-0.19700364778819707   -0.1417366023649017   0.01540386783979733
-0.19700364778819707   -0.1417366023649017   0.01540386783979733
-0.19700364778819707   -0.1417366023649017   0.01540386783979733
0.0441586417107073   -0.0067820201794125   0.006541688201796868
0.0441586417107073   -0.0067820201794125   0.006541688201796868
0.0441586417107073   -0.0067820201794125   0.006541688201796868
0.0441586417107073   -0.0067820201794125   0.006541688201796868
-0.0690872564949475   -0.07170756545205757   0.002779360710464463
-0.0690872564949475   -0.07170756545205757   0.002779360710464463
-0.0690872564949475   -0.07170756545205757   0.002779360710464463
-0.0690872564949475   -0.07170756545205757   0.002779360710464463
0.026249882378982   -0.09843624635556147   0.008652117719319355
0.026249882378982   -0.09843624635556147   0.008652117719319355
0.026249882378982   -0.09843624635556147   0.008652117719319355
0.026249882378982   -0.09843624635556147   0.008652117719319355
-0.18216754851320327   -0.053155036245481964   0.0010027980953447695
-0.18216754851320327   -0.053155036245481964   0.0010027980953447695
-0.18216754851320327   -0.053155036245481964   0.0010027980953447695
-0.18216754851320327   -0.053155036245481964   0.0010027980953447695
-0.20794201121106104   -0.14373578255199232   0.012719370684504367
-0.20794201121106104   -0.14373578255199232   0.012719370684504367
-0.20794201121106104   -0.14373578255199232   0.012719370684504367
-0.20794201121106104   -0.14373578255199232   0.012719370684504367
0.03674562843597016   -0.008825505433591223   0.009045965843742315
0.03674562843597016   -0.008825505433591223   0.009045965843742315
0.03674562843597016   -0.008825505433591223   0.009045965843742315
0.03674562843597016   -0.008825505433591223   0.009045965843742315
-0.0827877447938848   -0.07590797299895   -0.006331606560820251
-0.0827877447938848   -0.07590797299895   -0.006331606560820251
-0.0827877447938848   -0.07590797299895   -0.006331606560820251
-0.0827877447938848   -0.07590797299895   -0.006331606560820251
0.01783863117507604   -0.09998869449211062   0.005674168597791126
0.01783863117507604   -0.09998869449211062   0.005674168597791126
0.01783863117507604   -0.09998869449211062   0.005674168597791126
0.01783863117507604   -0.09998869449211062   0.005674168597791126
-0.19274114578192014   -0.05627872532522901   0.001266640603443646
-0.19274114578192014   -0.05627872532522901   0.001266640603443646
-0.19274114578192014   -0.05627872532522901   0.001266640603443646
-0.19274114578192014   -0.05627872532522901   0.001266640603443646
-0.2198676322865   -0.1426363916722014   0.010426715045865988
-0.2198676322865   -0.1426363916722014   0.010426715045865988
-0.2198676322865   -0.1426363916722014   0.010426715045865988
-0.2198676322865   -0.1426363916722014   0.010426715045865988
0.028514393777925934   -0.009908366434102419   0.010636816762808879
0.028514393777925934   -0.009908366434102419   0.010636816762808879
0.028514393777925934   -0.009908366434102419   0.010636816762808879
0.028514393777925934   -0.009908366434102419   0.010636816762808879
-0.09395750179235235   -0.07743813820822287   -0.01554262829952307
-0.09395750179235235   -0.07743813820822287   -0.01554262829952307
-0.09395750179235235   -0.07743813820822287   -0.01554262829952307
-0.09395750179235235   -0.07743813820822287   -0.01554262829952307
-0.18476610078029876   -0.16053083735862061   0.01409253024263283
-0.18476610078029876   -0.16053083735862061   0.01409253024263283
-0.18476610078029876   -0.16053083735862061   0.01409253024263283
-0.18476610078029876   -0.16053083735862061   0.01409253024263283
-0.40692948968874865   -0.061076834574620834   -0.00915463530457434
-0.40692948968874865   -0.061076834574620834   -0.00915463530457434
-0.40692948968874865   -0.061076834574620834   -0.00915463530457434
-0.40692948968874865   -0.061076834574620834   -0.00915463530457434
-0.4623868162320225   -0.23694277749239492   -0.011690317309493548
-0.4623868162320225   -0.23694277749239492   -0.011690317309493548
-0.4623868162320225   -0.23694277749239492   -0.011690317309493548
-0.4623868162320225   -0.23694277749239492   -0.011690317309493548
-0.17305074681979554   -0.012220744551822368   0.00565251486872373
-0.17305074681979554   -0.012220744551822368   0.00565251486872373
-0.17305074681979554   -0.012220744551822368   0.00565251486872373
-0.17305074681979554   -0.012220744551822368   0.00565251486872373
-0.30374887424976776   -0.11281522531633173   -0.00898742203454364
-0.30374887424976776   -0.11281522531633173   -0.00898742203454364
-0.30374887424976776   -0.11281522531633173   -0.00898742203454364
-0.30374887424976776   -0.11281522531633173   -0.00898742203454364
-0.20722800691102264   -0.18255321516178558   0.005098685022553395
-0.20722800691102264   -0.18255321516178558   0.005098685022553395
-0.20722800691102264   -0.18255321516178558   0.005098685022553395
-0.20722800691102264   -0.18255321516178558   0.005098685022553395
-0.4274690201873864   -0.06586977092902303   -0.008174343649688734
-0.4274690201873864   -0.06586977092902303   -0.008174343649688734
-0.4274690201873864   -0.06586977092902303   -0.008174343649688734
-0.4274690201873864   -0.06586977092902303   -0.008174343649688734
-0.4754655035778812   -0.24048084943560466   -0.013512235761532453
-0.4754655035778812   -0.24048084943560466   -0.013512235761532453
-0.4754655035778812   -0.24048084943560466   -0.013512235761532453
-0.4754655035778812   -0.24048084943560466   -0.013512235761532453
-0.18321075137771548   -0.01565439789358398   0.008294285192821924
-0.18321075137771548   -0.01565439789358398   0.008294285192821924
-0.18321075137771548   -0.01565439789358398   0.008294285192821924
-0.18321075137771548   -0.01565439789358398   0.008294285192821924
-0.31980880166654835   -0.12531156252611575   -0.013365710243721084
-0.31980880166654835   -0.12531156252611575   -0.013365710243721084
-0.31980880166654835   -0.12531156252611575   -0.013365710243721084
-0.31980880166654835   -0.12531156252611575   -0.013365710243721084
-0.21853130474454663   -0.1859867820196791   0.0020239024847607326
-0.21853130474454663   -0.1859867820196791   0.0020239024847607326
-0.21853130474454663   -0.1859867820196791   0.0020239024847607326
-0.21853130474454663   -0.1859867820196791   0.0020239024847607326
-0.4404231467948985   -0.07042666189335864   -0.008354639388868289
-0.4404231467948985   -0.07042666189335864   -0.008354639388868289
-0.4404231467948985   -0.07042666189335864   -0.008354639388868289
-0.4404231467948985   -0.07042666189335864   -0.008354639388868289
-0.48653708531638273   -0.2291675146905565   -0.01522542152280594
-0.48653708531638273   -0.2291675146905565   -0.01522542152280594
-0.48653708531638273   -0.2291675146905565   -0.01522542152280594
-0.48653708531638273   -0.2291675146905565   -0.01522542152280594
-0.19598005448667333   -0.020538659628952346   0.0077668720017483395
-0.19598005448667333   -0.020538659628952346   0.0077668720017483395
-0.19598005448667333   -0.020538659628952346   0.0077668720017483395
-0.19598005448667333   -0.020538659628952346   0.0077668720017483395
-0.33476712257245517   -0.1294534853661404   -0.01768651284383624
-0.33476712257245517   -0.1294534853661404   -0.01768651284383624
-0.33476712257245517   -0.1294534853661404   -0.01768651284383624
-0.33476712257245517   -0.1294534853661404   -0.01768651284383624
-0.40093255039340103   -0.07352988729931077   0.0332831138968472
-0.40093255039340103   -0.07352988729931077   0.0332831138968472
-0.40093255039340103   -0.07352988729931077   0.0332831138968472
-0.40093255039340103   -0.07352988729931077   0.0332831138968472
-0.6989071722946716   -0.051472288161619195   -0.011640299398059564
-0.6989071722946716   -0.051472288161619195   -0.011640299398059564
-0.6989071722946716   -0.051472288161619195   -0.011640299398059564
-0.6989071722946716   -0.051472288161619195   -0.011640299398059564
-0.7405579951033238   -0.14630149291652972   0.009050530520675254
-0.7405579951033238   -0.14630149291652972   0.009050530520675254
-0.7405579951033238   -0.14630149291652972   0.009050530520675254
-0.7405579951033238   -0.14630149291652972   0.009050530520675254
-0.4106042565550167   0.006628271121700655   0.0036514324614361597
-0.4106042565550167   0.006628271121700655   0.0036514324614361597
-0.4106042565550167   0.006628271121700655   0.0036514324614361597
-0.4106042565550167   0.006628271121700655   0.0036514324614361597
-0.535965258144488   -0.05133742067314491   0.01060249432495651
-0.535965258144488   -0.05133742067314491   0.01060249432495651
-0.535965258144488   -0.05133742067314491   0.01060249432495651
-0.535965258144488   -0.05133742067314491   0.01060249432495651
-0.42248993173483607   -0.07860643400846637   0.029457761692504233
-0.42248993173483607   -0.07860643400846637   0.029457761692504233
-0.42248993173483607   -0.07860643400846637   0.029457761692504233
-0.42248993173483607   -0.07860643400846637   0.029457761692504233
-0.7269868761260032   -0.05938134398886073   -0.01001402352038425
-0.7269868761260032   -0.05938134398886073   -0.01001402352038425
-0.7269868761260032   -0.05938134398886073   -0.01001402352038425
-0.7269868761260032   -0.05938134398886073   -0.01001402352038425
-0.7577680400111458   -0.15230028059393522   -0.003733362958530162
-0.7577680400111458   -0.15230028059393522   -0.003733362958530162
-0.7577680400111458   -0.15230028059393522   -0.003733362958530162
-0.7577680400111458   -0.15230028059393522   -0.003733362958530162
-0.42283672850475207   0.002687267746552313   0.006463522421953208
-0.42283672850475207   0.002687267746552313   0.006463522421953208
-0.42283672850475207   0.002687267746552313   0.006463522421953208
-0.42283672850475207   0.002687267746552313   0.006463522421953208
-0.566940409490302   -0.06753003988616402   0.0042027390486938515
-0.566940409490302   -0.06753003988616402   0.0042027390486938515
-0.566940409490302   -0.06753003988616402   0.0042027390486938515
-0.566940409490302   -0.06753003988616402   0.0042027390486938515
-0.4363200132431197   -0.08243094112774207   0.024165307604409353
-0.4363200132431197   -0.08243094112774207   0.024165307604409353
-0.4363200132431197   -0.08243094112774207   0.024165307604409353
-0.4363200132431197   -0.08243094112774207   0.024165307604409353
-0.7407516541812258   -0.06364897062808716   -0.007302743774770443
-0.7407516541812258   -0.06364897062808716   -0.007302743774770443
-0.7407516541812258   -0.06364897062808716   -0.007302743774770443
-0.7407516541812258   -0.06364897062808716   -0.007302743774770443
-0.7722769307986863   -0.15450181451854084   -0.00023214179401798152
-0.7722769307986863   -0.15450181451854084   -0.00023214179401798152
-0.7722769307986863   -0.15450181451854084   -0.00023214179401798152
-0.7722769307986863   -0.15450181451854084   -0.00023214179401798152
-0.44010833042179237   -0.015035681670696424   0.0027865199302857697
-0.44010833042179237   -0.015035681670696424   0.0027865199302857697
-0.44010833042179237   -0.015035681670696424   0.0027865199302857697
-0.44010833042179237   -0.015035681670696424   0.0027865199302857697
-0.5730889794753158   -0.08130774164139706   0.006577066665441713
-0.5730889794753158   -0.08130774164139706   0.006577066665441713
-0.5730889794753158   -0.08130774164139706   0.006577066665441713
-0.5730889794753158   -0.08130774164139706   0.006577066665441713
0.4719179196897664   0.022297636511388122   -0.009726473789880813
0.4719179196897664   0.022297636511388122   -0.009726473789880813
0.4719179196897664   0.022297636511388122   -0.009726473789880813
0.4719179196897664   0.022297636511388122   -0.009726473789880813
0.23634600946417558   -0.005504573497969734   0.004570231681016522
0.23634600946417558   -0.005504573497969734   0.004570231681016522
0.23634600946417558   -0.005504573497969734   0.004570231681016522
0.23634600946417558   -0.005504573497969734   0.004570231681016522
0.22191984473229948   -0.034307384951555185   -0.008768125493002266
0.22191984473229948   -0.034307384951555185   -0.008768125493002266
0.22191984473229948   -0.034307384951555185   -0.008768125493002266
0.22191984473229948   -0.034307384951555185   -0.008768125493002266
0.4666226370554555   0.0337557804642824   0.005346991039701932
0.4666226370554555   0.0337557804642824   0.005346991039701932
0.4666226370554555   0.0337557804642824   0.005346991039701932
0.4666226370554555   0.0337557804642824   0.005346991039701932
0.3309026260988679   0.0008264312668074536   -0.012763150259655173
0.3309026260988679   0.0008264312668074536   -0.012763150259655173
0.3309026260988679   0.0008264312668074536   -0.012763150259655173
0.3309026260988679   0.0008264312668074536   -0.012763150259655173
0.45941669303556804   0.012966850073841144   -0.009893798669289182
0.45941669303556804   0.012966850073841144   -0.009893798669289182
0.45941669303556804   0.012966850073841144   -0.009893798669289182
0.45941669303556804   0.012966850073841144   -0.009893798669289182
0.22874317920838383   -0.013901064104916636   0.004942226040778437
0.22874317920838383   -0.013901064104916636   0.004942226040778437
0.22874317920838383   -0.013901064104916636   0.004942226040778437
0.22874317920838383   -0.013901064104916636   0.004942226040778437
0.2141264914945072   -0.03612473641598033   -0.007297873646498296
0.2141264914945072   -0.03612473641598033   -0.007297873646498296
0.2141264914945072   -0.03612473641598033   -0.007297873646498296
0.2141264914945072   -0.03612473641598033   -0.007297873646498296
0.4558484749247808   0.03113970995352909   0.007952662628542637
0.4558484749247808   0.03113970995352909   0.007952662628542637
0.4558484749247808   0.03113970995352909   0.007952662628542637
0.4558484749247808   0.03113970995352909   0.007952662628542637
0.3269299432022635   -0.0031152649220426154   -0.015034723255590486
0.3269299432022635   -0.0031152649220426154   -0.015034723255590486
0.3269299432022635   -0.0031152649220426154   -0.015034723255590486
0.3269299432022635   -0.0031152649220426154   -0.015034723255590486
0.4485779196650972   0.010644202670140018   -0.007904606386486539
0.4485779196650972   0.010644202670140018   -0.007904606386486539
0.4485779196650972   0.010644202670140018   -0.007904606386486539
0.4485779196650972   0.010644202670140018   -0.007904606386486539
0.22084551603589553   -0.016180759850886586   0.00635327249534955
0.22084551603589553   -0.016180759850886586   0.00635327249534955
0.22084551603589553   -0.016180759850886586   0.00635327249534955
0.22084551603589553   -0.016180759850886586   0.00635327249534955
0.20661864724799434   -0.03531052254892801   -0.005039936573957123
0.20661864724799434   -0.03531052254892801   -0.005039936573957123
0.20661864724799434   -0.03531052254892801   -0.005039936573957123
0.20661864724799434   -0.03531052254892801   -0.005039936573957123
0.44254545827146247   0.029599073087375208   0.010476761313821758
0.44254545827146247   0.029599073087375208   0.010476761313821758
0.44254545827146247   0.029599073087375208   0.010476761313821758
0.44254545827146247   0.029599073087375208   0.010476761313821758
0.31123888755220386   -0.005380466936119752   -0.019618730081349685
0.31123888755220386   -0.005380466936119752   -0.019618730081349685
0.31123888755220386   -0.005380466936119752   -0.019618730081349685
0.31123888755220386   -0.005380466936119752   -0.019618730081349685
0.23821424019615078   0.005878817710703151   0.002527994132219569
0.23821424019615078   0.005878817710703151   0.002527994132219569
0.23821424019615078   0.005878817710703151   0.002527994132219569
0.23821424019615078   0.005878817710703151   0.002527994132219569
0.020728657381444665   -0.014679500249907027   -0.0007829788016049805
0.020728657381444665   -0.014679500249907027   -0.0007829788016049805
0.020728657381444665   -0.014679500249907027   -0.0007829788016049805
0.020728657381444665   -0.014679500249907027   -0.0007829788016049805
0.0071285114436469895   -0.04503339658837282   -0.008514613133407258
0.0071285114436469895   -0.04503339658837282   -0.008514613133407258
0.0071285114436469895   -0.04503339658837282   -0.008514613133407258
0.0071285114436469895   -0.04503339658837282   -0.008514613133407258
0.23838545920620233   0.027644604663282082   0.011607957261672231
0.23838545920620233   0.027644604663282082   0.011607957261672231
0.23838545920620233   0.027644604663282082   0.011607957261672231
0.23838545920620233   0.027644604663282082   0.011607957261672231
0.12380419966276049   -0.005987481683338753   -0.004738895427168675
0.12380419966276049   -0.005987481683338753   -0.004738895427168675
0.12380419966276049   -0.005987481683338753   -0.004738895427168675
0.12380419966276049   -0.005987481683338753   -0.004738895427168675
0.23180149621450571   0.0023922269881457014   0.003940519978326619
0.23180149621450571   0.0023922269881457014   0.003940519978326619
0.23180149621450571   0.0023922269881457014   0.003940519978326619
0.23180149621450571   0.0023922269881457014   0.003940519978326619
0.013977327564260515   -0.019516165784319348   0.00021223666560688838
0.013977327564260515   -0.019516165784319348   0.00021223666560688838
0.013977327564260515   -0.019516165784319348   0.00021223666560688838
0.013977327564260515   -0.019516165784319348   0.00021223666560688838
-0.000387201788023114   -0.047047254208734984   -0.006024949956085282
-0.000387201788023114   -0.047047254208734984   -0.006024949956085282
-0.000387201788023114   -0.047047254208734984   -0.006024949956085282
-0.000387201788023114   -0.047047254208734984   -0.006024949956085282
0.23014310286529138   0.02388168599858251   0.012778760792859774
0.23014310286529138   0.02388168599858251   0.012778760792859774
0.23014310286529138   0.02388168599858251   0.012778760792859774
0.23014310286529138   0.02388168599858251   0.012778760792859774
0.11508039562886917   -0.00948462870856167   -0.006706350006940559
0.11508039562886917   -0.00948462870856167   -0.006706350006940559
0.11508039562886917   -0.00948462870856167   -0.006706350006940559
0.11508039562886917   -0.00948462870856167   -0.006706350006940559
0.22393824129286763   0.0001250434871018502   0.005511095442223505
0.22393824129286763   0.0001250434871018502   0.005511095442223505
0.22393824129286763   0.0001250434871018502   0.005511095442223505
0.22393824129286763   0.0001250434871018502   0.005511095442223505
0.005791089830419018   -0.023317181651238195   0.0011364355786286006
0.005791089830419018   -0.023317181651238195   0.0011364355786286006
0.005791089830419018   -0.023317181651238195   0.0011364355786286006
0.005791089830419018   -0.023317181651238195   0.0011364355786286006
-0.008431663578292073   -0.04708397293525375   -0.004187516008664989
-0.008431663578292073   -0.04708397293525375   -0.004187516008664989
-0.008431663578292073   -0.04708397293525375   -0.004187516008664989
-0.008431663578292073   -0.04708397293525375   -0.004187516008664989
0.22182377847858983   0.021575100063356667   0.014100096966737065
0.22182377847858983   0.021575100063356667   0.014100096966737065
0.22182377847858983   0.021575100063356667   0.014100096966737065
0.22182377847858983   0.021575100063356667   0.014100096966737065
0.10839021212067654   -0.010759762193056237   -0.008347239322642743
0.10839021212067654   -0.010759762193056237   -0.008347239322642743
0.10839021212067654   -0.010759762193056237   -0.008347239322642743
0.10839021212067654   -0.010759762193056237   -0.008347239322642743
0.02174287809824321   -0.011505262485588193   0.001113887018068911
0.02174287809824321   -0.011505262485588193   0.001113887018068911
0.02174287809824321   -0.011505262485588193   0.001113887018068911
0.02174287809824321   -0.011505262485588193   0.001113887018068911
-0.18794299772923978   -0.021574755513860563   -0.0058715281562356164
-0.18794299772923978   -0.021574755513860563   -0.0058715281562356164
-0.18794299772923978   -0.021574755513860563   -0.0058715281562356164
-0.18794299772923978   -0.021574755513860563   -0.0058715281562356164
-0.2030654017489673   -0.059496270784430164   -0.009805521363632181
-0.2030654017489673   -0.059496270784430164   -0.009805521363632181
-0.2030654017489673   -0.059496270784430164   -0.009805521363632181
-0.2030654017489673   -0.059496270784430164   -0.009805521363632181
0.023282503989412277   0.020465218697563667   0.006756734309482681
0.023282503989412277   0.020465218697563667   0.006756734309482681
0.023282503989412277   0.020465218697563667   0.006756734309482681
0.023282503989412277   0.020465218697563667   0.006756734309482681
-0.0867225483786615   -0.017172601439366685   -0.004651665528953155
-0.0867225483786615   -0.017172601439366685   -0.004651665528953155
-0.0867225483786615   -0.017172601439366685   -0.004651665528953155
-0.0867225483786615   -0.017172601439366685   -0.004651665528953155
0.016081196842601397   -0.012885636115662218   0.004101053388654173
0.016081196842601397   -0.012885636115662218   0.004101053388654173
0.016081196842601397   -0.012885636115662218   0.004101053388654173
0.016081196842601397   -0.012885636115662218   0.004101053388654173
-0.195299194953012   -0.025580516322062402   -0.004890241846223402
-0.195299194953012   -0.025580516322062402   -0.004890241846223402
-0.195299194953012   -0.025580516322062402   -0.004890241846223402
-0.195299194953012   -0.025580516322062402   -0.004890241846223402
-0.2118611184576622   -0.061684405947871127   -0.006641789834024847
-0.2118611184576622   -0.061684405947871127   -0.006641789834024847
-0.2118611184576622   -0.061684405947871127   -0.006641789834024847
-0.2118611184576622   -0.061684405947871127   -0.006641789834024847
0.015040284043235411   0.01644763656100552   0.0076175884304668425
0.015040284043235411   0.01644763656100552   0.0076175884304668425
0.015040284043235411   0.01644763656100552   0.0076175884304668425
0.015040284043235411   0.01644763656100552   0.0076175884304668425
-0.09401737031343403   -0.019519094531527847   -0.005563109165878289
-0.09401737031343403   -0.019519094531527847   -0.005563109165878289
-0.09401737031343403   -0.019519094531527847   -0.005563109165878289
-0.09401737031343403   -0.019519094531527847   -0.005563109165878289
0.008289095328965056   -0.015220124116430488   0.005529405536551087
0.008289095328965056   -0.015220124116430488   0.005529405536551087
0.008289095328965056   -0.015220124116430488   0.005529405536551087
0.008289095328965056   -0.015220124116430488   0.005529405536551087
-0.20498152784693746   -0.029888243373980744   -0.004039999354291621
-0.20498152784693746   -0.029888243373980744   -0.004039999354291621
-0.20498152784693746   -0.029888243373980744   -0.004039999354291621
-0.20498152784693746   -0.029888243373980744   -0.004039999354291621
-0.2216004841633942   -0.06323812685050964   -0.0058971073779070975
-0.2216004841633942   -0.06323812685050964   -0.0058971073779070975
-0.2216004841633942   -0.06323812685050964   -0.0058971073779070975
-0.2216004841633942   -0.06323812685050964   -0.0058971073779070975
0.006122253468643654   0.013026659711865762   0.008471436578894126
0.006122253468643654   0.013026659711865762   0.008471436578894126
0.006122253468643654   0.013026659711865762   0.008471436578894126
0.006122253468643654   0.013026659711865762   0.008471436578894126
-0.10347148033668317   -0.022326031258597185   -0.007784195102324124
-0.10347148033668317   -0.022326031258597185   -0.007784195102324124
-0.10347148033668317   -0.022326031258597185   -0.007784195102324124
-0.10347148033668317   -0.022326031258597185   -0.007784195102324124
-0.18471337789271974   -0.014218601710002693   0.002920417222502825
-0.18471337789271974   -0.014218601710002693   0.002920417222502825
-0.18471337789271974   -0.014218601710002693   0.002920417222502825
-0.18471337789271974   -0.014218601710002693   0.002920417222502825
-0.3923285224564315   -0.02528970231773222   -0.010196374801141524
-0.3923285224564315   -0.02528970231773222   -0.010196374801141524
-0.3923285224564315   -0.02528970231773222   -0.010196374801141524
-0.3923285224564315   -0.02528970231773222   -0.010196374801141524
-0.4094550349418611   -0.06262602149794967   -0.0099695817398626
-0.4094550349418611   -0.06262602149794967   -0.0099695817398626
-0.4094550349418611   -0.06262602149794967   -0.0099695817398626
-0.4094550349418611   -0.06262602149794967   -0.0099695817398626
-0.18562790847507654   0.015816027853350505   0.0020696463680390503
-0.18562790847507654   0.015816027853350505   0.0020696463680390503
-0.18562790847507654   0.015816027853350505   0.0020696463680390503
-0.18562790847507654   0.015816027853350505   0.0020696463680390503
-0.2906511884544049   -0.020587797565064514   -0.00380302407541578
-0.2906511884544049   -0.020587797565064514   -0.00380302407541578
-0.2906511884544049   -0.020587797565064514   -0.00380302407541578
-0.2906511884544049   -0.020587797565064514   -0.00380302407541578
-0.1909705434422071   -0.015583922477418067   0.006756421863156782
-0.1909705434422071   -0.015583922477418067   0.006756421863156782
-0.1909705434422071   -0.015583922477418067   0.006756421863156782
-0.1909705434422071   -0.015583922477418067   0.006756421863156782
-0.4030291141674412   -0.030142785359894626   -0.010323214005822022
-0.4030291141674412   -0.030142785359894626   -0.010323214005822022
-0.4030291141674412   -0.030142785359894626   -0.010323214005822022
-0.4030291141674412   -0.030142785359894626   -0.010323214005822022
-0.4215748857759477   -0.06640666075845218   -0.007102894733286825
-0.4215748857759477   -0.06640666075845218   -0.007102894733286825
-0.4215748857759477   -0.06640666075845218   -0.007102894733286825
-0.4215748857759477   -0.06640666075845218   -0.007102894733286825
-0.19541715157633477   0.011409473776013819   0.0024841648487272886
-0.19541715157633477   0.011409473776013819   0.0024841648487272886
-0.19541715157633477   0.011409473776013819   0.0024841648487272886
-0.19541715157633477   0.011409473776013819   0.0024841648487272886
-0.2981858806039027   -0.022602040998382283   -0.003762896738857338
-0.2981858806039027   -0.022602040998382283   -0.003762896738857338
-0.2981858806039027   -0.022602040998382283   -0.003762896738857338
-0.2981858806039027   -0.022602040998382283   -0.003762896738857338
-0.2006622241769064   -0.01939157863967512   0.00705985426155717
-0.2006622241769064   -0.01939157863967512   0.00705985426155717
-0.2006622241769064   -0.01939157863967512   0.00705985426155717
-0.2006622241769064   -0.01939157863967512   0.00705985426155717
-0.41559899701221065   -0.03487479217959855   -0.008755319493458728
-0.41559899701221065   -0.03487479217959855   -0.008755319493458728
-0.41559899701221065   -0.03487479217959855   -0.008755319493458728
-0.41559899701221065   -0.03487479217959855   -0.008755319493458728
-0.43524895199935226   -0.07145073660630749   -0.0075246153723484135
-0.43524895199935226   -0.07145073660630749   -0.0075246153723484135
-0.43524895199935226   -0.07145073660630749   -0.0075246153723484135
-0.43524895199935226   -0.07145073660630749   -0.0075246153723484135
-0.20600540576816062   0.0059227366762412345   0.002917421071508051
-0.20600540576816062   0.0059227366762412345   0.002917421071508051
-0.20600540576816062   0.0059227366762412345   0.002917421071508051
-0.20600540576816062   0.0059227366762412345   0.002917421071508051
-0.3119415828639719   -0.02786766354751507   -0.006251692607001763
-0.3119415828639719   -0.02786766354751507   -0.006251692607001763
-0.3119415828639719   -0.02786766354751507   -0.006251692607001763
-0.3119415828639719   -0.02786766354751507   -0.006251692607001763
-0.3794003867793327   0.017156707561989684   0.011997893704630565
-0.3794003867793327   0.017156707561989684   0.011997893704630565
-0.3794003867793327   0.017156707561989684   0.011997893704630565
-0.3794003867793327   0.017156707561989684   0.011997893704630565
-0.5876286166195843   -0.02921736383014205   -0.007458654301509254
-0.5876286166195843   -0.02921736383014205   -0.007458654301509254
-0.5876286166195843   -0.02921736383014205   -0.007458654301509254
-0.5876286166195843   -0.02921736383014205   -0.007458654301509254
-0.6013048725207126   -0.029799182214494332   0.012214781746157196
-0.6013048725207126   -0.029799182214494332   0.012214781746157196
-0.6013048725207126   -0.029799182214494332   0.012214781746157196
-0.6013048725207126   -0.029799182214494332   0.012214781746157196
-0.3929614604404296   0.012614409336446378   -0.002742140067105228
-0.3929614604404296   0.012614409336446378   -0.002742140067105228
-0.3929614604404296   0.012614409336446378   -0.002742140067105228
-0.3929614604404296   0.012614409336446378   -0.002742140067105228
-0.46742956227669286   0.0001684542564404229   0.011961217247654865
-0.46742956227669286   0.0001684542564404229   0.011961217247654865
-0.46742956227669286   0.0001684542564404229   0.011961217247654865
-0.46742956227669286   0.0001684542564404229   0.011961217247654865
-0.38923094629532795   0.013231345566934047   0.015293494427914372
-0.38923094629532795   0.013231345566934047   0.015293494427914372
-0.38923094629532795   0.013231345566934047   0.015293494427914372
-0.38923094629532795   0.013231345566934047   0.015293494427914372
-0.6047667782072472   -0.030147509986415133   -0.004746418914595152
-0.6047667782072472   -0.030147509986415133   -0.004746418914595152
-0.6047667782072472   -0.030147509986415133   -0.004746418914595152
-0.6047667782072472   -0.030147509986415133   -0.004746418914595152
-0.6184816094222115   -0.03439765958093857   0.016683766701958314
-0.6184816094222115   -0.03439765958093857   0.016683766701958314
-0.6184816094222115   -0.03439765958093857   0.016683766701958314
-0.6184816094222115   -0.03439765958093857   0.016683766701958314
-0.40555843375550776   0.009477687884927893   -0.002904983274470835
-0.40555843375550776   0.009477687884927893   -0.002904983274470835
-0.40555843375550776   0.009477687884927893   -0.002904983274470835
-0.40555843375550776   0.009477687884927893   -0.002904983274470835
-0.48998581802598656   -0.0051699783687953055   0.00686577479816931
-0.48998581802598656   -0.0051699783687953055   0.00686577479816931
-0.48998581802598656   -0.0051699783687953055   0.00686577479816931
-0.48998581802598656   -0.0051699783687953055   0.00686577479816931
-0.4021429631662503   0.008552773201009084   0.015097284355735291
-0.4021429631662503   0.008552773201009084   0.015097284355735291
-0.4021429631662503   0.008552773201009084   0.015097284355735291
-0.4021429631662503   0.008552773201009084   0.015097284355735291
-0.6225411683295209   -0.03411683321507092   -0.003894854200451589
-0.6225411683295209   -0.03411683321507092   -0.003894854200451589
-0.6225411683295209   -0.03411683321507092   -0.003894854200451589
-0.6225411683295209   -0.03411683321507092   -0.003894854200451589
-0.6430036345138549   -0.0533090787690645   0.014314838530507957
-0.6430036345138549   -0.0533090787690645   0.014314838530507957
-0.6430036345138549   -0.0533090787690645   0.014314838530507957
-0.6430036345138549   -0.0533090787690645   0.014314838530507957
-0.42008760385989935   -0.00040877404526468153   -0.0027598372361297002
-0.42008760385989935   -0.00040877404526468153   -0.0027598372361297002
-0.42008760385989935   -0.00040877404526468153   -0.0027598372361297002
-0.42008760385989935   -0.00040877404526468153   -0.0027598372361297002
-0.4989631742317222   -0.01200142466068875   0.002544655326151727
-0.4989631742317222   -0.01200142466068875   0.002544655326151727
-0.4989631742317222   -0.01200142466068875   0.002544655326151727
-0.4989631742317222   -0.01200142466068875   0.002544655326151727
0.3868811783547877   0.021060336026345577   -0.013140389588019087
0.3868811783547877   0.021060336026345577   -0.013140389588019087
0.3868811783547877   0.021060336026345577   -0.013140389588019087
0.3868811783547877   0.021060336026345577   -0.013140389588019087
0.19078306688034136   -0.0009003397654162443   0.004577852266545649
0.19078306688034136   -0.0009003397654162443   0.004577852266545649
0.19078306688034136   -0.0009003397654162443   0.004577852266545649
0.19078306688034136   -0.0009003397654162443   0.004577852266545649
0.17507350212251935   -0.02806262057061075   -0.012195879201842934
0.17507350212251935   -0.02806262057061075   -0.012195879201842934
0.17507350212251935   -0.02806262057061075   -0.012195879201842934
0.17507350212251935   -0.02806262057061075   -0.012195879201842934
0.37994343521558305   0.03095174511427151   0.005764713822736529
0.37994343521558305   0.03095174511427151   0.005764713822736529
0.37994343521558305   0.03095174511427151   0.005764713822736529
0.37994343521558305   0.03095174511427151   0.005764713822736529
0.26853037650006895   0.0023394363077547387   -0.008855979699365482
0.26853037650006895   0.0023394363077547387   -0.008855979699365482
0.26853037650006895   0.0023394363077547387   -0.008855979699365482
0.26853037650006895   0.0023394363077547387   -0.008855979699365482
0.3723104039474596   0.011278496795018092   -0.012727194198623712
0.3723104039474596   0.011278496795018092   -0.012727194198623712
0.3723104039474596   0.011278496795018092   -0.012727194198623712
0.3723104039474596   0.011278496795018092   -0.012727194198623712
0.18239304826299332   -0.008702857379009235   0.005042088308922547
0.18239304826299332   -0.008702857379009235   0.005042088308922547
0.18239304826299332   -0.008702857379009235   0.005042088308922547
0.18239304826299332   -0.008702857379009235   0.005042088308922547
0.16722315079859293   -0.03030437579318364   -0.010642441978833145
0.16722315079859293   -0.03030437579318364   -0.010642441978833145
0.16722315079859293   -0.03030437579318364   -0.010642441978833145
0.16722315079859293   -0.03030437579318364   -0.010642441978833145
0.3682231581152952   0.027836507588891543   0.007981662953187602
0.3682231581152952   0.027836507588891543   0.007981662953187602
0.3682231581152952   0.027836507588891543   0.007981662953187602
0.3682231581152952   0.027836507588891543   0.007981662953187602
0.2626445076855952   -0.0017759401553304119   -0.01142050198464455
0.2626445076855952   -0.0017759401553304119   -0.01142050198464455
0.2626445076855952   -0.0017759401553304119   -0.01142050198464455
0.2626445076855952   -0.0017759401553304119   -0.01142050198464455
0.3607403981978975   0.008507030227886098   -0.010102659272789066
0.3607403981978975   0.008507030227886098   -0.010102659272789066
0.3607403981978975   0.008507030227886098   -0.010102659272789066
0.3607403981978975   0.008507030227886098   -0.010102659272789066
0.17441250698150945   -0.011268302166658535   0.006268265309222903
0.17441250698150945   -0.011268302166658535   0.006268265309222903
0.17441250698150945   -0.011268302166658535   0.006268265309222903
0.17441250698150945   -0.011268302166658535   0.006268265309222903
0.16008770044458276   -0.03072943590761691   -0.00870802583425907
0.16008770044458276   -0.03072943590761691   -0.00870802583425907
0.16008770044458276   -0.03072943590761691   -0.00870802583425907
0.16008770044458276   -0.03072943590761691   -0.00870802583425907
0.35501127313115627   0.025287950553441067   0.010027272164904974
0.35501127313115627   0.025287950553441067   0.010027272164904974
0.35501127313115627   0.025287950553441067   0.010027272164904974
0.35501127313115627   0.025287950553441067   0.010027272164904974
0.2480970620789208   -0.004532436950777201   -0.01540941718713301
0.2480970620789208   -0.004532436950777201   -0.01540941718713301
0.2480970620789208   -0.004532436950777201   -0.01540941718713301
0.2480970620789208   -0.004532436950777201   -0.01540941718713301
0.19442321278954505   0.02049304583455304   0.001385196212594966
0.19442321278954505   0.02049304583455304   0.001385196212594966
0.19442321278954505   0.02049304583455304   0.001385196212594966
0.19442321278954505   0.02049304583455304   0.001385196212594966
0.005169114041777267   -0.006877392576405093   -0.000981831562067853
0.005169114041777267   -0.006877392576405093   -0.000981831562067853
0.005169114041777267   -0.006877392576405093   -0.000981831562067853
0.005169114041777267   -0.006877392576405093   -0.000981831562067853
-0.006680906550132814   -0.025370894008236715   -0.008403170339586605
-0.006680906550132814   -0.025370894008236715   -0.008403170339586605
-0.006680906550132814   -0.025370894008236715   -0.008403170339586605
-0.006680906550132814   -0.025370894008236715   -0.008403170339586605
0.19083963596153736   0.028169112822304464   0.010403056600328992
0.19083963596153736   0.028169112822304464   0.010403056600328992
0.19083963596153736   0.028169112822304464   0.010403056600328992
0.19083963596153736   0.028169112822304464   0.010403056600328992
0.0944360604528573   0.004022477174740784   -0.0010029770512364035
0.0944360604528573   0.004022477174740784   -0.0010029770512364035
0.0944360604528573   0.004022477174740784   -0.0010029770512364035
0.0944360604528573   0.004022477174740784   -0.0010029770512364035
0.1867001479716214   0.015467414048871222   0.0024073154241835227
0.1867001479716214   0.015467414048871222   0.0024073154241835227
0.1867001479716214   0.015467414048871222   0.0024073154241835227
0.1867001479716214   0.015467414048871222   0.0024073154241835227
-0.002462718794215721   -0.012590495468799598   -9.263009943825647e-05
-0.002462718794215721   -0.012590495468799598   -9.263009943825647e-05
-0.002462718794215721   -0.012590495468799598   -9.263009943825647e-05
-0.002462718794215721   -0.012590495468799598   -9.263009943825647e-05
-0.014114839618010296   -0.028985674353590063   -0.007300098484701416
-0.014114839618010296   -0.028985674353590063   -0.007300098484701416
-0.014114839618010296   -0.028985674353590063   -0.007300098484701416
-0.014114839618010296   -0.028985674353590063   -0.007300098484701416
0.1824133732467954   0.023514641406257728   0.011489653062736357
0.1824133732467954   0.023514641406257728   0.011489653062736357
0.1824133732467954   0.023514641406257728   0.011489653062736357
0.1824133732467954   0.023514641406257728   0.011489653062736357
0.08528682203888867   -0.0005909678369651825   -0.0036138541575705292
0.08528682203888867   -0.0005909678369651825   -0.0036138541575705292
0.08528682203888867   -0.0005909678369651825   -0.0036138541575705292
0.08528682203888867   -0.0005909678369651825   -0.0036138541575705292
0.1784354699825792   0.011672802410875854   0.0034419757370386774
0.1784354699825792   0.011672802410875854   0.0034419757370386774
0.1784354699825792   0.011672802410875854   0.0034419757370386774
0.1784354699825792   0.011672802410875854   0.0034419757370386774
-0.010131638601868219   -0.01713853760628207   0.0007687698487009722
-0.010131638601868219   -0.01713853760628207   0.0007687698487009722
-0.010131638601868219   -0.01713853760628207   0.0007687698487009722
-0.010131638601868219   -0.01713853760628207   0.0007687698487009722
-0.021462862497563105   -0.03107544920475563   -0.005866008397671503
-0.021462862497563105   -0.03107544920475563   -0.005866008397671503
-0.021462862497563105   -0.03107544920475563   -0.005866008397671503
-0.021462862497563105   -0.03107544920475563   -0.005866008397671503
0.17439652338587838   0.019656603284309713   0.01245004968029034
0.17439652338587838   0.019656603284309713   0.01245004968029034
0.17439652338587838   0.019656603284309713   0.01245004968029034
0.17439652338587838   0.019656603284309713   0.01245004968029034
0.07863170553742005   -0.0034477497008271983   -0.005506697877169502
0.07863170553742005   -0.0034477497008271983   -0.005506697877169502
0.07863170553742005   -0.0034477497008271983   -0.005506697877169502
0.07863170553742005   -0.0034477497008271983   -0.005506697877169502
0.011710881920335741   0.020416874248471453   0.004432741005848931
0.011710881920335741   0.020416874248471453   0.004432741005848931
0.011710881920335741   0.020416874248471453   0.004432741005848931
0.011710881920335741   0.020416874248471453   0.004432741005848931
-0.17489117716272867   -0.011671860034312889   -0.005970684142077389
-0.17489117716272867   -0.011671860034312889   -0.005970684142077389
-0.17489117716272867   -0.011671860034312889   -0.005970684142077389
-0.17489117716272867   -0.011671860034312889   -0.005970684142077389
-0.18413236924355575   -0.02346665946061651   -0.005487783248450196
-0.18413236924355575   -0.02346665946061651   -0.005487783248450196
-0.18413236924355575   -0.02346665946061651   -0.005487783248450196
-0.18413236924355575   -0.02346665946061651   -0.005487783248450196
0.005718984522835778   0.023101474972995643   0.005123916044023996
0.005718984522835778   0.023101474972995643   0.005123916044023996
0.005718984522835778   0.023101474972995643   0.005123916044023996
0.005718984522835778   0.023101474972995643   0.005123916044023996
-0.08528634142307362   0.002447815830834671   0.0003711875414188978
-0.08528634142307362   0.002447815830834671   0.0003711875414188978
-0.08528634142307362   0.002447815830834671   0.0003711875414188978
-0.08528634142307362   0.002447815830834671   0.0003711875414188978
0.004464722395869648   0.016450942994497005   0.005503137387691986
0.004464722395869648   0.016450942994497005   0.005503137387691986
0.004464722395869648   0.016450942994497005   0.005503137387691986
0.004464722395869648   0.016450942994497005   0.005503137387691986
-0.18267202110408193   -0.016610041469610166   -0.005042660542087359
-0.18267202110408193   -0.016610041469610166   -0.005042660542087359
-0.18267202110408193   -0.016610041469610166   -0.005042660542087359
-0.18267202110408193   -0.016610041469610166   -0.005042660542087359
-0.19210383062966974   -0.027428872086559718   -0.0046208401344542144
-0.19210383062966974   -0.027428872086559718   -0.0046208401344542144
-0.19210383062966974   -0.027428872086559718   -0.0046208401344542144
-0.19210383062966974   -0.027428872086559718   -0.0046208401344542144
-0.001955855476348047   0.018318588510103803   0.006190559359915959
-0.001955855476348047   0.018318588510103803   0.006190559359915959
-0.001955855476348047   0.018318588510103803   0.006190559359915959
-0.001955855476348047   0.018318588510103803   0.006190559359915959
-0.0929300616146536   -0.001470042819917472   -0.0015701734045336108
-0.0929300616146536   -0.001470042819917472   -0.0015701734045336108
-0.0929300616146536   -0.001470042819917472   -0.0015701734045336108
-0.0929300616146536   -0.001470042819917472   -0.0015701734045336108
-0.0030202844978751363   0.012624504765972423   0.006562497996411893
-0.0030202844978751363   0.012624504765972423   0.006562497996411893
-0.0030202844978751363   0.012624504765972423   0.006562497996411893
-0.0030202844978751363   0.012624504765972423   0.006562497996411893
-0.1908675016801264   -0.021562888414412118   -0.004305179058885278
-0.1908675016801264   -0.021562888414412118   -0.004305179058885278
-0.1908675016801264   -0.021562888414412118   -0.004305179058885278
-0.1908675016801264   -0.021562888414412118   -0.004305179058885278
-0.20001196913620486   -0.030529333242033916   -0.003174305585755737
-0.20001196913620486   -0.030529333242033916   -0.003174305585755737
-0.20001196913620486   -0.030529333242033916   -0.003174305585755737
-0.20001196913620486   -0.030529333242033916   -0.003174305585755737
-0.009911309797529005   0.013813135639098448   0.007003170258644918
-0.009911309797529005   0.013813135639098448   0.007003170258644918
-0.009911309797529005   0.013813135639098448   0.007003170258644918
-0.009911309797529005   0.013813135639098448   0.007003170258644918
-0.10115815404200842   -0.0054516900886963995   -0.0037027014733312137
-0.10115815404200842   -0.0054516900886963995   -0.0037027014733312137
-0.10115815404200842   -0.0054516900886963995   -0.0037027014733312137
-0.10115815404200842   -0.0054516900886963995   -0.0037027014733312137
-0.16505649268989944   0.023758461861128545   0.007772416326630274
-0.16505649268989944   0.023758461861128545   0.007772416326630274
-0.16505649268989944   0.023758461861128545   0.007772416326630274
-0.16505649268989944   0.023758461861128545   0.007772416326630274
-0.3496411228786058   -0.015939061862987207   -0.009701616761392482
-0.3496411228786058   -0.015939061862987207   -0.009701616761392482
-0.3496411228786058   -0.015939061862987207   -0.009701616761392482
-0.3496411228786058   -0.015939061862987207   -0.009701616761392482
-0.3568253324802188   -0.019213484885162717   -0.0018804933193848784
-0.3568253324802188   -0.019213484885162717   -0.0018804933193848784
-0.3568253324802188   -0.019213484885162717   -0.0018804933193848784
-0.3568253324802188   -0.019213484885162717   -0.0018804933193848784
-0.17484558846239753   0.01758887965989577   -0.00010941846316932582
-0.17484558846239753   0.01758887965989577   -0.00010941846316932582
-0.17484558846239753   0.01758887965989577   -0.00010941846316932582
-0.17484558846239753   0.01758887965989577   -0.00010941846316932582
-0.2596941844069768   0.0022965952580446813   0.001929740375483489
-0.2596941844069768   0.0022965952580446813   0.001929740375483489
-0.2596941844069768   0.0022965952580446813   0.001929740375483489
-0.2596941844069768   0.0022965952580446813   0.001929740375483489
-0.17265348392317273   0.01973748355724464   0.008702500335605863
-0.17265348392317273   0.01973748355724464   0.008702500335605863
-0.17265348392317273   0.01973748355724464   0.008702500335605863
-0.17265348392317273   0.01973748355724464   0.008702500335605863
-0.3587522572769064   -0.02109690903997441   -0.009631693148011346
-0.3587522572769064   -0.02109690903997441   -0.009631693148011346
-0.3587522572769064   -0.02109690903997441   -0.009631693148011346
-0.3587522572769064   -0.02109690903997441   -0.009631693148011346
-0.3666313463512358   -0.023680436273783585   -0.001751190625358735
-0.3666313463512358   -0.023680436273783585   -0.001751190625358735
-0.3666313463512358   -0.023680436273783585   -0.001751190625358735
-0.3666313463512358   -0.023680436273783585   -0.001751190625358735
-0.18292196747093742   0.013025204245154756   0.0008343993274946178
-0.18292196747093742   0.013025204245154756   0.0008343993274946178
-0.18292196747093742   0.013025204245154756   0.0008343993274946178
-0.18292196747093742   0.013025204245154756   0.0008343993274946178
-0.2664676894010683   -0.0012335461589764313   0.0003463346298278897
-0.2664676894010683   -0.0012335461589764313   0.0003463346298278897
-0.2664676894010683   -0.0012335461589764313   0.0003463346298278897
-0.2664676894010683   -0.0012335461589764313   0.0003463346298278897
-0.18051264631401137   0.01589565310849063   0.010010556248787961
-0.18051264631401137   0.01589565310849063   0.010010556248787961
-0.18051264631401137   0.01589565310849063   0.010010556248787961
-0.18051264631401137   0.01589565310849063   0.010010556248787961
-0.3684814464174471   -0.02599166404640492   -0.008690463183794062
-0.3684814464174471   -0.02599166404640492   -0.008690463183794062
-0.3684814464174471   -0.02599166404640492   -0.008690463183794062
-0.3684814464174471   -0.02599166404640492   -0.008690463183794062
-0.3756387636340565   -0.02848446040377204   0.0005147935373375889
-0.3756387636340565   -0.02848446040377204   0.0005147935373375889
-0.3756387636340565   -0.02848446040377204   0.0005147935373375889
-0.3756387636340565   -0.02848446040377204   0.0005147935373375889
-0.1914825570139992   0.007549195188346743   0.0013942265948919362
-0.1914825570139992   0.007549195188346743   0.0013942265948919362
-0.1914825570139992   0.007549195188346743   0.0013942265948919362
-0.1914825570139992   0.007549195188346743   0.0013942265948919362
-0.27729169923212676   -0.006311676438894055   -0.001827495429081196
-0.27729169923212676   -0.006311676438894055   -0.001827495429081196
-0.27729169923212676   -0.006311676438894055   -0.001827495429081196
-0.27729169923212676   -0.006311676438894055   -0.001827495429081196
-0.33747905225198593   0.02444851233785242   0.010721162170864721
-0.33747905225198593   0.02444851233785242   0.010721162170864721
-0.33747905225198593   0.02444851233785242   0.010721162170864721
-0.33747905225198593   0.02444851233785242   0.010721162170864721
-0.5167350362667633   -0.023996258123250083   -0.008673915448472177
-0.5167350362667633   -0.023996258123250083   -0.008673915448472177
-0.5167350362667633   -0.023996258123250083   -0.008673915448472177
-0.5167350362667633   -0.023996258123250083   -0.008673915448472177
-0.5233819873490733   -0.01111920746680943   0.00901030282525947
-0.5233819873490733   -0.01111920746680943   0.00901030282525947
-0.5233819873490733   -0.01111920746680943   0.00901030282525947
-0.5233819873490733   -0.01111920746680943   0.00901030282525947
-0.3513571528506299   0.010919941938830335   -0.004673021995433797
-0.3513571528506299   0.010919941938830335   -0.004673021995433797
-0.3513571528506299   0.010919941938830335   -0.004673021995433797
-0.3513571528506299   0.010919941938830335   -0.004673021995433797
-0.4130627047014017   0.00490509883734834   0.009668526260553544
-0.4130627047014017   0.00490509883734834   0.009668526260553544
-0.4130627047014017   0.00490509883734834   0.009668526260553544
-0.4130627047014017   0.00490509883734834   0.009668526260553544
-0.3450999588943428   0.025201429670041728   0.01233146005478472
-0.3450999588943428   0.025201429670041728   0.01233146005478472
-0.3450999588943428   0.025201429670041728   0.01233146005478472
-0.3450999588943428   0.025201429670041728   0.01233146005478472
-0.529271915158177   -0.02503342905083787   -0.006525114636227895
-0.529271915158177   -0.02503342905083787   -0.006525114636227895
-0.529271915158177   -0.02503342905083787   -0.006525114636227895
-0.529271915158177   -0.02503342905083787   -0.006525114636227895
-0.5355777657631433   -0.013459379945211791   0.012429009582466302
-0.5355777657631433   -0.013459379945211791   0.012429009582466302
-0.5355777657631433   -0.013459379945211791   0.012429009582466302
-0.5355777657631433   -0.013459379945211791   0.012429009582466302
-0.36071369069723697   0.008301041162445275   -0.004144389791593418
-0.36071369069723697   0.008301041162445275   -0.004144389791593418
-0.36071369069723697   0.008301041162445275   -0.004144389791593418
-0.36071369069723697   0.008301041162445275   -0.004144389791593418
-0.43021018431627267   0.002456690755038002   0.006410427786046148
-0.43021018431627267   0.002456690755038002   0.006410427786046148
-0.43021018431627267   0.002456690755038002   0.006410427786046148
-0.43021018431627267   0.002456690755038002   0.006410427786046148
-0.3537972984027229   0.0234655284825529   0.015273084360869299
-0.3537972984027229   0.0234655284825529   0.015273084360869299
-0.3537972984027229   0.0234655284825529   0.015273084360869299
-0.3537972984027229   0.0234655284825529   0.015273084360869299
-0.5421309016842515   -0.02826061089191266   -0.00553543907636846
-0.5421309016842515   -0.02826061089191266   -0.00553543907636846
-0.5421309016842515   -0.02826061089191266   -0.00553543907636846
-0.5421309016842515   -0.02826061089191266   -0.00553543907636846
-0.5521332502940185   -0.023816579869718774   0.012246780075718958
-0.5521332502940185   -0.023816579869718774   0.012246780075718958
-0.5521332502940185   -0.023816579869718774   0.012246780075718958
-0.5521332502940185   -0.023816579869718774   0.012246780075718958
-0.37078909741009   0.00019360402203323634   -0.0039149397686350056
-0.37078909741009   0.00019360402203323634   -0.0039149397686350056
-0.37078909741009   0.00019360402203323634   -0.0039149397686350056
-0.37078909741009   0.00019360402203323634   -0.0039149397686350056
-0.4347062397441726   -0.0011806998140921343   0.00543760005877271
-0.4347062397441726   -0.0011806998140921343   0.00543760005877271
-0.4347062397441726   -0.0011806998140921343   0.00543760005877271
-0.4347062397441726   -0.0011806998140921343   0.00543760005877271
0.29751034143701105   0.016819889480668905   -0.013548276059698298
0.29751034143701105   0.016819889480668905   -0.013548276059698298
0.29751034143701105   0.016819889480668905   -0.013548276059698298
0.29751034143701105   0.016819889480668905   -0.013548276059698298
0.140807878460878   0.002210705760323027   0.005019197627865592
0.140807878460878   0.002210705760323027   0.005019197627865592
0.140807878460878   0.002210705760323027   0.005019197627865592
0.140807878460878   0.002210705760323027   0.005019197627865592
0.12582806956476877   -0.023615506905349748   -0.012956180624555468
0.12582806956476877   -0.023615506905349748   -0.012956180624555468
0.12582806956476877   -0.023615506905349748   -0.012956180624555468
0.12582806956476877   -0.023615506905349748   -0.012956180624555468
0.2914409770452962   0.02701466344552811   0.006228161205706698
0.2914409770452962   0.02701466344552811   0.006228161205706698
0.2914409770452962   0.02701466344552811   0.006228161205706698
0.2914409770452962   0.02701466344552811   0.006228161205706698
0.20284973372674772   0.0027184980391114014   -0.006015050335505376
0.20284973372674772   0.0027184980391114014   -0.006015050335505376
0.20284973372674772   0.0027184980391114014   -0.006015050335505376
0.20284973372674772   0.0027184980391114014   -0.006015050335505376
0.2838193037719875   0.00800072309828611   -0.012866264813594923
0.2838193037719875   0.00800072309828611   -0.012866264813594923
0.2838193037719875   0.00800072309828611   -0.012866264813594923
0.2838193037719875   0.00800072309828611   -0.012866264813594923
0.13330439996799595   -0.00474690942818945   0.005556873914419138
0.13330439996799595   -0.00474690942818945   0.005556873914419138
0.13330439996799595   -0.00474690942818945   0.005556873914419138
0.13330439996799595   -0.00474690942818945   0.005556873914419138
0.11885911240110704   -0.025851520439702264   -0.011094431475593313
0.11885911240110704   -0.025851520439702264   -0.011094431475593313
0.11885911240110704   -0.025851520439702264   -0.011094431475593313
0.11885911240110704   -0.025851520439702264   -0.011094431475593313
0.2805970036396203   0.023797709747553887   0.008273624361336869
0.2805970036396203   0.023797709747553887   0.008273624361336869
0.2805970036396203   0.023797709747553887   0.008273624361336869
0.2805970036396203   0.023797709747553887   0.008273624361336869
0.19681511490327025   -0.0012134060131202135   -0.008269972076794212
0.19681511490327025   -0.0012134060131202135   -0.008269972076794212
0.19681511490327025   -0.0012134060131202135   -0.008269972076794212
0.19681511490327025   -0.0012134060131202135   -0.008269972076794212
0.2731371994651521   0.0051478715962798224   -0.010375558359727931
0.2731371994651521   0.0051478715962798224   -0.010375558359727931
0.2731371994651521   0.0051478715962798224   -0.010375558359727931
0.2731371994651521   0.0051478715962798224   -0.010375558359727931
0.12612324003776004   -0.0073973588262432055   0.00677204509421162
0.12612324003776004   -0.0073973588262432055   0.00677204509421162
0.12612324003776004   -0.0073973588262432055   0.00677204509421162
0.12612324003776004   -0.0073973588262432055   0.00677204509421162
0.11260657437260409   -0.02704822477822463   -0.009248905734871292
0.11260657437260409   -0.02704822477822463   -0.009248905734871292
0.11260657437260409   -0.02704822477822463   -0.009248905734871292
0.11260657437260409   -0.02704822477822463   -0.009248905734871292
0.2683430898264655   0.020445864378531076   0.0098984088291223
0.2683430898264655   0.020445864378531076   0.0098984088291223
0.2683430898264655   0.020445864378531076   0.0098984088291223
0.2683430898264655   0.020445864378531076   0.0098984088291223
0.18426237781372232   -0.004121004404342779   -0.011714256941015272
0.18426237781372232   -0.004121004404342779   -0.011714256941015272
0.18426237781372232   -0.004121004404342779   -0.011714256941015272
0.18426237781372232   -0.004121004404342779   -0.011714256941015272
0.14342612469560362   0.020862168982614622   -0.0005410344207956216
0.14342612469560362   0.020862168982614622   -0.0005410344207956216
0.14342612469560362   0.020862168982614622   -0.0005410344207956216
0.14342612469560362   0.020862168982614622   -0.0005410344207956216
-0.010032633468119358   -0.002477279038090442   -0.0002484464339278553
-0.010032633468119358   -0.002477279038090442   -0.0002484464339278553
-0.010032633468119358   -0.002477279038090442   -0.0002484464339278553
-0.010032633468119358   -0.002477279038090442   -0.0002484464339278553
-0.02058995932673239   -0.017863594895326077   -0.008330886699553982
-0.02058995932673239   -0.017863594895326077   -0.008330886699553982
-0.02058995932673239   -0.017863594895326077   -0.008330886699553982
-0.02058995932673239   -0.017863594895326077   -0.008330886699553982
0.13993757864715253   0.024644051140797204   0.009331806741215332
0.13993757864715253   0.024644051140797204   0.009331806741215332
0.13993757864715253   0.024644051140797204   0.009331806741215332
0.13993757864715253   0.024644051140797204   0.009331806741215332
0.06220244481875471   0.005999964476258541   0.0004897729042288145
0.06220244481875471   0.005999964476258541   0.0004897729042288145
0.06220244481875471   0.005999964476258541   0.0004897729042288145
0.06220244481875471   0.005999964476258541   0.0004897729042288145
0.1363317368680708   0.01531354290072224   0.0006331060858844294
0.1363317368680708   0.01531354290072224   0.0006331060858844294
0.1363317368680708   0.01531354290072224   0.0006331060858844294
0.1363317368680708   0.01531354290072224   0.0006331060858844294
-0.016925665406514644   -0.008474634514114635   0.0006016225203233051
-0.016925665406514644   -0.008474634514114635   0.0006016225203233051
-0.016925665406514644   -0.008474634514114635   0.0006016225203233051
-0.016925665406514644   -0.008474634514114635   0.0006016225203233051
-0.027147866445746727   -0.02208109297082799   -0.0069277791301501366
-0.027147866445746727   -0.02208109297082799   -0.0069277791301501366
-0.027147866445746727   -0.02208109297082799   -0.0069277791301501366
-0.027147866445746727   -0.02208109297082799   -0.0069277791301501366
0.13219529107915368   0.019542089543873264   0.010192851931063224
0.13219529107915368   0.019542089543873264   0.010192851931063224
0.13219529107915368   0.019542089543873264   0.010192851931063224
0.13219529107915368   0.019542089543873264   0.010192851931063224
0.054060370238388555   0.0009346701034062457   -0.002046487032368932
0.054060370238388555   0.0009346701034062457   -0.002046487032368932
0.054060370238388555   0.0009346701034062457   -0.002046487032368932
0.054060370238388555   0.0009346701034062457   -0.002046487032368932
0.12871296434090715   0.010784408807725614   0.0015388989759793671
0.12871296434090715   0.010784408807725614   0.0015388989759793671
0.12871296434090715   0.010784408807725614   0.0015388989759793671
0.12871296434090715   0.010784408807725614   0.0015388989759793671
-0.023723073822342147   -0.013380946349524657   0.0014960373655694427
-0.023723073822342147   -0.013380946349524657   0.0014960373655694427
-0.023723073822342147   -0.013380946349524657   0.0014960373655694427
-0.023723073822342147   -0.013380946349524657   0.0014960373655694427
-0.033611360096508586   -0.025557163264604048   -0.005610899581891498
-0.033611360096508586   -0.025557163264604048   -0.005610899581891498
-0.033611360096508586   -0.025557163264604048   -0.005610899581891498
-0.033611360096508586   -0.025557163264604048   -0.005610899581891498
0.12504597279004595   0.014886498470162827   0.011013363103950003
0.12504597279004595   0.014886498470162827   0.011013363103950003
0.12504597279004595   0.014886498470162827   0.011013363103950003
0.12504597279004595   0.014886498470162827   0.011013363103950003
0.04790811418097662   -0.002822991229036136   -0.004132031917053356
0.04790811418097662   -0.002822991229036136   -0.004132031917053356
0.04790811418097662   -0.002822991229036136   -0.004132031917053356
0.04790811418097662   -0.002822991229036136   -0.004132031917053356
-0.0039137825342657655   0.024409551299370922   0.0034589778978787434
-0.0039137825342657655   0.024409551299370922   0.0034589778978787434
-0.0039137825342657655   0.024409551299370922   0.0034589778978787434
-0.0039137825342657655   0.024409551299370922   0.0034589778978787434
-0.15770394815649996   -0.007257644237446761   -0.005225493796269275
-0.15770394815649996   -0.007257644237446761   -0.005225493796269275
-0.15770394815649996   -0.007257644237446761   -0.005225493796269275
-0.15770394815649996   -0.007257644237446761   -0.005225493796269275
-0.164500300013475   -0.012790408837650109   -0.0041162184728939935
-0.164500300013475   -0.012790408837650109   -0.0041162184728939935
-0.164500300013475   -0.012790408837650109   -0.0041162184728939935
-0.164500300013475   -0.012790408837650109   -0.0041162184728939935
-0.01054871870656185   0.019889940983309092   0.004121780522663553
-0.01054871870656185   0.019889940983309092   0.004121780522663553
-0.01054871870656185   0.019889940983309092   0.004121780522663553
-0.01054871870656185   0.019889940983309092   0.004121780522663553
-0.08396439599426667   0.006084502576534194   0.0016384802324112824
-0.08396439599426667   0.006084502576534194   0.0016384802324112824
-0.08396439599426667   0.006084502576534194   0.0016384802324112824
-0.08396439599426667   0.006084502576534194   0.0016384802324112824
-0.010431484560621394   0.019805146995528662   0.004792745240146261
-0.010431484560621394   0.019805146995528662   0.004792745240146261
-0.010431484560621394   0.019805146995528662   0.004792745240146261
-0.010431484560621394   0.019805146995528662   0.004792745240146261
-0.1644944797207466   -0.012582560411200854   -0.0042949654357014025
-0.1644944797207466   -0.012582560411200854   -0.0042949654357014025
-0.1644944797207466   -0.012582560411200854   -0.0042949654357014025
-0.1644944797207466   -0.012582560411200854   -0.0042949654357014025
-0.17121991431848227   -0.01735248052970345   -0.00290072699698609
-0.17121991431848227   -0.01735248052970345   -0.00290072699698609
-0.17121991431848227   -0.01735248052970345   -0.00290072699698609
-0.17121991431848227   -0.01735248052970345   -0.00290072699698609
-0.017392165835391316   0.014638651344524157   0.005130979606275728
-0.017392165835391316   0.014638651344524157   0.005130979606275728
-0.017392165835391316   0.014638651344524157   0.005130979606275728
-0.017392165835391316   0.014638651344524157   0.005130979606275728
-0.0907535490632373   0.0015500205097767478   -0.00040474880513044573
-0.0907535490632373   0.0015500205097767478   -0.00040474880513044573
-0.0907535490632373   0.0015500205097767478   -0.00040474880513044573
-0.0907535490632373   0.0015500205097767478   -0.00040474880513044573
-0.017136087577356646   0.015212028888427952   0.00583799335254529
-0.017136087577356646   0.015212028888427952   0.00583799335254529
-0.017136087577356646   0.015212028888427952   0.00583799335254529
-0.017136087577356646   0.015212028888427952   0.00583799335254529
-0.1714461171136582   -0.01789598261074817   -0.003488238891819034
-0.1714461171136582   -0.01789598261074817   -0.003488238891819034
-0.1714461171136582   -0.01789598261074817   -0.003488238891819034
-0.1714461171136582   -0.01789598261074817   -0.003488238891819034
-0.17785004061333026   -0.021513610841999497   -0.0016918313310435263
-0.17785004061333026   -0.021513610841999497   -0.0016918313310435263
-0.17785004061333026   -0.021513610841999497   -0.0016918313310435263
-0.17785004061333026   -0.021513610841999497   -0.0016918313310435263
-0.024270781439981393   0.009560121103494914   0.0059747093326455065
-0.024270781439981393   0.009560121103494914   0.0059747093326455065
-0.024270781439981393   0.009560121103494914   0.0059747093326455065
-0.024270781439981393   0.009560121103494914   0.0059747093326455065
-0.09786142531173732   -0.0030181108189268925   -0.002686174487424701
-0.09786142531173732   -0.0030181108189268925   -0.002686174487424701
-0.09786142531173732   -0.0030181108189268925   -0.002686174487424701
-0.09786142531173732   -0.0030181108189268925   -0.002686174487424701
-0.1482105202324119   0.027736818613228957   0.007247182973494434
-0.1482105202324119   0.027736818613228957   0.007247182973494434
-0.1482105202324119   0.027736818613228957   0.007247182973494434
-0.1482105202324119   0.027736818613228957   0.007247182973494434
-0.3024761346435392   -0.012174554267931875   -0.009325121435267179
-0.3024761346435392   -0.012174554267931875   -0.009325121435267179
-0.3024761346435392   -0.012174554267931875   -0.009325121435267179
-0.3024761346435392   -0.012174554267931875   -0.009325121435267179
-0.3061696353667334   -0.008560361880855877   0.000468420737408274
-0.3061696353667334   -0.008560361880855877   0.000468420737408274
-0.3061696353667334   -0.008560361880855877   0.000468420737408274
-0.3061696353667334   -0.008560361880855877   0.000468420737408274
-0.15845920391296042   0.014353224410085484   -0.0010543712180549163
-0.15845920391296042   0.014353224410085484   -0.0010543712180549163
-0.15845920391296042   0.014353224410085484   -0.0010543712180549163
-0.15845920391296042   0.014353224410085484   -0.0010543712180549163
-0.22731768359518856   0.005601758424006183   0.0027673308492828855
-0.22731768359518856   0.005601758424006183   0.0027673308492828855
-0.22731768359518856   0.005601758424006183   0.0027673308492828855
-0.22731768359518856   0.005601758424006183   0.0027673308492828855
-0.15474507366327986   0.023337306000363663   0.008532198440067819
-0.15474507366327986   0.023337306000363663   0.008532198440067819
-0.15474507366327986   0.023337306000363663   0.008532198440067819
-0.15474507366327986   0.023337306000363663   0.008532198440067819
-0.309861461254488   -0.017522139109211618   -0.009028931473012876
-0.309861461254488   -0.017522139109211618   -0.009028931473012876
-0.309861461254488   -0.017522139109211618   -0.009028931473012876
-0.309861461254488   -0.017522139109211618   -0.009028931473012876
-0.31400173929729025   -0.013177157848368107   0.0009023606862331411
-0.31400173929729025   -0.013177157848368107   0.0009023606862331411
-0.31400173929729025   -0.013177157848368107   0.0009023606862331411
-0.31400173929729025   -0.013177157848368107   0.0009023606862331411
-0.165279618891519   0.009486458996453777   -3.818938832495129e-05
-0.165279618891519   0.009486458996453777   -3.818938832495129e-05
-0.165279618891519   0.009486458996453777   -3.818938832495129e-05
-0.165279618891519   0.009486458996453777   -3.818938832495129e-05
-0.2329771779648458   0.001602867490483155   0.0008758016401129286
-0.2329771779648458   0.001602867490483155   0.0008758016401129286
-0.2329771779648458   0.001602867490483155   0.0008758016401129286
-0.2329771779648458   0.001602867490483155   0.0008758016401129286
-0.16140374289408593   0.01910624934507317   0.009721400250219872
-0.16140374289408593   0.01910624934507317   0.009721400250219872
-0.16140374289408593   0.01910624934507317   0.009721400250219872
-0.16140374289408593   0.01910624934507317   0.009721400250219872
-0.3176830792291718   -0.022602412131434248   -0.00807908469011224
-0.3176830792291718   -0.022602412131434248   -0.00807908469011224
-0.3176830792291718   -0.022602412131434248   -0.00807908469011224
-0.3176830792291718   -0.022602412131434248   -0.00807908469011224
-0.32108210148674493   -0.018179178440474272   0.002351902923532507
-0.32108210148674493   -0.018179178440474272   0.002351902923532507
-0.32108210148674493   -0.018179178440474272   0.002351902923532507
-0.32108210148674493   -0.018179178440474272   0.002351902923532507
-0.17229498239387162   0.0038738869583027635   0.0006959619659484689
-0.17229498239387162   0.0038738869583027635   0.0006959619659484689
-0.17229498239387162   0.0038738869583027635   0.0006959619659484689
-0.17229498239387162   0.0038738869583027635   0.0006959619659484689
-0.24181309915524626   -0.0035085318078204517   -0.0015634975396386797
-0.24181309915524626   -0.0035085318078204517   -0.0015634975396386797
-0.24181309915524626   -0.0035085318078204517   -0.0015634975396386797
-0.24181309915524626   -0.0035085318078204517   -0.0015634975396386797
-0.29116801266802067   0.024883430434226292   0.010157503740167054
-0.29116801266802067   0.024883430434226292   0.010157503740167054
-0.29116801266802067   0.024883430434226292   0.010157503740167054
-0.29116801266802067   0.024883430434226292   0.010157503740167054
-0.4411125620611379   -0.0204783619133415   -0.010008756248867056
-0.4411125620611379   -0.0204783619133415   -0.010008756248867056
-0.4411125620611379   -0.0204783619133415   -0.010008756248867056
-0.4411125620611379   -0.0204783619133415   -0.010008756248867056
-0.4456950957062867   -0.005152476432874656   0.009302829001698036
-0.4456950957062867   -0.005152476432874656   0.009302829001698036
-0.4456950957062867   -0.005152476432874656   0.009302829001698036
-0.4456950957062867   -0.005152476432874656   0.009302829001698036
-0.30417547249417615   0.007590792809288885   -0.005711919589950324
-0.30417547249417615   0.007590792809288885   -0.005711919589950324
-0.30417547249417615   0.007590792809288885   -0.005711919589950324
-0.30417547249417615   0.007590792809288885   -0.005711919589950324
-0.3540815829364149   0.005401987968853619   0.008811814282041669
-0.3540815829364149   0.005401987968853619   0.008811814282041669
-0.3540815829364149   0.005401987968853619   0.008811814282041669
-0.3540815829364149   0.005401987968853619   0.008811814282041669
-0.29715024209132385   0.02508077794708158   0.011924247286516358
-0.29715024209132385   0.02508077794708158   0.011924247286516358
-0.29715024209132385   0.02508077794708158   0.011924247286516358
-0.29715024209132385   0.02508077794708158   0.011924247286516358
-0.45261384158992807   -0.022535977051456088   -0.007907399797923324
-0.45261384158992807   -0.022535977051456088   -0.007907399797923324
-0.45261384158992807   -0.022535977051456088   -0.007907399797923324
-0.45261384158992807   -0.022535977051456088   -0.007907399797923324
-0.4559770426579453   -0.0075985855589380535   0.011620828562198284
-0.4559770426579453   -0.0075985855589380535   0.011620828562198284
-0.4559770426579453   -0.0075985855589380535   0.011620828562198284
-0.4559770426579453   -0.0075985855589380535   0.011620828562198284
-0.3115366219589175   0.004925271101487466   -0.004874481571758869
-0.3115366219589175   0.004925271101487466   -0.004874481571758869
-0.3115366219589175   0.004925271101487466   -0.004874481571758869
-0.3115366219589175   0.004925271101487466   -0.004874481571758869
-0.3687526389551593   0.0026956210322731794   0.005528001825557034
-0.3687526389551593   0.0026956210322731794   0.005528001825557034
-0.3687526389551593   0.0026956210322731794   0.005528001825557034
-0.3687526389551593   0.0026956210322731794   0.005528001825557034
-0.3040861953584079   0.02326333557915171   0.014039586953125103
-0.3040861953584079   0.02326333557915171   0.014039586953125103
-0.3040861953584079   0.02326333557915171   0.014039586953125103
-0.3040861953584079   0.02326333557915171   0.014039586953125103
-0.46323862351433187   -0.025747804292481566   -0.0065378569861896454
-0.46323862351433187   -0.025747804292481566   -0.0065378569861896454
-0.46323862351433187   -0.025747804292481566   -0.0065378569861896454
-0.46323862351433187   -0.025747804292481566   -0.0065378569861896454
-0.46955561787021416   -0.016510795982604493   0.011329580668300563
-0.46955561787021416   -0.016510795982604493   0.011329580668300563
-0.46955561787021416   -0.016510795982604493   0.011329580668300563
-0.46955561787021416   -0.016510795982604493   0.011329580668300563
-0.31933899486047873   -0.002684964162937037   -0.004426778222674087
-0.31933899486047873   -0.002684964162937037   -0.004426778222674087
-0.31933899486047873   -0.002684964162937037   -0.004426778222674087
-0.31933899486047873   -0.002684964162937037   -0.004426778222674087
-0.37213101289965883   -0.000746674083534335   0.0045037903529191806
-0.37213101289965883   -0.000746674083534335   0.0045037903529191806
-0.37213101289965883   -0.000746674083534335   0.0045037903529191806
-0.37213101289965883   -0.000746674083534335   0.0045037903529191806
0.20839652947698278   0.012049858581831857   -0.013373689280695055
0.20839652947698278   0.012049858581831857   -0.013373689280695055
0.20839652947698278   0.012049858581831857   -0.013373689280695055
0.20839652947698278   0.012049858581831857   -0.013373689280695055
0.08897962644074897   0.00507557849281649   0.00561579621358724
0.08897962644074897   0.00507557849281649   0.00561579621358724
0.08897962644074897   0.00507557849281649   0.00561579621358724
0.08897962644074897   0.00507557849281649   0.00561579621358724
0.07528967930646183   -0.019965151056663077   -0.012519613566414865
0.07528967930646183   -0.019965151056663077   -0.012519613566414865
0.07528967930646183   -0.019965151056663077   -0.012519613566414865
0.07528967930646183   -0.019965151056663077   -0.012519613566414865
0.20385225523949688   0.023252238254803815   0.006837905044338048
0.20385225523949688   0.023252238254803815   0.006837905044338048
0.20385225523949688   0.023252238254803815   0.006837905044338048
0.20385225523949688   0.023252238254803815   0.006837905044338048
0.13651078762280508   0.0029928247674783255   -0.0037181524574443217
0.13651078762280508   0.0029928247674783255   -0.0037181524574443217
0.13651078762280508   0.0029928247674783255   -0.0037181524574443217
0.13651078762280508   0.0029928247674783255   -0.0037181524574443217
0.19617011772164022   0.0042089587346891555   -0.012529503024832092
0.19617011772164022   0.0042089587346891555   -0.012529503024832092
0.19617011772164022   0.0042089587346891555   -0.012529503024832092
0.19617011772164022   0.0042089587346891555   -0.012529503024832092
0.0828264615279312   -0.0010672268329357491   0.006266373317205914
0.0828264615279312   -0.0010672268329357491   0.006266373317205914
0.0828264615279312   -0.0010672268329357491   0.006266373317205914
0.0828264615279312   -0.0010672268329357491   0.006266373317205914
0.06949267724697496   -0.022217810575074964   -0.010699650859162068
0.06949267724697496   -0.022217810575074964   -0.010699650859162068
0.06949267724697496   -0.022217810575074964   -0.010699650859162068
0.06949267724697496   -0.022217810575074964   -0.010699650859162068
0.19429250554345523   0.020048706677390404   0.00888483196445803
0.19429250554345523   0.020048706677390404   0.00888483196445803
0.19429250554345523   0.020048706677390404   0.00888483196445803
0.19429250554345523   0.020048706677390404   0.00888483196445803
0.13067230805652089   -0.0007620750235136989   -0.00589846786239679
0.13067230805652089   -0.0007620750235136989   -0.00589846786239679
0.13067230805652089   -0.0007620750235136989   -0.00589846786239679
0.13067230805652089   -0.0007620750235136989   -0.00589846786239679
0.1867187203877302   0.0013168756646274107   -0.010252262801405477
0.1867187203877302   0.0013168756646274107   -0.010252262801405477
0.1867187203877302   0.0013168756646274107   -0.010252262801405477
0.1867187203877302   0.0013168756646274107   -0.010252262801405477
0.07684436934547935   -0.0037080726195327027   0.007549071677818369
0.07684436934547935   -0.0037080726195327027   0.007549071677818369
0.07684436934547935   -0.0037080726195327027   0.007549071677818369
0.07684436934547935   -0.0037080726195327027   0.007549071677818369
0.0643326281640981   -0.024122115440438824   -0.008931028603359894
0.0643326281640981   -0.024122115440438824   -0.008931028603359894
0.0643326281640981   -0.024122115440438824   -0.008931028603359894
0.0643326281640981   -0.024122115440438824   -0.008931028603359894
0.18309406141720166   0.015935116310629726   0.01019832341490403
0.18309406141720166   0.015935116310629726   0.01019832341490403
0.18309406141720166   0.015935116310629726   0.01019832341490403
0.18309406141720166   0.015935116310629726   0.01019832341490403
0.12034131201777608   -0.0037873856697973746   -0.008969496702399835
0.12034131201777608   -0.0037873856697973746   -0.008969496702399835
0.12034131201777608   -0.0037873856697973746   -0.008969496702399835
0.12034131201777608   -0.0037873856697973746   -0.008969496702399835
0.08982217325661619   0.017103494458991626   -0.002199385673253052
0.08982217325661619   0.017103494458991626   -0.002199385673253052
0.08982217325661619   0.017103494458991626   -0.002199385673253052
0.08982217325661619   0.017103494458991626   -0.002199385673253052
-0.026818884737312174   0.0010937153997477985   0.0006328957654549627
-0.026818884737312174   0.0010937153997477985   0.0006328957654549627
-0.026818884737312174   0.0010937153997477985   0.0006328957654549627
-0.026818884737312174   0.0010937153997477985   0.0006328957654549627
-0.03618044462143485   -0.01400252649224782   -0.007783058155422429
-0.03618044462143485   -0.01400252649224782   -0.007783058155422429
-0.03618044462143485   -0.01400252649224782   -0.007783058155422429
-0.03618044462143485   -0.01400252649224782   -0.007783058155422429
0.08756646482212907   0.020484262303299618   0.008414900651959885
0.08756646482212907   0.020484262303299618   0.008414900651959885
0.08756646482212907   0.020484262303299618   0.008414900651959885
0.08756646482212907   0.020484262303299618   0.008414900651959885
0.02797707977869311   0.0058629514730639395   0.0010921979307818067
0.02797707977869311   0.0058629514730639395   0.0010921979307818067
0.02797707977869311   0.0058629514730639395   0.0010921979307818067
0.02797707977869311   0.0058629514730639395   0.0010921979307818067
0.08382835522052522   0.011331306747230468   -0.0011226917999910292
0.08382835522052522   0.011331306747230468   -0.0011226917999910292
0.08382835522052522   0.011331306747230468   -0.0011226917999910292
0.08382835522052522   0.011331306747230468   -0.0011226917999910292
-0.03250410928249798   -0.004911345198847068   0.0015074372458611673
-0.03250410928249798   -0.004911345198847068   0.0015074372458611673
-0.03250410928249798   -0.004911345198847068   0.0015074372458611673
-0.03250410928249798   -0.004911345198847068   0.0015074372458611673
-0.041564317536050034   -0.018515248714512805   -0.0063342307456634075
-0.041564317536050034   -0.018515248714512805   -0.0063342307456634075
-0.041564317536050034   -0.018515248714512805   -0.0063342307456634075
-0.041564317536050034   -0.018515248714512805   -0.0063342307456634075
0.08095195428173436   0.015228338754172503   0.009150584985388196
0.08095195428173436   0.015228338754172503   0.009150584985388196
0.08095195428173436   0.015228338754172503   0.009150584985388196
0.08095195428173436   0.015228338754172503   0.009150584985388196
0.02129087177015452   0.000693409451311724   -0.0013901457480764736
0.02129087177015452   0.000693409451311724   -0.0013901457480764736
0.02129087177015452   0.000693409451311724   -0.0013901457480764736
0.02129087177015452   0.000693409451311724   -0.0013901457480764736
0.07733222442473   0.006489133931402871   -0.00020885947686507611
0.07733222442473   0.006489133931402871   -0.00020885947686507611
0.07733222442473   0.006489133931402871   -0.00020885947686507611
0.07733222442473   0.006489133931402871   -0.00020885947686507611
-0.03809325523301275   -0.00992471144571186   0.0024305435007211476
-0.03809325523301275   -0.00992471144571186   0.0024305435007211476
-0.03809325523301275   -0.00992471144571186   0.0024305435007211476
-0.03809325523301275   -0.00992471144571186   0.0024305435007211476
-0.04687028020874683   -0.022698820498694837   -0.004996978741545532
-0.04687028020874683   -0.022698820498694837   -0.004996978741545532
-0.04687028020874683   -0.022698820498694837   -0.004996978741545532
-0.04687028020874683   -0.022698820498694837   -0.004996978741545532
0.07498350101498362   0.010235589729170394   0.00996563048145984
0.07498350101498362   0.010235589729170394   0.00996563048145984
0.07498350101498362   0.010235589729170394   0.00996563048145984
0.07498350101498362   0.010235589729170394   0.00996563048145984
0.015994476288761682   -0.003525296736695353   -0.0035607676790972405
0.015994476288761682   -0.003525296736695353   -0.0035607676790972405
0.015994476288761682   -0.003525296736695353   -0.0035607676790972405
0.015994476288761682   -0.003525296736695353   -0.0035607676790972405
-0.022520846572497137   0.021222862697052706   0.001993939292225218
-0.022520846572497137   0.021222862697052706   0.001993939292225218
-0.022520846572497137   0.021222862697052706   0.001993939292225218
-0.022520846572497137   0.021222862697052706   0.001993939292225218
-0.14082949135868536   -0.0039478064512419135   -0.004324351134910496
-0.14082949135868536   -0.0039478064512419135   -0.004324351134910496
-0.14082949135868536   -0.0039478064512419135   -0.004324351134910496
-0.14082949135868536   -0.0039478064512419135   -0.004324351134910496
-0.14616937752307305   -0.008699955259317469   -0.0032070418739580343
-0.14616937752307305   -0.008699955259317469   -0.0032070418739580343
-0.14616937752307305   -0.008699955259317469   -0.0032070418739580343
-0.14616937752307305   -0.008699955259317469   -0.0032070418739580343
-0.028045366389906717   0.015600791795820017   0.003289014714150402
-0.028045366389906717   0.015600791795820017   0.003289014714150402
-0.028045366389906717   0.015600791795820017   0.003289014714150402
-0.028045366389906717   0.015600791795820017   0.003289014714150402
-0.08417981650564585   0.005932349123745576   0.0016980349014478991
-0.08417981650564585   0.005932349123745576   0.0016980349014478991
-0.08417981650564585   0.005932349123745576   0.0016980349014478991
-0.08417981650564585   0.005932349123745576   0.0016980349014478991
-0.027898972123072838   0.016266574803587674   0.0033552030405521287
-0.027898972123072838   0.016266574803587674   0.0033552030405521287
-0.027898972123072838   0.016266574803587674   0.0033552030405521287
-0.027898972123072838   0.016266574803587674   0.0033552030405521287
-0.1463388023826437   -0.009388768859819353   -0.003365352571309446
-0.1463388023826437   -0.009388768859819353   -0.003365352571309446
-0.1463388023826437   -0.009388768859819353   -0.003365352571309446
-0.1463388023826437   -0.009388768859819353   -0.003365352571309446
-0.15161379232744185   -0.01361701359385534   -0.0019257185935712485
-0.15161379232744185   -0.01361701359385534   -0.0019257185935712485
-0.15161379232744185   -0.01361701359385534   -0.0019257185935712485
-0.15161379232744185   -0.01361701359385534   -0.0019257185935712485
-0.03369788641414527   0.010193104408371305   0.004289571740975384
-0.03369788641414527   0.010193104408371305   0.004289571740975384
-0.03369788641414527   0.010193104408371305   0.004289571740975384
-0.03369788641414527   0.010193104408371305   0.004289571740975384
-0.08977479643398782   0.0011222402826172213   -0.0004244379193739569
-0.08977479643398782   0.0011222402826172213   -0.0004244379193739569
-0.08977479643398782   0.0011222402826172213   -0.0004244379193739569
-0.08977479643398782   0.0011222402826172213   -0.0004244379193739569
-0.03343609905160232   0.011301659477032582   0.004489953485028856
-0.03343609905160232   0.011301659477032582   0.004489953485028856
-0.03343609905160232   0.011301659477032582   0.004489953485028856
-0.03343609905160232   0.011301659477032582   0.004489953485028856
-0.15197367690520017   -0.014823665877732033   -0.0025184891984863633
-0.15197367690520017   -0.014823665877732033   -0.0025184891984863633
-0.15197367690520017   -0.014823665877732033   -0.0025184891984863633
-0.15197367690520017   -0.014823665877732033   -0.0025184891984863633
-0.15695681730363917   -0.018306525434686312   -0.0006724874946028559
-0.15695681730363917   -0.018306525434686312   -0.0006724874946028559
-0.15695681730363917   -0.018306525434686312   -0.0006724874946028559
-0.15695681730363917   -0.018306525434686312   -0.0006724874946028559
-0.03931071618143918   0.004941689413432258   0.005160331482864685
-0.03931071618143918   0.004941689413432258   0.005160331482864685
-0.03931071618143918   0.004941689413432258   0.005160331482864685
-0.03931071618143918   0.004941689413432258   0.005160331482864685
-0.09560876355671605   -0.003689735074842205   -0.0027302014027992738
-0.09560876355671605   -0.003689735074842205   -0.0027302014027992738
-0.09560876355671605   -0.003689735074842205   -0.0027302014027992738
-0.09560876355671605   -0.003689735074842205   -0.0027302014027992738
-0.1329854771487417   0.024815153508995186   0.0061327599545706706
-0.1329854771487417   0.024815153508995186   0.0061327599545706706
-0.1329854771487417   0.024815153508995186   0.0061327599545706706
-0.1329854771487417   0.024815153508995186   0.0061327599545706706
-0.25318447466383176   -0.009008435115043942   -0.008684078673986472
-0.25318447466383176   -0.009008435115043942   -0.008684078673986472
-0.25318447466383176   -0.009008435115043942   -0.008684078673986472
-0.25318447466383176   -0.009008435115043942   -0.008684078673986472
-0.25516475612549605   -0.004440207046276123   0.0016840237126726845
-0.25516475612549605   -0.004440207046276123   0.0016840237126726845
-0.25516475612549605   -0.004440207046276123   0.0016840237126726845
-0.25516475612549605   -0.004440207046276123   0.0016840237126726845
-0.14209602938171362   0.010206534185655439   -0.0017467906121366797
-0.14209602938171362   0.010206534185655439   -0.0017467906121366797
-0.14209602938171362   0.010206534185655439   -0.0017467906121366797
-0.14209602938171362   0.010206534185655439   -0.0017467906121366797
-0.19466289103109   0.005435577093709114   0.0024409881149836544
-0.19466289103109   0.005435577093709114   0.0024409881149836544
-0.19466289103109   0.005435577093709114   0.0024409881149836544
-0.19466289103109   0.005435577093709114   0.0024409881149836544
-0.1382709806551931   0.020098950622062316   0.007486036584061932
-0.1382709806551931   0.020098950622062316   0.007486036584061932
-0.1382709806551931   0.020098950622062316   0.007486036584061932
-0.1382709806551931   0.020098950622062316   0.007486036584061932
-0.25916912939891124   -0.014511948029577504   -0.008266101671103782
-0.25916912939891124   -0.014511948029577504   -0.008266101671103782
-0.25916912939891124   -0.014511948029577504   -0.008266101671103782
-0.25916912939891124   -0.014511948029577504   -0.008266101671103782
-0.26159647677062386   -0.009316225054772635   0.0022652482346478455
-0.26159647677062386   -0.009316225054772635   0.0022652482346478455
-0.26159647677062386   -0.009316225054772635   0.0022652482346478455
-0.26159647677062386   -0.009316225054772635   0.0022652482346478455
-0.14760171679194092   0.005214855976067641   -0.000697210485991584
-0.14760171679194092   0.005214855976067641   -0.000697210485991584
-0.14760171679194092   0.005214855976067641   -0.000697210485991584
-0.14760171679194092   0.005214855976067641   -0.000697210485991584
-0.19931376592301903   0.001107637238213284   0.0003224409810887105
-0.19931376592301903   0.001107637238213284   0.0003224409810887105
-0.19931376592301903   0.001107637238213284   0.0003224409810887105
-0.19931376592301903   0.001107637238213284   0.0003224409810887105
-0.14363632829287257   0.01557639382577667   0.008768194159643061
-0.14363632829287257   0.01557639382577667   0.008768194159643061
-0.14363632829287257   0.01557639382577667   0.008768194159643061
-0.14363632829287257   0.01557639382577667   0.008768194159643061
-0.2655840034993885   -0.019699901134177883   -0.0072887093297717
-0.2655840034993885   -0.019699901134177883   -0.0072887093297717
-0.2655840034993885   -0.019699901134177883   -0.0072887093297717
-0.2655840034993885   -0.019699901134177883   -0.0072887093297717
-0.2672995143301526   -0.014544364248903555   0.003609237866197844
-0.2672995143301526   -0.014544364248903555   0.003609237866197844
-0.2672995143301526   -0.014544364248903555   0.003609237866197844
-0.2672995143301526   -0.014544364248903555   0.003609237866197844
-0.15320831429791937   -0.00036317866600770604   0.00012668076531456053
-0.15320831429791937   -0.00036317866600770604   0.00012668076531456053
-0.15320831429791937   -0.00036317866600770604   0.00012668076531456053
-0.15320831429791937   -0.00036317866600770604   0.00012668076531456053
-0.20646176950245454   -0.003993198198040955   -0.0021671756355024965
-0.20646176950245454   -0.003993198198040955   -0.0021671756355024965
-0.20646176950245454   -0.003993198198040955   -0.0021671756355024965
-0.20646176950245454   -0.003993198198040955   -0.0021671756355024965
-0.24312026931344896   0.02303962539878869   0.00958888756409498
-0.24312026931344896   0.02303962539878869   0.00958888756409498
-0.24312026931344896   0.02303962539878869   0.00958888756409498
-0.24312026931344896   0.02303962539878869   0.00958888756409498
-0.35979214584328706   -0.016720222030144297   -0.01101369770174698
-0.35979214584328706   -0.016720222030144297   -0.01101369770174698
-0.35979214584328706   -0.016720222030144297   -0.01101369770174698
-0.35979214584328706   -0.016720222030144297   -0.01101369770174698
-0.36303981249176465   -0.0011452063153162412   0.009472424784612545
-0.36303981249176465   -0.0011452063153162412   0.009472424784612545
-0.36303981249176465   -0.0011452063153162412   0.009472424784612545
-0.36303981249176465   -0.0011452063153162412   0.009472424784612545
-0.2551581895303233   0.003794820222108926   -0.006518170579854205
-0.2551581895303233   0.003794820222108926   -0.006518170579854205
-0.2551581895303233   0.003794820222108926   -0.006518170579854205
-0.2551581895303233   0.003794820222108926   -0.006518170579854205
-0.29178357276420674   0.005153187092441974   0.007512772331771715
-0.29178357276420674   0.005153187092441974   0.007512772331771715
-0.29178357276420674   0.005153187092441974   0.007512772331771715
-0.29178357276420674   0.005153187092441974   0.007512772331771715
-0.24789944944701628   0.02225204279039135   0.011318307268402158
-0.24789944944701628   0.02225204279039135   0.011318307268402158
-0.24789944944701628   0.02225204279039135   0.011318307268402158
-0.24789944944701628   0.02225204279039135   0.011318307268402158
-0.37045561259239257   -0.01975948890091834   -0.008992293132921299
-0.37045561259239257   -0.01975948890091834   -0.008992293132921299
-0.37045561259239257   -0.01975948890091834   -0.008992293132921299
-0.37045561259239257   -0.01975948890091834   -0.008992293132921299
-0.3721665968268858   -0.003841644421627294   0.011920915680650887
-0.3721665968268858   -0.003841644421627294   0.011920915680650887
-0.3721665968268858   -0.003841644421627294   0.011920915680650887
-0.3721665968268858   -0.003841644421627294   0.011920915680650887
-0.26108104301164653   0.0010602389687430352   -0.005534046993986828
-0.26108104301164653   0.0010602389687430352   -0.005534046993986828
-0.26108104301164653   0.0010602389687430352   -0.005534046993986828
-0.26108104301164653   0.0010602389687430352   -0.005534046993986828
-0.3043228485196907   0.0020758870296161136   0.004106749136935026
-0.3043228485196907   0.0020758870296161136   0.004106749136935026
-0.3043228485196907   0.0020758870296161136   0.004106749136935026
-0.3043228485196907   0.0020758870296161136   0.004106749136935026
-0.25348878339910064   0.020172694279417064   0.013314795758072255
-0.25348878339910064   0.020172694279417064   0.013314795758072255
-0.25348878339910064   0.020172694279417064   0.013314795758072255
-0.25348878339910064   0.020172694279417064   0.013314795758072255
-0.3798704959471587   -0.023065739240024585   -0.007374485102312724
-0.3798704959471587   -0.023065739240024585   -0.007374485102312724
-0.3798704959471587   -0.023065739240024585   -0.007374485102312724
-0.3798704959471587   -0.023065739240024585   -0.007374485102312724
-0.38437493033545167   -0.012426986574771107   0.01189904519312849
-0.38437493033545167   -0.012426986574771107   0.01189904519312849
-0.38437493033545167   -0.012426986574771107   0.01189904519312849
-0.38437493033545167   -0.012426986574771107   0.01189904519312849
-0.26729812778166   -0.006030533067380217   -0.004897660572866478
-0.26729812778166   -0.006030533067380217   -0.004897660572866478
-0.26729812778166   -0.006030533067380217   -0.004897660572866478
-0.26729812778166   -0.006030533067380217   -0.004897660572866478
-0.30755084531757954   -0.0014944604319367533   0.0025461291711393053
-0.30755084531757954   -0.0014944604319367533   0.0025461291711393053
-0.30755084531757954   -0.0014944604319367533   0.0025461291711393053
-0.30755084531757954   -0.0014944604319367533   0.0025461291711393053
0.11911919213483402   0.007321355566046867   -0.013294884114345915
0.11911919213483402   0.007321355566046867   -0.013294884114345915
0.11911919213483402   0.007321355566046867   -0.013294884114345915
0.11911919213483402   0.007321355566046867   -0.013294884114345915
0.03598673737594507   0.0077752712941401726   0.0062486877388367255
0.03598673737594507   0.0077752712941401726   0.0062486877388367255
0.03598673737594507   0.0077752712941401726   0.0062486877388367255
0.03598673737594507   0.0077752712941401726   0.0062486877388367255
0.023677583916988536   -0.016502315225530792   -0.011760191034834304
0.023677583916988536   -0.016502315225530792   -0.011760191034834304
0.023677583916988536   -0.016502315225530792   -0.011760191034834304
0.023677583916988536   -0.016502315225530792   -0.011760191034834304
0.11614436494535214   0.01949865076561896   0.007513217980037708
0.11614436494535214   0.01949865076561896   0.007513217980037708
0.11614436494535214   0.01949865076561896   0.007513217980037708
0.11614436494535214   0.01949865076561896   0.007513217980037708
0.06948323601083611   0.0032806206346543843   -0.0015647187205113746
0.06948323601083611   0.0032806206346543843   -0.0015647187205113746
0.06948323601083611   0.0032806206346543843   -0.0015647187205113746
0.06948323601083611   0.0032806206346543843   -0.0015647187205113746
0.10836076680644768   0.0003376126412953928   -0.012243734590162527
0.10836076680644768   0.0003376126412953928   -0.012243734590162527
0.10836076680644768   0.0003376126412953928   -0.012243734590162527
0.10836076680644768   0.0003376126412953928   -0.012243734590162527
0.031219049886343005   0.002416590729242573   0.007028232857164925
0.031219049886343005   0.002416590729242573   0.007028232857164925
0.031219049886343005   0.002416590729242573   0.007028232857164925
0.031219049886343005   0.002416590729242573   0.007028232857164925
0.0190464516136857   -0.01878406995965081   -0.010032997290986199
0.0190464516136857   -0.01878406995965081   -0.010032997290986199
0.0190464516136857   -0.01878406995965081   -0.010032997290986199
0.0190464516136857   -0.01878406995965081   -0.010032997290986199
0.10781588411797399   0.016356208196122324   0.009715002107372346
0.10781588411797399   0.016356208196122324   0.009715002107372346
0.10781588411797399   0.016356208196122324   0.009715002107372346
0.10781588411797399   0.016356208196122324   0.009715002107372346
0.06380120131521833   -0.00030962869612049214   -0.0038550134309803656
0.06380120131521833   -0.00030962869612049214   -0.0038550134309803656
0.06380120131521833   -0.00030962869612049214   -0.0038550134309803656
0.06380120131521833   -0.00030962869612049214   -0.0038550134309803656
0.10005897090951331   -0.0025980314917083205   -0.010115324247101347
0.10005897090951331   -0.0025980314917083205   -0.010115324247101347
0.10005897090951331   -0.0025980314917083205   -0.010115324247101347
0.10005897090951331   -0.0025980314917083205   -0.010115324247101347
0.026473887868593005   -0.00015930722537362083   0.008479421249273597
0.026473887868593005   -0.00015930722537362083   0.008479421249273597
0.026473887868593005   -0.00015930722537362083   0.008479421249273597
0.026473887868593005   -0.00015930722537362083   0.008479421249273597
0.014918715189148845   -0.02141511098319781   -0.008377466826180801
0.014918715189148845   -0.02141511098319781   -0.008377466826180801
0.014918715189148845   -0.02141511098319781   -0.008377466826180801
0.014918715189148845   -0.02141511098319781   -0.008377466826180801
0.09746758642403483   0.011411291742901156   0.010837870239794385
0.09746758642403483   0.011411291742901156   0.010837870239794385
0.09746758642403483   0.011411291742901156   0.010837870239794385
0.09746758642403483   0.011411291742901156   0.010837870239794385
0.05562692300305839   -0.0034551250676307377   -0.0067120268841106565
0.05562692300305839   -0.0034551250676307377   -0.0067120268841106565
0.05562692300305839   -0.0034551250676307377   -0.0067120268841106565
0.05562692300305839   -0.0034551250676307377   -0.0067120268841106565
0.03496206963844235   0.012586209325750233   -0.0036855889802873834
0.03496206963844235   0.012586209325750233   -0.0036855889802873834
0.03496206963844235   0.012586209325750233   -0.0036855889802873834
0.03496206963844235   0.012586209325750233   -0.0036855889802873834
-0.04488250171504821   0.0037051944849319993   0.0014268149201454357
-0.04488250171504821   0.0037051944849319993   0.0014268149201454357
-0.04488250171504821   0.0037051944849319993   0.0014268149201454357
-0.04488250171504821   0.0037051944849319993   0.0014268149201454357
-0.052825809014002044   -0.010661061487798591   -0.0069194444673923855
-0.052825809014002044   -0.010661061487798591   -0.0069194444673923855
-0.052825809014002044   -0.010661061487798591   -0.0069194444673923855
-0.052825809014002044   -0.010661061487798591   -0.0069194444673923855
0.033923539287967326   0.015571897276763304   0.0073953733177658035
0.033923539287967326   0.015571897276763304   0.0073953733177658035
0.033923539287967326   0.015571897276763304   0.0073953733177658035
0.033923539287967326   0.015571897276763304   0.0073953733177658035
-0.007500482955736124   0.0050697493576728845   0.001373055159872849
-0.007500482955736124   0.0050697493576728845   0.001373055159872849
-0.007500482955736124   0.0050697493576728845   0.001373055159872849
-0.007500482955736124   0.0050697493576728845   0.001373055159872849
0.0301452378508148   0.0067768245503304365   -0.0027010611415640806
0.0301452378508148   0.0067768245503304365   -0.0027010611415640806
0.0301452378508148   0.0067768245503304365   -0.0027010611415640806
0.0301452378508148   0.0067768245503304365   -0.0027010611415640806
-0.049259672414829175   -0.0020781535993441257   0.002328330640017479
-0.049259672414829175   -0.0020781535993441257   0.002328330640017479
-0.049259672414829175   -0.0020781535993441257   0.002328330640017479
-0.049259672414829175   -0.0020781535993441257   0.002328330640017479
-0.05696376142841979   -0.015276423139215334   -0.005457508771396847
-0.05696376142841979   -0.015276423139215334   -0.005457508771396847
-0.05696376142841979   -0.015276423139215334   -0.005457508771396847
-0.05696376142841979   -0.015276423139215334   -0.005457508771396847
0.02849588538076846   0.010358183145479797   0.00807191843929746
0.02849588538076846   0.010358183145479797   0.00807191843929746
0.02849588538076846   0.010358183145479797   0.00807191843929746
0.02849588538076846   0.010358183145479797   0.00807191843929746
-0.012640008140370288   4.074158788083468e-05   -0.0010425481393766933
-0.012640008140370288   4.074158788083468e-05   -0.0010425481393766933
-0.012640008140370288   4.074158788083468e-05   -0.0010425481393766933
-0.012640008140370288   4.074158788083468e-05   -0.0010425481393766933
0.02482475096906372   0.0018230558331761293   -0.001748626306923039
0.02482475096906372   0.0018230558331761293   -0.001748626306923039
0.02482475096906372   0.0018230558331761293   -0.001748626306923039
0.02482475096906372   0.0018230558331761293   -0.001748626306923039
-0.05356806098936325   -0.007016729799559791   0.0032613000842312374
-0.05356806098936325   -0.007016729799559791   0.0032613000842312374
-0.05356806098936325   -0.007016729799559791   0.0032613000842312374
-0.05356806098936325   -0.007016729799559791   0.0032613000842312374
-0.06106679327580152   -0.019795249571891577   -0.00413827173307255
-0.06106679327580152   -0.019795249571891577   -0.00413827173307255
-0.06106679327580152   -0.019795249571891577   -0.00413827173307255
-0.06106679327580152   -0.019795249571891577   -0.00413827173307255
0.02374243166421304   0.005300844260391885   0.009025160305550704
0.02374243166421304   0.005300844260391885   0.009025160305550704
0.02374243166421304   0.005300844260391885   0.009025160305550704
0.02374243166421304   0.005300844260391885   0.009025160305550704
-0.01703713858530538   -0.004392155741520737   -0.0033043348450106005
-0.01703713858530538   -0.004392155741520737   -0.0033043348450106005
-0.01703713858530538   -0.004392155741520737   -0.0033043348450106005
-0.01703713858530538   -0.004392155741520737   -0.0033043348450106005
-0.0424374229732805   0.016722465063003632   0.0006349380509123688
-0.0424374229732805   0.016722465063003632   0.0006349380509123688
-0.0424374229732805   0.016722465063003632   0.0006349380509123688
-0.0424374229732805   0.016722465063003632   0.0006349380509123688
-0.12453010423966983   -0.001806170162780011   -0.003501901486298571
-0.12453010423966983   -0.001806170162780011   -0.003501901486298571
-0.12453010423966983   -0.001806170162780011   -0.003501901486298571
-0.12453010423966983   -0.001806170162780011   -0.003501901486298571
-0.128278818123881   -0.005529825555566265   -0.0021306203088143983
-0.128278818123881   -0.005529825555566265   -0.0021306203088143983
-0.128278818123881   -0.005529825555566265   -0.0021306203088143983
-0.128278818123881   -0.005529825555566265   -0.0021306203088143983
-0.04678263764585271   0.010274668373796403   0.0023606825117573694
-0.04678263764585271   0.010274668373796403   0.0023606825117573694
-0.04678263764585271   0.010274668373796403   0.0023606825117573694
-0.04678263764585271   0.010274668373796403   0.0023606825117573694
-0.08529561673420638   0.004794884042658529   0.0013996113740139468
-0.08529561673420638   0.004794884042658529   0.0013996113740139468
-0.08529561673420638   0.004794884042658529   0.0013996113740139468
-0.08529561673420638   0.004794884042658529   0.0013996113740139468
-0.04658228917187564   0.011635852456404909   0.0020012407990361277
-0.04658228917187564   0.011635852456404909   0.0020012407990361277
-0.04658228917187564   0.011635852456404909   0.0020012407990361277
-0.04658228917187564   0.011635852456404909   0.0020012407990361277
-0.12866712148288564   -0.007078964523203484   -0.0025229981362014566
-0.12866712148288564   -0.007078964523203484   -0.0025229981362014566
-0.12866712148288564   -0.007078964523203484   -0.0025229981362014566
-0.12866712148288564   -0.007078964523203484   -0.0025229981362014566
-0.13240316064322175   -0.010568707162430038   -0.0008142118839471859
-0.13240316064322175   -0.010568707162430038   -0.0008142118839471859
-0.13240316064322175   -0.010568707162430038   -0.0008142118839471859
-0.13240316064322175   -0.010568707162430038   -0.0008142118839471859
-0.05114691240031884   0.004986499889253485   0.0033638133406390684
-0.05114691240031884   0.004986499889253485   0.0033638133406390684
-0.05114691240031884   0.004986499889253485   0.0033638133406390684
-0.05114691240031884   0.004986499889253485   0.0033638133406390684
-0.08959357983569403   -3.43792185922287e-06   -0.0007579644322356551
-0.08959357983569403   -3.43792185922287e-06   -0.0007579644322356551
-0.08959357983569403   -3.43792185922287e-06   -0.0007579644322356551
-0.08959357983569403   -3.43792185922287e-06   -0.0007579644322356551
-0.05087749889047788   0.006532286433939867   0.003165094345158467
-0.05087749889047788   0.006532286433939867   0.003165094345158467
-0.05087749889047788   0.006532286433939867   0.003165094345158467
-0.05087749889047788   0.006532286433939867   0.003165094345158467
-0.13293887924717102   -0.012380798801224734   -0.0016807132648998585
-0.13293887924717102   -0.012380798801224734   -0.0016807132648998585
-0.13293887924717102   -0.012380798801224734   -0.0016807132648998585
-0.13293887924717102   -0.012380798801224734   -0.0016807132648998585
-0.1364404955062345   -0.015422663225761087   0.0004683476117009625
-0.1364404955062345   -0.015422663225761087   0.0004683476117009625
-0.1364404955062345   -0.015422663225761087   0.0004683476117009625
-0.1364404955062345   -0.015422663225761087   0.0004683476117009625
-0.05544607522848495   -9.9145220583359e-05   0.004269214152202088
-0.05544607522848495   -9.9145220583359e-05   0.004269214152202088
-0.05544607522848495   -9.9145220583359e-05   0.004269214152202088
-0.05544607522848495   -9.9145220583359e-05   0.004269214152202088
-0.09412251506813701   -0.004808898352781352   -0.0031041927343036513
-0.09412251506813701   -0.004808898352781352   -0.0031041927343036513
-0.09412251506813701   -0.004808898352781352   -0.0031041927343036513
-0.09412251506813701   -0.004808898352781352   -0.0031041927343036513
-0.11829932657217274   0.0207288113131388   0.005117005375268175
-0.11829932657217274   0.0207288113131388   0.005117005375268175
-0.11829932657217274   0.0207288113131388   0.005117005375268175
-0.11829932657217274   0.0207288113131388   0.005117005375268175
-0.2027447225090822   -0.006425270233465161   -0.007865619129386337
-0.2027447225090822   -0.006425270233465161   -0.007865619129386337
-0.2027447225090822   -0.006425270233465161   -0.007865619129386337
-0.2027447225090822   -0.006425270233465161   -0.007865619129386337
-0.20310456830878068   -0.0010615599513792845   0.0029212776297567744
-0.20310456830878068   -0.0010615599513792845   0.0029212776297567744
-0.20310456830878068   -0.0010615599513792845   0.0029212776297567744
-0.20310456830878068   -0.0010615599513792845   0.0029212776297567744
-0.12616181983520022   0.005326296793224831   -0.0024017512142036814
-0.12616181983520022   0.005326296793224831   -0.0024017512142036814
-0.12616181983520022   0.005326296793224831   -0.0024017512142036814
-0.12616181983520022   0.005326296793224831   -0.0024017512142036814
-0.16171029794315495   0.004617878543992267   0.0017992814840417821
-0.16171029794315495   0.004617878543992267   0.0017992814840417821
-0.16171029794315495   0.004617878543992267   0.0017992814840417821
-0.16171029794315495   0.004617878543992267   0.0017992814840417821
-0.1222865710951141   0.015814951517744532   0.006485837761709256
-0.1222865710951141   0.015814951517744532   0.006485837761709256
-0.1222865710951141   0.015814951517744532   0.006485837761709256
-0.1222865710951141   0.015814951517744532   0.006485837761709256
-0.2073367100540032   -0.01190710768103536   -0.007393883366701664
-0.2073367100540032   -0.01190710768103536   -0.007393883366701664
-0.2073367100540032   -0.01190710768103536   -0.007393883366701664
-0.2073367100540032   -0.01190710768103536   -0.007393883366701664
-0.208190862015566   -0.006038690301209737   0.003624203351238923
-0.208190862015566   -0.006038690301209737   0.003624203351238923
-0.208190862015566   -0.006038690301209737   0.003624203351238923
-0.208190862015566   -0.006038690301209737   0.003624203351238923
-0.13030782534011198   0.0004409195601464515   -0.0013471620909767824
-0.13030782534011198   0.0004409195601464515   -0.0013471620909767824
-0.13030782534011198   0.0004409195601464515   -0.0013471620909767824
-0.13030782534011198   0.0004409195601464515   -0.0013471620909767824
-0.16532559988701845   0.00016707582640969332   -0.000456346857492863
-0.16532559988701845   0.00016707582640969332   -0.000456346857492863
-0.16532559988701845   0.00016707582640969332   -0.000456346857492863
-0.16532559988701845   0.00016707582640969332   -0.000456346857492863
-0.12633074626278554   0.011170268958549109   0.007808883897252695
-0.12633074626278554   0.011170268958549109   0.007808883897252695
-0.12633074626278554   0.011170268958549109   0.007808883897252695
-0.12633074626278554   0.011170268958549109   0.007808883897252695
-0.21239168220018595   -0.016991780806906276   -0.0064268070661664175
-0.21239168220018595   -0.016991780806906276   -0.0064268070661664175
-0.21239168220018595   -0.016991780806906276   -0.0064268070661664175
-0.21239168220018595   -0.016991780806906276   -0.0064268070661664175
-0.21256492717501702   -0.011259187668855176   0.005003248628167218
-0.21256492717501702   -0.011259187668855176   0.005003248628167218
-0.21256492717501702   -0.011259187668855176   0.005003248628167218
-0.21256492717501702   -0.011259187668855176   0.005003248628167218
-0.13451047221999535   -0.0048211059030388095   -0.00048309327982754
-0.13451047221999535   -0.0048211059030388095   -0.00048309327982754
-0.13451047221999535   -0.0048211059030388095   -0.00048309327982754
-0.13451047221999535   -0.0048211059030388095   -0.00048309327982754
-0.17081307517765185   -0.004745300786987573   -0.0029390512314282097
-0.17081307517765185   -0.004745300786987573   -0.0029390512314282097
-0.17081307517765185   -0.004745300786987573   -0.0029390512314282097
-0.17081307517765185   -0.004745300786987573   -0.0029390512314282097
-0.19398631349594422   0.02045326260020014   0.009047893102640044
-0.19398631349594422   0.02045326260020014   0.009047893102640044
-0.19398631349594422   0.02045326260020014   0.009047893102640044
-0.19398631349594422   0.02045326260020014   0.009047893102640044
-0.2747405260750755   -0.01283290041308914   -0.011671583636634994
-0.2747405260750755   -0.01283290041308914   -0.011671583636634994
-0.2747405260750755   -0.01283290041308914   -0.011671583636634994
-0.2747405260750755   -0.01283290041308914   -0.011671583636634994
-0.27664783891532113   0.0027003813323491707   0.00949928435634481
-0.27664783891532113   0.0027003813323491707   0.00949928435634481
-0.27664783891532113   0.0027003813323491707   0.00949928435634481
-0.27664783891532113   0.0027003813323491707   0.00949928435634481
-0.20495065103548174   -0.00029078763929711593   -0.007079908315832637
-0.20495065103548174   -0.00029078763929711593   -0.007079908315832637
-0.20495065103548174   -0.00029078763929711593   -0.007079908315832637
-0.20495065103548174   -0.00029078763929711593   -0.007079908315832637
-0.2273019942678553   0.004711965288307883   0.005650474952384675
-0.2273019942678553   0.004711965288307883   0.005650474952384675
-0.2273019942678553   0.004711965288307883   0.005650474952384675
-0.2273019942678553   0.004711965288307883   0.005650474952384675
-0.19758495592196798   0.01875388081853222   0.010703898793906914
-0.19758495592196798   0.01875388081853222   0.010703898793906914
-0.19758495592196798   0.01875388081853222   0.010703898793906914
-0.19758495592196798   0.01875388081853222   0.010703898793906914
-0.28439668188116113   -0.01672743497780447   -0.00981711416269774
-0.28439668188116113   -0.01672743497780447   -0.00981711416269774
-0.28439668188116113   -0.01672743497780447   -0.00981711416269774
-0.28439668188116113   -0.01672743497780447   -0.00981711416269774
-0.2846065513934567   -0.00011684367855388511   0.012106048151338759
-0.2846065513934567   -0.00011684367855388511   0.012106048151338759
-0.2846065513934567   -0.00011684367855388511   0.012106048151338759
-0.2846065513934567   -0.00011684367855388511   0.012106048151338759
-0.2095217020416361   -0.0030160223769200994   -0.006052664703405243
-0.2095217020416361   -0.0030160223769200994   -0.006052664703405243
-0.2095217020416361   -0.0030160223769200994   -0.006052664703405243
-0.2095217020416361   -0.0030160223769200994   -0.006052664703405243
-0.23762675303120595   0.0014025549597713322   0.0022339749998206843
-0.23762675303120595   0.0014025549597713322   0.0022339749998206843
-0.23762675303120595   0.0014025549597713322   0.0022339749998206843
-0.23762675303120595   0.0014025549597713322   0.0022339749998206843
-0.20185570275985398   0.016553648569680265   0.012707660758906818
-0.20185570275985398   0.016553648569680265   0.012707660758906818
-0.20185570275985398   0.016553648569680265   0.012707660758906818
-0.20185570275985398   0.016553648569680265   0.012707660758906818
-0.29262871699028725   -0.02004268094020334   -0.008078942571162578
-0.29262871699028725   -0.02004268094020334   -0.008078942571162578
-0.29262871699028725   -0.02004268094020334   -0.008078942571162578
-0.29262871699028725   -0.02004268094020334   -0.008078942571162578
-0.29558111075393095   -0.008216968323328244   0.012453146119672007
-0.29558111075393095   -0.008216968323328244   0.012453146119672007
-0.29558111075393095   -0.008216968323328244   0.012453146119672007
-0.29558111075393095   -0.008216968323328244   0.012453146119672007
-0.21424961229030065   -0.00939943974525146   -0.005279924871858441
-0.21424961229030065   -0.00939943974525146   -0.005279924871858441
-0.21424961229030065   -0.00939943974525146   -0.005279924871858441
-0.21424961229030065   -0.00939943974525146   -0.005279924871858441
-0.240764524541023   -0.002165092250548978   0.000251791888708228
-0.240764524541023   -0.002165092250548978   0.000251791888708228
-0.240764524541023   -0.002165092250548978   0.000251791888708228
-0.240764524541023   -0.002165092250548978   0.000251791888708228
0.02841936752667505   0.002318497338702618   -0.01346781218908103
0.02841936752667505   0.002318497338702618   -0.01346781218908103
0.02841936752667505   0.002318497338702618   -0.01346781218908103
0.02841936752667505   0.002318497338702618   -0.01346781218908103
-0.01782397024154023   0.00992991632521583   0.006785918159765722
-0.01782397024154023   0.00992991632521583   0.006785918159765722
-0.01782397024154023   0.00992991632521583   0.006785918159765722
-0.01782397024154023   0.00992991632521583   0.006785918159765722
-0.028810321676373915   -0.013175089396690917   -0.010900796209793288
-0.028810321676373915   -0.013175089396690917   -0.010900796209793288
-0.028810321676373915   -0.013175089396690917   -0.010900796209793288
-0.028810321676373915   -0.013175089396690917   -0.010900796209793288
0.026756038285443266   0.014882098551475138   0.008275365173794036
0.026756038285443266   0.014882098551475138   0.008275365173794036
0.026756038285443266   0.014882098551475138   0.008275365173794036
0.026756038285443266   0.014882098551475138   0.008275365173794036
0.0013864349795639835   0.003276536567634023   0.0011299872498913824
0.0013864349795639835   0.003276536567634023   0.0011299872498913824
0.0013864349795639835   0.003276536567634023   0.0011299872498913824
0.0013864349795639835   0.003276536567634023   0.0011299872498913824
0.018929416662959254   -0.003868426136913166   -0.0121072182502377
0.018929416662959254   -0.003868426136913166   -0.0121072182502377
0.018929416662959254   -0.003868426136913166   -0.0121072182502377
0.018929416662959254   -0.003868426136913166   -0.0121072182502377
-0.021431912076578474   0.005127223269008817   0.007688939123484173
-0.021431912076578474   0.005127223269008817   0.007688939123484173
-0.021431912076578474   0.005127223269008817   0.007688939123484173
-0.021431912076578474   0.005127223269008817   0.007688939123484173
-0.032464034050124685   -0.015501162785590931   -0.009291934633095265
-0.032464034050124685   -0.015501162785590931   -0.009291934633095265
-0.032464034050124685   -0.015501162785590931   -0.009291934633095265
-0.032464034050124685   -0.015501162785590931   -0.009291934633095265
0.01931537046826121   0.011745872576554604   0.011413768436610225
0.01931537046826121   0.011745872576554604   0.011413768436610225
0.01931537046826121   0.011745872576554604   0.011413768436610225
0.01931537046826121   0.011745872576554604   0.011413768436610225
-0.004370943380847908   -0.0002169146666981714   -0.0015269603098968674
-0.004370943380847908   -0.0002169146666981714   -0.0015269603098968674
-0.004370943380847908   -0.0002169146666981714   -0.0015269603098968674
-0.004370943380847908   -0.0002169146666981714   -0.0015269603098968674
0.011290526283326316   -0.00690398314548506   -0.010060596766024582
0.011290526283326316   -0.00690398314548506   -0.010060596766024582
0.011290526283326316   -0.00690398314548506   -0.010060596766024582
0.011290526283326316   -0.00690398314548506   -0.010060596766024582
-0.025067808235589097   0.0025200745660506826   0.009667957087940932
-0.025067808235589097   0.0025200745660506826   0.009667957087940932
-0.025067808235589097   0.0025200745660506826   0.009667957087940932
-0.025067808235589097   0.0025200745660506826   0.009667957087940932
-0.03580651541702733   -0.018958398193568034   -0.007736477601489402
-0.03580651541702733   -0.018958398193568034   -0.007736477601489402
-0.03580651541702733   -0.018958398193568034   -0.007736477601489402
-0.03580651541702733   -0.018958398193568034   -0.007736477601489402
0.008978196643488777   0.005251221772483272   0.013072248535540645
0.008978196643488777   0.005251221772483272   0.013072248535540645
0.008978196643488777   0.005251221772483272   0.013072248535540645
0.008978196643488777   0.005251221772483272   0.013072248535540645
-0.010810306014573804   -0.0036842011338658804   -0.004639803196795129
-0.010810306014573804   -0.0036842011338658804   -0.004639803196795129
-0.010810306014573804   -0.0036842011338658804   -0.004639803196795129
-0.010810306014573804   -0.0036842011338658804   -0.004639803196795129
-0.020771091862614985   0.0071984656227592645   -0.0052182392431514655
-0.020771091862614985   0.0071984656227592645   -0.0052182392431514655
-0.020771091862614985   0.0071984656227592645   -0.0052182392431514655
-0.020771091862614985   0.0071984656227592645   -0.0052182392431514655
-0.06351690483759682   0.0026969365599890157   0.0017149203046989891
-0.06351690483759682   0.0026969365599890157   0.0017149203046989891
-0.06351690483759682   0.0026969365599890157   0.0017149203046989891
-0.06351690483759682   0.0026969365599890157   0.0017149203046989891
-0.06924961224084142   -0.007686809280156245   -0.005725007938030856
-0.06924961224084142   -0.007686809280156245   -0.005725007938030856
-0.06924961224084142   -0.007686809280156245   -0.005725007938030856
-0.06924961224084142   -0.007686809280156245   -0.005725007938030856
-0.02146663972014065   0.007142602646399689   0.005499921528282409
-0.02146663972014065   0.007142602646399689   0.005499921528282409
-0.02146663972014065   0.007142602646399689   0.005499921528282409
-0.02146663972014065   0.007142602646399689   0.005499921528282409
-0.0436859655203792   0.0021922747618229998   0.0012120357043528592
-0.0436859655203792   0.0021922747618229998   0.0012120357043528592
-0.0436859655203792   0.0021922747618229998   0.0012120357043528592
-0.0436859655203792   0.0021922747618229998   0.0012120357043528592
-0.024547599647400976   0.0015384497781770895   -0.004300725239796969
-0.024547599647400976   0.0015384497781770895   -0.004300725239796969
-0.024547599647400976   0.0015384497781770895   -0.004300725239796969
-0.024547599647400976   0.0015384497781770895   -0.004300725239796969
-0.06654665944702667   -0.002460663545380725   0.0025636102962663656
-0.06654665944702667   -0.002460663545380725   0.0025636102962663656
-0.06654665944702667   -0.002460663545380725   0.0025636102962663656
-0.06654665944702667   -0.002460663545380725   0.0025636102962663656
-0.0721092345875205   -0.012231682032258207   -0.004272287481103602
-0.0721092345875205   -0.012231682032258207   -0.004272287481103602
-0.0721092345875205   -0.012231682032258207   -0.004272287481103602
-0.0721092345875205   -0.012231682032258207   -0.004272287481103602
-0.025841956270691933   0.002113171539681425   0.006204119938796003
-0.025841956270691933   0.002113171539681425   0.006204119938796003
-0.025841956270691933   0.002113171539681425   0.006204119938796003
-0.025841956270691933   0.002113171539681425   0.006204119938796003
-0.04729487300528386   -0.002406800907444384   -0.0011099737666833615
-0.04729487300528386   -0.002406800907444384   -0.0011099737666833615
-0.04729487300528386   -0.002406800907444384   -0.0011099737666833615
-0.04729487300528386   -0.002406800907444384   -0.0011099737666833615
-0.02882236965651482   -0.003364005533303125   -0.0032207699173338695
-0.02882236965651482   -0.003364005533303125   -0.0032207699173338695
-0.02882236965651482   -0.003364005533303125   -0.0032207699173338695
-0.02882236965651482   -0.003364005533303125   -0.0032207699173338695
-0.06953678036419456   -0.007162464121770774   0.0035207657250376344
-0.06953678036419456   -0.007162464121770774   0.0035207657250376344
-0.06953678036419456   -0.007162464121770774   0.0035207657250376344
-0.06953678036419456   -0.007162464121770774   0.0035207657250376344
-0.07498761893945095   -0.01684796982356867   -0.002988859510588077
-0.07498761893945095   -0.01684796982356867   -0.002988859510588077
-0.07498761893945095   -0.01684796982356867   -0.002988859510588077
-0.07498761893945095   -0.01684796982356867   -0.002988859510588077
-0.029510636627190646   -0.002909048618570683   0.007693566772696348
-0.029510636627190646   -0.002909048618570683   0.007693566772696348
-0.029510636627190646   -0.002909048618570683   0.007693566772696348
-0.029510636627190646   -0.002909048618570683   0.007693566772696348
-0.050857495017681005   -0.006881666590754174   -0.0034517977983196235
-0.050857495017681005   -0.006881666590754174   -0.0034517977983196235
-0.050857495017681005   -0.006881666590754174   -0.0034517977983196235
-0.050857495017681005   -0.006881666590754174   -0.0034517977983196235
-0.062259610414876494   0.011239978912580247   -0.0005416499342906205
-0.062259610414876494   0.011239978912580247   -0.0005416499342906205
-0.062259610414876494   0.011239978912580247   -0.0005416499342906205
-0.062259610414876494   0.011239978912580247   -0.0005416499342906205
-0.10853493693341303   -0.0038644549015590633   -0.003155558473087002
-0.10853493693341303   -0.0038644549015590633   -0.003155558473087002
-0.10853493693341303   -0.0038644549015590633   -0.003155558473087002
-0.10853493693341303   -0.0038644549015590633   -0.003155558473087002
-0.10973104362500563   -0.0029409587401553403   -0.00076904707884075
-0.10973104362500563   -0.0029409587401553403   -0.00076904707884075
-0.10973104362500563   -0.0029409587401553403   -0.00076904707884075
-0.10973104362500563   -0.0029409587401553403   -0.00076904707884075
-0.06617826186571407   0.0010847275586424402   0.0008602070988062236
-0.06617826186571407   0.0010847275586424402   0.0008602070988062236
-0.06617826186571407   0.0010847275586424402   0.0008602070988062236
-0.06617826186571407   0.0010847275586424402   0.0008602070988062236
-0.08648510040614596   0.001280064300650887   0.0004923151036318645
-0.08648510040614596   0.001280064300650887   0.0004923151036318645
-0.08648510040614596   0.001280064300650887   0.0004923151036318645
-0.08648510040614596   0.001280064300650887   0.0004923151036318645
-0.06514278887370767   0.0062958012911417255   0.00082649832633895
-0.06514278887370767   0.0062958012911417255   0.00082649832633895
-0.06514278887370767   0.0062958012911417255   0.00082649832633895
-0.06514278887370767   0.0062958012911417255   0.00082649832633895
-0.11113369110660197   -0.008519206962243276   -0.002204036264734463
-0.11113369110660197   -0.008519206962243276   -0.002204036264734463
-0.11113369110660197   -0.008519206962243276   -0.002204036264734463
-0.11113369110660197   -0.008519206962243276   -0.002204036264734463
-0.11242087154812207   -0.007825672559746442   0.0005769102434426661
-0.11242087154812207   -0.007825672559746442   0.0005769102434426661
-0.11242087154812207   -0.007825672559746442   0.0005769102434426661
-0.11242087154812207   -0.007825672559746442   0.0005769102434426661
-0.06919754086661543   -0.003725889691885219   0.0017803887830477151
-0.06919754086661543   -0.003725889691885219   0.0017803887830477151
-0.06919754086661543   -0.003725889691885219   0.0017803887830477151
-0.06919754086661543   -0.003725889691885219   0.0017803887830477151
-0.08938887022472441   -0.00316319065488517   -0.0016380039324537087
-0.08938887022472441   -0.00316319065488517   -0.0016380039324537087
-0.08938887022472441   -0.00316319065488517   -0.0016380039324537087
-0.08938887022472441   -0.00316319065488517   -0.0016380039324537087
-0.06814232911005179   0.0013173045449793516   0.002013253329001358
-0.06814232911005179   0.0013173045449793516   0.002013253329001358
-0.06814232911005179   0.0013173045449793516   0.002013253329001358
-0.06814232911005179   0.0013173045449793516   0.002013253329001358
-0.1139199848213085   -0.013312768313233792   -0.0014315603690020903
-0.1139199848213085   -0.013312768313233792   -0.0014315603690020903
-0.1139199848213085   -0.013312768313233792   -0.0014315603690020903
-0.1139199848213085   -0.013312768313233792   -0.0014315603690020903
-0.11503662845402841   -0.012495749338893466   0.001876746786195014
-0.11503662845402841   -0.012495749338893466   0.001876746786195014
-0.11503662845402841   -0.012495749338893466   0.001876746786195014
-0.11503662845402841   -0.012495749338893466   0.001876746786195014
-0.07211122035708672   -0.008244339144291589   0.00278950272195504
-0.07211122035708672   -0.008244339144291589   0.00278950272195504
-0.07211122035708672   -0.008244339144291589   0.00278950272195504
-0.07211122035708672   -0.008244339144291589   0.00278950272195504
-0.09251324604731644   -0.007625812781760279   -0.003954426252268136
-0.09251324604731644   -0.007625812781760279   -0.003954426252268136
-0.09251324604731644   -0.007625812781760279   -0.003954426252268136
-0.09251324604731644   -0.007625812781760279   -0.003954426252268136
-0.10307266265153245   0.015950447642394845   0.004340910392363924
-0.10307266265153245   0.015950447642394845   0.004340910392363924
-0.10307266265153245   0.015950447642394845   0.004340910392363924
-0.10307266265153245   0.015950447642394845   0.004340910392363924
-0.15204343568776293   -0.006567944325260689   -0.007020846234376667
-0.15204343568776293   -0.006567944325260689   -0.007020846234376667
-0.15204343568776293   -0.006567944325260689   -0.007020846234376667
-0.15204343568776293   -0.006567944325260689   -0.007020846234376667
-0.15013713348783347   0.0018747654685939835   0.004315905815275337
-0.15013713348783347   0.0018747654685939835   0.004315905815275337
-0.15013713348783347   0.0018747654685939835   0.004315905815275337
-0.15013713348783347   0.0018747654685939835   0.004315905815275337
-0.1099809557666633   -0.0019064127232159174   -0.003053153804068425
-0.1099809557666633   -0.0019064127232159174   -0.003053153804068425
-0.1099809557666633   -0.0019064127232159174   -0.003053153804068425
-0.1099809557666633   -0.0019064127232159174   -0.003053153804068425
-0.12831996947586513   0.0023392533325555624   0.0007118700708641625
-0.12831996947586513   0.0023392533325555624   0.0007118700708641625
-0.12831996947586513   0.0023392533325555624   0.0007118700708641625
-0.12831996947586513   0.0023392533325555624   0.0007118700708641625
-0.10563637216019545   0.011053672393397905   0.005709679111656906
-0.10563637216019545   0.011053672393397905   0.005709679111656906
-0.10563637216019545   0.011053672393397905   0.005709679111656906
-0.10563637216019545   0.011053672393397905   0.005709679111656906
-0.15501915066376076   -0.01162275321747994   -0.00659666137829104
-0.15501915066376076   -0.01162275321747994   -0.00659666137829104
-0.15501915066376076   -0.01162275321747994   -0.00659666137829104
-0.15501915066376076   -0.01162275321747994   -0.00659666137829104
-0.15372587963338413   -0.002949289614152882   0.005119846330798693
-0.15372587963338413   -0.002949289614152882   0.005119846330798693
-0.15372587963338413   -0.002949289614152882   0.005119846330798693
-0.15372587963338413   -0.002949289614152882   0.005119846330798693
-0.11264597892366175   -0.0063097056319203   -0.0020645935620818723
-0.11264597892366175   -0.0063097056319203   -0.0020645935620818723
-0.11264597892366175   -0.0063097056319203   -0.0020645935620818723
-0.11264597892366175   -0.0063097056319203   -0.0020645935620818723
-0.13074724287878778   -0.0019365069915620627   -0.001596117099572394
-0.13074724287878778   -0.0019365069915620627   -0.001596117099572394
-0.13074724287878778   -0.0019365069915620627   -0.001596117099572394
-0.13074724287878778   -0.0019365069915620627   -0.001596117099572394
-0.10825814915230603   0.0065277142903819065   0.007037135372394565
-0.10825814915230603   0.0065277142903819065   0.007037135372394565
-0.10825814915230603   0.0065277142903819065   0.007037135372394565
-0.10825814915230603   0.0065277142903819065   0.007037135372394565
-0.1585381528593304   -0.016211152991044676   -0.0056796564220427965
-0.1585381528593304   -0.016211152991044676   -0.0056796564220427965
-0.1585381528593304   -0.016211152991044676   -0.0056796564220427965
-0.1585381528593304   -0.016211152991044676   -0.0056796564220427965
-0.15663828410985098   -0.007839170710820888   0.006554394571117707
-0.15663828410985098   -0.007839170710820888   0.006554394571117707
-0.15663828410985098   -0.007839170710820888   0.006554394571117707
-0.15663828410985098   -0.007839170710820888   0.006554394571117707
-0.11532632679966502   -0.010847682649047325   -0.0012198116318361206
-0.11532632679966502   -0.010847682649047325   -0.0012198116318361206
-0.11532632679966502   -0.010847682649047325   -0.0012198116318361206
-0.11532632679966502   -0.010847682649047325   -0.0012198116318361206
-0.13443897708193916   -0.006346311154377157   -0.003980422991030199
-0.13443897708193916   -0.006346311154377157   -0.003980422991030199
-0.13443897708193916   -0.006346311154377157   -0.003980422991030199
-0.13443897708193916   -0.006346311154377157   -0.003980422991030199
-0.14413466926526824   0.01734466332230542   0.008610378230530569
-0.14413466926526824   0.01734466332230542   0.008610378230530569
-0.14413466926526824   0.01734466332230542   0.008610378230530569
-0.14413466926526824   0.01734466332230542   0.008610378230530569
-0.1879078955726628   -0.009587178037237867   -0.011504717818218848
-0.1879078955726628   -0.009587178037237867   -0.011504717818218848
-0.1879078955726628   -0.009587178037237867   -0.011504717818218848
-0.1879078955726628   -0.009587178037237867   -0.011504717818218848
-0.18813121810978567   0.006387971059185704   0.009494452250877748
-0.18813121810978567   0.006387971059185704   0.009494452250877748
-0.18813121810978567   0.006387971059185704   0.009494452250877748
-0.18813121810978567   0.006387971059185704   0.009494452250877748
-0.15375590802730116   -0.004877874646865576   -0.007025326766605388
-0.15375590802730116   -0.004877874646865576   -0.007025326766605388
-0.15375590802730116   -0.004877874646865576   -0.007025326766605388
-0.15375590802730116   -0.004877874646865576   -0.007025326766605388
-0.16158616619550914   0.003927134252842024   0.0033075444447008603
-0.16158616619550914   0.003927134252842024   0.0033075444447008603
-0.16158616619550914   0.003927134252842024   0.0033075444447008603
-0.16158616619550914   0.003927134252842024   0.0033075444447008603
-0.14636968515754334   0.014872474822100593   0.010155438113217497
-0.14636968515754334   0.014872474822100593   0.010155438113217497
-0.14636968515754334   0.014872474822100593   0.010155438113217497
-0.14636968515754334   0.014872474822100593   0.010155438113217497
-0.1960827627531644   -0.013927700183402666   -0.00994759972342758
-0.1960827627531644   -0.013927700183402666   -0.00994759972342758
-0.1960827627531644   -0.013927700183402666   -0.00994759972342758
-0.1960827627531644   -0.013927700183402666   -0.00994759972342758
-0.1946506095113888   0.0036085901366378972   0.012199305334145098
-0.1946506095113888   0.0036085901366378972   0.012199305334145098
-0.1946506095113888   0.0036085901366378972   0.012199305334145098
-0.1946506095113888   0.0036085901366378972   0.012199305334145098
-0.1568679795092059   -0.007415055132149153   -0.006124887530313907
-0.1568679795092059   -0.007415055132149153   -0.006124887530313907
-0.1568679795092059   -0.007415055132149153   -0.006124887530313907
-0.1568679795092059   -0.007415055132149153   -0.006124887530313907
-0.16942568907110955   0.0005704292603150377   5.071967855847445e-05
-0.16942568907110955   0.0005704292603150377   5.071967855847445e-05
-0.16942568907110955   0.0005704292603150377   5.071967855847445e-05
-0.16942568907110955   0.0005704292603150377   5.071967855847445e-05
-0.14919200761097579   0.012690360679692064   0.01214955614899528
-0.14919200761097579   0.012690360679692064   0.01214955614899528
-0.14919200761097579   0.012690360679692064   0.01214955614899528
-0.14919200761097579   0.012690360679692064   0.01214955614899528
-0.20289345901708125   -0.01706370328266445   -0.008342648775015008
-0.20289345901708125   -0.01706370328266445   -0.008342648775015008
-0.20289345901708125   -0.01706370328266445   -0.008342648775015008
-0.20289345901708125   -0.01706370328266445   -0.008342648775015008
-0.20419386554903599   -0.0037593673350012277   0.012864690438128056
-0.20419386554903599   -0.0037593673350012277   0.012864690438128056
-0.20419386554903599   -0.0037593673350012277   0.012864690438128056
-0.20419386554903599   -0.0037593673350012277   0.012864690438128056
-0.1599985517250623   -0.01279717384898444   -0.005288940366777172
-0.1599985517250623   -0.01279717384898444   -0.005288940366777172
-0.1599985517250623   -0.01279717384898444   -0.005288940366777172
-0.1599985517250623   -0.01279717384898444   -0.005288940366777172
-0.17231319341956228   -0.002794520241004364   -0.002220150784829013
-0.17231319341956228   -0.002794520241004364   -0.002220150784829013
-0.17231319341956228   -0.002794520241004364   -0.002220150784829013
-0.17231319341956228   -0.002794520241004364   -0.002220150784829013
-0.06782724009825314   -0.004324440959091616   -0.014482598405058595
-0.06782724009825314   -0.004324440959091616   -0.014482598405058595
-0.06782724009825314   -0.004324440959091616   -0.014482598405058595
-0.06782724009825314   -0.004324440959091616   -0.014482598405058595
-0.07147091898507853   0.010804314900952888   0.006444660871243119
-0.07147091898507853   0.010804314900952888   0.006444660871243119
-0.07147091898507853   0.010804314900952888   0.006444660871243119
-0.07147091898507853   0.010804314900952888   0.006444660871243119
-0.08114639260764307   -0.01033996935166723   -0.009932543448831458
-0.08114639260764307   -0.01033996935166723   -0.009932543448831458
-0.08114639260764307   -0.01033996935166723   -0.009932543448831458
-0.08114639260764307   -0.01033996935166723   -0.009932543448831458
-0.06954063995222007   0.0064156628946575155   0.009492588593300738
-0.06954063995222007   0.0064156628946575155   0.009492588593300738
-0.06954063995222007   0.0064156628946575155   0.009492588593300738
-0.06954063995222007   0.0064156628946575155   0.009492588593300738
-0.0688358256806407   0.0020034389673882075   0.0065796082361620455
-0.0688358256806407   0.0020034389673882075   0.0065796082361620455
-0.0688358256806407   0.0020034389673882075   0.0065796082361620455
-0.0688358256806407   0.0020034389673882075   0.0065796082361620455
-0.07716995091999279   -0.010004860828794496   -0.01223344252211039
-0.07716995091999279   -0.010004860828794496   -0.01223344252211039
-0.07716995091999279   -0.010004860828794496   -0.01223344252211039
-0.07716995091999279   -0.010004860828794496   -0.01223344252211039
-0.07441783290606822   0.005179803105585714   0.008190482601789874
-0.07441783290606822   0.005179803105585714   0.008190482601789874
-0.07441783290606822   0.005179803105585714   0.008190482601789874
-0.07441783290606822   0.005179803105585714   0.008190482601789874
-0.08418109990766616   -0.012930670630479106   -0.008472477222630947
-0.08418109990766616   -0.012930670630479106   -0.008472477222630947
-0.08418109990766616   -0.012930670630479106   -0.008472477222630947
-0.08418109990766616   -0.012930670630479106   -0.008472477222630947
-0.07703894080312691   0.0029366388984504443   0.01785827947539281
-0.07703894080312691   0.0029366388984504443   0.01785827947539281
-0.07703894080312691   0.0029366388984504443   0.01785827947539281
-0.07703894080312691   0.0029366388984504443   0.01785827947539281
-0.07562026151120288   -0.002427917401890276   0.0027150975170387465
-0.07562026151120288   -0.002427917401890276   0.0027150975170387465
-0.07562026151120288   -0.002427917401890276   0.0027150975170387465
-0.07562026151120288   -0.002427917401890276   0.0027150975170387465
-0.08582369118434892   -0.013492050123118928   -0.009636783409147313
-0.08582369118434892   -0.013492050123118928   -0.009636783409147313
-0.08582369118434892   -0.013492050123118928   -0.009636783409147313
-0.08582369118434892   -0.013492050123118928   -0.009636783409147313
-0.07759609236827687   0.0012982755492576409   0.010223614294578753
-0.07759609236827687   0.0012982755492576409   0.010223614294578753
-0.07759609236827687   0.0012982755492576409   0.010223614294578753
-0.07759609236827687   0.0012982755492576409   0.010223614294578753
-0.08669113944015133   -0.017842958296447088   -0.006729315725471047
-0.08669113944015133   -0.017842958296447088   -0.006729315725471047
-0.08669113944015133   -0.017842958296447088   -0.006729315725471047
-0.08669113944015133   -0.017842958296447088   -0.006729315725471047
-0.08863521979471219   -0.008564010347140433   0.016676972116743315
-0.08863521979471219   -0.008564010347140433   0.016676972116743315
-0.08863521979471219   -0.008564010347140433   0.016676972116743315
-0.08863521979471219   -0.008564010347140433   0.016676972116743315
-0.08176836251873308   -0.0076408897576417684   -0.003516654270916322
-0.08176836251873308   -0.0076408897576417684   -0.003516654270916322
-0.08176836251873308   -0.0076408897576417684   -0.003516654270916322
-0.08176836251873308   -0.0076408897576417684   -0.003516654270916322
-0.07673910948568659   -0.001757403147281334   -0.007334573583562984
-0.07673910948568659   -0.001757403147281334   -0.007334573583562984
-0.07673910948568659   -0.001757403147281334   -0.007334573583562984
-0.07673910948568659   -0.001757403147281334   -0.007334573583562984
-0.08102191195651891   -0.0100859831640468   -0.0004474949658030483
-0.08102191195651891   -0.0100859831640468   -0.0004474949658030483
-0.08102191195651891   -0.0100859831640468   -0.0004474949658030483
-0.08102191195651891   -0.0100859831640468   -0.0004474949658030483
-0.08184883235285326   -0.006804156966530559   -0.003851683903656213
-0.08184883235285326   -0.006804156966530559   -0.003851683903656213
-0.08184883235285326   -0.006804156966530559   -0.003851683903656213
-0.08184883235285326   -0.006804156966530559   -0.003851683903656213
-0.07970789343385448   -0.013097016610710875   1.6999679155177048e-05
-0.07970789343385448   -0.013097016610710875   1.6999679155177048e-05
-0.07970789343385448   -0.013097016610710875   1.6999679155177048e-05
-0.07970789343385448   -0.013097016610710875   1.6999679155177048e-05
-0.07916244627582161   -0.008287409227500658   -8.079020172999498e-05
-0.07916244627582161   -0.008287409227500658   -8.079020172999498e-05
-0.07916244627582161   -0.008287409227500658   -8.079020172999498e-05
-0.07916244627582161   -0.008287409227500658   -8.079020172999498e-05
-0.07974492695011186   -0.006888396673181616   -0.006376787839660565
-0.07974492695011186   -0.006888396673181616   -0.006376787839660565
-0.07974492695011186   -0.006888396673181616   -0.006376787839660565
-0.07974492695011186   -0.006888396673181616   -0.006376787839660565
-0.08233296148279642   -0.013533939550259015   0.0004574530303564226
-0.08233296148279642   -0.013533939550259015   0.0004574530303564226
-0.08233296148279642   -0.013533939550259015   0.0004574530303564226
-0.08233296148279642   -0.013533939550259015   0.0004574530303564226
-0.08342764182329965   -0.0111550835964393   -0.002551470189199918
-0.08342764182329965   -0.0111550835964393   -0.002551470189199918
-0.08342764182329965   -0.0111550835964393   -0.002551470189199918
-0.08342764182329965   -0.0111550835964393   -0.002551470189199918
-0.08291770771778215   -0.01711727826834992   0.0020310913646599633
-0.08291770771778215   -0.01711727826834992   0.0020310913646599633
-0.08291770771778215   -0.01711727826834992   0.0020310913646599633
-0.08291770771778215   -0.01711727826834992   0.0020310913646599633
-0.08124101321857001   -0.01183872238109006   -0.0021448589841591664
-0.08124101321857001   -0.01183872238109006   -0.0021448589841591664
-0.08124101321857001   -0.01183872238109006   -0.0021448589841591664
-0.08124101321857001   -0.01183872238109006   -0.0021448589841591664
-0.08316212186674093   -0.011544447580820301   -0.004763810067663634
-0.08316212186674093   -0.011544447580820301   -0.004763810067663634
-0.08316212186674093   -0.011544447580820301   -0.004763810067663634
-0.08316212186674093   -0.011544447580820301   -0.004763810067663634
-0.08384666813506016   -0.017391354744688215   0.0015896694002464863
-0.08384666813506016   -0.017391354744688215   0.0015896694002464863
-0.08384666813506016   -0.017391354744688215   0.0015896694002464863
-0.08384666813506016   -0.017391354744688215   0.0015896694002464863
-0.08487421654008127   -0.015774295513380394   -0.0012690877884615854
-0.08487421654008127   -0.015774295513380394   -0.0012690877884615854
-0.08487421654008127   -0.015774295513380394   -0.0012690877884615854
-0.08487421654008127   -0.015774295513380394   -0.0012690877884615854
-0.08540462020779452   -0.022118276230799126   0.003978598370663871
-0.08540462020779452   -0.022118276230799126   0.003978598370663871
-0.08540462020779452   -0.022118276230799126   0.003978598370663871
-0.08540462020779452   -0.022118276230799126   0.003978598370663871
-0.08398704907763302   -0.01602970582920971   -0.004726455674890402
-0.08398704907763302   -0.01602970582920971   -0.004726455674890402
-0.08398704907763302   -0.01602970582920971   -0.004726455674890402
-0.08398704907763302   -0.01602970582920971   -0.004726455674890402
-0.07869675199506507   0.0024606317635114325   -0.0013683100860901534
-0.07869675199506507   0.0024606317635114325   -0.0013683100860901534
-0.07869675199506507   0.0024606317635114325   -0.0013683100860901534
-0.07869675199506507   0.0024606317635114325   -0.0013683100860901534
-0.09176917430109019   -0.017456685918661966   -0.004471018053643147
-0.09176917430109019   -0.017456685918661966   -0.004471018053643147
-0.09176917430109019   -0.017456685918661966   -0.004471018053643147
-0.09176917430109019   -0.017456685918661966   -0.004471018053643147
-0.08823883591803251   -0.0032959563849190715   0.0010173614333170988
-0.08823883591803251   -0.0032959563849190715   0.0010173614333170988
-0.08823883591803251   -0.0032959563849190715   0.0010173614333170988
-0.08823883591803251   -0.0032959563849190715   0.0010173614333170988
-0.08390918213062185   -0.018291531159346248   -0.0026660585996834893
-0.08390918213062185   -0.018291531159346248   -0.0026660585996834893
-0.08390918213062185   -0.018291531159346248   -0.0026660585996834893
-0.08390918213062185   -0.018291531159346248   -0.0026660585996834893
-0.08559176044708092   -0.009443803957970093   -0.0018167413359887943
-0.08559176044708092   -0.009443803957970093   -0.0018167413359887943
-0.08559176044708092   -0.009443803957970093   -0.0018167413359887943
-0.08559176044708092   -0.009443803957970093   -0.0018167413359887943
-0.08009923425235882   -0.0018775653433255532   -3.0285024389002657e-05
-0.08009923425235882   -0.0018775653433255532   -3.0285024389002657e-05
-0.08009923425235882   -0.0018775653433255532   -3.0285024389002657e-05
-0.08009923425235882   -0.0018775653433255532   -3.0285024389002657e-05
-0.09252652114276912   -0.02018765954741302   -0.0035293615278739186
-0.09252652114276912   -0.02018765954741302   -0.0035293615278739186
-0.09252652114276912   -0.02018765954741302   -0.0035293615278739186
-0.09252652114276912   -0.02018765954741302   -0.0035293615278739186
-0.08943168495785077   -0.007667453120050981   0.0023067157334542366
-0.08943168495785077   -0.007667453120050981   0.0023067157334542366
-0.08943168495785077   -0.007667453120050981   0.0023067157334542366
-0.08943168495785077   -0.007667453120050981   0.0023067157334542366
-0.08538878488963136   -0.021721121146949223   -0.0017911479703486075
-0.08538878488963136   -0.021721121146949223   -0.0017911479703486075
-0.08538878488963136   -0.021721121146949223   -0.0017911479703486075
-0.08538878488963136   -0.021721121146949223   -0.0017911479703486075
-0.0868373373276106   -0.012756008895319377   -0.0035882249232181288
-0.0868373373276106   -0.012756008895319377   -0.0035882249232181288
-0.0868373373276106   -0.012756008895319377   -0.0035882249232181288
-0.0868373373276106   -0.012756008895319377   -0.0035882249232181288
-0.08170199136600781   -0.006332098206841042   0.0012537967076609773
-0.08170199136600781   -0.006332098206841042   0.0012537967076609773
-0.08170199136600781   -0.006332098206841042   0.0012537967076609773
-0.08170199136600781   -0.006332098206841042   0.0012537967076609773
-0.09365241793523733   -0.023590415513922172   -0.0028739867596073903
-0.09365241793523733   -0.023590415513922172   -0.0028739867596073903
-0.09365241793523733   -0.023590415513922172   -0.0028739867596073903
-0.09365241793523733   -0.023590415513922172   -0.0028739867596073903
-0.0904383269714544   -0.01175228754045267   0.003576867355524979
-0.0904383269714544   -0.01175228754045267   0.003576867355524979
-0.0904383269714544   -0.01175228754045267   0.003576867355524979
-0.0904383269714544   -0.01175228754045267   0.003576867355524979
-0.08655130701389896   -0.024963206870288978   -0.0004656288006414282
-0.08655130701389896   -0.024963206870288978   -0.0004656288006414282
-0.08655130701389896   -0.024963206870288978   -0.0004656288006414282
-0.08655130701389896   -0.024963206870288978   -0.0004656288006414282
-0.08829477580306976   -0.016210651124063037   -0.005531732080832152
-0.08829477580306976   -0.016210651124063037   -0.005531732080832152
-0.08829477580306976   -0.016210651124063037   -0.005531732080832152
-0.08829477580306976   -0.016210651124063037   -0.005531732080832152
-0.08471258390928944   0.009144537395540882   0.004210710591157703
-0.08471258390928944   0.009144537395540882   0.004210710591157703
-0.08471258390928944   0.009144537395540882   0.004210710591157703
-0.08471258390928944   0.009144537395540882   0.004210710591157703
-0.10250447696837982   -0.013347905995995193   -0.0063368833432713165
-0.10250447696837982   -0.013347905995995193   -0.0063368833432713165
-0.10250447696837982   -0.013347905995995193   -0.0063368833432713165
-0.10250447696837982   -0.013347905995995193   -0.0063368833432713165
-0.09730420566200586   0.0023830060267668353   0.0057171898411802514
-0.09730420566200586   0.0023830060267668353   0.0057171898411802514
-0.09730420566200586   0.0023830060267668353   0.0057171898411802514
-0.09730420566200586   0.0023830060267668353   0.0057171898411802514
-0.09139179927271315   -0.014282671550641491   -0.0037607401743636705
-0.09139179927271315   -0.014282671550641491   -0.0037607401743636705
-0.09139179927271315   -0.014282671550641491   -0.0037607401743636705
-0.09139179927271315   -0.014282671550641491   -0.0037607401743636705
-0.0939308010500922   -0.003938135737925209   -0.0010820029668340905
-0.0939308010500922   -0.003938135737925209   -0.0010820029668340905
-0.0939308010500922   -0.003938135737925209   -0.0010820029668340905
-0.0939308010500922   -0.003938135737925209   -0.0010820029668340905
-0.08575153199191209   0.00465140644029003   0.005506518238710127
-0.08575153199191209   0.00465140644029003   0.005506518238710127
-0.08575153199191209   0.00465140644029003   0.005506518238710127
-0.08575153199191209   0.00465140644029003   0.005506518238710127
-0.10358485829581258   -0.017191457317171626   -0.006111609983914918
-0.10358485829581258   -0.017191457317171626   -0.006111609983914918
-0.10358485829581258   -0.017191457317171626   -0.006111609983914918
-0.10358485829581258   -0.017191457317171626   -0.006111609983914918
-0.09923772997873884   -0.001914898385495769   0.006501193725110177
-0.09923772997873884   -0.001914898385495769   0.006501193725110177
-0.09923772997873884   -0.001914898385495769   0.006501193725110177
-0.09923772997873884   -0.001914898385495769   0.006501193725110177
-0.09245446459128029   -0.017497681038042383   -0.002976954515702027
-0.09245446459128029   -0.017497681038042383   -0.002976954515702027
-0.09245446459128029   -0.017497681038042383   -0.002976954515702027
-0.09245446459128029   -0.017497681038042383   -0.002976954515702027
-0.09497892752513248   -0.007545878925773691   -0.003165870534821221
-0.09497892752513248   -0.007545878925773691   -0.003165870534821221
-0.09497892752513248   -0.007545878925773691   -0.003165870534821221
-0.09497892752513248   -0.007545878925773691   -0.003165870534821221
-0.08688631966638635   0.0006069689550801775   0.00675912011564511
-0.08688631966638635   0.0006069689550801775   0.00675912011564511
-0.08688631966638635   0.0006069689550801775   0.00675912011564511
-0.08688631966638635   0.0006069689550801775   0.00675912011564511
-0.10535954595222174   -0.020573219427209206   -0.00544956510059085
-0.10535954595222174   -0.020573219427209206   -0.00544956510059085
-0.10535954595222174   -0.020573219427209206   -0.00544956510059085
-0.10535954595222174   -0.020573219427209206   -0.00544956510059085
-0.10056562036478063   -0.006062669688216662   0.007944546737432808
-0.10056562036478063   -0.006062669688216662   0.007944546737432808
-0.10056562036478063   -0.006062669688216662   0.007944546737432808
-0.10056562036478063   -0.006062669688216662   0.007944546737432808
-0.0934011141764419   -0.02073642775400108   -0.002252928455864111
-0.0934011141764419   -0.02073642775400108   -0.002252928455864111
-0.0934011141764419   -0.02073642775400108   -0.002252928455864111
-0.0934011141764419   -0.02073642775400108   -0.002252928455864111
-0.09672468234604616   -0.010984184189375005   -0.005199290439183145
-0.09672468234604616   -0.010984184189375005   -0.005199290439183145
-0.09672468234604616   -0.010984184189375005   -0.005199290439183145
-0.09672468234604616   -0.010984184189375005   -0.005199290439183145
-0.09424258388692766   0.013143135897626498   0.008481540170367823
-0.09424258388692766   0.013143135897626498   0.008481540170367823
-0.09424258388692766   0.013143135897626498   0.008481540170367823
-0.09424258388692766   0.013143135897626498   0.008481540170367823
-0.10358646945175155   -0.008330562122543982   -0.009090566261100087
-0.10358646945175155   -0.008330562122543982   -0.009090566261100087
-0.10358646945175155   -0.008330562122543982   -0.009090566261100087
-0.10358646945175155   -0.008330562122543982   -0.009090566261100087
-0.10160574875469303   0.008845679157855894   0.009442282984393816
-0.10160574875469303   0.008845679157855894   0.009442282984393816
-0.10160574875469303   0.008845679157855894   0.009442282984393816
-0.10160574875469303   0.008845679157855894   0.009442282984393816
-0.10202748257214796   -0.009953571181614619   -0.00556261750114883
-0.10202748257214796   -0.009953571181614619   -0.00556261750114883
-0.10202748257214796   -0.009953571181614619   -0.00556261750114883
-0.10202748257214796   -0.009953571181614619   -0.00556261750114883
-0.09685924724331818   0.002182481237999658   0.0006019825642237823
-0.09685924724331818   0.002182481237999658   0.0006019825642237823
-0.09685924724331818   0.002182481237999658   0.0006019825642237823
-0.09685924724331818   0.002182481237999658   0.0006019825642237823
-0.09491302434236297   0.010255823280562543   0.009800279185597012
-0.09491302434236297   0.010255823280562543   0.009800279185597012
-0.09491302434236297   0.010255823280562543   0.009800279185597012
-0.09491302434236297   0.010255823280562543   0.009800279185597012
-0.10925590668700871   -0.011899415006852937   -0.008063412512479662
-0.10925590668700871   -0.011899415006852937   -0.008063412512479662
-0.10925590668700871   -0.011899415006852937   -0.008063412512479662
-0.10925590668700871   -0.011899415006852937   -0.008063412512479662
-0.10607197201052265   0.006392857881256809   0.012118670038032669
-0.10607197201052265   0.006392857881256809   0.012118670038032669
-0.10607197201052265   0.006392857881256809   0.012118670038032669
-0.10607197201052265   0.006392857881256809   0.012118670038032669
-0.10353553842281257   -0.011866076945728079   -0.005036669935026208
-0.10353553842281257   -0.011866076945728079   -0.005036669935026208
-0.10353553842281257   -0.011866076945728079   -0.005036669935026208
-0.10353553842281257   -0.011866076945728079   -0.005036669935026208
-0.10170331385962317   -0.0007685973573645609   -0.0019213059426676652
-0.10170331385962317   -0.0007685973573645609   -0.0019213059426676652
-0.10170331385962317   -0.0007685973573645609   -0.0019213059426676652
-0.10170331385962317   -0.0007685973573645609   -0.0019213059426676652
-0.09615728698968327   0.008291469112330491   0.01169704117256171
-0.09615728698968327   0.008291469112330491   0.01169704117256171
-0.09615728698968327   0.008291469112330491   0.01169704117256171
-0.09615728698968327   0.008291469112330491   0.01169704117256171
-0.1141313089493051   -0.014445773682454262   -0.007339383092164616
-0.1141313089493051   -0.014445773682454262   -0.007339383092164616
-0.1141313089493051   -0.014445773682454262   -0.007339383092164616
-0.1141313089493051   -0.014445773682454262   -0.007339383092164616
-0.11370999984345513   0.00010383473327190904   0.01292755066289744
-0.11370999984345513   0.00010383473327190904   0.01292755066289744
-0.11370999984345513   0.00010383473327190904   0.01292755066289744
-0.11370999984345513   0.00010383473327190904   0.01292755066289744
-0.10493189138671748   -0.015583406465349909   -0.00436607159511816
-0.10493189138671748   -0.015583406465349909   -0.00436607159511816
-0.10493189138671748   -0.015583406465349909   -0.00436607159511816
-0.10493189138671748   -0.015583406465349909   -0.00436607159511816
-0.10398445076946265   -0.003522349006048451   -0.004154237564546516
-0.10398445076946265   -0.003522349006048451   -0.004154237564546516
-0.10398445076946265   -0.003522349006048451   -0.004154237564546516
-0.10398445076946265   -0.003522349006048451   -0.004154237564546516
-0.18653736340777813   -0.017224879055400946   -0.018634864487822585
-0.18653736340777813   -0.017224879055400946   -0.018634864487822585
-0.18653736340777813   -0.017224879055400946   -0.018634864487822585
-0.18653736340777813   -0.017224879055400946   -0.018634864487822585
-0.12057840271925473   0.009442725865368998   0.004322378480728101
-0.12057840271925473   0.009442725865368998   0.004322378480728101
-0.12057840271925473   0.009442725865368998   0.004322378480728101
-0.12057840271925473   0.009442725865368998   0.004322378480728101
-0.12686351465485166   -0.008652472930323046   -0.008525215828966669
-0.12686351465485166   -0.008652472930323046   -0.008525215828966669
-0.12686351465485166   -0.008652472930323046   -0.008525215828966669
-0.12686351465485166   -0.008652472930323046   -0.008525215828966669
-0.19948448482476547   -0.02368781750571678   0.020374702540141447
-0.19948448482476547   -0.02368781750571678   0.020374702540141447
-0.19948448482476547   -0.02368781750571678   0.020374702540141447
-0.19948448482476547   -0.02368781750571678   0.020374702540141447
-0.14531147113490017   -0.0059416859529878435   0.020022473917235627
-0.14531147113490017   -0.0059416859529878435   0.020022473917235627
-0.14531147113490017   -0.0059416859529878435   0.020022473917235627
-0.14531147113490017   -0.0059416859529878435   0.020022473917235627
-0.2067176206399536   -0.025678341474876937   -0.013800452566637974
-0.2067176206399536   -0.025678341474876937   -0.013800452566637974
-0.2067176206399536   -0.025678341474876937   -0.013800452566637974
-0.2067176206399536   -0.025678341474876937   -0.013800452566637974
-0.12475020168816707   -0.011781771809665859   0.005170647883797648
-0.12475020168816707   -0.011781771809665859   0.005170647883797648
-0.12475020168816707   -0.011781771809665859   0.005170647883797648
-0.12475020168816707   -0.011781771809665859   0.005170647883797648
-0.12922631402368176   -0.012327006759696963   -0.006272575594789351
-0.12922631402368176   -0.012327006759696963   -0.006272575594789351
-0.12922631402368176   -0.012327006759696963   -0.006272575594789351
-0.12922631402368176   -0.012327006759696963   -0.006272575594789351
-0.20643111510758314   -0.032937327707644494   0.00017929527927973248
-0.20643111510758314   -0.032937327707644494   0.00017929527927973248
-0.20643111510758314   -0.032937327707644494   0.00017929527927973248
-0.20643111510758314   -0.032937327707644494   0.00017929527927973248
-0.16172115608684345   -0.019861978004751788   0.004740797389187261
-0.16172115608684345   -0.019861978004751788   0.004740797389187261
-0.16172115608684345   -0.019861978004751788   0.004740797389187261
-0.16172115608684345   -0.019861978004751788   0.004740797389187261
-0.20795234588292524   -0.029075446061335438   -0.011288740243738278
-0.20795234588292524   -0.029075446061335438   -0.011288740243738278
-0.20795234588292524   -0.029075446061335438   -0.011288740243738278
-0.20795234588292524   -0.029075446061335438   -0.011288740243738278
-0.12921483214528265   -0.017698637302948933   -0.0008435356595429492
-0.12921483214528265   -0.017698637302948933   -0.0008435356595429492
-0.12921483214528265   -0.017698637302948933   -0.0008435356595429492
-0.12921483214528265   -0.017698637302948933   -0.0008435356595429492
-0.12969756440126518   -0.021044938266847682   -0.004665322875239948
-0.12969756440126518   -0.021044938266847682   -0.004665322875239948
-0.12969756440126518   -0.021044938266847682   -0.004665322875239948
-0.12969756440126518   -0.021044938266847682   -0.004665322875239948
-0.21210304213311498   -0.05002767484292779   0.002812748360462192
-0.21210304213311498   -0.05002767484292779   0.002812748360462192
-0.21210304213311498   -0.05002767484292779   0.002812748360462192
-0.21210304213311498   -0.05002767484292779   0.002812748360462192
-0.16201697803833387   -0.02720438036600105   0.0004956045121420982
-0.16201697803833387   -0.02720438036600105   0.0004956045121420982
-0.16201697803833387   -0.02720438036600105   0.0004956045121420982
-0.16201697803833387   -0.02720438036600105   0.0004956045121420982
-0.13014994845705874   -0.02220051361631547   -0.01189211072660656
-0.13014994845705874   -0.02220051361631547   -0.01189211072660656
-0.13014994845705874   -0.02220051361631547   -0.01189211072660656
-0.13014994845705874   -0.02220051361631547   -0.01189211072660656
-0.09121908326475558   -0.0610009900558538   -0.01133858642672053
-0.09121908326475558   -0.0610009900558538   -0.01133858642672053
-0.09121908326475558   -0.0610009900558538   -0.01133858642672053
-0.09121908326475558   -0.0610009900558538   -0.01133858642672053
-0.08000635446850492   -0.013339110542239756   -0.0008950089438387907
-0.08000635446850492   -0.013339110542239756   -0.0008950089438387907
-0.08000635446850492   -0.013339110542239756   -0.0008950089438387907
-0.08000635446850492   -0.013339110542239756   -0.0008950089438387907
-0.13907595184748137   -0.06414516517037375   -0.014094709552065774
-0.13907595184748137   -0.06414516517037375   -0.014094709552065774
-0.13907595184748137   -0.06414516517037375   -0.014094709552065774
-0.13907595184748137   -0.06414516517037375   -0.014094709552065774
-0.10887958671500361   -0.042516524634524835   -0.003227757536438819
-0.10887958671500361   -0.042516524634524835   -0.003227757536438819
-0.10887958671500361   -0.042516524634524835   -0.003227757536438819
-0.10887958671500361   -0.042516524634524835   -0.003227757536438819
-0.1302312935860721   -0.02500701105005396   -0.0090095723653388
-0.1302312935860721   -0.02500701105005396   -0.0090095723653388
-0.1302312935860721   -0.02500701105005396   -0.0090095723653388
-0.1302312935860721   -0.02500701105005396   -0.0090095723653388
-0.08936926042068087   -0.0529955123533268   -0.00805313689363152
-0.08936926042068087   -0.0529955123533268   -0.00805313689363152
-0.08936926042068087   -0.0529955123533268   -0.00805313689363152
-0.08936926042068087   -0.0529955123533268   -0.00805313689363152
-0.08127806886712945   -0.017208880081712303   -6.655655280081321e-05
-0.08127806886712945   -0.017208880081712303   -6.655655280081321e-05
-0.08127806886712945   -0.017208880081712303   -6.655655280081321e-05
-0.08127806886712945   -0.017208880081712303   -6.655655280081321e-05
-0.139916590805949   -0.06378724223999854   -0.008263724025825276
-0.139916590805949   -0.06378724223999854   -0.008263724025825276
-0.139916590805949   -0.06378724223999854   -0.008263724025825276
-0.139916590805949   -0.06378724223999854   -0.008263724025825276
-0.1079162740656236   -0.03984432488256554   -0.0034335008995504453
-0.1079162740656236   -0.03984432488256554   -0.0034335008995504453
-0.1079162740656236   -0.03984432488256554   -0.0034335008995504453
-0.1079162740656236   -0.03984432488256554   -0.0034335008995504453
-0.13263399098624468   -0.028828622190362165   -0.00680934497693872
-0.13263399098624468   -0.028828622190362165   -0.00680934497693872
-0.13263399098624468   -0.028828622190362165   -0.00680934497693872
-0.13263399098624468   -0.028828622190362165   -0.00680934497693872
-0.08966781072821546   -0.0532746421727295   -0.005949503767213669
-0.08966781072821546   -0.0532746421727295   -0.005949503767213669
-0.08966781072821546   -0.0532746421727295   -0.005949503767213669
-0.08966781072821546   -0.0532746421727295   -0.005949503767213669
-0.08166068720897865   -0.021941856248217328   0.0011167652847569806
-0.08166068720897865   -0.021941856248217328   0.0011167652847569806
-0.08166068720897865   -0.021941856248217328   0.0011167652847569806
-0.08166068720897865   -0.021941856248217328   0.0011167652847569806
-0.13994696644948046   -0.0645891969361441   -0.012368074447021545
-0.13994696644948046   -0.0645891969361441   -0.012368074447021545
-0.13994696644948046   -0.0645891969361441   -0.012368074447021545
-0.13994696644948046   -0.0645891969361441   -0.012368074447021545
-0.10994420024644366   -0.04277601112219689   -0.006418279058127651
-0.10994420024644366   -0.04277601112219689   -0.006418279058127651
-0.10994420024644366   -0.04277601112219689   -0.006418279058127651
-0.10994420024644366   -0.04277601112219689   -0.006418279058127651
-0.07984423201732424   -0.014392131583552412   -0.001073188661865163
-0.07984423201732424   -0.014392131583552412   -0.001073188661865163
-0.07984423201732424   -0.014392131583552412   -0.001073188661865163
-0.07984423201732424   -0.014392131583552412   -0.001073188661865163
-0.06879468487290083   -0.04705189412170813   -0.008117749886788126
-0.06879468487290083   -0.04705189412170813   -0.008117749886788126
-0.06879468487290083   -0.04705189412170813   -0.008117749886788126
-0.06879468487290083   -0.04705189412170813   -0.008117749886788126
-0.05937195709993536   -0.012240543665841892   0.0030516538371518076
-0.05937195709993536   -0.012240543665841892   0.0030516538371518076
-0.05937195709993536   -0.012240543665841892   0.0030516538371518076
-0.05937195709993536   -0.012240543665841892   0.0030516538371518076
-0.08906594602617211   -0.050686930255484534   -0.008845147018930036
-0.08906594602617211   -0.050686930255484534   -0.008845147018930036
-0.08906594602617211   -0.050686930255484534   -0.008845147018930036
-0.08906594602617211   -0.050686930255484534   -0.008845147018930036
-0.07396671618885553   -0.031463309727084256   -0.0037118907332642824
-0.07396671618885553   -0.031463309727084256   -0.0037118907332642824
-0.07396671618885553   -0.031463309727084256   -0.0037118907332642824
-0.07396671618885553   -0.031463309727084256   -0.0037118907332642824
-0.08055104779485402   -0.01706517482985067   0.00010758871202657175
-0.08055104779485402   -0.01706517482985067   0.00010758871202657175
-0.08055104779485402   -0.01706517482985067   0.00010758871202657175
-0.08055104779485402   -0.01706517482985067   0.00010758871202657175
-0.06835984934914568   -0.046335293109367987   -0.007793057965373731
-0.06835984934914568   -0.046335293109367987   -0.007793057965373731
-0.06835984934914568   -0.046335293109367987   -0.007793057965373731
-0.06835984934914568   -0.046335293109367987   -0.007793057965373731
-0.05972811677945047   -0.015434570499988372   0.003980937154274742
-0.05972811677945047   -0.015434570499988372   0.003980937154274742
-0.05972811677945047   -0.015434570499988372   0.003980937154274742
-0.05972811677945047   -0.015434570499988372   0.003980937154274742
-0.08968261068229469   -0.051484534362541995   -0.007813611347797343
-0.08968261068229469   -0.051484534362541995   -0.007813611347797343
-0.08968261068229469   -0.051484534362541995   -0.007813611347797343
-0.08968261068229469   -0.051484534362541995   -0.007813611347797343
-0.07412109578990594   -0.03261904205872343   -0.004825302352008214
-0.07412109578990594   -0.03261904205872343   -0.004825302352008214
-0.07412109578990594   -0.03261904205872343   -0.004825302352008214
-0.07412109578990594   -0.03261904205872343   -0.004825302352008214
-0.08159438521101788   -0.020312846073289884   0.0014558277193346015
-0.08159438521101788   -0.020312846073289884   0.0014558277193346015
-0.08159438521101788   -0.020312846073289884   0.0014558277193346015
-0.08159438521101788   -0.020312846073289884   0.0014558277193346015
-0.06808154781944414   -0.04687146435795735   -0.00634932418772466
-0.06808154781944414   -0.04687146435795735   -0.00634932418772466
-0.06808154781944414   -0.04687146435795735   -0.00634932418772466
-0.06808154781944414   -0.04687146435795735   -0.00634932418772466
-0.05940437001667405   -0.018439533880559376   0.005005799150777813
-0.05940437001667405   -0.018439533880559376   0.005005799150777813
-0.05940437001667405   -0.018439533880559376   0.005005799150777813
-0.05940437001667405   -0.018439533880559376   0.005005799150777813
-0.0890175974518652   -0.05203759125041363   -0.005572050927480468
-0.0890175974518652   -0.05203759125041363   -0.005572050927480468
-0.0890175974518652   -0.05203759125041363   -0.005572050927480468
-0.0890175974518652   -0.05203759125041363   -0.005572050927480468
-0.0742735232564607   -0.0341982940731953   -0.005649008271903914
-0.0742735232564607   -0.0341982940731953   -0.005649008271903914
-0.0742735232564607   -0.0341982940731953   -0.005649008271903914
-0.0742735232564607   -0.0341982940731953   -0.005649008271903914
-0.05701347339671242   -0.001862538282099228   0.0055989516545449525
-0.05701347339671242   -0.001862538282099228   0.0055989516545449525
-0.05701347339671242   -0.001862538282099228   0.0055989516545449525
-0.05701347339671242   -0.001862538282099228   0.0055989516545449525
-0.05574248719423533   -0.025279832775474666   -0.005027997733357557
-0.05574248719423533   -0.025279832775474666   -0.005027997733357557
-0.05574248719423533   -0.025279832775474666   -0.005027997733357557
-0.05574248719423533   -0.025279832775474666   -0.005027997733357557
-0.04839082088471922   -0.0036450437746229193   0.0064264203177352595
-0.04839082088471922   -0.0036450437746229193   0.0064264203177352595
-0.04839082088471922   -0.0036450437746229193   0.0064264203177352595
-0.04839082088471922   -0.0036450437746229193   0.0064264203177352595
-0.06397992418032052   -0.028736921922237833   -0.003491803308378041
-0.06397992418032052   -0.028736921922237833   -0.003491803308378041
-0.06397992418032052   -0.028736921922237833   -0.003491803308378041
-0.06397992418032052   -0.028736921922237833   -0.003491803308378041
-0.0564547660397439   -0.014713405208845568   -0.0020335178534097147
-0.0564547660397439   -0.014713405208845568   -0.0020335178534097147
-0.0564547660397439   -0.014713405208845568   -0.0020335178534097147
-0.0564547660397439   -0.014713405208845568   -0.0020335178534097147
-0.057326501552181386   -0.005424821991372039   0.006463209901451825
-0.057326501552181386   -0.005424821991372039   0.006463209901451825
-0.057326501552181386   -0.005424821991372039   0.006463209901451825
-0.057326501552181386   -0.005424821991372039   0.006463209901451825
-0.05556706338865939   -0.027479963581289426   -0.005619872395297143
-0.05556706338865939   -0.027479963581289426   -0.005619872395297143
-0.05556706338865939   -0.027479963581289426   -0.005619872395297143
-0.05556706338865939   -0.027479963581289426   -0.005619872395297143
-0.048779879686359946   -0.006781080951704087   0.006931461011069118
-0.048779879686359946   -0.006781080951704087   0.006931461011069118
-0.048779879686359946   -0.006781080951704087   0.006931461011069118
-0.048779879686359946   -0.006781080951704087   0.006931461011069118
-0.06430310024866034   -0.030511584306966603   -0.0038169663847963976
-0.06430310024866034   -0.030511584306966603   -0.0038169663847963976
-0.06430310024866034   -0.030511584306966603   -0.0038169663847963976
-0.06430310024866034   -0.030511584306966603   -0.0038169663847963976
-0.05650352266254935   -0.017201816620230462   -0.0034820272366888824
-0.05650352266254935   -0.017201816620230462   -0.0034820272366888824
-0.05650352266254935   -0.017201816620230462   -0.0034820272366888824
-0.05650352266254935   -0.017201816620230462   -0.0034820272366888824
-0.05766288270212566   -0.00847455529074081   0.007347092331651216
-0.05766288270212566   -0.00847455529074081   0.007347092331651216
-0.05766288270212566   -0.00847455529074081   0.007347092331651216
-0.05766288270212566   -0.00847455529074081   0.007347092331651216
-0.05573823612790514   -0.02913624886294039   -0.005505153285420542
-0.05573823612790514   -0.02913624886294039   -0.005505153285420542
-0.05573823612790514   -0.02913624886294039   -0.005505153285420542
-0.05573823612790514   -0.02913624886294039   -0.005505153285420542
-0.0487100405636664   -0.009738157674750784   0.008047348327611878
-0.0487100405636664   -0.009738157674750784   0.008047348327611878
-0.0487100405636664   -0.009738157674750784   0.008047348327611878
-0.0487100405636664   -0.009738157674750784   0.008047348327611878
-0.06367875505462463   -0.03225932263030431   -0.002546337289230167
-0.06367875505462463   -0.03225932263030431   -0.002546337289230167
-0.06367875505462463   -0.03225932263030431   -0.002546337289230167
-0.06367875505462463   -0.03225932263030431   -0.002546337289230167
-0.05670047676221703   -0.019400958256065626   -0.004533896394808404
-0.05670047676221703   -0.019400958256065626   -0.004533896394808404
-0.05670047676221703   -0.019400958256065626   -0.004533896394808404
-0.05670047676221703   -0.019400958256065626   -0.004533896394808404
-0.04657923502784555   0.006658903399233491   0.008849526923881277
-0.04657923502784555   0.006658903399233491   0.008849526923881277
-0.04657923502784555   0.006658903399233491   0.008849526923881277
-0.04657923502784555   0.006658903399233491   0.008849526923881277
-0.03345087425420903   -0.008590396363718633   -0.0032154982393817837
-0.03345087425420903   -0.008590396363718633   -0.0032154982393817837
-0.03345087425420903   -0.008590396363718633   -0.0032154982393817837
-0.03345087425420903   -0.008590396363718633   -0.0032154982393817837
-0.02989212058410884   0.0073426123995949865   0.008782938416856248
-0.02989212058410884   0.0073426123995949865   0.008782938416856248
-0.02989212058410884   0.0073426123995949865   0.008782938416856248
-0.02989212058410884   0.0073426123995949865   0.008782938416856248
-0.05179257914748051   -0.01253780433481867   -0.0016896104358754436
-0.05179257914748051   -0.01253780433481867   -0.0016896104358754436
-0.05179257914748051   -0.01253780433481867   -0.0016896104358754436
-0.05179257914748051   -0.01253780433481867   -0.0016896104358754436
-0.03977102116403447   -0.0008902609851151842   -0.0014549867431180013
-0.03977102116403447   -0.0008902609851151842   -0.0014549867431180013
-0.03977102116403447   -0.0008902609851151842   -0.0014549867431180013
-0.03977102116403447   -0.0008902609851151842   -0.0014549867431180013
-0.04616118966712267   0.004265097854866345   0.009664434776230706
-0.04616118966712267   0.004265097854866345   0.009664434776230706
-0.04616118966712267   0.004265097854866345   0.009664434776230706
-0.04616118966712267   0.004265097854866345   0.009664434776230706
-0.03560109816519332   -0.009537877890817302   -0.002881459198153881
-0.03560109816519332   -0.009537877890817302   -0.002881459198153881
-0.03560109816519332   -0.009537877890817302   -0.002881459198153881
-0.03560109816519332   -0.009537877890817302   -0.002881459198153881
-0.0314671708712243   0.005760181335421232   0.011026253919132058
-0.0314671708712243   0.005760181335421232   0.011026253919132058
-0.0314671708712243   0.005760181335421232   0.011026253919132058
-0.0314671708712243   0.005760181335421232   0.011026253919132058
-0.05190364729908208   -0.013397717952601536   -0.0020707400516441266
-0.05190364729908208   -0.013397717952601536   -0.0020707400516441266
-0.05190364729908208   -0.013397717952601536   -0.0020707400516441266
-0.05190364729908208   -0.013397717952601536   -0.0020707400516441266
-0.04131307919692265   -0.0026088879486412505   -0.0022467823237074603
-0.04131307919692265   -0.0026088879486412505   -0.0022467823237074603
-0.04131307919692265   -0.0026088879486412505   -0.0022467823237074603
-0.04131307919692265   -0.0026088879486412505   -0.0022467823237074603
-0.046015130581054664   0.0028668031056725274   0.01110732248021891
-0.046015130581054664   0.0028668031056725274   0.01110732248021891
-0.046015130581054664   0.0028668031056725274   0.01110732248021891
-0.046015130581054664   0.0028668031056725274   0.01110732248021891
-0.037759229688227175   -0.010907881821828292   -0.003765977008632819
-0.037759229688227175   -0.010907881821828292   -0.003765977008632819
-0.037759229688227175   -0.010907881821828292   -0.003765977008632819
-0.037759229688227175   -0.010907881821828292   -0.003765977008632819
-0.03587911333884257   0.0013962558505546388   0.01147946193652967
-0.03587911333884257   0.0013962558505546388   0.01147946193652967
-0.03587911333884257   0.0013962558505546388   0.01147946193652967
-0.03587911333884257   0.0013962558505546388   0.01147946193652967
-0.05156792488594897   -0.014280324745092048   -0.0016999062134596754
-0.05156792488594897   -0.014280324745092048   -0.0016999062134596754
-0.05156792488594897   -0.014280324745092048   -0.0016999062134596754
-0.05156792488594897   -0.014280324745092048   -0.0016999062134596754
-0.04218829510153846   -0.003916280395164795   -0.003409679772091171
-0.04218829510153846   -0.003916280395164795   -0.003409679772091171
-0.04218829510153846   -0.003916280395164795   -0.003409679772091171
-0.04218829510153846   -0.003916280395164795   -0.003409679772091171
-0.4535567469662518   -0.06578943328914386   -0.038860073044841015
-0.4535567469662518   -0.06578943328914386   -0.038860073044841015
-0.4535567469662518   -0.06578943328914386   -0.038860073044841015
-0.4535567469662518   -0.06578943328914386   -0.038860073044841015
-0.15948627580559754   -0.2672037827442991   -0.030099270037875242
-0.15948627580559754   -0.2672037827442991   -0.030099270037875242
-0.15948627580559754   -0.2672037827442991   -0.030099270037875242
-0.15948627580559754   -0.2672037827442991   -0.030099270037875242
-0.12098139959014062   -0.012074473104296532   -6.166068738217186e-05
-0.12098139959014062   -0.012074473104296532   -6.166068738217186e-05
-0.12098139959014062   -0.012074473104296532   -6.166068738217186e-05
-0.12098139959014062   -0.012074473104296532   -6.166068738217186e-05
-0.48867604596838665   -0.3106209505603847   -0.15985939930575427
-0.48867604596838665   -0.3106209505603847   -0.15985939930575427
-0.48867604596838665   -0.3106209505603847   -0.15985939930575427
-0.48867604596838665   -0.3106209505603847   -0.15985939930575427
-0.29795116362067525   -0.15403989001745882   -0.022508451669333854
-0.29795116362067525   -0.15403989001745882   -0.022508451669333854
-0.29795116362067525   -0.15403989001745882   -0.022508451669333854
-0.29795116362067525   -0.15403989001745882   -0.022508451669333854
-0.4217035503297499   -0.082775121207778   -0.05284275046518024
-0.4217035503297499   -0.082775121207778   -0.05284275046518024
-0.4217035503297499   -0.082775121207778   -0.05284275046518024
-0.4217035503297499   -0.082775121207778   -0.05284275046518024
-0.17289657999895522   -0.22486298722708137   -0.0468490486086691
-0.17289657999895522   -0.22486298722708137   -0.0468490486086691
-0.17289657999895522   -0.22486298722708137   -0.0468490486086691
-0.17289657999895522   -0.22486298722708137   -0.0468490486086691
-0.12401334893159938   -0.015577873925932097   0.00455879801185796
-0.12401334893159938   -0.015577873925932097   0.00455879801185796
-0.12401334893159938   -0.015577873925932097   0.00455879801185796
-0.12401334893159938   -0.015577873925932097   0.00455879801185796
-0.45768352393629497   -0.27896823886818894   -0.14733035256089677
-0.45768352393629497   -0.27896823886818894   -0.14733035256089677
-0.45768352393629497   -0.27896823886818894   -0.14733035256089677
-0.45768352393629497   -0.27896823886818894   -0.14733035256089677
-0.2809615628363701   -0.1395156397669161   0.010897485951314827
-0.2809615628363701   -0.1395156397669161   0.010897485951314827
-0.2809615628363701   -0.1395156397669161   0.010897485951314827
-0.2809615628363701   -0.1395156397669161   0.010897485951314827
-0.3961509151633949   -0.07887021357298377   -0.03976533399160488
-0.3961509151633949   -0.07887021357298377   -0.03976533399160488
-0.3961509151633949   -0.07887021357298377   -0.03976533399160488
-0.3961509151633949   -0.07887021357298377   -0.03976533399160488
-0.16875270907799178   -0.19888265059463   -0.03583322605140519
-0.16875270907799178   -0.19888265059463   -0.03583322605140519
-0.16875270907799178   -0.19888265059463   -0.03583322605140519
-0.16875270907799178   -0.19888265059463   -0.03583322605140519
-0.14389885867576177   -0.03853907346308268   -0.007948428197665475
-0.14389885867576177   -0.03853907346308268   -0.007948428197665475
-0.14389885867576177   -0.03853907346308268   -0.007948428197665475
-0.14389885867576177   -0.03853907346308268   -0.007948428197665475
-0.4173840229058137   -0.23690754088081345   -0.13085831275732543
-0.4173840229058137   -0.23690754088081345   -0.13085831275732543
-0.4173840229058137   -0.23690754088081345   -0.13085831275732543
-0.4173840229058137   -0.23690754088081345   -0.13085831275732543
-0.26062550434014775   -0.12141692206906443   0.04881228871784245
-0.26062550434014775   -0.12141692206906443   0.04881228871784245
-0.26062550434014775   -0.12141692206906443   0.04881228871784245
-0.26062550434014775   -0.12141692206906443   0.04881228871784245
-0.11501183423963984   -0.06539832662996989   -0.009532518322416686
-0.11501183423963984   -0.06539832662996989   -0.009532518322416686
-0.11501183423963984   -0.06539832662996989   -0.009532518322416686
-0.11501183423963984   -0.06539832662996989   -0.009532518322416686
-0.05504208588031205   -0.08976436609237935   -0.01368846314557782
-0.05504208588031205   -0.08976436609237935   -0.01368846314557782
-0.05504208588031205   -0.08976436609237935   -0.01368846314557782
-0.05504208588031205   -0.08976436609237935   -0.01368846314557782
-0.04739046719998631   -0.042774645178104975   0.0010724057617830535
-0.04739046719998631   -0.042774645178104975   0.0010724057617830535
-0.04739046719998631   -0.042774645178104975   0.0010724057617830535
-0.04739046719998631   -0.042774645178104975   0.0010724057617830535
-0.14380576371279696   -0.12727961944541985   0.0010216650404607196
-0.14380576371279696   -0.12727961944541985   0.0010216650404607196
-0.14380576371279696   -0.12727961944541985   0.0010216650404607196
-0.14380576371279696   -0.12727961944541985   0.0010216650404607196
-0.07639712934785492   -0.06122948554233707   0.025138839443742025
-0.07639712934785492   -0.06122948554233707   0.025138839443742025
-0.07639712934785492   -0.06122948554233707   0.025138839443742025
-0.07639712934785492   -0.06122948554233707   0.025138839443742025
-0.13201407823175534   -0.061144794947304945   -0.006154732052447801
-0.13201407823175534   -0.061144794947304945   -0.006154732052447801
-0.13201407823175534   -0.061144794947304945   -0.006154732052447801
-0.13201407823175534   -0.061144794947304945   -0.006154732052447801
-0.06344699913399525   -0.11317431612918732   -0.00881058295717831
-0.06344699913399525   -0.11317431612918732   -0.00881058295717831
-0.06344699913399525   -0.11317431612918732   -0.00881058295717831
-0.06344699913399525   -0.11317431612918732   -0.00881058295717831
-0.05173355806804382   -0.04425340591431309   0.0012224248646986648
-0.05173355806804382   -0.04425340591431309   0.0012224248646986648
-0.05173355806804382   -0.04425340591431309   0.0012224248646986648
-0.05173355806804382   -0.04425340591431309   0.0012224248646986648
-0.15165799810778927   -0.1263446558416691   -0.022897665953353446
-0.15165799810778927   -0.1263446558416691   -0.022897665953353446
-0.15165799810778927   -0.1263446558416691   -0.022897665953353446
-0.15165799810778927   -0.1263446558416691   -0.022897665953353446
-0.09215591658004285   -0.07791106452501037   0.010974042585428365
-0.09215591658004285   -0.07791106452501037   0.010974042585428365
-0.09215591658004285   -0.07791106452501037   0.010974042585428365
-0.09215591658004285   -0.07791106452501037   0.010974042585428365
-0.13690282112185545   -0.06385419239257153   -0.011612244472781946
-0.13690282112185545   -0.06385419239257153   -0.011612244472781946
-0.13690282112185545   -0.06385419239257153   -0.011612244472781946
-0.13690282112185545   -0.06385419239257153   -0.011612244472781946
-0.06611921939825573   -0.10637435370768875   -0.008584933992985242
-0.06611921939825573   -0.10637435370768875   -0.008584933992985242
-0.06611921939825573   -0.10637435370768875   -0.008584933992985242
-0.06611921939825573   -0.10637435370768875   -0.008584933992985242
-0.05860523952941469   -0.04548296758469599   0.0018213453901532225
-0.05860523952941469   -0.04548296758469599   0.0018213453901532225
-0.05860523952941469   -0.04548296758469599   0.0018213453901532225
-0.05860523952941469   -0.04548296758469599   0.0018213453901532225
-0.16317390830325293   -0.12326817835056016   -0.019594571447643448
-0.16317390830325293   -0.12326817835056016   -0.019594571447643448
-0.16317390830325293   -0.12326817835056016   -0.019594571447643448
-0.16317390830325293   -0.12326817835056016   -0.019594571447643448
-0.0971656339056252   -0.07355084238858779   0.011509271727895846
-0.0971656339056252   -0.07355084238858779   0.011509271727895846
-0.0971656339056252   -0.07355084238858779   0.011509271727895846
-0.0971656339056252   -0.07355084238858779   0.011509271727895846
-0.041658349739792065   -0.0394232556873335   0.002889107151976234
-0.041658349739792065   -0.0394232556873335   0.002889107151976234
-0.041658349739792065   -0.0394232556873335   0.002889107151976234
-0.041658349739792065   -0.0394232556873335   0.002889107151976234
-0.02699343333299667   -0.030795029274615374   -0.006823646464281437
-0.02699343333299667   -0.030795029274615374   -0.006823646464281437
-0.02699343333299667   -0.030795029274615374   -0.006823646464281437
-0.02699343333299667   -0.030795029274615374   -0.006823646464281437
-0.02564303894069104   -0.035675758135211684   0.002787806496953118
-0.02564303894069104   -0.035675758135211684   0.002787806496953118
-0.02564303894069104   -0.035675758135211684   0.002787806496953118
-0.02564303894069104   -0.035675758135211684   0.002787806496953118
-0.04762950880135854   -0.04053697742655911   -0.0023604699966230276
-0.04762950880135854   -0.04053697742655911   -0.0023604699966230276
-0.04762950880135854   -0.04053697742655911   -0.0023604699966230276
-0.04762950880135854   -0.04053697742655911   -0.0023604699966230276
-0.029779626181883526   -0.03072742642574012   0.012729381008424528
-0.029779626181883526   -0.03072742642574012   0.012729381008424528
-0.029779626181883526   -0.03072742642574012   0.012729381008424528
-0.029779626181883526   -0.03072742642574012   0.012729381008424528
-0.04635693645893939   -0.03973584673372453   0.0032012610226372293
-0.04635693645893939   -0.03973584673372453   0.0032012610226372293
-0.04635693645893939   -0.03973584673372453   0.0032012610226372293
-0.04635693645893939   -0.03973584673372453   0.0032012610226372293
-0.027439293709064873   -0.03700057125400106   -0.004868654226126698
-0.027439293709064873   -0.03700057125400106   -0.004868654226126698
-0.027439293709064873   -0.03700057125400106   -0.004868654226126698
-0.027439293709064873   -0.03700057125400106   -0.004868654226126698
-0.02629971997704019   -0.03673752983931984   0.002538520563057029
-0.02629971997704019   -0.03673752983931984   0.002538520563057029
-0.02629971997704019   -0.03673752983931984   0.002538520563057029
-0.02629971997704019   -0.03673752983931984   0.002538520563057029
-0.05114101379806671   -0.04696144752964482   0.006893187829915921
-0.05114101379806671   -0.04696144752964482   0.006893187829915921
-0.05114101379806671   -0.04696144752964482   0.006893187829915921
-0.05114101379806671   -0.04696144752964482   0.006893187829915921
-0.032997859783613206   -0.03436234472963526   0.010416122260580769
-0.032997859783613206   -0.03436234472963526   0.010416122260580769
-0.032997859783613206   -0.03436234472963526   0.010416122260580769
-0.032997859783613206   -0.03436234472963526   0.010416122260580769
-0.05051548627111999   -0.041230426353122206   0.004289804288126919
-0.05051548627111999   -0.041230426353122206   0.004289804288126919
-0.05051548627111999   -0.041230426353122206   0.004289804288126919
-0.05051548627111999   -0.041230426353122206   0.004289804288126919
-0.02926039756452272   -0.04480370107637858   -0.0041986961372968866
-0.02926039756452272   -0.04480370107637858   -0.0041986961372968866
-0.02926039756452272   -0.04480370107637858   -0.0041986961372968866
-0.02926039756452272   -0.04480370107637858   -0.0041986961372968866
-0.027254972254696436   -0.037846457568875926   0.003620992283041198
-0.027254972254696436   -0.037846457568875926   0.003620992283041198
-0.027254972254696436   -0.037846457568875926   0.003620992283041198
-0.027254972254696436   -0.037846457568875926   0.003620992283041198
-0.0607867188070935   -0.056937879541434824   0.002368860958498007
-0.0607867188070935   -0.056937879541434824   0.002368860958498007
-0.0607867188070935   -0.056937879541434824   0.002368860958498007
-0.0607867188070935   -0.056937879541434824   0.002368860958498007
-0.03749978749378581   -0.03887758688716135   0.004409418178076791
-0.03749978749378581   -0.03887758688716135   0.004409418178076791
-0.03749978749378581   -0.03887758688716135   0.004409418178076791
-0.03749978749378581   -0.03887758688716135   0.004409418178076791
-0.021098045171858797   -0.015811409842474446   0.007669674909267002
-0.021098045171858797   -0.015811409842474446   0.007669674909267002
-0.021098045171858797   -0.015811409842474446   0.007669674909267002
-0.021098045171858797   -0.015811409842474446   0.007669674909267002
-0.01598260027285039   -0.0025726817084668436   -0.0016081886837334839
-0.01598260027285039   -0.0025726817084668436   -0.0016081886837334839
-0.01598260027285039   -0.0025726817084668436   -0.0016081886837334839
-0.01598260027285039   -0.0025726817084668436   -0.0016081886837334839
-0.01508282789622303   -0.017319960278619546   0.004695908625615904
-0.01508282789622303   -0.017319960278619546   0.004695908625615904
-0.01508282789622303   -0.017319960278619546   0.004695908625615904
-0.01508282789622303   -0.017319960278619546   0.004695908625615904
-0.020323160632289807   -0.005798311689196192   -0.0004902484070562292
-0.020323160632289807   -0.005798311689196192   -0.0004902484070562292
-0.020323160632289807   -0.005798311689196192   -0.0004902484070562292
-0.020323160632289807   -0.005798311689196192   -0.0004902484070562292
-0.01669390665426844   -0.009709080451350442   0.0037979931269049357
-0.01669390665426844   -0.009709080451350442   0.0037979931269049357
-0.01669390665426844   -0.009709080451350442   0.0037979931269049357
-0.01669390665426844   -0.009709080451350442   0.0037979931269049357
-0.021210666763979553   -0.018024939940195217   0.007298849185494067
-0.021210666763979553   -0.018024939940195217   0.007298849185494067
-0.021210666763979553   -0.018024939940195217   0.007298849185494067
-0.021210666763979553   -0.018024939940195217   0.007298849185494067
-0.013883328099759042   -0.004781338362846278   -0.001845214307837425
-0.013883328099759042   -0.004781338362846278   -0.001845214307837425
-0.013883328099759042   -0.004781338362846278   -0.001845214307837425
-0.013883328099759042   -0.004781338362846278   -0.001845214307837425
-0.014157849201959428   -0.018841196030216018   0.004389723952257532
-0.014157849201959428   -0.018841196030216018   0.004389723952257532
-0.014157849201959428   -0.018841196030216018   0.004389723952257532
-0.014157849201959428   -0.018841196030216018   0.004389723952257532
-0.020904523438294836   -0.00921786721780296   0.0019948406352669357
-0.020904523438294836   -0.00921786721780296   0.0019948406352669357
-0.020904523438294836   -0.00921786721780296   0.0019948406352669357
-0.020904523438294836   -0.00921786721780296   0.0019948406352669357
-0.015735273768246506   -0.011220359197487545   0.004249052551475546
-0.015735273768246506   -0.011220359197487545   0.004249052551475546
-0.015735273768246506   -0.011220359197487545   0.004249052551475546
-0.015735273768246506   -0.011220359197487545   0.004249052551475546
-0.02169054589435292   -0.019546923276426258   0.008393784413599815
-0.02169054589435292   -0.019546923276426258   0.008393784413599815
-0.02169054589435292   -0.019546923276426258   0.008393784413599815
-0.02169054589435292   -0.019546923276426258   0.008393784413599815
-0.013578776515181436   -0.008719089740872812   -0.0028370189031957137
-0.013578776515181436   -0.008719089740872812   -0.0028370189031957137
-0.013578776515181436   -0.008719089740872812   -0.0028370189031957137
-0.013578776515181436   -0.008719089740872812   -0.0028370189031957137
-0.012436681415474379   -0.020526207248643222   0.004877165979925021
-0.012436681415474379   -0.020526207248643222   0.004877165979925021
-0.012436681415474379   -0.020526207248643222   0.004877165979925021
-0.012436681415474379   -0.020526207248643222   0.004877165979925021
-0.023306048904242427   -0.01702813528633297   0.0025472867527682875
-0.023306048904242427   -0.01702813528633297   0.0025472867527682875
-0.023306048904242427   -0.01702813528633297   0.0025472867527682875
-0.023306048904242427   -0.01702813528633297   0.0025472867527682875
-0.015664026884523   -0.013991198465831897   0.003336624489847224
-0.015664026884523   -0.013991198465831897   0.003336624489847224
-0.015664026884523   -0.013991198465831897   0.003336624489847224
-0.015664026884523   -0.013991198465831897   0.003336624489847224
-0.014073988995015923   -0.0024995687205077136   0.007861754717479715
-0.014073988995015923   -0.0024995687205077136   0.007861754717479715
-0.014073988995015923   -0.0024995687205077136   0.007861754717479715
-0.014073988995015923   -0.0024995687205077136   0.007861754717479715
-0.003341585171952019   0.0011760178674937857   -0.00015954438496864102
-0.003341585171952019   0.0011760178674937857   -0.00015954438496864102
-0.003341585171952019   0.0011760178674937857   -0.00015954438496864102
-0.003341585171952019   0.0011760178674937857   -0.00015954438496864102
-0.00021341365482574904   -0.0008896192900676131   0.004972149295225075
-0.00021341365482574904   -0.0008896192900676131   0.004972149295225075
-0.00021341365482574904   -0.0008896192900676131   0.004972149295225075
-0.00021341365482574904   -0.0008896192900676131   0.004972149295225075
-0.012499675984802006   0.000573979490443262   -0.00028227158634178595
-0.012499675984802006   0.000573979490443262   -0.00028227158634178595
-0.012499675984802006   0.000573979490443262   -0.00028227158634178595
-0.012499675984802006   0.000573979490443262   -0.00028227158634178595
-0.007608331029949053   -0.0006691437175839522   -0.0005137675318807541
-0.007608331029949053   -0.0006691437175839522   -0.0005137675318807541
-0.007608331029949053   -0.0006691437175839522   -0.0005137675318807541
-0.007608331029949053   -0.0006691437175839522   -0.0005137675318807541
-0.011412195467206258   -0.0024816528443108916   0.008210763336389192
-0.011412195467206258   -0.0024816528443108916   0.008210763336389192
-0.011412195467206258   -0.0024816528443108916   0.008210763336389192
-0.011412195467206258   -0.0024816528443108916   0.008210763336389192
-0.0009019361055019828   0.002564971111605735   -0.0019250533598294418
-0.0009019361055019828   0.002564971111605735   -0.0019250533598294418
-0.0009019361055019828   0.002564971111605735   -0.0019250533598294418
-0.0009019361055019828   0.002564971111605735   -0.0019250533598294418
0.0011526086252745431   -0.0011426533435216245   0.006148327069398803
0.0011526086252745431   -0.0011426533435216245   0.006148327069398803
0.0011526086252745431   -0.0011426533435216245   0.006148327069398803
0.0011526086252745431   -0.0011426533435216245   0.006148327069398803
-0.011339603390822938   1.6632226004099047e-05   -0.0003768752482801289
-0.011339603390822938   1.6632226004099047e-05   -0.0003768752482801289
-0.011339603390822938   1.6632226004099047e-05   -0.0003768752482801289
-0.011339603390822938   1.6632226004099047e-05   -0.0003768752482801289
-0.005519132463057624   -0.0003696407906370056   0.0006820972873412803
-0.005519132463057624   -0.0003696407906370056   0.0006820972873412803
-0.005519132463057624   -0.0003696407906370056   0.0006820972873412803
-0.005519132463057624   -0.0003696407906370056   0.0006820972873412803
-0.010056476643105182   -0.0028358813898456507   0.008891272106158398
-0.010056476643105182   -0.0028358813898456507   0.008891272106158398
-0.010056476643105182   -0.0028358813898456507   0.008891272106158398
-0.010056476643105182   -0.0028358813898456507   0.008891272106158398
0.00018974401231342615   0.0020301224070847636   -0.0018387717460131698
0.00018974401231342615   0.0020301224070847636   -0.0018387717460131698
0.00018974401231342615   0.0020301224070847636   -0.0018387717460131698
0.00018974401231342615   0.0020301224070847636   -0.0018387717460131698
0.0023523182069738   -0.001946576142563093   0.006048593706260415
0.0023523182069738   -0.001946576142563093   0.006048593706260415
0.0023523182069738   -0.001946576142563093   0.006048593706260415
0.0023523182069738   -0.001946576142563093   0.006048593706260415
-0.009498349061932206   -0.000566886697196699   -0.00039049280381064526
-0.009498349061932206   -0.000566886697196699   -0.00039049280381064526
-0.009498349061932206   -0.000566886697196699   -0.00039049280381064526
-0.009498349061932206   -0.000566886697196699   -0.00039049280381064526
-0.0037309098400028335   -0.0003174308190165469   0.0016266556488382733
-0.0037309098400028335   -0.0003174308190165469   0.0016266556488382733
-0.0037309098400028335   -0.0003174308190165469   0.0016266556488382733
-0.0037309098400028335   -0.0003174308190165469   0.0016266556488382733
              </DataArray>   
             <DataArray type="Float64" NumberOfComponents="3" Name="Displacements" format="ascii">   
0.0   0.0   0.0
-0.0012764379319286094   -0.0008472885273222758   -0.0004282043239545544
0.0   0.0   0.0
0.0   0.0   0.0
-0.0012764379319286094   -0.0008472885273222758   -0.0004282043239545544
-0.0008112765137483595   -0.0007632067323966718   -0.0003147183452417569
0.0   0.0   0.0
-0.0007945801714611056   -0.0008009323085242021   -0.0002638752789495708
0.0   0.0   0.0
0.0   0.0   0.0
-0.0007945801714611056   -0.0008009323085242021   -0.0002638752789495708
0.0   0.0   0.0
0.0   0.0   0.0
-0.0007945801714611056   -0.0008009323085242021   -0.0002638752789495708
-0.0013350465400415637   -0.0009021978842275764   -0.00034410226122323905
-0.0012764379319286094   -0.0008472885273222758   -0.0004282043239545544
0.0   0.0   0.0
-0.0007945801714611056   -0.0008009323085242021   -0.0002638752789495708
-0.0012764379319286094   -0.0008472885273222758   -0.0004282043239545544
0.0   0.0   0.0
0.0   0.0   0.0
-0.0013350465400415637   -0.0009021978842275764   -0.00034410226122323905
0.0   0.0   0.0
0.0   0.0   0.0
-0.0013350465400415637   -0.0009021978842275764   -0.00034410226122323905
-0.0007945801714611056   -0.0008009323085242021   -0.0002638752789495708
0.0   0.0   0.0
-0.0007961160905698203   -0.0008203465751509295   -0.00021318582121918712
0.0   0.0   0.0
0.0   0.0   0.0
-0.0007961160905698203   -0.0008203465751509295   -0.00021318582121918712
0.0   0.0   0.0
0.0   0.0   0.0
-0.0007961160905698203   -0.0008203465751509295   -0.00021318582121918712
-0.0013758831684198885   -0.0009289362856759757   -0.00026367195005794436
-0.0013350465400415637   -0.0009021978842275764   -0.00034410226122323905
0.0   0.0   0.0
-0.0007961160905698203   -0.0008203465751509295   -0.00021318582121918712
-0.0013350465400415637   -0.0009021978842275764   -0.00034410226122323905
0.0   0.0   0.0
0.0   0.0   0.0
-0.0013758831684198885   -0.0009289362856759757   -0.00026367195005794436
0.0   0.0   0.0
0.0   0.0   0.0
-0.0013758831684198885   -0.0009289362856759757   -0.00026367195005794436
-0.0007961160905698203   -0.0008203465751509295   -0.00021318582121918712
0.0   0.0   0.0
-0.0007949029728295194   -0.0008254464286451296   -0.00016087246840006627
0.0   0.0   0.0
0.0   0.0   0.0
-0.0007949029728295194   -0.0008254464286451296   -0.00016087246840006627
0.0   0.0   0.0
0.0   0.0   0.0
-0.0007949029728295194   -0.0008254464286451296   -0.00016087246840006627
-0.0014645560896721364   -0.0009494612270775746   -0.00017046059450694437
-0.0013758831684198885   -0.0009289362856759757   -0.00026367195005794436
0.0   0.0   0.0
-0.0007949029728295194   -0.0008254464286451296   -0.00016087246840006627
-0.0013758831684198885   -0.0009289362856759757   -0.00026367195005794436
0.0   0.0   0.0
0.0   0.0   0.0
-0.0008112765137483595   -0.0007632067323966718   -0.0003147183452417569
0.0   0.0   0.0
0.0   0.0   0.0
-0.0008112765137483595   -0.0007632067323966718   -0.0003147183452417569
-0.0003702749203270978   -0.0007325156876434145   -0.0002396836263372725
0.0   0.0   0.0
-0.0003554381208044555   -0.0007569870372858728   -0.0002155962195979115
0.0   0.0   0.0
0.0   0.0   0.0
-0.0003554381208044555   -0.0007569870372858728   -0.0002155962195979115
0.0   0.0   0.0
0.0   0.0   0.0
-0.0003554381208044555   -0.0007569870372858728   -0.0002155962195979115
-0.0007945801714611056   -0.0008009323085242021   -0.0002638752789495708
-0.0008112765137483595   -0.0007632067323966718   -0.0003147183452417569
0.0   0.0   0.0
-0.0003554381208044555   -0.0007569870372858728   -0.0002155962195979115
-0.0008112765137483595   -0.0007632067323966718   -0.0003147183452417569
0.0   0.0   0.0
0.0   0.0   0.0
-0.0007945801714611056   -0.0008009323085242021   -0.0002638752789495708
0.0   0.0   0.0
0.0   0.0   0.0
-0.0007945801714611056   -0.0008009323085242021   -0.0002638752789495708
-0.0003554381208044555   -0.0007569870372858728   -0.0002155962195979115
0.0   0.0   0.0
-0.0003468171566193828   -0.0007663434846585724   -0.0001922170147552509
0.0   0.0   0.0
0.0   0.0   0.0
-0.0003468171566193828   -0.0007663434846585724   -0.0001922170147552509
0.0   0.0   0.0
0.0   0.0   0.0
-0.0003468171566193828   -0.0007663434846585724   -0.0001922170147552509
-0.0007961160905698203   -0.0008203465751509295   -0.00021318582121918712
-0.0007945801714611056   -0.0008009323085242021   -0.0002638752789495708
0.0   0.0   0.0
-0.0003468171566193828   -0.0007663434846585724   -0.0001922170147552509
-0.0007945801714611056   -0.0008009323085242021   -0.0002638752789495708
0.0   0.0   0.0
0.0   0.0   0.0
-0.0007961160905698203   -0.0008203465751509295   -0.00021318582121918712
0.0   0.0   0.0
0.0   0.0   0.0
-0.0007961160905698203   -0.0008203465751509295   -0.00021318582121918712
-0.0003468171566193828   -0.0007663434846585724   -0.0001922170147552509
0.0   0.0   0.0
-0.0003388506417403124   -0.0007625072039310065   -0.00016812973519712406
0.0   0.0   0.0
0.0   0.0   0.0
-0.0003388506417403124   -0.0007625072039310065   -0.00016812973519712406
0.0   0.0   0.0
0.0   0.0   0.0
-0.0003388506417403124   -0.0007625072039310065   -0.00016812973519712406
-0.0007949029728295194   -0.0008254464286451296   -0.00016087246840006627
-0.0007961160905698203   -0.0008203465751509295   -0.00021318582121918712
0.0   0.0   0.0
-0.0003388506417403124   -0.0007625072039310065   -0.00016812973519712406
-0.0007961160905698203   -0.0008203465751509295   -0.00021318582121918712
0.0   0.0   0.0
0.0   0.0   0.0
-0.0003702749203270978   -0.0007325156876434145   -0.0002396836263372725
0.0   0.0   0.0
0.0   0.0   0.0
-0.0003702749203270978   -0.0007325156876434145   -0.0002396836263372725
4.578627773132986e-05   -0.0007365581891371304   -0.00019207540712425558
0.0   0.0   0.0
5.558336039184149e-05   -0.0007491476518938647   -0.000195205011511907
0.0   0.0   0.0
0.0   0.0   0.0
5.558336039184149e-05   -0.0007491476518938647   -0.000195205011511907
0.0   0.0   0.0
0.0   0.0   0.0
5.558336039184149e-05   -0.0007491476518938647   -0.000195205011511907
-0.0003554381208044555   -0.0007569870372858728   -0.0002155962195979115
-0.0003702749203270978   -0.0007325156876434145   -0.0002396836263372725
0.0   0.0   0.0
5.558336039184149e-05   -0.0007491476518938647   -0.000195205011511907
-0.0003702749203270978   -0.0007325156876434145   -0.0002396836263372725
0.0   0.0   0.0
0.0   0.0   0.0
-0.0003554381208044555   -0.0007569870372858728   -0.0002155962195979115
0.0   0.0   0.0
0.0   0.0   0.0
-0.0003554381208044555   -0.0007569870372858728   -0.0002155962195979115
5.558336039184149e-05   -0.0007491476518938647   -0.000195205011511907
0.0   0.0   0.0
6.34090137159979e-05   -0.0007480217486929994   -0.00019810023203467296
0.0   0.0   0.0
0.0   0.0   0.0
6.34090137159979e-05   -0.0007480217486929994   -0.00019810023203467296
0.0   0.0   0.0
0.0   0.0   0.0
6.34090137159979e-05   -0.0007480217486929994   -0.00019810023203467296
-0.0003468171566193828   -0.0007663434846585724   -0.0001922170147552509
-0.0003554381208044555   -0.0007569870372858728   -0.0002155962195979115
0.0   0.0   0.0
6.34090137159979e-05   -0.0007480217486929994   -0.00019810023203467296
-0.0003554381208044555   -0.0007569870372858728   -0.0002155962195979115
0.0   0.0   0.0
0.0   0.0   0.0
-0.0003468171566193828   -0.0007663434846585724   -0.0001922170147552509
0.0   0.0   0.0
0.0   0.0   0.0
-0.0003468171566193828   -0.0007663434846585724   -0.0001922170147552509
6.34090137159979e-05   -0.0007480217486929994   -0.00019810023203467296
0.0   0.0   0.0
7.37044593189339e-05   -0.0007320693823026656   -0.00020115841081034906
0.0   0.0   0.0
0.0   0.0   0.0
7.37044593189339e-05   -0.0007320693823026656   -0.00020115841081034906
0.0   0.0   0.0
0.0   0.0   0.0
7.37044593189339e-05   -0.0007320693823026656   -0.00020115841081034906
-0.0003388506417403124   -0.0007625072039310065   -0.00016812973519712406
-0.0003468171566193828   -0.0007663434846585724   -0.0001922170147552509
0.0   0.0   0.0
7.37044593189339e-05   -0.0007320693823026656   -0.00020115841081034906
-0.0003468171566193828   -0.0007663434846585724   -0.0001922170147552509
0.0   0.0   0.0
0.0   0.0   0.0
4.578627773132986e-05   -0.0007365581891371304   -0.00019207540712425558
0.0   0.0   0.0
0.0   0.0   0.0
4.578627773132986e-05   -0.0007365581891371304   -0.00019207540712425558
0.0004980141563257108   -0.0007716076019921225   -0.00016880155743756827
0.0   0.0   0.0
0.0004997776345328749   -0.0007754510501500498   -0.00020057596913510605
0.0   0.0   0.0
0.0   0.0   0.0
0.0004997776345328749   -0.0007754510501500498   -0.00020057596913510605
0.0   0.0   0.0
0.0   0.0   0.0
0.0004997776345328749   -0.0007754510501500498   -0.00020057596913510605
5.558336039184149e-05   -0.0007491476518938647   -0.000195205011511907
4.578627773132986e-05   -0.0007365581891371304   -0.00019207540712425558
0.0   0.0   0.0
0.0004997776345328749   -0.0007754510501500498   -0.00020057596913510605
4.578627773132986e-05   -0.0007365581891371304   -0.00019207540712425558
0.0   0.0   0.0
0.0   0.0   0.0
5.558336039184149e-05   -0.0007491476518938647   -0.000195205011511907
0.0   0.0   0.0
0.0   0.0   0.0
5.558336039184149e-05   -0.0007491476518938647   -0.000195205011511907
0.0004997776345328749   -0.0007754510501500498   -0.00020057596913510605
0.0   0.0   0.0
0.0004983937387066516   -0.0007643841915157409   -0.00023115676665091996
0.0   0.0   0.0
0.0   0.0   0.0
0.0004983937387066516   -0.0007643841915157409   -0.00023115676665091996
0.0   0.0   0.0
0.0   0.0   0.0
0.0004983937387066516   -0.0007643841915157409   -0.00023115676665091996
6.34090137159979e-05   -0.0007480217486929994   -0.00019810023203467296
5.558336039184149e-05   -0.0007491476518938647   -0.000195205011511907
0.0   0.0   0.0
0.0004983937387066516   -0.0007643841915157409   -0.00023115676665091996
5.558336039184149e-05   -0.0007491476518938647   -0.000195205011511907
0.0   0.0   0.0
0.0   0.0   0.0
6.34090137159979e-05   -0.0007480217486929994   -0.00019810023203467296
0.0   0.0   0.0
0.0   0.0   0.0
6.34090137159979e-05   -0.0007480217486929994   -0.00019810023203467296
0.0004983937387066516   -0.0007643841915157409   -0.00023115676665091996
0.0   0.0   0.0
0.000508773097983504   -0.0007351010634997525   -0.00026123364212262166
0.0   0.0   0.0
0.0   0.0   0.0
0.000508773097983504   -0.0007351010634997525   -0.00026123364212262166
0.0   0.0   0.0
0.0   0.0   0.0
0.000508773097983504   -0.0007351010634997525   -0.00026123364212262166
7.37044593189339e-05   -0.0007320693823026656   -0.00020115841081034906
6.34090137159979e-05   -0.0007480217486929994   -0.00019810023203467296
0.0   0.0   0.0
0.000508773097983504   -0.0007351010634997525   -0.00026123364212262166
6.34090137159979e-05   -0.0007480217486929994   -0.00019810023203467296
0.0   0.0   0.0
0.0   0.0   0.0
0.0004980141563257108   -0.0007716076019921225   -0.00016880155743756827
0.0   0.0   0.0
0.0   0.0   0.0
0.0004980141563257108   -0.0007716076019921225   -0.00016880155743756827
0.001128980004777125   -0.000860812070188186   -0.00015995672974739914
0.0   0.0   0.0
0.0010614347787784005   -0.0008510716393990556   -0.0002322751056497915
0.0   0.0   0.0
0.0   0.0   0.0
0.0010614347787784005   -0.0008510716393990556   -0.0002322751056497915
0.0   0.0   0.0
0.0   0.0   0.0
0.0010614347787784005   -0.0008510716393990556   -0.0002322751056497915
0.0004997776345328749   -0.0007754510501500498   -0.00020057596913510605
0.0004980141563257108   -0.0007716076019921225   -0.00016880155743756827
0.0   0.0   0.0
0.0010614347787784005   -0.0008510716393990556   -0.0002322751056497915
0.0004980141563257108   -0.0007716076019921225   -0.00016880155743756827
0.0   0.0   0.0
0.0   0.0   0.0
0.0004997776345328749   -0.0007754510501500498   -0.00020057596913510605
0.0   0.0   0.0
0.0   0.0   0.0
0.0004997776345328749   -0.0007754510501500498   -0.00020057596913510605
0.0010614347787784005   -0.0008510716393990556   -0.0002322751056497915
0.0   0.0   0.0
0.00103062871352928   -0.0008333856878841912   -0.0002935079239500809
0.0   0.0   0.0
0.0   0.0   0.0
0.00103062871352928   -0.0008333856878841912   -0.0002935079239500809
0.0   0.0   0.0
0.0   0.0   0.0
0.00103062871352928   -0.0008333856878841912   -0.0002935079239500809
0.0004983937387066516   -0.0007643841915157409   -0.00023115676665091996
0.0004997776345328749   -0.0007754510501500498   -0.00020057596913510605
0.0   0.0   0.0
0.00103062871352928   -0.0008333856878841912   -0.0002935079239500809
0.0004997776345328749   -0.0007754510501500498   -0.00020057596913510605
0.0   0.0   0.0
0.0   0.0   0.0
0.0004983937387066516   -0.0007643841915157409   -0.00023115676665091996
0.0   0.0   0.0
0.0   0.0   0.0
0.0004983937387066516   -0.0007643841915157409   -0.00023115676665091996
0.00103062871352928   -0.0008333856878841912   -0.0002935079239500809
0.0   0.0   0.0
0.0009842383413049857   -0.0007884036717047055   -0.000358478689829004
0.0   0.0   0.0
0.0   0.0   0.0
0.0009842383413049857   -0.0007884036717047055   -0.000358478689829004
0.0   0.0   0.0
0.0   0.0   0.0
0.0009842383413049857   -0.0007884036717047055   -0.000358478689829004
0.000508773097983504   -0.0007351010634997525   -0.00026123364212262166
0.0004983937387066516   -0.0007643841915157409   -0.00023115676665091996
0.0   0.0   0.0
0.0009842383413049857   -0.0007884036717047055   -0.000358478689829004
0.0004983937387066516   -0.0007643841915157409   -0.00023115676665091996
0.0   0.0   0.0
-0.0012764379319286094   -0.0008472885273222758   -0.0004282043239545544
-0.002376851886143873   -0.0023509291140670447   -0.0005772577030830634
-0.0008112765137483595   -0.0007632067323966718   -0.0003147183452417569
-0.0013350465400415637   -0.0009021978842275764   -0.00034410226122323905
-0.002376851886143873   -0.0023509291140670447   -0.0005772577030830634
-0.0015167190591455098   -0.0022755728952000022   -0.0004758965260932108
-0.0008112765137483595   -0.0007632067323966718   -0.0003147183452417569
-0.001517393609402016   -0.0023140281205005476   -0.0004290645149356706
-0.0013350465400415637   -0.0009021978842275764   -0.00034410226122323905
-0.0007945801714611056   -0.0008009323085242021   -0.0002638752789495708
-0.001517393609402016   -0.0023140281205005476   -0.0004290645149356706
-0.0008112765137483595   -0.0007632067323966718   -0.0003147183452417569
-0.0013350465400415637   -0.0009021978842275764   -0.00034410226122323905
-0.001517393609402016   -0.0023140281205005476   -0.0004290645149356706
-0.0024465802356701716   -0.0024047066552051496   -0.0005013781245286708
-0.002376851886143873   -0.0023509291140670447   -0.0005772577030830634
-0.0013350465400415637   -0.0009021978842275764   -0.00034410226122323905
-0.001517393609402016   -0.0023140281205005476   -0.0004290645149356706
-0.002376851886143873   -0.0023509291140670447   -0.0005772577030830634
-0.0008112765137483595   -0.0007632067323966718   -0.0003147183452417569
-0.0013350465400415637   -0.0009021978842275764   -0.00034410226122323905
-0.0024465802356701716   -0.0024047066552051496   -0.0005013781245286708
-0.0007945801714611056   -0.0008009323085242021   -0.0002638752789495708
-0.0013758831684198885   -0.0009289362856759757   -0.00026367195005794436
-0.0024465802356701716   -0.0024047066552051496   -0.0005013781245286708
-0.001517393609402016   -0.0023140281205005476   -0.0004290645149356706
-0.0007945801714611056   -0.0008009323085242021   -0.0002638752789495708
-0.0015221689291057367   -0.002337573342195391   -0.00038413365922974066
-0.0013758831684198885   -0.0009289362856759757   -0.00026367195005794436
-0.0007961160905698203   -0.0008203465751509295   -0.00021318582121918712
-0.0015221689291057367   -0.002337573342195391   -0.00038413365922974066
-0.0007945801714611056   -0.0008009323085242021   -0.0002638752789495708
-0.0013758831684198885   -0.0009289362856759757   -0.00026367195005794436
-0.0015221689291057367   -0.002337573342195391   -0.00038413365922974066
-0.00249455547217279   -0.0024351763084287316   -0.00042717959338022893
-0.0024465802356701716   -0.0024047066552051496   -0.0005013781245286708
-0.0013758831684198885   -0.0009289362856759757   -0.00026367195005794436
-0.0015221689291057367   -0.002337573342195391   -0.00038413365922974066
-0.0024465802356701716   -0.0024047066552051496   -0.0005013781245286708
-0.0007945801714611056   -0.0008009323085242021   -0.0002638752789495708
-0.0013758831684198885   -0.0009289362856759757   -0.00026367195005794436
-0.00249455547217279   -0.0024351763084287316   -0.00042717959338022893
-0.0007961160905698203   -0.0008203465751509295   -0.00021318582121918712
-0.0014645560896721364   -0.0009494612270775746   -0.00017046059450694437
-0.00249455547217279   -0.0024351763084287316   -0.00042717959338022893
-0.0015221689291057367   -0.002337573342195391   -0.00038413365922974066
-0.0007961160905698203   -0.0008203465751509295   -0.00021318582121918712
-0.0015163883503076948   -0.002349962220276728   -0.00034214954016606095
-0.0014645560896721364   -0.0009494612270775746   -0.00017046059450694437
-0.0007949029728295194   -0.0008254464286451296   -0.00016087246840006627
-0.0015163883503076948   -0.002349962220276728   -0.00034214954016606095
-0.0007961160905698203   -0.0008203465751509295   -0.00021318582121918712
-0.0014645560896721364   -0.0009494612270775746   -0.00017046059450694437
-0.0015163883503076948   -0.002349962220276728   -0.00034214954016606095
-0.002551209095706035   -0.0024531968397699753   -0.00035983416775900727
-0.00249455547217279   -0.0024351763084287316   -0.00042717959338022893
-0.0014645560896721364   -0.0009494612270775746   -0.00017046059450694437
-0.0015163883503076948   -0.002349962220276728   -0.00034214954016606095
-0.00249455547217279   -0.0024351763084287316   -0.00042717959338022893
-0.0007961160905698203   -0.0008203465751509295   -0.00021318582121918712
-0.0008112765137483595   -0.0007632067323966718   -0.0003147183452417569
-0.0015167190591455098   -0.0022755728952000022   -0.0004758965260932108
-0.0003702749203270978   -0.0007325156876434145   -0.0002396836263372725
-0.0007945801714611056   -0.0008009323085242021   -0.0002638752789495708
-0.0015167190591455098   -0.0022755728952000022   -0.0004758965260932108
-0.0007056892782567048   -0.0022405004176712247   -0.0004068101850033083
-0.0003702749203270978   -0.0007325156876434145   -0.0002396836263372725
-0.000698463154316759   -0.002264871281780522   -0.00038270622503705086
-0.0007945801714611056   -0.0008009323085242021   -0.0002638752789495708
-0.0003554381208044555   -0.0007569870372858728   -0.0002155962195979115
-0.000698463154316759   -0.002264871281780522   -0.00038270622503705086
-0.0003702749203270978   -0.0007325156876434145   -0.0002396836263372725
-0.0007945801714611056   -0.0008009323085242021   -0.0002638752789495708
-0.000698463154316759   -0.002264871281780522   -0.00038270622503705086
-0.001517393609402016   -0.0023140281205005476   -0.0004290645149356706
-0.0015167190591455098   -0.0022755728952000022   -0.0004758965260932108
-0.0007945801714611056   -0.0008009323085242021   -0.0002638752789495708
-0.000698463154316759   -0.002264871281780522   -0.00038270622503705086
-0.0015167190591455098   -0.0022755728952000022   -0.0004758965260932108
-0.0003702749203270978   -0.0007325156876434145   -0.0002396836263372725
-0.0007945801714611056   -0.0008009323085242021   -0.0002638752789495708
-0.001517393609402016   -0.0023140281205005476   -0.0004290645149356706
-0.0003554381208044555   -0.0007569870372858728   -0.0002155962195979115
-0.0007961160905698203   -0.0008203465751509295   -0.00021318582121918712
-0.001517393609402016   -0.0023140281205005476   -0.0004290645149356706
-0.000698463154316759   -0.002264871281780522   -0.00038270622503705086
-0.0003554381208044555   -0.0007569870372858728   -0.0002155962195979115
-0.0006919314684824428   -0.002276729882709205   -0.00036090422374342065
-0.0007961160905698203   -0.0008203465751509295   -0.00021318582121918712
-0.0003468171566193828   -0.0007663434846585724   -0.0001922170147552509
-0.0006919314684824428   -0.002276729882709205   -0.00036090422374342065
-0.0003554381208044555   -0.0007569870372858728   -0.0002155962195979115
-0.0007961160905698203   -0.0008203465751509295   -0.00021318582121918712
-0.0006919314684824428   -0.002276729882709205   -0.00036090422374342065
-0.0015221689291057367   -0.002337573342195391   -0.00038413365922974066
-0.001517393609402016   -0.0023140281205005476   -0.0004290645149356706
-0.0007961160905698203   -0.0008203465751509295   -0.00021318582121918712
-0.0006919314684824428   -0.002276729882709205   -0.00036090422374342065
-0.001517393609402016   -0.0023140281205005476   -0.0004290645149356706
-0.0003554381208044555   -0.0007569870372858728   -0.0002155962195979115
-0.0007961160905698203   -0.0008203465751509295   -0.00021318582121918712
-0.0015221689291057367   -0.002337573342195391   -0.00038413365922974066
-0.0003468171566193828   -0.0007663434846585724   -0.0001922170147552509
-0.0007949029728295194   -0.0008254464286451296   -0.00016087246840006627
-0.0015221689291057367   -0.002337573342195391   -0.00038413365922974066
-0.0006919314684824428   -0.002276729882709205   -0.00036090422374342065
-0.0003468171566193828   -0.0007663434846585724   -0.0001922170147552509
-0.0006827150921752492   -0.0022765203372424794   -0.00034198074416403744
-0.0007949029728295194   -0.0008254464286451296   -0.00016087246840006627
-0.0003388506417403124   -0.0007625072039310065   -0.00016812973519712406
-0.0006827150921752492   -0.0022765203372424794   -0.00034198074416403744
-0.0003468171566193828   -0.0007663434846585724   -0.0001922170147552509
-0.0007949029728295194   -0.0008254464286451296   -0.00016087246840006627
-0.0006827150921752492   -0.0022765203372424794   -0.00034198074416403744
-0.0015163883503076948   -0.002349962220276728   -0.00034214954016606095
-0.0015221689291057367   -0.002337573342195391   -0.00038413365922974066
-0.0007949029728295194   -0.0008254464286451296   -0.00016087246840006627
-0.0006827150921752492   -0.0022765203372424794   -0.00034198074416403744
-0.0015221689291057367   -0.002337573342195391   -0.00038413365922974066
-0.0003468171566193828   -0.0007663434846585724   -0.0001922170147552509
-0.0003702749203270978   -0.0007325156876434145   -0.0002396836263372725
-0.0007056892782567048   -0.0022405004176712247   -0.0004068101850033083
4.578627773132986e-05   -0.0007365581891371304   -0.00019207540712425558
-0.0003554381208044555   -0.0007569870372858728   -0.0002155962195979115
-0.0007056892782567048   -0.0022405004176712247   -0.0004068101850033083
7.566341683746122e-05   -0.0022416129221086074   -0.00036338785561316653
4.578627773132986e-05   -0.0007365581891371304   -0.00019207540712425558
8.434744254226076e-05   -0.0022529940071031986   -0.00036158132973476947
-0.0003554381208044555   -0.0007569870372858728   -0.0002155962195979115
5.558336039184149e-05   -0.0007491476518938647   -0.000195205011511907
8.434744254226076e-05   -0.0022529940071031986   -0.00036158132973476947
4.578627773132986e-05   -0.0007365581891371304   -0.00019207540712425558
-0.0003554381208044555   -0.0007569870372858728   -0.0002155962195979115
8.434744254226076e-05   -0.0022529940071031986   -0.00036158132973476947
-0.000698463154316759   -0.002264871281780522   -0.00038270622503705086
-0.0007056892782567048   -0.0022405004176712247   -0.0004068101850033083
-0.0003554381208044555   -0.0007569870372858728   -0.0002155962195979115
8.434744254226076e-05   -0.0022529940071031986   -0.00036158132973476947
-0.0007056892782567048   -0.0022405004176712247   -0.0004068101850033083
4.578627773132986e-05   -0.0007365581891371304   -0.00019207540712425558
-0.0003554381208044555   -0.0007569870372858728   -0.0002155962195979115
-0.000698463154316759   -0.002264871281780522   -0.00038270622503705086
5.558336039184149e-05   -0.0007491476518938647   -0.000195205011511907
-0.0003468171566193828   -0.0007663434846585724   -0.0001922170147552509
-0.000698463154316759   -0.002264871281780522   -0.00038270622503705086
8.434744254226076e-05   -0.0022529940071031986   -0.00036158132973476947
5.558336039184149e-05   -0.0007491476518938647   -0.000195205011511907
9.055182328366125e-05   -0.002252152184318621   -0.00036238315679499987
-0.0003468171566193828   -0.0007663434846585724   -0.0001922170147552509
6.34090137159979e-05   -0.0007480217486929994   -0.00019810023203467296
9.055182328366125e-05   -0.002252152184318621   -0.00036238315679499987
5.558336039184149e-05   -0.0007491476518938647   -0.000195205011511907
-0.0003468171566193828   -0.0007663434846585724   -0.0001922170147552509
9.055182328366125e-05   -0.002252152184318621   -0.00036238315679499987
-0.0006919314684824428   -0.002276729882709205   -0.00036090422374342065
-0.000698463154316759   -0.002264871281780522   -0.00038270622503705086
-0.0003468171566193828   -0.0007663434846585724   -0.0001922170147552509
9.055182328366125e-05   -0.002252152184318621   -0.00036238315679499987
-0.000698463154316759   -0.002264871281780522   -0.00038270622503705086
5.558336039184149e-05   -0.0007491476518938647   -0.000195205011511907
-0.0003468171566193828   -0.0007663434846585724   -0.0001922170147552509
-0.0006919314684824428   -0.002276729882709205   -0.00036090422374342065
6.34090137159979e-05   -0.0007480217486929994   -0.00019810023203467296
-0.0003388506417403124   -0.0007625072039310065   -0.00016812973519712406
-0.0006919314684824428   -0.002276729882709205   -0.00036090422374342065
9.055182328366125e-05   -0.002252152184318621   -0.00036238315679499987
6.34090137159979e-05   -0.0007480217486929994   -0.00019810023203467296
9.712340305291245e-05   -0.002238720020472997   -0.00036583314655564813
-0.0003388506417403124   -0.0007625072039310065   -0.00016812973519712406
7.37044593189339e-05   -0.0007320693823026656   -0.00020115841081034906
9.712340305291245e-05   -0.002238720020472997   -0.00036583314655564813
6.34090137159979e-05   -0.0007480217486929994   -0.00019810023203467296
-0.0003388506417403124   -0.0007625072039310065   -0.00016812973519712406
9.712340305291245e-05   -0.002238720020472997   -0.00036583314655564813
-0.0006827150921752492   -0.0022765203372424794   -0.00034198074416403744
-0.0006919314684824428   -0.002276729882709205   -0.00036090422374342065
-0.0003388506417403124   -0.0007625072039310065   -0.00016812973519712406
9.712340305291245e-05   -0.002238720020472997   -0.00036583314655564813
-0.0006919314684824428   -0.002276729882709205   -0.00036090422374342065
6.34090137159979e-05   -0.0007480217486929994   -0.00019810023203467296
4.578627773132986e-05   -0.0007365581891371304   -0.00019207540712425558
7.566341683746122e-05   -0.0022416129221086074   -0.00036338785561316653
0.0004980141563257108   -0.0007716076019921225   -0.00016880155743756827
5.558336039184149e-05   -0.0007491476518938647   -0.000195205011511907
7.566341683746122e-05   -0.0022416129221086074   -0.00036338785561316653
0.0009043104987574261   -0.0022776265061089833   -0.0003435392384030341
0.0004980141563257108   -0.0007716076019921225   -0.00016880155743756827
0.000909875517316892   -0.0022771577543565734   -0.00036474529634289275
5.558336039184149e-05   -0.0007491476518938647   -0.000195205011511907
0.0004997776345328749   -0.0007754510501500498   -0.00020057596913510605
0.000909875517316892   -0.0022771577543565734   -0.00036474529634289275
0.0004980141563257108   -0.0007716076019921225   -0.00016880155743756827
5.558336039184149e-05   -0.0007491476518938647   -0.000195205011511907
0.000909875517316892   -0.0022771577543565734   -0.00036474529634289275
8.434744254226076e-05   -0.0022529940071031986   -0.00036158132973476947
7.566341683746122e-05   -0.0022416129221086074   -0.00036338785561316653
5.558336039184149e-05   -0.0007491476518938647   -0.000195205011511907
0.000909875517316892   -0.0022771577543565734   -0.00036474529634289275
7.566341683746122e-05   -0.0022416129221086074   -0.00036338785561316653
0.0004980141563257108   -0.0007716076019921225   -0.00016880155743756827
5.558336039184149e-05   -0.0007491476518938647   -0.000195205011511907
8.434744254226076e-05   -0.0022529940071031986   -0.00036158132973476947
0.0004997776345328749   -0.0007754510501500498   -0.00020057596913510605
6.34090137159979e-05   -0.0007480217486929994   -0.00019810023203467296
8.434744254226076e-05   -0.0022529940071031986   -0.00036158132973476947
0.000909875517316892   -0.0022771577543565734   -0.00036474529634289275
0.0004997776345328749   -0.0007754510501500498   -0.00020057596913510605
0.0009069590460263089   -0.0022647380264073534   -0.00038890145559701555
6.34090137159979e-05   -0.0007480217486929994   -0.00019810023203467296
0.0004983937387066516   -0.0007643841915157409   -0.00023115676665091996
0.0009069590460263089   -0.0022647380264073534   -0.00038890145559701555
0.0004997776345328749   -0.0007754510501500498   -0.00020057596913510605
6.34090137159979e-05   -0.0007480217486929994   -0.00019810023203467296
0.0009069590460263089   -0.0022647380264073534   -0.00038890145559701555
9.055182328366125e-05   -0.002252152184318621   -0.00036238315679499987
8.434744254226076e-05   -0.0022529940071031986   -0.00036158132973476947
6.34090137159979e-05   -0.0007480217486929994   -0.00019810023203467296
0.0009069590460263089   -0.0022647380264073534   -0.00038890145559701555
8.434744254226076e-05   -0.0022529940071031986   -0.00036158132973476947
0.0004997776345328749   -0.0007754510501500498   -0.00020057596913510605
6.34090137159979e-05   -0.0007480217486929994   -0.00019810023203467296
9.055182328366125e-05   -0.002252152184318621   -0.00036238315679499987
0.0004983937387066516   -0.0007643841915157409   -0.00023115676665091996
7.37044593189339e-05   -0.0007320693823026656   -0.00020115841081034906
9.055182328366125e-05   -0.002252152184318621   -0.00036238315679499987
0.0009069590460263089   -0.0022647380264073534   -0.00038890145559701555
0.0004983937387066516   -0.0007643841915157409   -0.00023115676665091996
0.0009057549225620161   -0.002237022374322753   -0.0004151095704435784
7.37044593189339e-05   -0.0007320693823026656   -0.00020115841081034906
0.000508773097983504   -0.0007351010634997525   -0.00026123364212262166
0.0009057549225620161   -0.002237022374322753   -0.0004151095704435784
0.0004983937387066516   -0.0007643841915157409   -0.00023115676665091996
7.37044593189339e-05   -0.0007320693823026656   -0.00020115841081034906
0.0009057549225620161   -0.002237022374322753   -0.0004151095704435784
9.712340305291245e-05   -0.002238720020472997   -0.00036583314655564813
9.055182328366125e-05   -0.002252152184318621   -0.00036238315679499987
7.37044593189339e-05   -0.0007320693823026656   -0.00020115841081034906
0.0009057549225620161   -0.002237022374322753   -0.0004151095704435784
9.055182328366125e-05   -0.002252152184318621   -0.00036238315679499987
0.0004983937387066516   -0.0007643841915157409   -0.00023115676665091996
0.0004980141563257108   -0.0007716076019921225   -0.00016880155743756827
0.0009043104987574261   -0.0022776265061089833   -0.0003435392384030341
0.001128980004777125   -0.000860812070188186   -0.00015995672974739914
0.0004997776345328749   -0.0007754510501500498   -0.00020057596913510605
0.0009043104987574261   -0.0022776265061089833   -0.0003435392384030341
0.0019059225209945056   -0.00234433892534306   -0.00033901693023585187
0.001128980004777125   -0.000860812070188186   -0.00015995672974739914
0.0018690517772755081   -0.002337455861311774   -0.0003868987852594368
0.0004997776345328749   -0.0007754510501500498   -0.00020057596913510605
0.0010614347787784005   -0.0008510716393990556   -0.0002322751056497915
0.0018690517772755081   -0.002337455861311774   -0.0003868987852594368
0.001128980004777125   -0.000860812070188186   -0.00015995672974739914
0.0004997776345328749   -0.0007754510501500498   -0.00020057596913510605
0.0018690517772755081   -0.002337455861311774   -0.0003868987852594368
0.000909875517316892   -0.0022771577543565734   -0.00036474529634289275
0.0009043104987574261   -0.0022776265061089833   -0.0003435392384030341
0.0004997776345328749   -0.0007754510501500498   -0.00020057596913510605
0.0018690517772755081   -0.002337455861311774   -0.0003868987852594368
0.0009043104987574261   -0.0022776265061089833   -0.0003435392384030341
0.001128980004777125   -0.000860812070188186   -0.00015995672974739914
0.0004997776345328749   -0.0007754510501500498   -0.00020057596913510605
0.000909875517316892   -0.0022771577543565734   -0.00036474529634289275
0.0010614347787784005   -0.0008510716393990556   -0.0002322751056497915
0.0004983937387066516   -0.0007643841915157409   -0.00023115676665091996
0.000909875517316892   -0.0022771577543565734   -0.00036474529634289275
0.0018690517772755081   -0.002337455861311774   -0.0003868987852594368
0.0010614347787784005   -0.0008510716393990556   -0.0002322751056497915
0.0018359385109416554   -0.0023183794680960296   -0.00044097254361702415
0.0004983937387066516   -0.0007643841915157409   -0.00023115676665091996
0.00103062871352928   -0.0008333856878841912   -0.0002935079239500809
0.0018359385109416554   -0.0023183794680960296   -0.00044097254361702415
0.0010614347787784005   -0.0008510716393990556   -0.0002322751056497915
0.0004983937387066516   -0.0007643841915157409   -0.00023115676665091996
0.0018359385109416554   -0.0023183794680960296   -0.00044097254361702415
0.0009069590460263089   -0.0022647380264073534   -0.00038890145559701555
0.000909875517316892   -0.0022771577543565734   -0.00036474529634289275
0.0004983937387066516   -0.0007643841915157409   -0.00023115676665091996
0.0018359385109416554   -0.0023183794680960296   -0.00044097254361702415
0.000909875517316892   -0.0022771577543565734   -0.00036474529634289275
0.0010614347787784005   -0.0008510716393990556   -0.0002322751056497915
0.0004983937387066516   -0.0007643841915157409   -0.00023115676665091996
0.0009069590460263089   -0.0022647380264073534   -0.00038890145559701555
0.00103062871352928   -0.0008333856878841912   -0.0002935079239500809
0.000508773097983504   -0.0007351010634997525   -0.00026123364212262166
0.0009069590460263089   -0.0022647380264073534   -0.00038890145559701555
0.0018359385109416554   -0.0023183794680960296   -0.00044097254361702415
0.00103062871352928   -0.0008333856878841912   -0.0002935079239500809
0.0017855092294317312   -0.002276359254990846   -0.0004973877088333538
0.000508773097983504   -0.0007351010634997525   -0.00026123364212262166
0.0009842383413049857   -0.0007884036717047055   -0.000358478689829004
0.0017855092294317312   -0.002276359254990846   -0.0004973877088333538
0.00103062871352928   -0.0008333856878841912   -0.0002935079239500809
0.000508773097983504   -0.0007351010634997525   -0.00026123364212262166
0.0017855092294317312   -0.002276359254990846   -0.0004973877088333538
0.0009057549225620161   -0.002237022374322753   -0.0004151095704435784
0.0009069590460263089   -0.0022647380264073534   -0.00038890145559701555
0.000508773097983504   -0.0007351010634997525   -0.00026123364212262166
0.0017855092294317312   -0.002276359254990846   -0.0004973877088333538
0.0009069590460263089   -0.0022647380264073534   -0.00038890145559701555
0.00103062871352928   -0.0008333856878841912   -0.0002935079239500809
-0.002376851886143873   -0.0023509291140670447   -0.0005772577030830634
-0.0032476095885075277   -0.00438987009270395   -0.0006585621301062273
-0.0015167190591455098   -0.0022755728952000022   -0.0004758965260932108
-0.0024465802356701716   -0.0024047066552051496   -0.0005013781245286708
-0.0032476095885075277   -0.00438987009270395   -0.0006585621301062273
-0.0020889862486102046   -0.004332593397066689   -0.0005769117810885292
-0.0015167190591455098   -0.0022755728952000022   -0.0004758965260932108
-0.0020922023746423003   -0.00436558729829606   -0.0005407640291502376
-0.0024465802356701716   -0.0024047066552051496   -0.0005013781245286708
-0.001517393609402016   -0.0023140281205005476   -0.0004290645149356706
-0.0020922023746423003   -0.00436558729829606   -0.0005407640291502376
-0.0015167190591455098   -0.0022755728952000022   -0.0004758965260932108
-0.0024465802356701716   -0.0024047066552051496   -0.0005013781245286708
-0.0020922023746423003   -0.00436558729829606   -0.0005407640291502376
-0.0033034851587935487   -0.004435039818017318   -0.000602396692162319
-0.0032476095885075277   -0.00438987009270395   -0.0006585621301062273
-0.0024465802356701716   -0.0024047066552051496   -0.0005013781245286708
-0.0020922023746423003   -0.00436558729829606   -0.0005407640291502376
-0.0032476095885075277   -0.00438987009270395   -0.0006585621301062273
-0.0015167190591455098   -0.0022755728952000022   -0.0004758965260932108
-0.0024465802356701716   -0.0024047066552051496   -0.0005013781245286708
-0.0033034851587935487   -0.004435039818017318   -0.000602396692162319
-0.001517393609402016   -0.0023140281205005476   -0.0004290645149356706
-0.00249455547217279   -0.0024351763084287316   -0.00042717959338022893
-0.0033034851587935487   -0.004435039818017318   -0.000602396692162319
-0.0020922023746423003   -0.00436558729829606   -0.0005407640291502376
-0.001517393609402016   -0.0023140281205005476   -0.0004290645149356706
-0.002096155984761989   -0.004388659679501869   -0.000507281853862588
-0.00249455547217279   -0.0024351763084287316   -0.00042717959338022893
-0.0015221689291057367   -0.002337573342195391   -0.00038413365922974066
-0.002096155984761989   -0.004388659679501869   -0.000507281853862588
-0.001517393609402016   -0.0023140281205005476   -0.0004290645149356706
-0.00249455547217279   -0.0024351763084287316   -0.00042717959338022893
-0.002096155984761989   -0.004388659679501869   -0.000507281853862588
-0.0033380839162636044   -0.004463490360002016   -0.0005501337910585061
-0.0033034851587935487   -0.004435039818017318   -0.000602396692162319
-0.00249455547217279   -0.0024351763084287316   -0.00042717959338022893
-0.002096155984761989   -0.004388659679501869   -0.000507281853862588
-0.0033034851587935487   -0.004435039818017318   -0.000602396692162319
-0.001517393609402016   -0.0023140281205005476   -0.0004290645149356706
-0.00249455547217279   -0.0024351763084287316   -0.00042717959338022893
-0.0033380839162636044   -0.004463490360002016   -0.0005501337910585061
-0.0015221689291057367   -0.002337573342195391   -0.00038413365922974066
-0.002551209095706035   -0.0024531968397699753   -0.00035983416775900727
-0.0033380839162636044   -0.004463490360002016   -0.0005501337910585061
-0.002096155984761989   -0.004388659679501869   -0.000507281853862588
-0.0015221689291057367   -0.002337573342195391   -0.00038413365922974066
-0.002090783732424703   -0.004404010113247874   -0.0004758940023880473
-0.002551209095706035   -0.0024531968397699753   -0.00035983416775900727
-0.0015163883503076948   -0.002349962220276728   -0.00034214954016606095
-0.002090783732424703   -0.004404010113247874   -0.0004758940023880473
-0.0015221689291057367   -0.002337573342195391   -0.00038413365922974066
-0.002551209095706035   -0.0024531968397699753   -0.00035983416775900727
-0.002090783732424703   -0.004404010113247874   -0.0004758940023880473
-0.003377449204727413   -0.004484228587468548   -0.0005021396092879699
-0.0033380839162636044   -0.004463490360002016   -0.0005501337910585061
-0.002551209095706035   -0.0024531968397699753   -0.00035983416775900727
-0.002090783732424703   -0.004404010113247874   -0.0004758940023880473
-0.0033380839162636044   -0.004463490360002016   -0.0005501337910585061
-0.0015221689291057367   -0.002337573342195391   -0.00038413365922974066
-0.0015167190591455098   -0.0022755728952000022   -0.0004758965260932108
-0.0020889862486102046   -0.004332593397066689   -0.0005769117810885292
-0.0007056892782567048   -0.0022405004176712247   -0.0004068101850033083
-0.001517393609402016   -0.0023140281205005476   -0.0004290645149356706
-0.0020889862486102046   -0.004332593397066689   -0.0005769117810885292
-0.0009984808528521044   -0.004303918890082166   -0.0005202450031375575
-0.0007056892782567048   -0.0022405004176712247   -0.0004068101850033083
-0.0009946259296897471   -0.004324913551309745   -0.0004996835347635265
-0.001517393609402016   -0.0023140281205005476   -0.0004290645149356706
-0.000698463154316759   -0.002264871281780522   -0.00038270622503705086
-0.0009946259296897471   -0.004324913551309745   -0.0004996835347635265
-0.0007056892782567048   -0.0022405004176712247   -0.0004068101850033083
-0.001517393609402016   -0.0023140281205005476   -0.0004290645149356706
-0.0009946259296897471   -0.004324913551309745   -0.0004996835347635265
-0.0020922023746423003   -0.00436558729829606   -0.0005407640291502376
-0.0020889862486102046   -0.004332593397066689   -0.0005769117810885292
-0.001517393609402016   -0.0023140281205005476   -0.0004290645149356706
-0.0009946259296897471   -0.004324913551309745   -0.0004996835347635265
-0.0020889862486102046   -0.004332593397066689   -0.0005769117810885292
-0.0007056892782567048   -0.0022405004176712247   -0.0004068101850033083
-0.001517393609402016   -0.0023140281205005476   -0.0004290645149356706
-0.0020922023746423003   -0.00436558729829606   -0.0005407640291502376
-0.000698463154316759   -0.002264871281780522   -0.00038270622503705086
-0.0015221689291057367   -0.002337573342195391   -0.00038413365922974066
-0.0020922023746423003   -0.00436558729829606   -0.0005407640291502376
-0.0009946259296897471   -0.004324913551309745   -0.0004996835347635265
-0.000698463154316759   -0.002264871281780522   -0.00038270622503705086
-0.000990216608231182   -0.004337289341870827   -0.00048165186693788177
-0.0015221689291057367   -0.002337573342195391   -0.00038413365922974066
-0.0006919314684824428   -0.002276729882709205   -0.00036090422374342065
-0.000990216608231182   -0.004337289341870827   -0.00048165186693788177
-0.000698463154316759   -0.002264871281780522   -0.00038270622503705086
-0.0015221689291057367   -0.002337573342195391   -0.00038413365922974066
-0.000990216608231182   -0.004337289341870827   -0.00048165186693788177
-0.002096155984761989   -0.004388659679501869   -0.000507281853862588
-0.0020922023746423003   -0.00436558729829606   -0.0005407640291502376
-0.0015221689291057367   -0.002337573342195391   -0.00038413365922974066
-0.000990216608231182   -0.004337289341870827   -0.00048165186693788177
-0.0020922023746423003   -0.00436558729829606   -0.0005407640291502376
-0.000698463154316759   -0.002264871281780522   -0.00038270622503705086
-0.0015221689291057367   -0.002337573342195391   -0.00038413365922974066
-0.002096155984761989   -0.004388659679501869   -0.000507281853862588
-0.0006919314684824428   -0.002276729882709205   -0.00036090422374342065
-0.0015163883503076948   -0.002349962220276728   -0.00034214954016606095
-0.002096155984761989   -0.004388659679501869   -0.000507281853862588
-0.000990216608231182   -0.004337289341870827   -0.00048165186693788177
-0.0006919314684824428   -0.002276729882709205   -0.00036090422374342065
-0.000983815169191669   -0.00434122289486832   -0.000466146396327577
-0.0015163883503076948   -0.002349962220276728   -0.00034214954016606095
-0.0006827150921752492   -0.0022765203372424794   -0.00034198074416403744
-0.000983815169191669   -0.00434122289486832   -0.000466146396327577
-0.0006919314684824428   -0.002276729882709205   -0.00036090422374342065
-0.0015163883503076948   -0.002349962220276728   -0.00034214954016606095
-0.000983815169191669   -0.00434122289486832   -0.000466146396327577
-0.002090783732424703   -0.004404010113247874   -0.0004758940023880473
-0.002096155984761989   -0.004388659679501869   -0.000507281853862588
-0.0015163883503076948   -0.002349962220276728   -0.00034214954016606095
-0.000983815169191669   -0.00434122289486832   -0.000466146396327577
-0.002096155984761989   -0.004388659679501869   -0.000507281853862588
-0.0006919314684824428   -0.002276729882709205   -0.00036090422374342065
-0.0007056892782567048   -0.0022405004176712247   -0.0004068101850033083
-0.0009984808528521044   -0.004303918890082166   -0.0005202450031375575
7.566341683746122e-05   -0.0022416129221086074   -0.00036338785561316653
-0.000698463154316759   -0.002264871281780522   -0.00038270622503705086
-0.0009984808528521044   -0.004303918890082166   -0.0005202450031375575
5.941927704415416e-05   -0.004302369781258247   -0.0004853838405636303
7.566341683746122e-05   -0.0022416129221086074   -0.00036338785561316653
6.54217388093191e-05   -0.0043115196887328665   -0.00048033388223681344
-0.000698463154316759   -0.002264871281780522   -0.00038270622503705086
8.434744254226076e-05   -0.0022529940071031986   -0.00036158132973476947
6.54217388093191e-05   -0.0043115196887328665   -0.00048033388223681344
7.566341683746122e-05   -0.0022416129221086074   -0.00036338785561316653
-0.000698463154316759   -0.002264871281780522   -0.00038270622503705086
6.54217388093191e-05   -0.0043115196887328665   -0.00048033388223681344
-0.0009946259296897471   -0.004324913551309745   -0.0004996835347635265
-0.0009984808528521044   -0.004303918890082166   -0.0005202450031375575
-0.000698463154316759   -0.002264871281780522   -0.00038270622503705086
6.54217388093191e-05   -0.0043115196887328665   -0.00048033388223681344
-0.0009984808528521044   -0.004303918890082166   -0.0005202450031375575
7.566341683746122e-05   -0.0022416129221086074   -0.00036338785561316653
-0.000698463154316759   -0.002264871281780522   -0.00038270622503705086
-0.0009946259296897471   -0.004324913551309745   -0.0004996835347635265
8.434744254226076e-05   -0.0022529940071031986   -0.00036158132973476947
-0.0006919314684824428   -0.002276729882709205   -0.00036090422374342065
-0.0009946259296897471   -0.004324913551309745   -0.0004996835347635265
6.54217388093191e-05   -0.0043115196887328665   -0.00048033388223681344
8.434744254226076e-05   -0.0022529940071031986   -0.00036158132973476947
6.97528251334088e-05   -0.004312082616992054   -0.00047775224293775744
-0.0006919314684824428   -0.002276729882709205   -0.00036090422374342065
9.055182328366125e-05   -0.002252152184318621   -0.00036238315679499987
6.97528251334088e-05   -0.004312082616992054   -0.00047775224293775744
8.434744254226076e-05   -0.0022529940071031986   -0.00036158132973476947
-0.0006919314684824428   -0.002276729882709205   -0.00036090422374342065
6.97528251334088e-05   -0.004312082616992054   -0.00047775224293775744
-0.000990216608231182   -0.004337289341870827   -0.00048165186693788177
-0.0009946259296897471   -0.004324913551309745   -0.0004996835347635265
-0.0006919314684824428   -0.002276729882709205   -0.00036090422374342065
6.97528251334088e-05   -0.004312082616992054   -0.00047775224293775744
-0.0009946259296897471   -0.004324913551309745   -0.0004996835347635265
8.434744254226076e-05   -0.0022529940071031986   -0.00036158132973476947
-0.0006919314684824428   -0.002276729882709205   -0.00036090422374342065
-0.000990216608231182   -0.004337289341870827   -0.00048165186693788177
9.055182328366125e-05   -0.002252152184318621   -0.00036238315679499987
-0.0006827150921752492   -0.0022765203372424794   -0.00034198074416403744
-0.000990216608231182   -0.004337289341870827   -0.00048165186693788177
6.97528251334088e-05   -0.004312082616992054   -0.00047775224293775744
9.055182328366125e-05   -0.002252152184318621   -0.00036238315679499987
7.327566345229139e-05   -0.0043039323783715736   -0.00047778377209080185
-0.0006827150921752492   -0.0022765203372424794   -0.00034198074416403744
9.712340305291245e-05   -0.002238720020472997   -0.00036583314655564813
7.327566345229139e-05   -0.0043039323783715736   -0.00047778377209080185
9.055182328366125e-05   -0.002252152184318621   -0.00036238315679499987
-0.0006827150921752492   -0.0022765203372424794   -0.00034198074416403744
7.327566345229139e-05   -0.0043039323783715736   -0.00047778377209080185
-0.000983815169191669   -0.00434122289486832   -0.000466146396327577
-0.000990216608231182   -0.004337289341870827   -0.00048165186693788177
-0.0006827150921752492   -0.0022765203372424794   -0.00034198074416403744
7.327566345229139e-05   -0.0043039323783715736   -0.00047778377209080185
-0.000990216608231182   -0.004337289341870827   -0.00048165186693788177
9.055182328366125e-05   -0.002252152184318621   -0.00036238315679499987
7.566341683746122e-05   -0.0022416129221086074   -0.00036338785561316653
5.941927704415416e-05   -0.004302369781258247   -0.0004853838405636303
0.0009043104987574261   -0.0022776265061089833   -0.0003435392384030341
8.434744254226076e-05   -0.0022529940071031986   -0.00036158132973476947
5.941927704415416e-05   -0.004302369781258247   -0.0004853838405636303
0.0011628544557607092   -0.004326321487521815   -0.0004717723364956847
0.0009043104987574261   -0.0022776265061089833   -0.0003435392384030341
0.0011684050455503692   -0.004324566926397614   -0.00048254503231896746
8.434744254226076e-05   -0.0022529940071031986   -0.00036158132973476947
0.000909875517316892   -0.0022771577543565734   -0.00036474529634289275
0.0011684050455503692   -0.004324566926397614   -0.00048254503231896746
0.0009043104987574261   -0.0022776265061089833   -0.0003435392384030341
8.434744254226076e-05   -0.0022529940071031986   -0.00036158132973476947
0.0011684050455503692   -0.004324566926397614   -0.00048254503231896746
6.54217388093191e-05   -0.0043115196887328665   -0.00048033388223681344
5.941927704415416e-05   -0.004302369781258247   -0.0004853838405636303
8.434744254226076e-05   -0.0022529940071031986   -0.00036158132973476947
0.0011684050455503692   -0.004324566926397614   -0.00048254503231896746
5.941927704415416e-05   -0.004302369781258247   -0.0004853838405636303
0.0009043104987574261   -0.0022776265061089833   -0.0003435392384030341
8.434744254226076e-05   -0.0022529940071031986   -0.00036158132973476947
6.54217388093191e-05   -0.0043115196887328665   -0.00048033388223681344
0.000909875517316892   -0.0022771577543565734   -0.00036474529634289275
9.055182328366125e-05   -0.002252152184318621   -0.00036238315679499987
6.54217388093191e-05   -0.0043115196887328665   -0.00048033388223681344
0.0011684050455503692   -0.004324566926397614   -0.00048254503231896746
0.000909875517316892   -0.0022771577543565734   -0.00036474529634289275
0.0011669858383645958   -0.0043144552120760555   -0.0004956046962430342
9.055182328366125e-05   -0.002252152184318621   -0.00036238315679499987
0.0009069590460263089   -0.0022647380264073534   -0.00038890145559701555
0.0011669858383645958   -0.0043144552120760555   -0.0004956046962430342
0.000909875517316892   -0.0022771577543565734   -0.00036474529634289275
9.055182328366125e-05   -0.002252152184318621   -0.00036238315679499987
0.0011669858383645958   -0.0043144552120760555   -0.0004956046962430342
6.97528251334088e-05   -0.004312082616992054   -0.00047775224293775744
6.54217388093191e-05   -0.0043115196887328665   -0.00048033388223681344
9.055182328366125e-05   -0.002252152184318621   -0.00036238315679499987
0.0011669858383645958   -0.0043144552120760555   -0.0004956046962430342
6.54217388093191e-05   -0.0043115196887328665   -0.00048033388223681344
0.000909875517316892   -0.0022771577543565734   -0.00036474529634289275
9.055182328366125e-05   -0.002252152184318621   -0.00036238315679499987
6.97528251334088e-05   -0.004312082616992054   -0.00047775224293775744
0.0009069590460263089   -0.0022647380264073534   -0.00038890145559701555
9.712340305291245e-05   -0.002238720020472997   -0.00036583314655564813
6.97528251334088e-05   -0.004312082616992054   -0.00047775224293775744
0.0011669858383645958   -0.0043144552120760555   -0.0004956046962430342
0.0009069590460263089   -0.0022647380264073534   -0.00038890145559701555
0.0011639958648056769   -0.004293866223748001   -0.0005112264251930903
9.712340305291245e-05   -0.002238720020472997   -0.00036583314655564813
0.0009057549225620161   -0.002237022374322753   -0.0004151095704435784
0.0011639958648056769   -0.004293866223748001   -0.0005112264251930903
0.0009069590460263089   -0.0022647380264073534   -0.00038890145559701555
9.712340305291245e-05   -0.002238720020472997   -0.00036583314655564813
0.0011639958648056769   -0.004293866223748001   -0.0005112264251930903
7.327566345229139e-05   -0.0043039323783715736   -0.00047778377209080185
6.97528251334088e-05   -0.004312082616992054   -0.00047775224293775744
9.712340305291245e-05   -0.002238720020472997   -0.00036583314655564813
0.0011639958648056769   -0.004293866223748001   -0.0005112264251930903
6.97528251334088e-05   -0.004312082616992054   -0.00047775224293775744
0.0009069590460263089   -0.0022647380264073534   -0.00038890145559701555
0.0009043104987574261   -0.0022776265061089833   -0.0003435392384030341
0.0011628544557607092   -0.004326321487521815   -0.0004717723364956847
0.0019059225209945056   -0.00234433892534306   -0.00033901693023585187
0.000909875517316892   -0.0022771577543565734   -0.00036474529634289275
0.0011628544557607092   -0.004326321487521815   -0.0004717723364956847
0.0024203008577420764   -0.004369460496248827   -0.00047314244837330335
0.0019059225209945056   -0.00234433892534306   -0.00033901693023585187
0.0024014999086386657   -0.004361347677758957   -0.0005016253701633196
0.000909875517316892   -0.0022771577543565734   -0.00036474529634289275
0.0018690517772755081   -0.002337455861311774   -0.0003868987852594368
0.0024014999086386657   -0.004361347677758957   -0.0005016253701633196
0.0019059225209945056   -0.00234433892534306   -0.00033901693023585187
0.000909875517316892   -0.0022771577543565734   -0.00036474529634289275
0.0024014999086386657   -0.004361347677758957   -0.0005016253701633196
0.0011684050455503692   -0.004324566926397614   -0.00048254503231896746
0.0011628544557607092   -0.004326321487521815   -0.0004717723364956847
0.000909875517316892   -0.0022771577543565734   -0.00036474529634289275
0.0024014999086386657   -0.004361347677758957   -0.0005016253701633196
0.0011628544557607092   -0.004326321487521815   -0.0004717723364956847
0.0019059225209945056   -0.00234433892534306   -0.00033901693023585187
0.000909875517316892   -0.0022771577543565734   -0.00036474529634289275
0.0011684050455503692   -0.004324566926397614   -0.00048254503231896746
0.0018690517772755081   -0.002337455861311774   -0.0003868987852594368
0.0009069590460263089   -0.0022647380264073534   -0.00038890145559701555
0.0011684050455503692   -0.004324566926397614   -0.00048254503231896746
0.0024014999086386657   -0.004361347677758957   -0.0005016253701633196
0.0018690517772755081   -0.002337455861311774   -0.0003868987852594368
0.002382415773554387   -0.004345868438099463   -0.0005342334472187402
0.0009069590460263089   -0.0022647380264073534   -0.00038890145559701555
0.0018359385109416554   -0.0023183794680960296   -0.00044097254361702415
0.002382415773554387   -0.004345868438099463   -0.0005342334472187402
0.0018690517772755081   -0.002337455861311774   -0.0003868987852594368
0.0009069590460263089   -0.0022647380264073534   -0.00038890145559701555
0.002382415773554387   -0.004345868438099463   -0.0005342334472187402
0.0011669858383645958   -0.0043144552120760555   -0.0004956046962430342
0.0011684050455503692   -0.004324566926397614   -0.00048254503231896746
0.0009069590460263089   -0.0022647380264073534   -0.00038890145559701555
0.002382415773554387   -0.004345868438099463   -0.0005342334472187402
0.0011684050455503692   -0.004324566926397614   -0.00048254503231896746
0.0018690517772755081   -0.002337455861311774   -0.0003868987852594368
0.0009069590460263089   -0.0022647380264073534   -0.00038890145559701555
0.0011669858383645958   -0.0043144552120760555   -0.0004956046962430342
0.0018359385109416554   -0.0023183794680960296   -0.00044097254361702415
0.0009057549225620161   -0.002237022374322753   -0.0004151095704435784
0.0011669858383645958   -0.0043144552120760555   -0.0004956046962430342
0.002382415773554387   -0.004345868438099463   -0.0005342334472187402
0.0018359385109416554   -0.0023183794680960296   -0.00044097254361702415
0.0023470560905963   -0.004313882720852126   -0.0005709716128888135
0.0009057549225620161   -0.002237022374322753   -0.0004151095704435784
0.0017855092294317312   -0.002276359254990846   -0.0004973877088333538
0.0023470560905963   -0.004313882720852126   -0.0005709716128888135
0.0018359385109416554   -0.0023183794680960296   -0.00044097254361702415
0.0009057549225620161   -0.002237022374322753   -0.0004151095704435784
0.0023470560905963   -0.004313882720852126   -0.0005709716128888135
0.0011639958648056769   -0.004293866223748001   -0.0005112264251930903
0.0011669858383645958   -0.0043144552120760555   -0.0004956046962430342
0.0009057549225620161   -0.002237022374322753   -0.0004151095704435784
0.0023470560905963   -0.004313882720852126   -0.0005709716128888135
0.0011669858383645958   -0.0043144552120760555   -0.0004956046962430342
0.0018359385109416554   -0.0023183794680960296   -0.00044097254361702415
-0.0032476095885075277   -0.00438987009270395   -0.0006585621301062273
-0.0038683748638119993   -0.006796414252914484   -0.0007038096406171859
-0.0020889862486102046   -0.004332593397066689   -0.0005769117810885292
-0.0033034851587935487   -0.004435039818017318   -0.000602396692162319
-0.0038683748638119993   -0.006796414252914484   -0.0007038096406171859
-0.0025136010225707242   -0.006760263837919598   -0.0006377383661856542
-0.0020889862486102046   -0.004332593397066689   -0.0005769117810885292
-0.0025152333834698682   -0.006788446795916424   -0.0006120116155799528
-0.0033034851587935487   -0.004435039818017318   -0.000602396692162319
-0.0020922023746423003   -0.00436558729829606   -0.0005407640291502376
-0.0025152333834698682   -0.006788446795916424   -0.0006120116155799528
-0.0020889862486102046   -0.004332593397066689   -0.0005769117810885292
-0.0033034851587935487   -0.004435039818017318   -0.000602396692162319
-0.0025152333834698682   -0.006788446795916424   -0.0006120116155799528
-0.0039052209537319684   -0.006834610837560009   -0.0006668684349876369
-0.0038683748638119993   -0.006796414252914484   -0.0007038096406171859
-0.0033034851587935487   -0.004435039818017318   -0.000602396692162319
-0.0025152333834698682   -0.006788446795916424   -0.0006120116155799528
-0.0038683748638119993   -0.006796414252914484   -0.0007038096406171859
-0.0020889862486102046   -0.004332593397066689   -0.0005769117810885292
-0.0033034851587935487   -0.004435039818017318   -0.000602396692162319
-0.0039052209537319684   -0.006834610837560009   -0.0006668684349876369
-0.0020922023746423003   -0.00436558729829606   -0.0005407640291502376
-0.0033380839162636044   -0.004463490360002016   -0.0005501337910585061
-0.0039052209537319684   -0.006834610837560009   -0.0006668684349876369
-0.0025152333834698682   -0.006788446795916424   -0.0006120116155799528
-0.0020922023746423003   -0.00436558729829606   -0.0005407640291502376
-0.002515953058751802   -0.0068109083723123165   -0.0005888729786829122
-0.0033380839162636044   -0.004463490360002016   -0.0005501337910585061
-0.002096155984761989   -0.004388659679501869   -0.000507281853862588
-0.002515953058751802   -0.0068109083723123165   -0.0005888729786829122
-0.0020922023746423003   -0.00436558729829606   -0.0005407640291502376
-0.0033380839162636044   -0.004463490360002016   -0.0005501337910585061
-0.002515953058751802   -0.0068109083723123165   -0.0005888729786829122
-0.003925676221930582   -0.006861778194083957   -0.0006335313995792729
-0.0039052209537319684   -0.006834610837560009   -0.0006668684349876369
-0.0033380839162636044   -0.004463490360002016   -0.0005501337910585061
-0.002515953058751802   -0.0068109083723123165   -0.0005888729786829122
-0.0039052209537319684   -0.006834610837560009   -0.0006668684349876369
-0.0020922023746423003   -0.00436558729829606   -0.0005407640291502376
-0.0033380839162636044   -0.004463490360002016   -0.0005501337910585061
-0.003925676221930582   -0.006861778194083957   -0.0006335313995792729
-0.002096155984761989   -0.004388659679501869   -0.000507281853862588
-0.003377449204727413   -0.004484228587468548   -0.0005021396092879699
-0.003925676221930582   -0.006861778194083957   -0.0006335313995792729
-0.002515953058751802   -0.0068109083723123165   -0.0005888729786829122
-0.002096155984761989   -0.004388659679501869   -0.000507281853862588
-0.0025093395128576246   -0.006829524243119187   -0.0005679696371305576
-0.003377449204727413   -0.004484228587468548   -0.0005021396092879699
-0.002090783732424703   -0.004404010113247874   -0.0004758940023880473
-0.0025093395128576246   -0.006829524243119187   -0.0005679696371305576
-0.002096155984761989   -0.004388659679501869   -0.000507281853862588
-0.003377449204727413   -0.004484228587468548   -0.0005021396092879699
-0.0025093395128576246   -0.006829524243119187   -0.0005679696371305576
-0.003946630730668986   -0.0068863732392709185   -0.0006042350140311266
-0.003925676221930582   -0.006861778194083957   -0.0006335313995792729
-0.003377449204727413   -0.004484228587468548   -0.0005021396092879699
-0.0025093395128576246   -0.006829524243119187   -0.0005679696371305576
-0.003925676221930582   -0.006861778194083957   -0.0006335313995792729
-0.002096155984761989   -0.004388659679501869   -0.000507281853862588
-0.0020889862486102046   -0.004332593397066689   -0.0005769117810885292
-0.0025136010225707242   -0.006760263837919598   -0.0006377383661856542
-0.0009984808528521044   -0.004303918890082166   -0.0005202450031375575
-0.0020922023746423003   -0.00436558729829606   -0.0005407640291502376
-0.0025136010225707242   -0.006760263837919598   -0.0006377383661856542
-0.0012447005701525517   -0.0067413830640151474   -0.0005920315834171026
-0.0009984808528521044   -0.004303918890082166   -0.0005202450031375575
-0.0012409839537688816   -0.0067589667634783655   -0.0005748866814490718
-0.0020922023746423003   -0.00436558729829606   -0.0005407640291502376
-0.0009946259296897471   -0.004324913551309745   -0.0004996835347635265
-0.0012409839537688816   -0.0067589667634783655   -0.0005748866814490718
-0.0009984808528521044   -0.004303918890082166   -0.0005202450031375575
-0.0020922023746423003   -0.00436558729829606   -0.0005407640291502376
-0.0012409839537688816   -0.0067589667634783655   -0.0005748866814490718
-0.0025152333834698682   -0.006788446795916424   -0.0006120116155799528
-0.0025136010225707242   -0.006760263837919598   -0.0006377383661856542
-0.0020922023746423003   -0.00436558729829606   -0.0005407640291502376
-0.0012409839537688816   -0.0067589667634783655   -0.0005748866814490718
-0.0025136010225707242   -0.006760263837919598   -0.0006377383661856542
-0.0009984808528521044   -0.004303918890082166   -0.0005202450031375575
-0.0020922023746423003   -0.00436558729829606   -0.0005407640291502376
-0.0025152333834698682   -0.006788446795916424   -0.0006120116155799528
-0.0009946259296897471   -0.004324913551309745   -0.0004996835347635265
-0.002096155984761989   -0.004388659679501869   -0.000507281853862588
-0.0025152333834698682   -0.006788446795916424   -0.0006120116155799528
-0.0012409839537688816   -0.0067589667634783655   -0.0005748866814490718
-0.0009946259296897471   -0.004324913551309745   -0.0004996835347635265
-0.0012364199919521356   -0.006771743579778902   -0.000560283977754355
-0.002096155984761989   -0.004388659679501869   -0.000507281853862588
-0.000990216608231182   -0.004337289341870827   -0.00048165186693788177
-0.0012364199919521356   -0.006771743579778902   -0.000560283977754355
-0.0009946259296897471   -0.004324913551309745   -0.0004996835347635265
-0.002096155984761989   -0.004388659679501869   -0.000507281853862588
-0.0012364199919521356   -0.006771743579778902   -0.000560283977754355
-0.002515953058751802   -0.0068109083723123165   -0.0005888729786829122
-0.0025152333834698682   -0.006788446795916424   -0.0006120116155799528
-0.002096155984761989   -0.004388659679501869   -0.000507281853862588
-0.0012364199919521356   -0.006771743579778902   -0.000560283977754355
-0.0025152333834698682   -0.006788446795916424   -0.0006120116155799528
-0.0009946259296897471   -0.004324913551309745   -0.0004996835347635265
-0.002096155984761989   -0.004388659679501869   -0.000507281853862588
-0.002515953058751802   -0.0068109083723123165   -0.0005888729786829122
-0.000990216608231182   -0.004337289341870827   -0.00048165186693788177
-0.002090783732424703   -0.004404010113247874   -0.0004758940023880473
-0.002515953058751802   -0.0068109083723123165   -0.0005888729786829122
-0.0012364199919521356   -0.006771743579778902   -0.000560283977754355
-0.000990216608231182   -0.004337289341870827   -0.00048165186693788177
-0.0012302562537215478   -0.006779798738110856   -0.0005482706873472634
-0.002090783732424703   -0.004404010113247874   -0.0004758940023880473
-0.000983815169191669   -0.00434122289486832   -0.000466146396327577
-0.0012302562537215478   -0.006779798738110856   -0.0005482706873472634
-0.000990216608231182   -0.004337289341870827   -0.00048165186693788177
-0.002090783732424703   -0.004404010113247874   -0.0004758940023880473
-0.0012302562537215478   -0.006779798738110856   -0.0005482706873472634
-0.0025093395128576246   -0.006829524243119187   -0.0005679696371305576
-0.002515953058751802   -0.0068109083723123165   -0.0005888729786829122
-0.002090783732424703   -0.004404010113247874   -0.0004758940023880473
-0.0012302562537215478   -0.006779798738110856   -0.0005482706873472634
-0.002515953058751802   -0.0068109083723123165   -0.0005888729786829122
-0.000990216608231182   -0.004337289341870827   -0.00048165186693788177
-0.0009984808528521044   -0.004303918890082166   -0.0005202450031375575
-0.0012447005701525517   -0.0067413830640151474   -0.0005920315834171026
5.941927704415416e-05   -0.004302369781258247   -0.0004853838405636303
-0.0009946259296897471   -0.004324913551309745   -0.0004996835347635265
-0.0012447005701525517   -0.0067413830640151474   -0.0005920315834171026
-1.0591554194883045e-05   -0.006738013492635882   -0.000565701533819753
5.941927704415416e-05   -0.004302369781258247   -0.0004853838405636303
-4.753581568543149e-06   -0.006744898446817395   -0.0005572217790215814
-0.0009946259296897471   -0.004324913551309745   -0.0004996835347635265
6.54217388093191e-05   -0.0043115196887328665   -0.00048033388223681344
-4.753581568543149e-06   -0.006744898446817395   -0.0005572217790215814
5.941927704415416e-05   -0.004302369781258247   -0.0004853838405636303
-0.0009946259296897471   -0.004324913551309745   -0.0004996835347635265
-4.753581568543149e-06   -0.006744898446817395   -0.0005572217790215814
-0.0012409839537688816   -0.0067589667634783655   -0.0005748866814490718
-0.0012447005701525517   -0.0067413830640151474   -0.0005920315834171026
-0.0009946259296897471   -0.004324913551309745   -0.0004996835347635265
-4.753581568543149e-06   -0.006744898446817395   -0.0005572217790215814
-0.0012447005701525517   -0.0067413830640151474   -0.0005920315834171026
5.941927704415416e-05   -0.004302369781258247   -0.0004853838405636303
-0.0009946259296897471   -0.004324913551309745   -0.0004996835347635265
-0.0012409839537688816   -0.0067589667634783655   -0.0005748866814490718
6.54217388093191e-05   -0.0043115196887328665   -0.00048033388223681344
-0.000990216608231182   -0.004337289341870827   -0.00048165186693788177
-0.0012409839537688816   -0.0067589667634783655   -0.0005748866814490718
-4.753581568543149e-06   -0.006744898446817395   -0.0005572217790215814
6.54217388093191e-05   -0.0043115196887328665   -0.00048033388223681344
-2.1062244213957873e-07   -0.006746941654565833   -0.0005512568847659677
-0.000990216608231182   -0.004337289341870827   -0.00048165186693788177
6.97528251334088e-05   -0.004312082616992054   -0.00047775224293775744
-2.1062244213957873e-07   -0.006746941654565833   -0.0005512568847659677
6.54217388093191e-05   -0.0043115196887328665   -0.00048033388223681344
-0.000990216608231182   -0.004337289341870827   -0.00048165186693788177
-2.1062244213957873e-07   -0.006746941654565833   -0.0005512568847659677
-0.0012364199919521356   -0.006771743579778902   -0.000560283977754355
-0.0012409839537688816   -0.0067589667634783655   -0.0005748866814490718
-0.000990216608231182   -0.004337289341870827   -0.00048165186693788177
-2.1062244213957873e-07   -0.006746941654565833   -0.0005512568847659677
-0.0012409839537688816   -0.0067589667634783655   -0.0005748866814490718
6.54217388093191e-05   -0.0043115196887328665   -0.00048033388223681344
-0.000990216608231182   -0.004337289341870827   -0.00048165186693788177
-0.0012364199919521356   -0.006771743579778902   -0.000560283977754355
6.97528251334088e-05   -0.004312082616992054   -0.00047775224293775744
-0.000983815169191669   -0.00434122289486832   -0.000466146396327577
-0.0012364199919521356   -0.006771743579778902   -0.000560283977754355
-2.1062244213957873e-07   -0.006746941654565833   -0.0005512568847659677
6.97528251334088e-05   -0.004312082616992054   -0.00047775224293775744
3.1915519866888086e-06   -0.0067440755617484685   -0.0005479140152269537
-0.000983815169191669   -0.00434122289486832   -0.000466146396327577
7.327566345229139e-05   -0.0043039323783715736   -0.00047778377209080185
3.1915519866888086e-06   -0.0067440755617484685   -0.0005479140152269537
6.97528251334088e-05   -0.004312082616992054   -0.00047775224293775744
-0.000983815169191669   -0.00434122289486832   -0.000466146396327577
3.1915519866888086e-06   -0.0067440755617484685   -0.0005479140152269537
-0.0012302562537215478   -0.006779798738110856   -0.0005482706873472634
-0.0012364199919521356   -0.006771743579778902   -0.000560283977754355
-0.000983815169191669   -0.00434122289486832   -0.000466146396327577
3.1915519866888086e-06   -0.0067440755617484685   -0.0005479140152269537
-0.0012364199919521356   -0.006771743579778902   -0.000560283977754355
6.97528251334088e-05   -0.004312082616992054   -0.00047775224293775744
5.941927704415416e-05   -0.004302369781258247   -0.0004853838405636303
-1.0591554194883045e-05   -0.006738013492635882   -0.000565701533819753
0.0011628544557607092   -0.004326321487521815   -0.0004717723364956847
6.54217388093191e-05   -0.0043115196887328665   -0.00048033388223681344
-1.0591554194883045e-05   -0.006738013492635882   -0.000565701533819753
0.0012660351837979634   -0.006748796236277149   -0.0005586929214076325
0.0011628544557607092   -0.004326321487521815   -0.0004717723364956847
0.0012729836119718197   -0.006745561627289024   -0.0005590501423861843
6.54217388093191e-05   -0.0043115196887328665   -0.00048033388223681344
0.0011684050455503692   -0.004324566926397614   -0.00048254503231896746
0.0012729836119718197   -0.006745561627289024   -0.0005590501423861843
0.0011628544557607092   -0.004326321487521815   -0.0004717723364956847
6.54217388093191e-05   -0.0043115196887328665   -0.00048033388223681344
0.0012729836119718197   -0.006745561627289024   -0.0005590501423861843
-4.753581568543149e-06   -0.006744898446817395   -0.0005572217790215814
-1.0591554194883045e-05   -0.006738013492635882   -0.000565701533819753
6.54217388093191e-05   -0.0043115196887328665   -0.00048033388223681344
0.0012729836119718197   -0.006745561627289024   -0.0005590501423861843
-1.0591554194883045e-05   -0.006738013492635882   -0.000565701533819753
0.0011628544557607092   -0.004326321487521815   -0.0004717723364956847
6.54217388093191e-05   -0.0043115196887328665   -0.00048033388223681344
-4.753581568543149e-06   -0.006744898446817395   -0.0005572217790215814
0.0011684050455503692   -0.004324566926397614   -0.00048254503231896746
6.97528251334088e-05   -0.004312082616992054   -0.00047775224293775744
-4.753581568543149e-06   -0.006744898446817395   -0.0005572217790215814
0.0012729836119718197   -0.006745561627289024   -0.0005590501423861843
0.0011684050455503692   -0.004324566926397614   -0.00048254503231896746
0.0012749728477589632   -0.006737908709909647   -0.0005617831946231293
6.97528251334088e-05   -0.004312082616992054   -0.00047775224293775744
0.0011669858383645958   -0.0043144552120760555   -0.0004956046962430342
0.0012749728477589632   -0.006737908709909647   -0.0005617831946231293
0.0011684050455503692   -0.004324566926397614   -0.00048254503231896746
6.97528251334088e-05   -0.004312082616992054   -0.00047775224293775744
0.0012749728477589632   -0.006737908709909647   -0.0005617831946231293
-2.1062244213957873e-07   -0.006746941654565833   -0.0005512568847659677
-4.753581568543149e-06   -0.006744898446817395   -0.0005572217790215814
6.97528251334088e-05   -0.004312082616992054   -0.00047775224293775744
0.0012749728477589632   -0.006737908709909647   -0.0005617831946231293
-4.753581568543149e-06   -0.006744898446817395   -0.0005572217790215814
0.0011684050455503692   -0.004324566926397614   -0.00048254503231896746
6.97528251334088e-05   -0.004312082616992054   -0.00047775224293775744
-2.1062244213957873e-07   -0.006746941654565833   -0.0005512568847659677
0.0011669858383645958   -0.0043144552120760555   -0.0004956046962430342
7.327566345229139e-05   -0.0043039323783715736   -0.00047778377209080185
-2.1062244213957873e-07   -0.006746941654565833   -0.0005512568847659677
0.0012749728477589632   -0.006737908709909647   -0.0005617831946231293
0.0011669858383645958   -0.0043144552120760555   -0.0004956046962430342
0.0012736800212359563   -0.006723973416555672   -0.0005669873814783888
7.327566345229139e-05   -0.0043039323783715736   -0.00047778377209080185
0.0011639958648056769   -0.004293866223748001   -0.0005112264251930903
0.0012736800212359563   -0.006723973416555672   -0.0005669873814783888
0.0011669858383645958   -0.0043144552120760555   -0.0004956046962430342
7.327566345229139e-05   -0.0043039323783715736   -0.00047778377209080185
0.0012736800212359563   -0.006723973416555672   -0.0005669873814783888
3.1915519866888086e-06   -0.0067440755617484685   -0.0005479140152269537
-2.1062244213957873e-07   -0.006746941654565833   -0.0005512568847659677
7.327566345229139e-05   -0.0043039323783715736   -0.00047778377209080185
0.0012736800212359563   -0.006723973416555672   -0.0005669873814783888
-2.1062244213957873e-07   -0.006746941654565833   -0.0005512568847659677
0.0011669858383645958   -0.0043144552120760555   -0.0004956046962430342
0.0011628544557607092   -0.004326321487521815   -0.0004717723364956847
0.0012660351837979634   -0.006748796236277149   -0.0005586929214076325
0.0024203008577420764   -0.004369460496248827   -0.00047314244837330335
0.0011684050455503692   -0.004324566926397614   -0.00048254503231896746
0.0012660351837979634   -0.006748796236277149   -0.0005586929214076325
0.002675601457598365   -0.006768367587519668   -0.0005670349515573915
0.0024203008577420764   -0.004369460496248827   -0.00047314244837330335
0.002675473937266793   -0.006758223920784535   -0.0005767677636082653
0.0011684050455503692   -0.004324566926397614   -0.00048254503231896746
0.0024014999086386657   -0.004361347677758957   -0.0005016253701633196
0.002675473937266793   -0.006758223920784535   -0.0005767677636082653
0.0024203008577420764   -0.004369460496248827   -0.00047314244837330335
0.0011684050455503692   -0.004324566926397614   -0.00048254503231896746
0.002675473937266793   -0.006758223920784535   -0.0005767677636082653
0.0012729836119718197   -0.006745561627289024   -0.0005590501423861843
0.0012660351837979634   -0.006748796236277149   -0.0005586929214076325
0.0011684050455503692   -0.004324566926397614   -0.00048254503231896746
0.002675473937266793   -0.006758223920784535   -0.0005767677636082653
0.0012660351837979634   -0.006748796236277149   -0.0005586929214076325
0.0024203008577420764   -0.004369460496248827   -0.00047314244837330335
0.0011684050455503692   -0.004324566926397614   -0.00048254503231896746
0.0012729836119718197   -0.006745561627289024   -0.0005590501423861843
0.0024014999086386657   -0.004361347677758957   -0.0005016253701633196
0.0011669858383645958   -0.0043144552120760555   -0.0004956046962430342
0.0012729836119718197   -0.006745561627289024   -0.0005590501423861843
0.002675473937266793   -0.006758223920784535   -0.0005767677636082653
0.0024014999086386657   -0.004361347677758957   -0.0005016253701633196
0.002670836804011658   -0.006745850101338391   -0.0005903650871869988
0.0011669858383645958   -0.0043144552120760555   -0.0004956046962430342
0.002382415773554387   -0.004345868438099463   -0.0005342334472187402
0.002670836804011658   -0.006745850101338391   -0.0005903650871869988
0.0024014999086386657   -0.004361347677758957   -0.0005016253701633196
0.0011669858383645958   -0.0043144552120760555   -0.0004956046962430342
0.002670836804011658   -0.006745850101338391   -0.0005903650871869988
0.0012749728477589632   -0.006737908709909647   -0.0005617831946231293
0.0012729836119718197   -0.006745561627289024   -0.0005590501423861843
0.0011669858383645958   -0.0043144552120760555   -0.0004956046962430342
0.002670836804011658   -0.006745850101338391   -0.0005903650871869988
0.0012729836119718197   -0.006745561627289024   -0.0005590501423861843
0.0024014999086386657   -0.004361347677758957   -0.0005016253701633196
0.0011669858383645958   -0.0043144552120760555   -0.0004956046962430342
0.0012749728477589632   -0.006737908709909647   -0.0005617831946231293
0.002382415773554387   -0.004345868438099463   -0.0005342334472187402
0.0011639958648056769   -0.004293866223748001   -0.0005112264251930903
0.0012749728477589632   -0.006737908709909647   -0.0005617831946231293
0.002670836804011658   -0.006745850101338391   -0.0005903650871869988
0.002382415773554387   -0.004345868438099463   -0.0005342334472187402
0.002654780930939028   -0.0067227268629759555   -0.0006077986897387301
0.0011639958648056769   -0.004293866223748001   -0.0005112264251930903
0.0023470560905963   -0.004313882720852126   -0.0005709716128888135
0.002654780930939028   -0.0067227268629759555   -0.0006077986897387301
0.002382415773554387   -0.004345868438099463   -0.0005342334472187402
0.0011639958648056769   -0.004293866223748001   -0.0005112264251930903
0.002654780930939028   -0.0067227268629759555   -0.0006077986897387301
0.0012736800212359563   -0.006723973416555672   -0.0005669873814783888
0.0012749728477589632   -0.006737908709909647   -0.0005617831946231293
0.0011639958648056769   -0.004293866223748001   -0.0005112264251930903
0.002654780930939028   -0.0067227268629759555   -0.0006077986897387301
0.0012749728477589632   -0.006737908709909647   -0.0005617831946231293
0.002382415773554387   -0.004345868438099463   -0.0005342334472187402
-0.0038683748638119993   -0.006796414252914484   -0.0007038096406171859
-0.004239732197614199   -0.009405335601814478   -0.0007183154003827287
-0.0025136010225707242   -0.006760263837919598   -0.0006377383661856542
-0.0039052209537319684   -0.006834610837560009   -0.0006668684349876369
-0.004239732197614199   -0.009405335601814478   -0.0007183154003827287
-0.002790401394478353   -0.00939086717282077   -0.0006661297180572375
-0.0025136010225707242   -0.006760263837919598   -0.0006377383661856542
-0.0027881067396848445   -0.009414724025368536   -0.0006504526082309737
-0.0039052209537319684   -0.006834610837560009   -0.0006668684349876369
-0.0025152333834698682   -0.006788446795916424   -0.0006120116155799528
-0.0027881067396848445   -0.009414724025368536   -0.0006504526082309737
-0.0025136010225707242   -0.006760263837919598   -0.0006377383661856542
-0.0039052209537319684   -0.006834610837560009   -0.0006668684349876369
-0.0027881067396848445   -0.009414724025368536   -0.0006504526082309737
-0.004256079295131219   -0.009437469065980829   -0.0006995871944743221
-0.004239732197614199   -0.009405335601814478   -0.0007183154003827287
-0.0039052209537319684   -0.006834610837560009   -0.0006668684349876369
-0.0027881067396848445   -0.009414724025368536   -0.0006504526082309737
-0.004239732197614199   -0.009405335601814478   -0.0007183154003827287
-0.0025136010225707242   -0.006760263837919598   -0.0006377383661856542
-0.0039052209537319684   -0.006834610837560009   -0.0006668684349876369
-0.004256079295131219   -0.009437469065980829   -0.0006995871944743221
-0.0025152333834698682   -0.006788446795916424   -0.0006120116155799528
-0.003925676221930582   -0.006861778194083957   -0.0006335313995792729
-0.004256079295131219   -0.009437469065980829   -0.0006995871944743221
-0.0027881067396848445   -0.009414724025368536   -0.0006504526082309737
-0.0025152333834698682   -0.006788446795916424   -0.0006120116155799528
-0.002783177354848324   -0.009436870119088692   -0.000637382975728918
-0.003925676221930582   -0.006861778194083957   -0.0006335313995792729
-0.002515953058751802   -0.0068109083723123165   -0.0005888729786829122
-0.002783177354848324   -0.009436870119088692   -0.000637382975728918
-0.0025152333834698682   -0.006788446795916424   -0.0006120116155799528
-0.003925676221930582   -0.006861778194083957   -0.0006335313995792729
-0.002783177354848324   -0.009436870119088692   -0.000637382975728918
-0.004260312500692929   -0.009463845632179524   -0.0006846078233477815
-0.004256079295131219   -0.009437469065980829   -0.0006995871944743221
-0.003925676221930582   -0.006861778194083957   -0.0006335313995792729
-0.002783177354848324   -0.009436870119088692   -0.000637382975728918
-0.004256079295131219   -0.009437469065980829   -0.0006995871944743221
-0.0025152333834698682   -0.006788446795916424   -0.0006120116155799528
-0.003925676221930582   -0.006861778194083957   -0.0006335313995792729
-0.004260312500692929   -0.009463845632179524   -0.0006846078233477815
-0.002515953058751802   -0.0068109083723123165   -0.0005888729786829122
-0.003946630730668986   -0.0068863732392709185   -0.0006042350140311266
-0.004260312500692929   -0.009463845632179524   -0.0006846078233477815
-0.002783177354848324   -0.009436870119088692   -0.000637382975728918
-0.002515953058751802   -0.0068109083723123165   -0.0005888729786829122
-0.0027728313071663   -0.009459006547535337   -0.0006267263037103012
-0.003946630730668986   -0.0068863732392709185   -0.0006042350140311266
-0.0025093395128576246   -0.006829524243119187   -0.0005679696371305576
-0.0027728313071663   -0.009459006547535337   -0.0006267263037103012
-0.002515953058751802   -0.0068109083723123165   -0.0005888729786829122
-0.003946630730668986   -0.0068863732392709185   -0.0006042350140311266
-0.0027728313071663   -0.009459006547535337   -0.0006267263037103012
-0.004260642081234319   -0.00949270727875506   -0.0006737125229838086
-0.004260312500692929   -0.009463845632179524   -0.0006846078233477815
-0.003946630730668986   -0.0068863732392709185   -0.0006042350140311266
-0.0027728313071663   -0.009459006547535337   -0.0006267263037103012
-0.004260312500692929   -0.009463845632179524   -0.0006846078233477815
-0.002515953058751802   -0.0068109083723123165   -0.0005888729786829122
-0.0025136010225707242   -0.006760263837919598   -0.0006377383661856542
-0.002790401394478353   -0.00939086717282077   -0.0006661297180572375
-0.0012447005701525517   -0.0067413830640151474   -0.0005920315834171026
-0.0025152333834698682   -0.006788446795916424   -0.0006120116155799528
-0.002790401394478353   -0.00939086717282077   -0.0006661297180572375
-0.0014443534977004173   -0.00938229777480012   -0.000630643231071434
-0.0012447005701525517   -0.0067413830640151474   -0.0005920315834171026
-0.0014381649560277676   -0.00939663758990981   -0.000616783472539968
-0.0025152333834698682   -0.006788446795916424   -0.0006120116155799528
-0.0012409839537688816   -0.0067589667634783655   -0.0005748866814490718
-0.0014381649560277676   -0.00939663758990981   -0.000616783472539968
-0.0012447005701525517   -0.0067413830640151474   -0.0005920315834171026
-0.0025152333834698682   -0.006788446795916424   -0.0006120116155799528
-0.0014381649560277676   -0.00939663758990981   -0.000616783472539968
-0.0027881067396848445   -0.009414724025368536   -0.0006504526082309737
-0.002790401394478353   -0.00939086717282077   -0.0006661297180572375
-0.0025152333834698682   -0.006788446795916424   -0.0006120116155799528
-0.0014381649560277676   -0.00939663758990981   -0.000616783472539968
-0.002790401394478353   -0.00939086717282077   -0.0006661297180572375
-0.0012447005701525517   -0.0067413830640151474   -0.0005920315834171026
-0.0025152333834698682   -0.006788446795916424   -0.0006120116155799528
-0.0027881067396848445   -0.009414724025368536   -0.0006504526082309737
-0.0012409839537688816   -0.0067589667634783655   -0.0005748866814490718
-0.002515953058751802   -0.0068109083723123165   -0.0005888729786829122
-0.0027881067396848445   -0.009414724025368536   -0.0006504526082309737
-0.0014381649560277676   -0.00939663758990981   -0.000616783472539968
-0.0012409839537688816   -0.0067589667634783655   -0.0005748866814490718
-0.001430857396985201   -0.0094098934227745   -0.0006055270382965326
-0.002515953058751802   -0.0068109083723123165   -0.0005888729786829122
-0.0012364199919521356   -0.006771743579778902   -0.000560283977754355
-0.001430857396985201   -0.0094098934227745   -0.0006055270382965326
-0.0012409839537688816   -0.0067589667634783655   -0.0005748866814490718
-0.002515953058751802   -0.0068109083723123165   -0.0005888729786829122
-0.001430857396985201   -0.0094098934227745   -0.0006055270382965326
-0.002783177354848324   -0.009436870119088692   -0.000637382975728918
-0.0027881067396848445   -0.009414724025368536   -0.0006504526082309737
-0.002515953058751802   -0.0068109083723123165   -0.0005888729786829122
-0.001430857396985201   -0.0094098934227745   -0.0006055270382965326
-0.0027881067396848445   -0.009414724025368536   -0.0006504526082309737
-0.0012409839537688816   -0.0067589667634783655   -0.0005748866814490718
-0.002515953058751802   -0.0068109083723123165   -0.0005888729786829122
-0.002783177354848324   -0.009436870119088692   -0.000637382975728918
-0.0012364199919521356   -0.006771743579778902   -0.000560283977754355
-0.0025093395128576246   -0.006829524243119187   -0.0005679696371305576
-0.002783177354848324   -0.009436870119088692   -0.000637382975728918
-0.001430857396985201   -0.0094098934227745   -0.0006055270382965326
-0.0012364199919521356   -0.006771743579778902   -0.000560283977754355
-0.0014222924373240655   -0.009422111198180564   -0.0005969425404501852
-0.0025093395128576246   -0.006829524243119187   -0.0005679696371305576
-0.0012302562537215478   -0.006779798738110856   -0.0005482706873472634
-0.0014222924373240655   -0.009422111198180564   -0.0005969425404501852
-0.0012364199919521356   -0.006771743579778902   -0.000560283977754355
-0.0025093395128576246   -0.006829524243119187   -0.0005679696371305576
-0.0014222924373240655   -0.009422111198180564   -0.0005969425404501852
-0.0027728313071663   -0.009459006547535337   -0.0006267263037103012
-0.002783177354848324   -0.009436870119088692   -0.000637382975728918
-0.0025093395128576246   -0.006829524243119187   -0.0005679696371305576
-0.0014222924373240655   -0.009422111198180564   -0.0005969425404501852
-0.002783177354848324   -0.009436870119088692   -0.000637382975728918
-0.0012364199919521356   -0.006771743579778902   -0.000560283977754355
-0.0012447005701525517   -0.0067413830640151474   -0.0005920315834171026
-0.0014443534977004173   -0.00938229777480012   -0.000630643231071434
-1.0591554194883045e-05   -0.006738013492635882   -0.000565701533819753
-0.0012409839537688816   -0.0067589667634783655   -0.0005748866814490718
-0.0014443534977004173   -0.00938229777480012   -0.000630643231071434
-0.00013479690001587765   -0.009377212216847624   -0.0006126049687710141
-1.0591554194883045e-05   -0.006738013492635882   -0.000565701533819753
-0.0001265736289269643   -0.009381812835452879   -0.0006007152511794866
-0.0012409839537688816   -0.0067589667634783655   -0.0005748866814490718
-4.753581568543149e-06   -0.006744898446817395   -0.0005572217790215814
-0.0001265736289269643   -0.009381812835452879   -0.0006007152511794866
-1.0591554194883045e-05   -0.006738013492635882   -0.000565701533819753
-0.0012409839537688816   -0.0067589667634783655   -0.0005748866814490718
-0.0001265736289269643   -0.009381812835452879   -0.0006007152511794866
-0.0014381649560277676   -0.00939663758990981   -0.000616783472539968
-0.0014443534977004173   -0.00938229777480012   -0.000630643231071434
-0.0012409839537688816   -0.0067589667634783655   -0.0005748866814490718
-0.0001265736289269643   -0.009381812835452879   -0.0006007152511794866
-0.0014443534977004173   -0.00938229777480012   -0.000630643231071434
-1.0591554194883045e-05   -0.006738013492635882   -0.000565701533819753
-0.0012409839537688816   -0.0067589667634783655   -0.0005748866814490718
-0.0014381649560277676   -0.00939663758990981   -0.000616783472539968
-4.753581568543149e-06   -0.006744898446817395   -0.0005572217790215814
-0.0012364199919521356   -0.006771743579778902   -0.000560283977754355
-0.0014381649560277676   -0.00939663758990981   -0.000616783472539968
-0.0001265736289269643   -0.009381812835452879   -0.0006007152511794866
-4.753581568543149e-06   -0.006744898446817395   -0.0005572217790215814
-0.00011930384918318995   -0.00938524625369183   -0.0005914115700151611
-0.0012364199919521356   -0.006771743579778902   -0.000560283977754355
-2.1062244213957873e-07   -0.006746941654565833   -0.0005512568847659677
-0.00011930384918318995   -0.00938524625369183   -0.0005914115700151611
-4.753581568543149e-06   -0.006744898446817395   -0.0005572217790215814
-0.0012364199919521356   -0.006771743579778902   -0.000560283977754355
-0.00011930384918318995   -0.00938524625369183   -0.0005914115700151611
-0.001430857396985201   -0.0094098934227745   -0.0006055270382965326
-0.0014381649560277676   -0.00939663758990981   -0.000616783472539968
-0.0012364199919521356   -0.006771743579778902   -0.000560283977754355
-0.00011930384918318995   -0.00938524625369183   -0.0005914115700151611
-0.0014381649560277676   -0.00939663758990981   -0.000616783472539968
-4.753581568543149e-06   -0.006744898446817395   -0.0005572217790215814
-0.0012364199919521356   -0.006771743579778902   -0.000560283977754355
-0.001430857396985201   -0.0094098934227745   -0.0006055270382965326
-2.1062244213957873e-07   -0.006746941654565833   -0.0005512568847659677
-0.0012302562537215478   -0.006779798738110856   -0.0005482706873472634
-0.001430857396985201   -0.0094098934227745   -0.0006055270382965326
-0.00011930384918318995   -0.00938524625369183   -0.0005914115700151611
-2.1062244213957873e-07   -0.006746941654565833   -0.0005512568847659677
-0.00011346428051846685   -0.009387490940975001   -0.0005847849260545391
-0.0012302562537215478   -0.006779798738110856   -0.0005482706873472634
3.1915519866888086e-06   -0.0067440755617484685   -0.0005479140152269537
-0.00011346428051846685   -0.009387490940975001   -0.0005847849260545391
-2.1062244213957873e-07   -0.006746941654565833   -0.0005512568847659677
-0.0012302562537215478   -0.006779798738110856   -0.0005482706873472634
-0.00011346428051846685   -0.009387490940975001   -0.0005847849260545391
-0.0014222924373240655   -0.009422111198180564   -0.0005969425404501852
-0.001430857396985201   -0.0094098934227745   -0.0006055270382965326
-0.0012302562537215478   -0.006779798738110856   -0.0005482706873472634
-0.00011346428051846685   -0.009387490940975001   -0.0005847849260545391
-0.001430857396985201   -0.0094098934227745   -0.0006055270382965326
-2.1062244213957873e-07   -0.006746941654565833   -0.0005512568847659677
-1.0591554194883045e-05   -0.006738013492635882   -0.000565701533819753
-0.00013479690001587765   -0.009377212216847624   -0.0006126049687710141
0.0012660351837979634   -0.006748796236277149   -0.0005586929214076325
-4.753581568543149e-06   -0.006744898446817395   -0.0005572217790215814
-0.00013479690001587765   -0.009377212216847624   -0.0006126049687710141
0.0012144704061295137   -0.009374725074112493   -0.0006122254889121165
0.0012660351837979634   -0.006748796236277149   -0.0005586929214076325
0.0012250863625955463   -0.009369856182263943   -0.0006023985693369562
-4.753581568543149e-06   -0.006744898446817395   -0.0005572217790215814
0.0012729836119718197   -0.006745561627289024   -0.0005590501423861843
0.0012250863625955463   -0.009369856182263943   -0.0006023985693369562
0.0012660351837979634   -0.006748796236277149   -0.0005586929214076325
-4.753581568543149e-06   -0.006744898446817395   -0.0005572217790215814
0.0012250863625955463   -0.009369856182263943   -0.0006023985693369562
-0.0001265736289269643   -0.009381812835452879   -0.0006007152511794866
-0.00013479690001587765   -0.009377212216847624   -0.0006126049687710141
-4.753581568543149e-06   -0.006744898446817395   -0.0005572217790215814
0.0012250863625955463   -0.009369856182263943   -0.0006023985693369562
-0.00013479690001587765   -0.009377212216847624   -0.0006126049687710141
0.0012660351837979634   -0.006748796236277149   -0.0005586929214076325
-4.753581568543149e-06   -0.006744898446817395   -0.0005572217790215814
-0.0001265736289269643   -0.009381812835452879   -0.0006007152511794866
0.0012729836119718197   -0.006745561627289024   -0.0005590501423861843
-2.1062244213957873e-07   -0.006746941654565833   -0.0005512568847659677
-0.0001265736289269643   -0.009381812835452879   -0.0006007152511794866
0.0012250863625955463   -0.009369856182263943   -0.0006023985693369562
0.0012729836119718197   -0.006745561627289024   -0.0005590501423861843
0.0012326889939889413   -0.009364401186791306   -0.0005950795048759617
-2.1062244213957873e-07   -0.006746941654565833   -0.0005512568847659677
0.0012749728477589632   -0.006737908709909647   -0.0005617831946231293
0.0012326889939889413   -0.009364401186791306   -0.0005950795048759617
0.0012729836119718197   -0.006745561627289024   -0.0005590501423861843
-2.1062244213957873e-07   -0.006746941654565833   -0.0005512568847659677
0.0012326889939889413   -0.009364401186791306   -0.0005950795048759617
-0.00011930384918318995   -0.00938524625369183   -0.0005914115700151611
-0.0001265736289269643   -0.009381812835452879   -0.0006007152511794866
-2.1062244213957873e-07   -0.006746941654565833   -0.0005512568847659677
0.0012326889939889413   -0.009364401186791306   -0.0005950795048759617
-0.0001265736289269643   -0.009381812835452879   -0.0006007152511794866
0.0012729836119718197   -0.006745561627289024   -0.0005590501423861843
-2.1062244213957873e-07   -0.006746941654565833   -0.0005512568847659677
-0.00011930384918318995   -0.00938524625369183   -0.0005914115700151611
0.0012749728477589632   -0.006737908709909647   -0.0005617831946231293
3.1915519866888086e-06   -0.0067440755617484685   -0.0005479140152269537
-0.00011930384918318995   -0.00938524625369183   -0.0005914115700151611
0.0012326889939889413   -0.009364401186791306   -0.0005950795048759617
0.0012749728477589632   -0.006737908709909647   -0.0005617831946231293
0.0012352868881475778   -0.009356640263505646   -0.0005902198809209718
3.1915519866888086e-06   -0.0067440755617484685   -0.0005479140152269537
0.0012736800212359563   -0.006723973416555672   -0.0005669873814783888
0.0012352868881475778   -0.009356640263505646   -0.0005902198809209718
0.0012749728477589632   -0.006737908709909647   -0.0005617831946231293
3.1915519866888086e-06   -0.0067440755617484685   -0.0005479140152269537
0.0012352868881475778   -0.009356640263505646   -0.0005902198809209718
-0.00011346428051846685   -0.009387490940975001   -0.0005847849260545391
-0.00011930384918318995   -0.00938524625369183   -0.0005914115700151611
3.1915519866888086e-06   -0.0067440755617484685   -0.0005479140152269537
0.0012352868881475778   -0.009356640263505646   -0.0005902198809209718
-0.00011930384918318995   -0.00938524625369183   -0.0005914115700151611
0.0012749728477589632   -0.006737908709909647   -0.0005617831946231293
0.0012660351837979634   -0.006748796236277149   -0.0005586929214076325
0.0012144704061295137   -0.009374725074112493   -0.0006122254889121165
0.002675601457598365   -0.006768367587519668   -0.0005670349515573915
0.0012729836119718197   -0.006745561627289024   -0.0005590501423861843
0.0012144704061295137   -0.009374725074112493   -0.0006122254889121165
0.0026756143004985633   -0.009370926079296639   -0.0006279390884954342
0.002675601457598365   -0.006768367587519668   -0.0005670349515573915
0.0026959291362145775   -0.009358528338459801   -0.0006194199332778539
0.0012729836119718197   -0.006745561627289024   -0.0005590501423861843
0.002675473937266793   -0.006758223920784535   -0.0005767677636082653
0.0026959291362145775   -0.009358528338459801   -0.0006194199332778539
0.002675601457598365   -0.006768367587519668   -0.0005670349515573915
0.0012729836119718197   -0.006745561627289024   -0.0005590501423861843
0.0026959291362145775   -0.009358528338459801   -0.0006194199332778539
0.0012250863625955463   -0.009369856182263943   -0.0006023985693369562
0.0012144704061295137   -0.009374725074112493   -0.0006122254889121165
0.0012729836119718197   -0.006745561627289024   -0.0005590501423861843
0.0026959291362145775   -0.009358528338459801   -0.0006194199332778539
0.0012144704061295137   -0.009374725074112493   -0.0006122254889121165
0.002675601457598365   -0.006768367587519668   -0.0005670349515573915
0.0012729836119718197   -0.006745561627289024   -0.0005590501423861843
0.0012250863625955463   -0.009369856182263943   -0.0006023985693369562
0.002675473937266793   -0.006758223920784535   -0.0005767677636082653
0.0012749728477589632   -0.006737908709909647   -0.0005617831946231293
0.0012250863625955463   -0.009369856182263943   -0.0006023985693369562
0.0026959291362145775   -0.009358528338459801   -0.0006194199332778539
0.002675473937266793   -0.006758223920784535   -0.0005767677636082653
0.0027074584509462858   -0.009348862026385638   -0.0006147256110192422
0.0012749728477589632   -0.006737908709909647   -0.0005617831946231293
0.002670836804011658   -0.006745850101338391   -0.0005903650871869988
0.0027074584509462858   -0.009348862026385638   -0.0006147256110192422
0.002675473937266793   -0.006758223920784535   -0.0005767677636082653
0.0012749728477589632   -0.006737908709909647   -0.0005617831946231293
0.0027074584509462858   -0.009348862026385638   -0.0006147256110192422
0.0012326889939889413   -0.009364401186791306   -0.0005950795048759617
0.0012250863625955463   -0.009369856182263943   -0.0006023985693369562
0.0012749728477589632   -0.006737908709909647   -0.0005617831946231293
0.0027074584509462858   -0.009348862026385638   -0.0006147256110192422
0.0012250863625955463   -0.009369856182263943   -0.0006023985693369562
0.002675473937266793   -0.006758223920784535   -0.0005767677636082653
0.0012749728477589632   -0.006737908709909647   -0.0005617831946231293
0.0012326889939889413   -0.009364401186791306   -0.0005950795048759617
0.002670836804011658   -0.006745850101338391   -0.0005903650871869988
0.0012736800212359563   -0.006723973416555672   -0.0005669873814783888
0.0012326889939889413   -0.009364401186791306   -0.0005950795048759617
0.0027074584509462858   -0.009348862026385638   -0.0006147256110192422
0.002670836804011658   -0.006745850101338391   -0.0005903650871869988
0.0027119554819241007   -0.009333739750247285   -0.0006139219277868672
0.0012736800212359563   -0.006723973416555672   -0.0005669873814783888
0.002654780930939028   -0.0067227268629759555   -0.0006077986897387301
0.0027119554819241007   -0.009333739750247285   -0.0006139219277868672
0.002670836804011658   -0.006745850101338391   -0.0005903650871869988
0.0012736800212359563   -0.006723973416555672   -0.0005669873814783888
0.0027119554819241007   -0.009333739750247285   -0.0006139219277868672
0.0012352868881475778   -0.009356640263505646   -0.0005902198809209718
0.0012326889939889413   -0.009364401186791306   -0.0005950795048759617
0.0012736800212359563   -0.006723973416555672   -0.0005669873814783888
0.0027119554819241007   -0.009333739750247285   -0.0006139219277868672
0.0012326889939889413   -0.009364401186791306   -0.0005950795048759617
0.002670836804011658   -0.006745850101338391   -0.0005903650871869988
-0.004239732197614199   -0.009405335601814478   -0.0007183154003827287
-0.004364397535220437   -0.012051222655743439   -0.0007077245105697448
-0.002790401394478353   -0.00939086717282077   -0.0006661297180572375
-0.004256079295131219   -0.009437469065980829   -0.0006995871944743221
-0.004364397535220437   -0.012051222655743439   -0.0007077245105697448
-0.0029212775576613766   -0.012058365958071622   -0.0006695168245709922
-0.002790401394478353   -0.00939086717282077   -0.0006661297180572375
-0.0029126915240621316   -0.012077873616563622   -0.000663637786871517
-0.004256079295131219   -0.009437469065980829   -0.0006995871944743221
-0.0027881067396848445   -0.009414724025368536   -0.0006504526082309737
-0.0029126915240621316   -0.012077873616563622   -0.000663637786871517
-0.002790401394478353   -0.00939086717282077   -0.0006661297180572375
-0.004256079295131219   -0.009437469065980829   -0.0006995871944743221
-0.0029126915240621316   -0.012077873616563622   -0.000663637786871517
-0.0043581676838045395   -0.012077372266572826   -0.0007069410765623478
-0.004364397535220437   -0.012051222655743439   -0.0007077245105697448
-0.004256079295131219   -0.009437469065980829   -0.0006995871944743221
-0.0029126915240621316   -0.012077873616563622   -0.000663637786871517
-0.004364397535220437   -0.012051222655743439   -0.0007077245105697448
-0.002790401394478353   -0.00939086717282077   -0.0006661297180572375
-0.004256079295131219   -0.009437469065980829   -0.0006995871944743221
-0.0043581676838045395   -0.012077372266572826   -0.0007069410765623478
-0.0027881067396848445   -0.009414724025368536   -0.0006504526082309737
-0.004260312500692929   -0.009463845632179524   -0.0006846078233477815
-0.0043581676838045395   -0.012077372266572826   -0.0007069410765623478
-0.0029126915240621316   -0.012077873616563622   -0.000663637786871517
-0.0027881067396848445   -0.009414724025368536   -0.0006504526082309737
-0.0028997711405618176   -0.012099660678395494   -0.0006604104875333288
-0.004260312500692929   -0.009463845632179524   -0.0006846078233477815
-0.002783177354848324   -0.009436870119088692   -0.000637382975728918
-0.0028997711405618176   -0.012099660678395494   -0.0006604104875333288
-0.0027881067396848445   -0.009414724025368536   -0.0006504526082309737
-0.004260312500692929   -0.009463845632179524   -0.0006846078233477815
-0.0028997711405618176   -0.012099660678395494   -0.0006604104875333288
-0.004343884445789625   -0.012102972743668667   -0.0007101161317003152
-0.0043581676838045395   -0.012077372266572826   -0.0007069410765623478
-0.004260312500692929   -0.009463845632179524   -0.0006846078233477815
-0.0028997711405618176   -0.012099660678395494   -0.0006604104875333288
-0.0043581676838045395   -0.012077372266572826   -0.0007069410765623478
-0.0027881067396848445   -0.009414724025368536   -0.0006504526082309737
-0.004260312500692929   -0.009463845632179524   -0.0006846078233477815
-0.004343884445789625   -0.012102972743668667   -0.0007101161317003152
-0.002783177354848324   -0.009436870119088692   -0.000637382975728918
-0.004260642081234319   -0.00949270727875506   -0.0006737125229838086
-0.004343884445789625   -0.012102972743668667   -0.0007101161317003152
-0.0028997711405618176   -0.012099660678395494   -0.0006604104875333288
-0.002783177354848324   -0.009436870119088692   -0.000637382975728918
-0.002883319597509342   -0.012125239499724577   -0.0006597793356295933
-0.004260642081234319   -0.00949270727875506   -0.0006737125229838086
-0.0027728313071663   -0.009459006547535337   -0.0006267263037103012
-0.002883319597509342   -0.012125239499724577   -0.0006597793356295933
-0.002783177354848324   -0.009436870119088692   -0.000637382975728918
-0.004260642081234319   -0.00949270727875506   -0.0006737125229838086
-0.002883319597509342   -0.012125239499724577   -0.0006597793356295933
-0.0043213519589160665   -0.012136137698875152   -0.0007174657159963788
-0.004343884445789625   -0.012102972743668667   -0.0007101161317003152
-0.004260642081234319   -0.00949270727875506   -0.0006737125229838086
-0.002883319597509342   -0.012125239499724577   -0.0006597793356295933
-0.004343884445789625   -0.012102972743668667   -0.0007101161317003152
-0.002783177354848324   -0.009436870119088692   -0.000637382975728918
-0.002790401394478353   -0.00939086717282077   -0.0006661297180572375
-0.0029212775576613766   -0.012058365958071622   -0.0006695168245709922
-0.0014443534977004173   -0.00938229777480012   -0.000630643231071434
-0.0027881067396848445   -0.009414724025368536   -0.0006504526082309737
-0.0029212775576613766   -0.012058365958071622   -0.0006695168245709922
-0.001598662189805493   -0.012059730003470489   -0.0006441693498429841
-0.0014443534977004173   -0.00938229777480012   -0.000630643231071434
-0.0015874916364357328   -0.012070820648357197   -0.0006334701738749297
-0.0027881067396848445   -0.009414724025368536   -0.0006504526082309737
-0.0014381649560277676   -0.00939663758990981   -0.000616783472539968
-0.0015874916364357328   -0.012070820648357197   -0.0006334701738749297
-0.0014443534977004173   -0.00938229777480012   -0.000630643231071434
-0.0027881067396848445   -0.009414724025368536   -0.0006504526082309737
-0.0015874916364357328   -0.012070820648357197   -0.0006334701738749297
-0.0029126915240621316   -0.012077873616563622   -0.000663637786871517
-0.0029212775576613766   -0.012058365958071622   -0.0006695168245709922
-0.0027881067396848445   -0.009414724025368536   -0.0006504526082309737
-0.0015874916364357328   -0.012070820648357197   -0.0006334701738749297
-0.0029212775576613766   -0.012058365958071622   -0.0006695168245709922
-0.0014443534977004173   -0.00938229777480012   -0.000630643231071434
-0.0027881067396848445   -0.009414724025368536   -0.0006504526082309737
-0.0029126915240621316   -0.012077873616563622   -0.000663637786871517
-0.0014381649560277676   -0.00939663758990981   -0.000616783472539968
-0.002783177354848324   -0.009436870119088692   -0.000637382975728918
-0.0029126915240621316   -0.012077873616563622   -0.000663637786871517
-0.0015874916364357328   -0.012070820648357197   -0.0006334701738749297
-0.0014381649560277676   -0.00939663758990981   -0.000616783472539968
-0.0015749936212079835   -0.012084466973412202   -0.0006254279655429815
-0.002783177354848324   -0.009436870119088692   -0.000637382975728918
-0.001430857396985201   -0.0094098934227745   -0.0006055270382965326
-0.0015749936212079835   -0.012084466973412202   -0.0006254279655429815
-0.0014381649560277676   -0.00939663758990981   -0.000616783472539968
-0.002783177354848324   -0.009436870119088692   -0.000637382975728918
-0.0015749936212079835   -0.012084466973412202   -0.0006254279655429815
-0.0028997711405618176   -0.012099660678395494   -0.0006604104875333288
-0.0029126915240621316   -0.012077873616563622   -0.000663637786871517
-0.002783177354848324   -0.009436870119088692   -0.000637382975728918
-0.0015749936212079835   -0.012084466973412202   -0.0006254279655429815
-0.0029126915240621316   -0.012077873616563622   -0.000663637786871517
-0.0014381649560277676   -0.00939663758990981   -0.000616783472539968
-0.002783177354848324   -0.009436870119088692   -0.000637382975728918
-0.0028997711405618176   -0.012099660678395494   -0.0006604104875333288
-0.001430857396985201   -0.0094098934227745   -0.0006055270382965326
-0.0027728313071663   -0.009459006547535337   -0.0006267263037103012
-0.0028997711405618176   -0.012099660678395494   -0.0006604104875333288
-0.0015749936212079835   -0.012084466973412202   -0.0006254279655429815
-0.001430857396985201   -0.0094098934227745   -0.0006055270382965326
-0.0015615755868915097   -0.012100711892183383   -0.0006201354986688643
-0.0027728313071663   -0.009459006547535337   -0.0006267263037103012
-0.0014222924373240655   -0.009422111198180564   -0.0005969425404501852
-0.0015615755868915097   -0.012100711892183383   -0.0006201354986688643
-0.001430857396985201   -0.0094098934227745   -0.0006055270382965326
-0.0027728313071663   -0.009459006547535337   -0.0006267263037103012
-0.0015615755868915097   -0.012100711892183383   -0.0006201354986688643
-0.002883319597509342   -0.012125239499724577   -0.0006597793356295933
-0.0028997711405618176   -0.012099660678395494   -0.0006604104875333288
-0.0027728313071663   -0.009459006547535337   -0.0006267263037103012
-0.0015615755868915097   -0.012100711892183383   -0.0006201354986688643
-0.0028997711405618176   -0.012099660678395494   -0.0006604104875333288
-0.001430857396985201   -0.0094098934227745   -0.0006055270382965326
-0.0014443534977004173   -0.00938229777480012   -0.000630643231071434
-0.001598662189805493   -0.012059730003470489   -0.0006441693498429841
-0.00013479690001587765   -0.009377212216847624   -0.0006126049687710141
-0.0014381649560277676   -0.00939663758990981   -0.000616783472539968
-0.001598662189805493   -0.012059730003470489   -0.0006441693498429841
-0.00031330150686909866   -0.012052495220815694   -0.000634176014346275
-0.00013479690001587765   -0.009377212216847624   -0.0006126049687710141
-0.0003002060333350536   -0.012054838397959173   -0.0006188989455914814
-0.0014381649560277676   -0.00939663758990981   -0.000616783472539968
-0.0001265736289269643   -0.009381812835452879   -0.0006007152511794866
-0.0003002060333350536   -0.012054838397959173   -0.0006188989455914814
-0.00013479690001587765   -0.009377212216847624   -0.0006126049687710141
-0.0014381649560277676   -0.00939663758990981   -0.000616783472539968
-0.0003002060333350536   -0.012054838397959173   -0.0006188989455914814
-0.0015874916364357328   -0.012070820648357197   -0.0006334701738749297
-0.001598662189805493   -0.012059730003470489   -0.0006441693498429841
-0.0014381649560277676   -0.00939663758990981   -0.000616783472539968
-0.0003002060333350536   -0.012054838397959173   -0.0006188989455914814
-0.001598662189805493   -0.012059730003470489   -0.0006441693498429841
-0.00013479690001587765   -0.009377212216847624   -0.0006126049687710141
-0.0014381649560277676   -0.00939663758990981   -0.000616783472539968
-0.0015874916364357328   -0.012070820648357197   -0.0006334701738749297
-0.0001265736289269643   -0.009381812835452879   -0.0006007152511794866
-0.001430857396985201   -0.0094098934227745   -0.0006055270382965326
-0.0015874916364357328   -0.012070820648357197   -0.0006334701738749297
-0.0003002060333350536   -0.012054838397959173   -0.0006188989455914814
-0.0001265736289269643   -0.009381812835452879   -0.0006007152511794866
-0.0002877756593492525   -0.012059552535322687   -0.0006062655075748779
-0.001430857396985201   -0.0094098934227745   -0.0006055270382965326
-0.00011930384918318995   -0.00938524625369183   -0.0005914115700151611
-0.0002877756593492525   -0.012059552535322687   -0.0006062655075748779
-0.0001265736289269643   -0.009381812835452879   -0.0006007152511794866
-0.001430857396985201   -0.0094098934227745   -0.0006055270382965326
-0.0002877756593492525   -0.012059552535322687   -0.0006062655075748779
-0.0015749936212079835   -0.012084466973412202   -0.0006254279655429815
-0.0015874916364357328   -0.012070820648357197   -0.0006334701738749297
-0.001430857396985201   -0.0094098934227745   -0.0006055270382965326
-0.0002877756593492525   -0.012059552535322687   -0.0006062655075748779
-0.0015874916364357328   -0.012070820648357197   -0.0006334701738749297
-0.0001265736289269643   -0.009381812835452879   -0.0006007152511794866
-0.001430857396985201   -0.0094098934227745   -0.0006055270382965326
-0.0015749936212079835   -0.012084466973412202   -0.0006254279655429815
-0.00011930384918318995   -0.00938524625369183   -0.0005914115700151611
-0.0014222924373240655   -0.009422111198180564   -0.0005969425404501852
-0.0015749936212079835   -0.012084466973412202   -0.0006254279655429815
-0.0002877756593492525   -0.012059552535322687   -0.0006062655075748779
-0.00011930384918318995   -0.00938524625369183   -0.0005914115700151611
-0.00027707838235086087   -0.012066737973782422   -0.0005963650661275839
-0.0014222924373240655   -0.009422111198180564   -0.0005969425404501852
-0.00011346428051846685   -0.009387490940975001   -0.0005847849260545391
-0.00027707838235086087   -0.012066737973782422   -0.0005963650661275839
-0.00011930384918318995   -0.00938524625369183   -0.0005914115700151611
-0.0014222924373240655   -0.009422111198180564   -0.0005969425404501852
-0.00027707838235086087   -0.012066737973782422   -0.0005963650661275839
-0.0015615755868915097   -0.012100711892183383   -0.0006201354986688643
-0.0015749936212079835   -0.012084466973412202   -0.0006254279655429815
-0.0014222924373240655   -0.009422111198180564   -0.0005969425404501852
-0.00027707838235086087   -0.012066737973782422   -0.0005963650661275839
-0.0015749936212079835   -0.012084466973412202   -0.0006254279655429815
-0.00011930384918318995   -0.00938524625369183   -0.0005914115700151611
-0.00013479690001587765   -0.009377212216847624   -0.0006126049687710141
-0.00031330150686909866   -0.012052495220815694   -0.000634176014346275
0.0012144704061295137   -0.009374725074112493   -0.0006122254889121165
-0.0001265736289269643   -0.009381812835452879   -0.0006007152511794866
-0.00031330150686909866   -0.012052495220815694   -0.000634176014346275
0.0010100784920601487   -0.012036517195062114   -0.0006400716303866347
0.0012144704061295137   -0.009374725074112493   -0.0006122254889121165
0.001026660505940527   -0.0120300580990114   -0.0006202761630110827
-0.0001265736289269643   -0.009381812835452879   -0.0006007152511794866
0.0012250863625955463   -0.009369856182263943   -0.0006023985693369562
0.001026660505940527   -0.0120300580990114   -0.0006202761630110827
0.0012144704061295137   -0.009374725074112493   -0.0006122254889121165
-0.0001265736289269643   -0.009381812835452879   -0.0006007152511794866
0.001026660505940527   -0.0120300580990114   -0.0006202761630110827
-0.0003002060333350536   -0.012054838397959173   -0.0006188989455914814
-0.00031330150686909866   -0.012052495220815694   -0.000634176014346275
-0.0001265736289269643   -0.009381812835452879   -0.0006007152511794866
0.001026660505940527   -0.0120300580990114   -0.0006202761630110827
-0.00031330150686909866   -0.012052495220815694   -0.000634176014346275
0.0012144704061295137   -0.009374725074112493   -0.0006122254889121165
-0.0001265736289269643   -0.009381812835452879   -0.0006007152511794866
-0.0003002060333350536   -0.012054838397959173   -0.0006188989455914814
0.0012250863625955463   -0.009369856182263943   -0.0006023985693369562
-0.00011930384918318995   -0.00938524625369183   -0.0005914115700151611
-0.0003002060333350536   -0.012054838397959173   -0.0006188989455914814
0.001026660505940527   -0.0120300580990114   -0.0006202761630110827
0.0012250863625955463   -0.009369856182263943   -0.0006023985693369562
0.0010421357086075787   -0.012026682620713033   -0.0006031129427954105
-0.00011930384918318995   -0.00938524625369183   -0.0005914115700151611
0.0012326889939889413   -0.009364401186791306   -0.0005950795048759617
0.0010421357086075787   -0.012026682620713033   -0.0006031129427954105
0.0012250863625955463   -0.009369856182263943   -0.0006023985693369562
-0.00011930384918318995   -0.00938524625369183   -0.0005914115700151611
0.0010421357086075787   -0.012026682620713033   -0.0006031129427954105
-0.0002877756593492525   -0.012059552535322687   -0.0006062655075748779
-0.0003002060333350536   -0.012054838397959173   -0.0006188989455914814
-0.00011930384918318995   -0.00938524625369183   -0.0005914115700151611
0.0010421357086075787   -0.012026682620713033   -0.0006031129427954105
-0.0003002060333350536   -0.012054838397959173   -0.0006188989455914814
0.0012250863625955463   -0.009369856182263943   -0.0006023985693369562
-0.00011930384918318995   -0.00938524625369183   -0.0005914115700151611
-0.0002877756593492525   -0.012059552535322687   -0.0006062655075748779
0.0012326889939889413   -0.009364401186791306   -0.0005950795048759617
-0.00011346428051846685   -0.009387490940975001   -0.0005847849260545391
-0.0002877756593492525   -0.012059552535322687   -0.0006062655075748779
0.0010421357086075787   -0.012026682620713033   -0.0006031129427954105
0.0012326889939889413   -0.009364401186791306   -0.0005950795048759617
0.0010508770350314285   -0.012024850237419844   -0.00058841005160754
-0.00011346428051846685   -0.009387490940975001   -0.0005847849260545391
0.0012352868881475778   -0.009356640263505646   -0.0005902198809209718
0.0010508770350314285   -0.012024850237419844   -0.00058841005160754
0.0012326889939889413   -0.009364401186791306   -0.0005950795048759617
-0.00011346428051846685   -0.009387490940975001   -0.0005847849260545391
0.0010508770350314285   -0.012024850237419844   -0.00058841005160754
-0.00027707838235086087   -0.012066737973782422   -0.0005963650661275839
-0.0002877756593492525   -0.012059552535322687   -0.0006062655075748779
-0.00011346428051846685   -0.009387490940975001   -0.0005847849260545391
0.0010508770350314285   -0.012024850237419844   -0.00058841005160754
-0.0002877756593492525   -0.012059552535322687   -0.0006062655075748779
0.0012326889939889413   -0.009364401186791306   -0.0005950795048759617
0.0012144704061295137   -0.009374725074112493   -0.0006122254889121165
0.0010100784920601487   -0.012036517195062114   -0.0006400716303866347
0.0026756143004985633   -0.009370926079296639   -0.0006279390884954342
0.0012250863625955463   -0.009369856182263943   -0.0006023985693369562
0.0010100784920601487   -0.012036517195062114   -0.0006400716303866347
0.002425042193075549   -0.01200947837010975   -0.0006628333289513869
0.0026756143004985633   -0.009370926079296639   -0.0006279390884954342
0.0024675915928620597   -0.011994996794638235   -0.0006366351014872734
0.0012250863625955463   -0.009369856182263943   -0.0006023985693369562
0.0026959291362145775   -0.009358528338459801   -0.0006194199332778539
0.0024675915928620597   -0.011994996794638235   -0.0006366351014872734
0.0026756143004985633   -0.009370926079296639   -0.0006279390884954342
0.0012250863625955463   -0.009369856182263943   -0.0006023985693369562
0.0024675915928620597   -0.011994996794638235   -0.0006366351014872734
0.001026660505940527   -0.0120300580990114   -0.0006202761630110827
0.0010100784920601487   -0.012036517195062114   -0.0006400716303866347
0.0012250863625955463   -0.009369856182263943   -0.0006023985693369562
0.0024675915928620597   -0.011994996794638235   -0.0006366351014872734
0.0010100784920601487   -0.012036517195062114   -0.0006400716303866347
0.0026756143004985633   -0.009370926079296639   -0.0006279390884954342
0.0012250863625955463   -0.009369856182263943   -0.0006023985693369562
0.001026660505940527   -0.0120300580990114   -0.0006202761630110827
0.0026959291362145775   -0.009358528338459801   -0.0006194199332778539
0.0012326889939889413   -0.009364401186791306   -0.0005950795048759617
0.001026660505940527   -0.0120300580990114   -0.0006202761630110827
0.0024675915928620597   -0.011994996794638235   -0.0006366351014872734
0.0026959291362145775   -0.009358528338459801   -0.0006194199332778539
0.0024972055011800746   -0.011987951920841526   -0.0006142011504856684
0.0012326889939889413   -0.009364401186791306   -0.0005950795048759617
0.0027074584509462858   -0.009348862026385638   -0.0006147256110192422
0.0024972055011800746   -0.011987951920841526   -0.0006142011504856684
0.0026959291362145775   -0.009358528338459801   -0.0006194199332778539
0.0012326889939889413   -0.009364401186791306   -0.0005950795048759617
0.0024972055011800746   -0.011987951920841526   -0.0006142011504856684
0.0010421357086075787   -0.012026682620713033   -0.0006031129427954105
0.001026660505940527   -0.0120300580990114   -0.0006202761630110827
0.0012326889939889413   -0.009364401186791306   -0.0005950795048759617
0.0024972055011800746   -0.011987951920841526   -0.0006142011504856684
0.001026660505940527   -0.0120300580990114   -0.0006202761630110827
0.0026959291362145775   -0.009358528338459801   -0.0006194199332778539
0.0012326889939889413   -0.009364401186791306   -0.0005950795048759617
0.0010421357086075787   -0.012026682620713033   -0.0006031129427954105
0.0027074584509462858   -0.009348862026385638   -0.0006147256110192422
0.0012352868881475778   -0.009356640263505646   -0.0005902198809209718
0.0010421357086075787   -0.012026682620713033   -0.0006031129427954105
0.0024972055011800746   -0.011987951920841526   -0.0006142011504856684
0.0027074584509462858   -0.009348862026385638   -0.0006147256110192422
0.002523997168788689   -0.011980551353634884   -0.0005956916020074023
0.0012352868881475778   -0.009356640263505646   -0.0005902198809209718
0.0027119554819241007   -0.009333739750247285   -0.0006139219277868672
0.002523997168788689   -0.011980551353634884   -0.0005956916020074023
0.0027074584509462858   -0.009348862026385638   -0.0006147256110192422
0.0012352868881475778   -0.009356640263505646   -0.0005902198809209718
0.002523997168788689   -0.011980551353634884   -0.0005956916020074023
0.0010508770350314285   -0.012024850237419844   -0.00058841005160754
0.0010421357086075787   -0.012026682620713033   -0.0006031129427954105
0.0012352868881475778   -0.009356640263505646   -0.0005902198809209718
0.002523997168788689   -0.011980551353634884   -0.0005956916020074023
0.0010421357086075787   -0.012026682620713033   -0.0006031129427954105
0.0027074584509462858   -0.009348862026385638   -0.0006147256110192422
-0.004364397535220437   -0.012051222655743439   -0.0007077245105697448
-0.004243096512062642   -0.014568824259457493   -0.000677933791375763
-0.0029212775576613766   -0.012058365958071622   -0.0006695168245709922
-0.0043581676838045395   -0.012077372266572826   -0.0007069410765623478
-0.004243096512062642   -0.014568824259457493   -0.000677933791375763
-0.0029079954857717384   -0.014597713185727104   -0.0006552110590181747
-0.0029212775576613766   -0.012058365958071622   -0.0006695168245709922
-0.0028908470173737663   -0.014612174779363083   -0.0006587797773192941
-0.0043581676838045395   -0.012077372266572826   -0.0007069410765623478
-0.0029126915240621316   -0.012077873616563622   -0.000663637786871517
-0.0028908470173737663   -0.014612174779363083   -0.0006587797773192941
-0.0029212775576613766   -0.012058365958071622   -0.0006695168245709922
-0.0043581676838045395   -0.012077372266572826   -0.0007069410765623478
-0.0028908470173737663   -0.014612174779363083   -0.0006587797773192941
-0.004212083328525584   -0.014588367239607249   -0.0006949379619415203
-0.004243096512062642   -0.014568824259457493   -0.000677933791375763
-0.0043581676838045395   -0.012077372266572826   -0.0007069410765623478
-0.0028908470173737663   -0.014612174779363083   -0.0006587797773192941
-0.004243096512062642   -0.014568824259457493   -0.000677933791375763
-0.0029212775576613766   -0.012058365958071622   -0.0006695168245709922
-0.0043581676838045395   -0.012077372266572826   -0.0007069410765623478
-0.004212083328525584   -0.014588367239607249   -0.0006949379619415203
-0.0029126915240621316   -0.012077873616563622   -0.000663637786871517
-0.004343884445789625   -0.012102972743668667   -0.0007101161317003152
-0.004212083328525584   -0.014588367239607249   -0.0006949379619415203
-0.0028908470173737663   -0.014612174779363083   -0.0006587797773192941
-0.0029126915240621316   -0.012077873616563622   -0.000663637786871517
-0.0028677844285556805   -0.014632980902814756   -0.0006650342996530777
-0.004343884445789625   -0.012102972743668667   -0.0007101161317003152
-0.0028997711405618176   -0.012099660678395494   -0.0006604104875333288
-0.0028677844285556805   -0.014632980902814756   -0.0006650342996530777
-0.0029126915240621316   -0.012077873616563622   -0.000663637786871517
-0.004343884445789625   -0.012102972743668667   -0.0007101161317003152
-0.0028677844285556805   -0.014632980902814756   -0.0006650342996530777
-0.004177013507552053   -0.01461262619876754   -0.0007161603588591008
-0.004212083328525584   -0.014588367239607249   -0.0006949379619415203
-0.004343884445789625   -0.012102972743668667   -0.0007101161317003152
-0.0028677844285556805   -0.014632980902814756   -0.0006650342996530777
-0.004212083328525584   -0.014588367239607249   -0.0006949379619415203
-0.0029126915240621316   -0.012077873616563622   -0.000663637786871517
-0.004343884445789625   -0.012102972743668667   -0.0007101161317003152
-0.004177013507552053   -0.01461262619876754   -0.0007161603588591008
-0.0028997711405618176   -0.012099660678395494   -0.0006604104875333288
-0.0043213519589160665   -0.012136137698875152   -0.0007174657159963788
-0.004177013507552053   -0.01461262619876754   -0.0007161603588591008
-0.0028677844285556805   -0.014632980902814756   -0.0006650342996530777
-0.0028997711405618176   -0.012099660678395494   -0.0006604104875333288
-0.0028431085270738403   -0.014661411312739629   -0.0006740429693924935
-0.0043213519589160665   -0.012136137698875152   -0.0007174657159963788
-0.002883319597509342   -0.012125239499724577   -0.0006597793356295933
-0.0028431085270738403   -0.014661411312739629   -0.0006740429693924935
-0.0028997711405618176   -0.012099660678395494   -0.0006604104875333288
-0.0043213519589160665   -0.012136137698875152   -0.0007174657159963788
-0.0028431085270738403   -0.014661411312739629   -0.0006740429693924935
-0.004129497124162844   -0.014649693286537922   -0.0007416955679043993
-0.004177013507552053   -0.01461262619876754   -0.0007161603588591008
-0.0043213519589160665   -0.012136137698875152   -0.0007174657159963788
-0.0028431085270738403   -0.014661411312739629   -0.0006740429693924935
-0.004177013507552053   -0.01461262619876754   -0.0007161603588591008
-0.0028997711405618176   -0.012099660678395494   -0.0006604104875333288
-0.0029212775576613766   -0.012058365958071622   -0.0006695168245709922
-0.0029079954857717384   -0.014597713185727104   -0.0006552110590181747
-0.001598662189805493   -0.012059730003470489   -0.0006441693498429841
-0.0029126915240621316   -0.012077873616563622   -0.000663637786871517
-0.0029079954857717384   -0.014597713185727104   -0.0006552110590181747
-0.0017094263821381473   -0.014608872222006958   -0.0006407346989995605
-0.001598662189805493   -0.012059730003470489   -0.0006441693498429841
-0.0016908387606341293   -0.014616296005742822   -0.0006329312766071292
-0.0029126915240621316   -0.012077873616563622   -0.000663637786871517
-0.0015874916364357328   -0.012070820648357197   -0.0006334701738749297
-0.0016908387606341293   -0.014616296005742822   -0.0006329312766071292
-0.001598662189805493   -0.012059730003470489   -0.0006441693498429841
-0.0029126915240621316   -0.012077873616563622   -0.000663637786871517
-0.0016908387606341293   -0.014616296005742822   -0.0006329312766071292
-0.0028908470173737663   -0.014612174779363083   -0.0006587797773192941
-0.0029079954857717384   -0.014597713185727104   -0.0006552110590181747
-0.0029126915240621316   -0.012077873616563622   -0.000663637786871517
-0.0016908387606341293   -0.014616296005742822   -0.0006329312766071292
-0.0029079954857717384   -0.014597713185727104   -0.0006552110590181747
-0.001598662189805493   -0.012059730003470489   -0.0006441693498429841
-0.0029126915240621316   -0.012077873616563622   -0.000663637786871517
-0.0028908470173737663   -0.014612174779363083   -0.0006587797773192941
-0.0015874916364357328   -0.012070820648357197   -0.0006334701738749297
-0.0028997711405618176   -0.012099660678395494   -0.0006604104875333288
-0.0028908470173737663   -0.014612174779363083   -0.0006587797773192941
-0.0016908387606341293   -0.014616296005742822   -0.0006329312766071292
-0.0015874916364357328   -0.012070820648357197   -0.0006334701738749297
-0.0016708774355940624   -0.014629801976687121   -0.00062777888351469
-0.0028997711405618176   -0.012099660678395494   -0.0006604104875333288
-0.0015749936212079835   -0.012084466973412202   -0.0006254279655429815
-0.0016708774355940624   -0.014629801976687121   -0.00062777888351469
-0.0015874916364357328   -0.012070820648357197   -0.0006334701738749297
-0.0028997711405618176   -0.012099660678395494   -0.0006604104875333288
-0.0016708774355940624   -0.014629801976687121   -0.00062777888351469
-0.0028677844285556805   -0.014632980902814756   -0.0006650342996530777
-0.0028908470173737663   -0.014612174779363083   -0.0006587797773192941
-0.0028997711405618176   -0.012099660678395494   -0.0006604104875333288
-0.0016708774355940624   -0.014629801976687121   -0.00062777888351469
-0.0028908470173737663   -0.014612174779363083   -0.0006587797773192941
-0.0015874916364357328   -0.012070820648357197   -0.0006334701738749297
-0.0028997711405618176   -0.012099660678395494   -0.0006604104875333288
-0.0028677844285556805   -0.014632980902814756   -0.0006650342996530777
-0.0015749936212079835   -0.012084466973412202   -0.0006254279655429815
-0.002883319597509342   -0.012125239499724577   -0.0006597793356295933
-0.0028677844285556805   -0.014632980902814756   -0.0006650342996530777
-0.0016708774355940624   -0.014629801976687121   -0.00062777888351469
-0.0015749936212079835   -0.012084466973412202   -0.0006254279655429815
-0.0016503613372242836   -0.014649551941800905   -0.0006254140833261557
-0.002883319597509342   -0.012125239499724577   -0.0006597793356295933
-0.0015615755868915097   -0.012100711892183383   -0.0006201354986688643
-0.0016503613372242836   -0.014649551941800905   -0.0006254140833261557
-0.0015749936212079835   -0.012084466973412202   -0.0006254279655429815
-0.002883319597509342   -0.012125239499724577   -0.0006597793356295933
-0.0016503613372242836   -0.014649551941800905   -0.0006254140833261557
-0.0028431085270738403   -0.014661411312739629   -0.0006740429693924935
-0.0028677844285556805   -0.014632980902814756   -0.0006650342996530777
-0.002883319597509342   -0.012125239499724577   -0.0006597793356295933
-0.0016503613372242836   -0.014649551941800905   -0.0006254140833261557
-0.0028677844285556805   -0.014632980902814756   -0.0006650342996530777
-0.0015749936212079835   -0.012084466973412202   -0.0006254279655429815
-0.001598662189805493   -0.012059730003470489   -0.0006441693498429841
-0.0017094263821381473   -0.014608872222006958   -0.0006407346989995605
-0.00031330150686909866   -0.012052495220815694   -0.000634176014346275
-0.0015874916364357328   -0.012070820648357197   -0.0006334701738749297
-0.0017094263821381473   -0.014608872222006958   -0.0006407346989995605
-0.0005468621166444199   -0.014599768672314812   -0.0006388098882185983
-0.00031330150686909866   -0.012052495220815694   -0.000634176014346275
-0.0005263179131924068   -0.014599700508421153   -0.0006200243668932693
-0.0015874916364357328   -0.012070820648357197   -0.0006334701738749297
-0.0003002060333350536   -0.012054838397959173   -0.0006188989455914814
-0.0005263179131924068   -0.014599700508421153   -0.0006200243668932693
-0.00031330150686909866   -0.012052495220815694   -0.000634176014346275
-0.0015874916364357328   -0.012070820648357197   -0.0006334701738749297
-0.0005263179131924068   -0.014599700508421153   -0.0006200243668932693
-0.0016908387606341293   -0.014616296005742822   -0.0006329312766071292
-0.0017094263821381473   -0.014608872222006958   -0.0006407346989995605
-0.0015874916364357328   -0.012070820648357197   -0.0006334701738749297
-0.0005263179131924068   -0.014599700508421153   -0.0006200243668932693
-0.0017094263821381473   -0.014608872222006958   -0.0006407346989995605
-0.00031330150686909866   -0.012052495220815694   -0.000634176014346275
-0.0015874916364357328   -0.012070820648357197   -0.0006334701738749297
-0.0016908387606341293   -0.014616296005742822   -0.0006329312766071292
-0.0003002060333350536   -0.012054838397959173   -0.0006188989455914814
-0.0015749936212079835   -0.012084466973412202   -0.0006254279655429815
-0.0016908387606341293   -0.014616296005742822   -0.0006329312766071292
-0.0005263179131924068   -0.014599700508421153   -0.0006200243668932693
-0.0003002060333350536   -0.012054838397959173   -0.0006188989455914814
-0.0005062892162782122   -0.014605295446119448   -0.0006039011019229648
-0.0015749936212079835   -0.012084466973412202   -0.0006254279655429815
-0.0002877756593492525   -0.012059552535322687   -0.0006062655075748779
-0.0005062892162782122   -0.014605295446119448   -0.0006039011019229648
-0.0003002060333350536   -0.012054838397959173   -0.0006188989455914814
-0.0015749936212079835   -0.012084466973412202   -0.0006254279655429815
-0.0005062892162782122   -0.014605295446119448   -0.0006039011019229648
-0.0016708774355940624   -0.014629801976687121   -0.00062777888351469
-0.0016908387606341293   -0.014616296005742822   -0.0006329312766071292
-0.0015749936212079835   -0.012084466973412202   -0.0006254279655429815
-0.0005062892162782122   -0.014605295446119448   -0.0006039011019229648
-0.0016908387606341293   -0.014616296005742822   -0.0006329312766071292
-0.0003002060333350536   -0.012054838397959173   -0.0006188989455914814
-0.0015749936212079835   -0.012084466973412202   -0.0006254279655429815
-0.0016708774355940624   -0.014629801976687121   -0.00062777888351469
-0.0002877756593492525   -0.012059552535322687   -0.0006062655075748779
-0.0015615755868915097   -0.012100711892183383   -0.0006201354986688643
-0.0016708774355940624   -0.014629801976687121   -0.00062777888351469
-0.0005062892162782122   -0.014605295446119448   -0.0006039011019229648
-0.0002877756593492525   -0.012059552535322687   -0.0006062655075748779
-0.0004883521856453493   -0.01461699529898699   -0.0005905305273037457
-0.0015615755868915097   -0.012100711892183383   -0.0006201354986688643
-0.00027707838235086087   -0.012066737973782422   -0.0005963650661275839
-0.0004883521856453493   -0.01461699529898699   -0.0005905305273037457
-0.0002877756593492525   -0.012059552535322687   -0.0006062655075748779
-0.0015615755868915097   -0.012100711892183383   -0.0006201354986688643
-0.0004883521856453493   -0.01461699529898699   -0.0005905305273037457
-0.0016503613372242836   -0.014649551941800905   -0.0006254140833261557
-0.0016708774355940624   -0.014629801976687121   -0.00062777888351469
-0.0015615755868915097   -0.012100711892183383   -0.0006201354986688643
-0.0004883521856453493   -0.01461699529898699   -0.0005905305273037457
-0.0016708774355940624   -0.014629801976687121   -0.00062777888351469
-0.0002877756593492525   -0.012059552535322687   -0.0006062655075748779
-0.00031330150686909866   -0.012052495220815694   -0.000634176014346275
-0.0005468621166444199   -0.014599768672314812   -0.0006388098882185983
0.0010100784920601487   -0.012036517195062114   -0.0006400716303866347
-0.0003002060333350536   -0.012054838397959173   -0.0006188989455914814
-0.0005468621166444199   -0.014599768672314812   -0.0006388098882185983
0.000654514016491533   -0.014570882185033864   -0.0006504130147356168
0.0010100784920601487   -0.012036517195062114   -0.0006400716303866347
0.0006796595150798763   -0.014562813437228815   -0.000620724608336269
-0.0003002060333350536   -0.012054838397959173   -0.0006188989455914814
0.001026660505940527   -0.0120300580990114   -0.0006202761630110827
0.0006796595150798763   -0.014562813437228815   -0.000620724608336269
0.0010100784920601487   -0.012036517195062114   -0.0006400716303866347
-0.0003002060333350536   -0.012054838397959173   -0.0006188989455914814
0.0006796595150798763   -0.014562813437228815   -0.000620724608336269
-0.0005263179131924068   -0.014599700508421153   -0.0006200243668932693
-0.0005468621166444199   -0.014599768672314812   -0.0006388098882185983
-0.0003002060333350536   -0.012054838397959173   -0.0006188989455914814
0.0006796595150798763   -0.014562813437228815   -0.000620724608336269
-0.0005468621166444199   -0.014599768672314812   -0.0006388098882185983
0.0010100784920601487   -0.012036517195062114   -0.0006400716303866347
-0.0003002060333350536   -0.012054838397959173   -0.0006188989455914814
-0.0005263179131924068   -0.014599700508421153   -0.0006200243668932693
0.001026660505940527   -0.0120300580990114   -0.0006202761630110827
-0.0002877756593492525   -0.012059552535322687   -0.0006062655075748779
-0.0005263179131924068   -0.014599700508421153   -0.0006200243668932693
0.0006796595150798763   -0.014562813437228815   -0.000620724608336269
0.001026660505940527   -0.0120300580990114   -0.0006202761630110827
0.000705535110268837   -0.01456122644455519   -0.0005938625391709006
-0.0002877756593492525   -0.012059552535322687   -0.0006062655075748779
0.0010421357086075787   -0.012026682620713033   -0.0006031129427954105
0.000705535110268837   -0.01456122644455519   -0.0005938625391709006
0.001026660505940527   -0.0120300580990114   -0.0006202761630110827
-0.0002877756593492525   -0.012059552535322687   -0.0006062655075748779
0.000705535110268837   -0.01456122644455519   -0.0005938625391709006
-0.0005062892162782122   -0.014605295446119448   -0.0006039011019229648
-0.0005263179131924068   -0.014599700508421153   -0.0006200243668932693
-0.0002877756593492525   -0.012059552535322687   -0.0006062655075748779
0.000705535110268837   -0.01456122644455519   -0.0005938625391709006
-0.0005263179131924068   -0.014599700508421153   -0.0006200243668932693
0.001026660505940527   -0.0120300580990114   -0.0006202761630110827
-0.0002877756593492525   -0.012059552535322687   -0.0006062655075748779
-0.0005062892162782122   -0.014605295446119448   -0.0006039011019229648
0.0010421357086075787   -0.012026682620713033   -0.0006031129427954105
-0.00027707838235086087   -0.012066737973782422   -0.0005963650661275839
-0.0005062892162782122   -0.014605295446119448   -0.0006039011019229648
0.000705535110268837   -0.01456122644455519   -0.0005938625391709006
0.0010421357086075787   -0.012026682620713033   -0.0006031129427954105
0.0007229033760522332   -0.014564944503264505   -0.0005694520695924478
-0.00027707838235086087   -0.012066737973782422   -0.0005963650661275839
0.0010508770350314285   -0.012024850237419844   -0.00058841005160754
0.0007229033760522332   -0.014564944503264505   -0.0005694520695924478
0.0010421357086075787   -0.012026682620713033   -0.0006031129427954105
-0.00027707838235086087   -0.012066737973782422   -0.0005963650661275839
0.0007229033760522332   -0.014564944503264505   -0.0005694520695924478
-0.0004883521856453493   -0.01461699529898699   -0.0005905305273037457
-0.0005062892162782122   -0.014605295446119448   -0.0006039011019229648
-0.00027707838235086087   -0.012066737973782422   -0.0005963650661275839
0.0007229033760522332   -0.014564944503264505   -0.0005694520695924478
-0.0005062892162782122   -0.014605295446119448   -0.0006039011019229648
0.0010421357086075787   -0.012026682620713033   -0.0006031129427954105
0.0010100784920601487   -0.012036517195062114   -0.0006400716303866347
0.000654514016491533   -0.014570882185033864   -0.0006504130147356168
0.002425042193075549   -0.01200947837010975   -0.0006628333289513869
0.001026660505940527   -0.0120300580990114   -0.0006202761630110827
0.000654514016491533   -0.014570882185033864   -0.0006504130147356168
0.0019297008850809446   -0.01452114272357299   -0.0006795048387887075
0.002425042193075549   -0.01200947837010975   -0.0006628333289513869
0.0019967037007403393   -0.014504723898411183   -0.0006361667102602914
0.001026660505940527   -0.0120300580990114   -0.0006202761630110827
0.0024675915928620597   -0.011994996794638235   -0.0006366351014872734
0.0019967037007403393   -0.014504723898411183   -0.0006361667102602914
0.002425042193075549   -0.01200947837010975   -0.0006628333289513869
0.001026660505940527   -0.0120300580990114   -0.0006202761630110827
0.0019967037007403393   -0.014504723898411183   -0.0006361667102602914
0.0006796595150798763   -0.014562813437228815   -0.000620724608336269
0.000654514016491533   -0.014570882185033864   -0.0006504130147356168
0.001026660505940527   -0.0120300580990114   -0.0006202761630110827
0.0019967037007403393   -0.014504723898411183   -0.0006361667102602914
0.000654514016491533   -0.014570882185033864   -0.0006504130147356168
0.002425042193075549   -0.01200947837010975   -0.0006628333289513869
0.001026660505940527   -0.0120300580990114   -0.0006202761630110827
0.0006796595150798763   -0.014562813437228815   -0.000620724608336269
0.0024675915928620597   -0.011994996794638235   -0.0006366351014872734
0.0010421357086075787   -0.012026682620713033   -0.0006031129427954105
0.0006796595150798763   -0.014562813437228815   -0.000620724608336269
0.0019967037007403393   -0.014504723898411183   -0.0006361667102602914
0.0024675915928620597   -0.011994996794638235   -0.0006366351014872734
0.0020465224814268236   -0.014500130589103823   -0.0005966010175286184
0.0010421357086075787   -0.012026682620713033   -0.0006031129427954105
0.0024972055011800746   -0.011987951920841526   -0.0006142011504856684
0.0020465224814268236   -0.014500130589103823   -0.0005966010175286184
0.0024675915928620597   -0.011994996794638235   -0.0006366351014872734
0.0010421357086075787   -0.012026682620713033   -0.0006031129427954105
0.0020465224814268236   -0.014500130589103823   -0.0005966010175286184
0.000705535110268837   -0.01456122644455519   -0.0005938625391709006
0.0006796595150798763   -0.014562813437228815   -0.000620724608336269
0.0010421357086075787   -0.012026682620713033   -0.0006031129427954105
0.0020465224814268236   -0.014500130589103823   -0.0005966010175286184
0.0006796595150798763   -0.014562813437228815   -0.000620724608336269
0.0024675915928620597   -0.011994996794638235   -0.0006366351014872734
0.0010421357086075787   -0.012026682620713033   -0.0006031129427954105
0.000705535110268837   -0.01456122644455519   -0.0005938625391709006
0.0024972055011800746   -0.011987951920841526   -0.0006142011504856684
0.0010508770350314285   -0.012024850237419844   -0.00058841005160754
0.000705535110268837   -0.01456122644455519   -0.0005938625391709006
0.0020465224814268236   -0.014500130589103823   -0.0005966010175286184
0.0024972055011800746   -0.011987951920841526   -0.0006142011504856684
0.002097399597849628   -0.014500163349995104   -0.0005609897883446514
0.0010508770350314285   -0.012024850237419844   -0.00058841005160754
0.002523997168788689   -0.011980551353634884   -0.0005956916020074023
0.002097399597849628   -0.014500163349995104   -0.0005609897883446514
0.0024972055011800746   -0.011987951920841526   -0.0006142011504856684
0.0010508770350314285   -0.012024850237419844   -0.00058841005160754
0.002097399597849628   -0.014500163349995104   -0.0005609897883446514
0.0007229033760522332   -0.014564944503264505   -0.0005694520695924478
0.000705535110268837   -0.01456122644455519   -0.0005938625391709006
0.0010508770350314285   -0.012024850237419844   -0.00058841005160754
0.002097399597849628   -0.014500163349995104   -0.0005609897883446514
0.000705535110268837   -0.01456122644455519   -0.0005938625391709006
0.0024972055011800746   -0.011987951920841526   -0.0006142011504856684
-0.004243096512062642   -0.014568824259457493   -0.000677933791375763
-0.0038737540331268685   -0.016789530830948356   -0.0006331690022733847
-0.0029079954857717384   -0.014597713185727104   -0.0006552110590181747
-0.004212083328525584   -0.014588367239607249   -0.0006949379619415203
-0.0038737540331268685   -0.016789530830948356   -0.0006331690022733847
-0.002751852629900669   -0.016841065174783267   -0.0006297101805024021
-0.0029079954857717384   -0.014597713185727104   -0.0006552110590181747
-0.0027243070330216917   -0.016848480373000883   -0.0006419798449255993
-0.004212083328525584   -0.014588367239607249   -0.0006949379619415203
-0.0028908470173737663   -0.014612174779363083   -0.0006587797773192941
-0.0027243070330216917   -0.016848480373000883   -0.0006419798449255993
-0.0029079954857717384   -0.014597713185727104   -0.0006552110590181747
-0.004212083328525584   -0.014588367239607249   -0.0006949379619415203
-0.0027243070330216917   -0.016848480373000883   -0.0006419798449255993
-0.0038159443482887927   -0.016800486874833563   -0.0006677194731247652
-0.0038737540331268685   -0.016789530830948356   -0.0006331690022733847
-0.004212083328525584   -0.014588367239607249   -0.0006949379619415203
-0.0027243070330216917   -0.016848480373000883   -0.0006419798449255993
-0.0038737540331268685   -0.016789530830948356   -0.0006331690022733847
-0.0029079954857717384   -0.014597713185727104   -0.0006552110590181747
-0.004212083328525584   -0.014588367239607249   -0.0006949379619415203
-0.0038159443482887927   -0.016800486874833563   -0.0006677194731247652
-0.0028908470173737663   -0.014612174779363083   -0.0006587797773192941
-0.004177013507552053   -0.01461262619876754   -0.0007161603588591008
-0.0038159443482887927   -0.016800486874833563   -0.0006677194731247652
-0.0027243070330216917   -0.016848480373000883   -0.0006419798449255993
-0.0028908470173737663   -0.014612174779363083   -0.0006587797773192941
-0.0026896906579647515   -0.016866440158724856   -0.0006569437248761037
-0.004177013507552053   -0.01461262619876754   -0.0007161603588591008
-0.0028677844285556805   -0.014632980902814756   -0.0006650342996530777
-0.0026896906579647515   -0.016866440158724856   -0.0006569437248761037
-0.0028908470173737663   -0.014612174779363083   -0.0006587797773192941
-0.004177013507552053   -0.01461262619876754   -0.0007161603588591008
-0.0026896906579647515   -0.016866440158724856   -0.0006569437248761037
-0.0037585095164133237   -0.01682157251708483   -0.0007066540507889702
-0.0038159443482887927   -0.016800486874833563   -0.0006677194731247652
-0.004177013507552053   -0.01461262619876754   -0.0007161603588591008
-0.0026896906579647515   -0.016866440158724856   -0.0006569437248761037
-0.0038159443482887927   -0.016800486874833563   -0.0006677194731247652
-0.0028908470173737663   -0.014612174779363083   -0.0006587797773192941
-0.004177013507552053   -0.01461262619876754   -0.0007161603588591008
-0.0037585095164133237   -0.01682157251708483   -0.0007066540507889702
-0.0028677844285556805   -0.014632980902814756   -0.0006650342996530777
-0.004129497124162844   -0.014649693286537922   -0.0007416955679043993
-0.0037585095164133237   -0.01682157251708483   -0.0007066540507889702
-0.0026896906579647515   -0.016866440158724856   -0.0006569437248761037
-0.0028677844285556805   -0.014632980902814756   -0.0006650342996530777
-0.002655578758028342   -0.016895968563960192   -0.000674575838846041
-0.004129497124162844   -0.014649693286537922   -0.0007416955679043993
-0.0028431085270738403   -0.014661411312739629   -0.0006740429693924935
-0.002655578758028342   -0.016895968563960192   -0.000674575838846041
-0.0028677844285556805   -0.014632980902814756   -0.0006650342996530777
-0.004129497124162844   -0.014649693286537922   -0.0007416955679043993
-0.002655578758028342   -0.016895968563960192   -0.000674575838846041
-0.0036850041623522228   -0.016860893094778683   -0.0007499099945504222
-0.0037585095164133237   -0.01682157251708483   -0.0007066540507889702
-0.004129497124162844   -0.014649693286537922   -0.0007416955679043993
-0.002655578758028342   -0.016895968563960192   -0.000674575838846041
-0.0037585095164133237   -0.01682157251708483   -0.0007066540507889702
-0.0028677844285556805   -0.014632980902814756   -0.0006650342996530777
-0.0029079954857717384   -0.014597713185727104   -0.0006552110590181747
-0.002751852629900669   -0.016841065174783267   -0.0006297101805024021
-0.0017094263821381473   -0.014608872222006958   -0.0006407346989995605
-0.0028908470173737663   -0.014612174779363083   -0.0006587797773192941
-0.002751852629900669   -0.016841065174783267   -0.0006297101805024021
-0.0017776140282197656   -0.016864768722072467   -0.0006284709256304688
-0.0017094263821381473   -0.014608872222006958   -0.0006407346989995605
-0.0017494342628971843   -0.01686713280922523   -0.000622873167315524
-0.0028908470173737663   -0.014612174779363083   -0.0006587797773192941
-0.0016908387606341293   -0.014616296005742822   -0.0006329312766071292
-0.0017494342628971843   -0.01686713280922523   -0.000622873167315524
-0.0017094263821381473   -0.014608872222006958   -0.0006407346989995605
-0.0028908470173737663   -0.014612174779363083   -0.0006587797773192941
-0.0017494342628971843   -0.01686713280922523   -0.000622873167315524
-0.0027243070330216917   -0.016848480373000883   -0.0006419798449255993
-0.002751852629900669   -0.016841065174783267   -0.0006297101805024021
-0.0028908470173737663   -0.014612174779363083   -0.0006587797773192941
-0.0017494342628971843   -0.01686713280922523   -0.000622873167315524
-0.002751852629900669   -0.016841065174783267   -0.0006297101805024021
-0.0017094263821381473   -0.014608872222006958   -0.0006407346989995605
-0.0028908470173737663   -0.014612174779363083   -0.0006587797773192941
-0.0027243070330216917   -0.016848480373000883   -0.0006419798449255993
-0.0016908387606341293   -0.014616296005742822   -0.0006329312766071292
-0.0028677844285556805   -0.014632980902814756   -0.0006650342996530777
-0.0027243070330216917   -0.016848480373000883   -0.0006419798449255993
-0.0017494342628971843   -0.01686713280922523   -0.000622873167315524
-0.0016908387606341293   -0.014616296005742822   -0.0006329312766071292
-0.001720317377206234   -0.016878930701396764   -0.0006198893972898416
-0.0028677844285556805   -0.014632980902814756   -0.0006650342996530777
-0.0016708774355940624   -0.014629801976687121   -0.00062777888351469
-0.001720317377206234   -0.016878930701396764   -0.0006198893972898416
-0.0016908387606341293   -0.014616296005742822   -0.0006329312766071292
-0.0028677844285556805   -0.014632980902814756   -0.0006650342996530777
-0.001720317377206234   -0.016878930701396764   -0.0006198893972898416
-0.0026896906579647515   -0.016866440158724856   -0.0006569437248761037
-0.0027243070330216917   -0.016848480373000883   -0.0006419798449255993
-0.0028677844285556805   -0.014632980902814756   -0.0006650342996530777
-0.001720317377206234   -0.016878930701396764   -0.0006198893972898416
-0.0027243070330216917   -0.016848480373000883   -0.0006419798449255993
-0.0016908387606341293   -0.014616296005742822   -0.0006329312766071292
-0.0028677844285556805   -0.014632980902814756   -0.0006650342996530777
-0.0026896906579647515   -0.016866440158724856   -0.0006569437248761037
-0.0016708774355940624   -0.014629801976687121   -0.00062777888351469
-0.0028431085270738403   -0.014661411312739629   -0.0006740429693924935
-0.0026896906579647515   -0.016866440158724856   -0.0006569437248761037
-0.001720317377206234   -0.016878930701396764   -0.0006198893972898416
-0.0016708774355940624   -0.014629801976687121   -0.00062777888351469
-0.0016912310171543635   -0.016900677449127283   -0.0006194992528091465
-0.0028431085270738403   -0.014661411312739629   -0.0006740429693924935
-0.0016503613372242836   -0.014649551941800905   -0.0006254140833261557
-0.0016912310171543635   -0.016900677449127283   -0.0006194992528091465
-0.0016708774355940624   -0.014629801976687121   -0.00062777888351469
-0.0028431085270738403   -0.014661411312739629   -0.0006740429693924935
-0.0016912310171543635   -0.016900677449127283   -0.0006194992528091465
-0.002655578758028342   -0.016895968563960192   -0.000674575838846041
-0.0026896906579647515   -0.016866440158724856   -0.0006569437248761037
-0.0028431085270738403   -0.014661411312739629   -0.0006740429693924935
-0.0016912310171543635   -0.016900677449127283   -0.0006194992528091465
-0.0026896906579647515   -0.016866440158724856   -0.0006569437248761037
-0.0016708774355940624   -0.014629801976687121   -0.00062777888351469
-0.0017094263821381473   -0.014608872222006958   -0.0006407346989995605
-0.0017776140282197656   -0.016864768722072467   -0.0006284709256304688
-0.0005468621166444199   -0.014599768672314812   -0.0006388098882185983
-0.0016908387606341293   -0.014616296005742822   -0.0006329312766071292
-0.0017776140282197656   -0.016864768722072467   -0.0006284709256304688
-0.0008354234260191517   -0.016859604280764193   -0.0006358035151713699
-0.0005468621166444199   -0.014599768672314812   -0.0006388098882185983
-0.0008045653527546077   -0.016856262940168332   -0.0006129563877365804
-0.0016908387606341293   -0.014616296005742822   -0.0006329312766071292
-0.0005263179131924068   -0.014599700508421153   -0.0006200243668932693
-0.0008045653527546077   -0.016856262940168332   -0.0006129563877365804
-0.0005468621166444199   -0.014599768672314812   -0.0006388098882185983
-0.0016908387606341293   -0.014616296005742822   -0.0006329312766071292
-0.0008045653527546077   -0.016856262940168332   -0.0006129563877365804
-0.0017494342628971843   -0.01686713280922523   -0.000622873167315524
-0.0017776140282197656   -0.016864768722072467   -0.0006284709256304688
-0.0016908387606341293   -0.014616296005742822   -0.0006329312766071292
-0.0008045653527546077   -0.016856262940168332   -0.0006129563877365804
-0.0017776140282197656   -0.016864768722072467   -0.0006284709256304688
-0.0005468621166444199   -0.014599768672314812   -0.0006388098882185983
-0.0016908387606341293   -0.014616296005742822   -0.0006329312766071292
-0.0017494342628971843   -0.01686713280922523   -0.000622873167315524
-0.0005263179131924068   -0.014599700508421153   -0.0006200243668932693
-0.0016708774355940624   -0.014629801976687121   -0.00062777888351469
-0.0017494342628971843   -0.01686713280922523   -0.000622873167315524
-0.0008045653527546077   -0.016856262940168332   -0.0006129563877365804
-0.0005263179131924068   -0.014599700508421153   -0.0006200243668932693
-0.0007745699517037885   -0.016861500985429455   -0.0005928975269846262
-0.0016708774355940624   -0.014629801976687121   -0.00062777888351469
-0.0005062892162782122   -0.014605295446119448   -0.0006039011019229648
-0.0007745699517037885   -0.016861500985429455   -0.0005928975269846262
-0.0005263179131924068   -0.014599700508421153   -0.0006200243668932693
-0.0016708774355940624   -0.014629801976687121   -0.00062777888351469
-0.0007745699517037885   -0.016861500985429455   -0.0005928975269846262
-0.001720317377206234   -0.016878930701396764   -0.0006198893972898416
-0.0017494342628971843   -0.01686713280922523   -0.000622873167315524
-0.0016708774355940624   -0.014629801976687121   -0.00062777888351469
-0.0007745699517037885   -0.016861500985429455   -0.0005928975269846262
-0.0017494342628971843   -0.01686713280922523   -0.000622873167315524
-0.0005263179131924068   -0.014599700508421153   -0.0006200243668932693
-0.0016708774355940624   -0.014629801976687121   -0.00062777888351469
-0.001720317377206234   -0.016878930701396764   -0.0006198893972898416
-0.0005062892162782122   -0.014605295446119448   -0.0006039011019229648
-0.0016503613372242836   -0.014649551941800905   -0.0006254140833261557
-0.001720317377206234   -0.016878930701396764   -0.0006198893972898416
-0.0007745699517037885   -0.016861500985429455   -0.0005928975269846262
-0.0005062892162782122   -0.014605295446119448   -0.0006039011019229648
-0.0007474263722756844   -0.016876477277383298   -0.0005753923979438897
-0.0016503613372242836   -0.014649551941800905   -0.0006254140833261557
-0.0004883521856453493   -0.01461699529898699   -0.0005905305273037457
-0.0007474263722756844   -0.016876477277383298   -0.0005753923979438897
-0.0005062892162782122   -0.014605295446119448   -0.0006039011019229648
-0.0016503613372242836   -0.014649551941800905   -0.0006254140833261557
-0.0007474263722756844   -0.016876477277383298   -0.0005753923979438897
-0.0016912310171543635   -0.016900677449127283   -0.0006194992528091465
-0.001720317377206234   -0.016878930701396764   -0.0006198893972898416
-0.0016503613372242836   -0.014649551941800905   -0.0006254140833261557
-0.0007474263722756844   -0.016876477277383298   -0.0005753923979438897
-0.001720317377206234   -0.016878930701396764   -0.0006198893972898416
-0.0005062892162782122   -0.014605295446119448   -0.0006039011019229648
-0.0005468621166444199   -0.014599768672314812   -0.0006388098882185983
-0.0008354234260191517   -0.016859604280764193   -0.0006358035151713699
0.000654514016491533   -0.014570882185033864   -0.0006504130147356168
-0.0005263179131924068   -0.014599700508421153   -0.0006200243668932693
-0.0008354234260191517   -0.016859604280764193   -0.0006358035151713699
0.00014884400591760806   -0.016824521879257967   -0.0006531832466497694
0.000654514016491533   -0.014570882185033864   -0.0006504130147356168
0.00018647258293416125   -0.016813994365171083   -0.0006131203490107947
-0.0005263179131924068   -0.014599700508421153   -0.0006200243668932693
0.0006796595150798763   -0.014562813437228815   -0.000620724608336269
0.00018647258293416125   -0.016813994365171083   -0.0006131203490107947
0.000654514016491533   -0.014570882185033864   -0.0006504130147356168
-0.0005263179131924068   -0.014599700508421153   -0.0006200243668932693
0.00018647258293416125   -0.016813994365171083   -0.0006131203490107947
-0.0008045653527546077   -0.016856262940168332   -0.0006129563877365804
-0.0008354234260191517   -0.016859604280764193   -0.0006358035151713699
-0.0005263179131924068   -0.014599700508421153   -0.0006200243668932693
0.00018647258293416125   -0.016813994365171083   -0.0006131203490107947
-0.0008354234260191517   -0.016859604280764193   -0.0006358035151713699
0.000654514016491533   -0.014570882185033864   -0.0006504130147356168
-0.0005263179131924068   -0.014599700508421153   -0.0006200243668932693
-0.0008045653527546077   -0.016856262940168332   -0.0006129563877365804
0.0006796595150798763   -0.014562813437228815   -0.000620724608336269
-0.0005062892162782122   -0.014605295446119448   -0.0006039011019229648
-0.0008045653527546077   -0.016856262940168332   -0.0006129563877365804
0.00018647258293416125   -0.016813994365171083   -0.0006131203490107947
0.0006796595150798763   -0.014562813437228815   -0.000620724608336269
0.00022627518682000934   -0.016813052653131048   -0.0005765797833020661
-0.0005062892162782122   -0.014605295446119448   -0.0006039011019229648
0.000705535110268837   -0.01456122644455519   -0.0005938625391709006
0.00022627518682000934   -0.016813052653131048   -0.0005765797833020661
0.0006796595150798763   -0.014562813437228815   -0.000620724608336269
-0.0005062892162782122   -0.014605295446119448   -0.0006039011019229648
0.00022627518682000934   -0.016813052653131048   -0.0005765797833020661
-0.0007745699517037885   -0.016861500985429455   -0.0005928975269846262
-0.0008045653527546077   -0.016856262940168332   -0.0006129563877365804
-0.0005062892162782122   -0.014605295446119448   -0.0006039011019229648
0.00022627518682000934   -0.016813052653131048   -0.0005765797833020661
-0.0008045653527546077   -0.016856262940168332   -0.0006129563877365804
0.0006796595150798763   -0.014562813437228815   -0.000620724608336269
-0.0005062892162782122   -0.014605295446119448   -0.0006039011019229648
-0.0007745699517037885   -0.016861500985429455   -0.0005928975269846262
0.000705535110268837   -0.01456122644455519   -0.0005938625391709006
-0.0004883521856453493   -0.01461699529898699   -0.0005905305273037457
-0.0007745699517037885   -0.016861500985429455   -0.0005928975269846262
0.00022627518682000934   -0.016813052653131048   -0.0005765797833020661
0.000705535110268837   -0.01456122644455519   -0.0005938625391709006
0.0002553818043818827   -0.016821239098212242   -0.0005424588446905933
-0.0004883521856453493   -0.01461699529898699   -0.0005905305273037457
0.0007229033760522332   -0.014564944503264505   -0.0005694520695924478
0.0002553818043818827   -0.016821239098212242   -0.0005424588446905933
0.000705535110268837   -0.01456122644455519   -0.0005938625391709006
-0.0004883521856453493   -0.01461699529898699   -0.0005905305273037457
0.0002553818043818827   -0.016821239098212242   -0.0005424588446905933
-0.0007474263722756844   -0.016876477277383298   -0.0005753923979438897
-0.0007745699517037885   -0.016861500985429455   -0.0005928975269846262
-0.0004883521856453493   -0.01461699529898699   -0.0005905305273037457
0.0002553818043818827   -0.016821239098212242   -0.0005424588446905933
-0.0007745699517037885   -0.016861500985429455   -0.0005928975269846262
0.000705535110268837   -0.01456122644455519   -0.0005938625391709006
0.000654514016491533   -0.014570882185033864   -0.0006504130147356168
0.00014884400591760806   -0.016824521879257967   -0.0006531832466497694
0.0019297008850809446   -0.01452114272357299   -0.0006795048387887075
0.0006796595150798763   -0.014562813437228815   -0.000620724608336269
0.00014884400591760806   -0.016824521879257967   -0.0006531832466497694
0.001194227870515212   -0.016756258148640225   -0.0006896299178292015
0.0019297008850809446   -0.01452114272357299   -0.0006795048387887075
0.0012906986493434775   -0.01673617371865414   -0.0006282479613687269
0.0006796595150798763   -0.014562813437228815   -0.000620724608336269
0.0019967037007403393   -0.014504723898411183   -0.0006361667102602914
0.0012906986493434775   -0.01673617371865414   -0.0006282479613687269
0.0019297008850809446   -0.01452114272357299   -0.0006795048387887075
0.0006796595150798763   -0.014562813437228815   -0.000620724608336269
0.0012906986493434775   -0.01673617371865414   -0.0006282479613687269
0.00018647258293416125   -0.016813994365171083   -0.0006131203490107947
0.00014884400591760806   -0.016824521879257967   -0.0006531832466497694
0.0006796595150798763   -0.014562813437228815   -0.000620724608336269
0.0012906986493434775   -0.01673617371865414   -0.0006282479613687269
0.00014884400591760806   -0.016824521879257967   -0.0006531832466497694
0.0019297008850809446   -0.01452114272357299   -0.0006795048387887075
0.0006796595150798763   -0.014562813437228815   -0.000620724608336269
0.00018647258293416125   -0.016813994365171083   -0.0006131203490107947
0.0019967037007403393   -0.014504723898411183   -0.0006361667102602914
0.000705535110268837   -0.01456122644455519   -0.0005938625391709006
0.00018647258293416125   -0.016813994365171083   -0.0006131203490107947
0.0012906986493434775   -0.01673617371865414   -0.0006282479613687269
0.0019967037007403393   -0.014504723898411183   -0.0006361667102602914
0.001364750381235694   -0.016732691426413107   -0.000571238855598409
0.000705535110268837   -0.01456122644455519   -0.0005938625391709006
0.0020465224814268236   -0.014500130589103823   -0.0005966010175286184
0.001364750381235694   -0.016732691426413107   -0.000571238855598409
0.0019967037007403393   -0.014504723898411183   -0.0006361667102602914
0.000705535110268837   -0.01456122644455519   -0.0005938625391709006
0.001364750381235694   -0.016732691426413107   -0.000571238855598409
0.00022627518682000934   -0.016813052653131048   -0.0005765797833020661
0.00018647258293416125   -0.016813994365171083   -0.0006131203490107947
0.000705535110268837   -0.01456122644455519   -0.0005938625391709006
0.001364750381235694   -0.016732691426413107   -0.000571238855598409
0.00018647258293416125   -0.016813994365171083   -0.0006131203490107947
0.0019967037007403393   -0.014504723898411183   -0.0006361667102602914
0.000705535110268837   -0.01456122644455519   -0.0005938625391709006
0.00022627518682000934   -0.016813052653131048   -0.0005765797833020661
0.0020465224814268236   -0.014500130589103823   -0.0005966010175286184
0.0007229033760522332   -0.014564944503264505   -0.0005694520695924478
0.00022627518682000934   -0.016813052653131048   -0.0005765797833020661
0.001364750381235694   -0.016732691426413107   -0.000571238855598409
0.0020465224814268236   -0.014500130589103823   -0.0005966010175286184
0.001441972072555343   -0.016738833130927753   -0.0005190593767035129
0.0007229033760522332   -0.014564944503264505   -0.0005694520695924478
0.002097399597849628   -0.014500163349995104   -0.0005609897883446514
0.001441972072555343   -0.016738833130927753   -0.0005190593767035129
0.0020465224814268236   -0.014500130589103823   -0.0005966010175286184
0.0007229033760522332   -0.014564944503264505   -0.0005694520695924478
0.001441972072555343   -0.016738833130927753   -0.0005190593767035129
0.0002553818043818827   -0.016821239098212242   -0.0005424588446905933
0.00022627518682000934   -0.016813052653131048   -0.0005765797833020661
0.0007229033760522332   -0.014564944503264505   -0.0005694520695924478
0.001441972072555343   -0.016738833130927753   -0.0005190593767035129
0.00022627518682000934   -0.016813052653131048   -0.0005765797833020661
0.0020465224814268236   -0.014500130589103823   -0.0005966010175286184
-0.0038737540331268685   -0.016789530830948356   -0.0006331690022733847
-0.0032547970845569502   -0.018529485779631642   -0.0005752931139528511
-0.002751852629900669   -0.016841065174783267   -0.0006297101805024021
-0.0038159443482887927   -0.016800486874833563   -0.0006677194731247652
-0.0032547970845569502   -0.018529485779631642   -0.0005752931139528511
-0.002455172789330974   -0.01860514236361456   -0.0005978479594437066
-0.002751852629900669   -0.016841065174783267   -0.0006297101805024021
-0.0024161489223176666   -0.018601468772248015   -0.0006166948177763899
-0.0038159443482887927   -0.016800486874833563   -0.0006677194731247652
-0.0027243070330216917   -0.016848480373000883   -0.0006419798449255993
-0.0024161489223176666   -0.018601468772248015   -0.0006166948177763899
-0.002751852629900669   -0.016841065174783267   -0.0006297101805024021
-0.0038159443482887927   -0.016800486874833563   -0.0006677194731247652
-0.0024161489223176666   -0.018601468772248015   -0.0006166948177763899
-0.003169704386240411   -0.01852750236633884   -0.0006260666812134548
-0.0032547970845569502   -0.018529485779631642   -0.0005752931139528511
-0.0038159443482887927   -0.016800486874833563   -0.0006677194731247652
-0.0024161489223176666   -0.018601468772248015   -0.0006166948177763899
-0.0032547970845569502   -0.018529485779631642   -0.0005752931139528511
-0.002751852629900669   -0.016841065174783267   -0.0006297101805024021
-0.0038159443482887927   -0.016800486874833563   -0.0006677194731247652
-0.003169704386240411   -0.01852750236633884   -0.0006260666812134548
-0.0027243070330216917   -0.016848480373000883   -0.0006419798449255993
-0.0037585095164133237   -0.01682157251708483   -0.0007066540507889702
-0.003169704386240411   -0.01852750236633884   -0.0006260666812134548
-0.0024161489223176666   -0.018601468772248015   -0.0006166948177763899
-0.0027243070330216917   -0.016848480373000883   -0.0006419798449255993
-0.0023700968810212732   -0.018612750745788602   -0.000638265487038732
-0.0037585095164133237   -0.01682157251708483   -0.0007066540507889702
-0.0026896906579647515   -0.016866440158724856   -0.0006569437248761037
-0.0023700968810212732   -0.018612750745788602   -0.000638265487038732
-0.0027243070330216917   -0.016848480373000883   -0.0006419798449255993
-0.0037585095164133237   -0.01682157251708483   -0.0007066540507889702
-0.0023700968810212732   -0.018612750745788602   -0.000638265487038732
-0.003091425117257736   -0.018541378057708717   -0.0006806877566322651
-0.003169704386240411   -0.01852750236633884   -0.0006260666812134548
-0.0037585095164133237   -0.01682157251708483   -0.0007066540507889702
-0.0023700968810212732   -0.018612750745788602   -0.000638265487038732
-0.003169704386240411   -0.01852750236633884   -0.0006260666812134548
-0.0027243070330216917   -0.016848480373000883   -0.0006419798449255993
-0.0037585095164133237   -0.01682157251708483   -0.0007066540507889702
-0.003091425117257736   -0.018541378057708717   -0.0006806877566322651
-0.0026896906579647515   -0.016866440158724856   -0.0006569437248761037
-0.0036850041623522228   -0.016860893094778683   -0.0007499099945504222
-0.003091425117257736   -0.018541378057708717   -0.0006806877566322651
-0.0023700968810212732   -0.018612750745788602   -0.000638265487038732
-0.0026896906579647515   -0.016866440158724856   -0.0006569437248761037
-0.002328327138646034   -0.018639268682569675   -0.0006623889517364
-0.0036850041623522228   -0.016860893094778683   -0.0007499099945504222
-0.002655578758028342   -0.016895968563960192   -0.000674575838846041
-0.002328327138646034   -0.018639268682569675   -0.0006623889517364
-0.0026896906579647515   -0.016866440158724856   -0.0006569437248761037
-0.0036850041623522228   -0.016860893094778683   -0.0007499099945504222
-0.002328327138646034   -0.018639268682569675   -0.0006623889517364
-0.002995842143285425   -0.018577919059420512   -0.0007389473695302172
-0.003091425117257736   -0.018541378057708717   -0.0006806877566322651
-0.0036850041623522228   -0.016860893094778683   -0.0007499099945504222
-0.002328327138646034   -0.018639268682569675   -0.0006623889517364
-0.003091425117257736   -0.018541378057708717   -0.0006806877566322651
-0.0026896906579647515   -0.016866440158724856   -0.0006569437248761037
-0.002751852629900669   -0.016841065174783267   -0.0006297101805024021
-0.002455172789330974   -0.01860514236361456   -0.0005978479594437066
-0.0017776140282197656   -0.016864768722072467   -0.0006284709256304688
-0.0027243070330216917   -0.016848480373000883   -0.0006419798449255993
-0.002455172789330974   -0.01860514236361456   -0.0005978479594437066
-0.0017984507336400032   -0.01865313144677615   -0.0006155354559547047
-0.0017776140282197656   -0.016864768722072467   -0.0006284709256304688
-0.001758551446621012   -0.018647015646843373   -0.0006097964212452393
-0.0027243070330216917   -0.016848480373000883   -0.0006419798449255993
-0.0017494342628971843   -0.01686713280922523   -0.000622873167315524
-0.001758551446621012   -0.018647015646843373   -0.0006097964212452393
-0.0017776140282197656   -0.016864768722072467   -0.0006284709256304688
-0.0027243070330216917   -0.016848480373000883   -0.0006419798449255993
-0.001758551446621012   -0.018647015646843373   -0.0006097964212452393
-0.0024161489223176666   -0.018601468772248015   -0.0006166948177763899
-0.002455172789330974   -0.01860514236361456   -0.0005978479594437066
-0.0027243070330216917   -0.016848480373000883   -0.0006419798449255993
-0.001758551446621012   -0.018647015646843373   -0.0006097964212452393
-0.002455172789330974   -0.01860514236361456   -0.0005978479594437066
-0.0017776140282197656   -0.016864768722072467   -0.0006284709256304688
-0.0027243070330216917   -0.016848480373000883   -0.0006419798449255993
-0.0024161489223176666   -0.018601468772248015   -0.0006166948177763899
-0.0017494342628971843   -0.01686713280922523   -0.000622873167315524
-0.0026896906579647515   -0.016866440158724856   -0.0006569437248761037
-0.0024161489223176666   -0.018601468772248015   -0.0006166948177763899
-0.001758551446621012   -0.018647015646843373   -0.0006097964212452393
-0.0017494342628971843   -0.01686713280922523   -0.000622873167315524
-0.0017191247911542886   -0.018653857013526745   -0.0006067134791411991
-0.0026896906579647515   -0.016866440158724856   -0.0006569437248761037
-0.001720317377206234   -0.016878930701396764   -0.0006198893972898416
-0.0017191247911542886   -0.018653857013526745   -0.0006067134791411991
-0.0017494342628971843   -0.01686713280922523   -0.000622873167315524
-0.0026896906579647515   -0.016866440158724856   -0.0006569437248761037
-0.0017191247911542886   -0.018653857013526745   -0.0006067134791411991
-0.0023700968810212732   -0.018612750745788602   -0.000638265487038732
-0.0024161489223176666   -0.018601468772248015   -0.0006166948177763899
-0.0026896906579647515   -0.016866440158724856   -0.0006569437248761037
-0.0017191247911542886   -0.018653857013526745   -0.0006067134791411991
-0.0024161489223176666   -0.018601468772248015   -0.0006166948177763899
-0.0017494342628971843   -0.01686713280922523   -0.000622873167315524
-0.0026896906579647515   -0.016866440158724856   -0.0006569437248761037
-0.0023700968810212732   -0.018612750745788602   -0.000638265487038732
-0.001720317377206234   -0.016878930701396764   -0.0006198893972898416
-0.002655578758028342   -0.016895968563960192   -0.000674575838846041
-0.0023700968810212732   -0.018612750745788602   -0.000638265487038732
-0.0017191247911542886   -0.018653857013526745   -0.0006067134791411991
-0.001720317377206234   -0.016878930701396764   -0.0006198893972898416
-0.0016827528780798784   -0.01867404871516684   -0.0006068273912643182
-0.002655578758028342   -0.016895968563960192   -0.000674575838846041
-0.0016912310171543635   -0.016900677449127283   -0.0006194992528091465
-0.0016827528780798784   -0.01867404871516684   -0.0006068273912643182
-0.001720317377206234   -0.016878930701396764   -0.0006198893972898416
-0.002655578758028342   -0.016895968563960192   -0.000674575838846041
-0.0016827528780798784   -0.01867404871516684   -0.0006068273912643182
-0.002328327138646034   -0.018639268682569675   -0.0006623889517364
-0.0023700968810212732   -0.018612750745788602   -0.000638265487038732
-0.002655578758028342   -0.016895968563960192   -0.000674575838846041
-0.0016827528780798784   -0.01867404871516684   -0.0006068273912643182
-0.0023700968810212732   -0.018612750745788602   -0.000638265487038732
-0.001720317377206234   -0.016878930701396764   -0.0006198893972898416
-0.0017776140282197656   -0.016864768722072467   -0.0006284709256304688
-0.0017984507336400032   -0.01865313144677615   -0.0006155354559547047
-0.0008354234260191517   -0.016859604280764193   -0.0006358035151713699
-0.0017494342628971843   -0.01686713280922523   -0.000622873167315524
-0.0017984507336400032   -0.01865313144677615   -0.0006155354559547047
-0.0011690946188024803   -0.01867671730012398   -0.0006367934984045662
-0.0008354234260191517   -0.016859604280764193   -0.0006358035151713699
-0.0011241519489746318   -0.01866767861520852   -0.0006078052596140335
-0.0017494342628971843   -0.01686713280922523   -0.000622873167315524
-0.0008045653527546077   -0.016856262940168332   -0.0006129563877365804
-0.0011241519489746318   -0.01866767861520852   -0.0006078052596140335
-0.0008354234260191517   -0.016859604280764193   -0.0006358035151713699
-0.0017494342628971843   -0.01686713280922523   -0.000622873167315524
-0.0011241519489746318   -0.01866767861520852   -0.0006078052596140335
-0.001758551446621012   -0.018647015646843373   -0.0006097964212452393
-0.0017984507336400032   -0.01865313144677615   -0.0006155354559547047
-0.0017494342628971843   -0.01686713280922523   -0.000622873167315524
-0.0011241519489746318   -0.01866767861520852   -0.0006078052596140335
-0.0017984507336400032   -0.01865313144677615   -0.0006155354559547047
-0.0008354234260191517   -0.016859604280764193   -0.0006358035151713699
-0.0017494342628971843   -0.01686713280922523   -0.000622873167315524
-0.001758551446621012   -0.018647015646843373   -0.0006097964212452393
-0.0008045653527546077   -0.016856262940168332   -0.0006129563877365804
-0.001720317377206234   -0.016878930701396764   -0.0006198893972898416
-0.001758551446621012   -0.018647015646843373   -0.0006097964212452393
-0.0011241519489746318   -0.01866767861520852   -0.0006078052596140335
-0.0008045653527546077   -0.016856262940168332   -0.0006129563877365804
-0.0010812374821871779   -0.018670122727255396   -0.0005812030754768522
-0.001720317377206234   -0.016878930701396764   -0.0006198893972898416
-0.0007745699517037885   -0.016861500985429455   -0.0005928975269846262
-0.0010812374821871779   -0.018670122727255396   -0.0005812030754768522
-0.0008045653527546077   -0.016856262940168332   -0.0006129563877365804
-0.001720317377206234   -0.016878930701396764   -0.0006198893972898416
-0.0010812374821871779   -0.018670122727255396   -0.0005812030754768522
-0.0017191247911542886   -0.018653857013526745   -0.0006067134791411991
-0.001758551446621012   -0.018647015646843373   -0.0006097964212452393
-0.001720317377206234   -0.016878930701396764   -0.0006198893972898416
-0.0010812374821871779   -0.018670122727255396   -0.0005812030754768522
-0.001758551446621012   -0.018647015646843373   -0.0006097964212452393
-0.0008045653527546077   -0.016856262940168332   -0.0006129563877365804
-0.001720317377206234   -0.016878930701396764   -0.0006198893972898416
-0.0017191247911542886   -0.018653857013526745   -0.0006067134791411991
-0.0007745699517037885   -0.016861500985429455   -0.0005928975269846262
-0.0016912310171543635   -0.016900677449127283   -0.0006194992528091465
-0.0017191247911542886   -0.018653857013526745   -0.0006067134791411991
-0.0010812374821871779   -0.018670122727255396   -0.0005812030754768522
-0.0007745699517037885   -0.016861500985429455   -0.0005928975269846262
-0.0010454047435759274   -0.018686122951723658   -0.0005583896552617067
-0.0016912310171543635   -0.016900677449127283   -0.0006194992528091465
-0.0007474263722756844   -0.016876477277383298   -0.0005753923979438897
-0.0010454047435759274   -0.018686122951723658   -0.0005583896552617067
-0.0007745699517037885   -0.016861500985429455   -0.0005928975269846262
-0.0016912310171543635   -0.016900677449127283   -0.0006194992528091465
-0.0010454047435759274   -0.018686122951723658   -0.0005583896552617067
-0.0016827528780798784   -0.01867404871516684   -0.0006068273912643182
-0.0017191247911542886   -0.018653857013526745   -0.0006067134791411991
-0.0016912310171543635   -0.016900677449127283   -0.0006194992528091465
-0.0010454047435759274   -0.018686122951723658   -0.0005583896552617067
-0.0017191247911542886   -0.018653857013526745   -0.0006067134791411991
-0.0007745699517037885   -0.016861500985429455   -0.0005928975269846262
-0.0008354234260191517   -0.016859604280764193   -0.0006358035151713699
-0.0011690946188024803   -0.01867671730012398   -0.0006367934984045662
0.00014884400591760806   -0.016824521879257967   -0.0006531832466497694
-0.0008045653527546077   -0.016856262940168332   -0.0006129563877365804
-0.0011690946188024803   -0.01867671730012398   -0.0006367934984045662
-0.0005023792625400661   -0.01866727078510149   -0.0006621376473609393
0.00014884400591760806   -0.016824521879257967   -0.0006531832466497694
-0.0004446711239511702   -0.018653042044714258   -0.0006108184035908122
-0.0008045653527546077   -0.016856262940168332   -0.0006129563877365804
0.00018647258293416125   -0.016813994365171083   -0.0006131203490107947
-0.0004446711239511702   -0.018653042044714258   -0.0006108184035908122
0.00014884400591760806   -0.016824521879257967   -0.0006531832466497694
-0.0008045653527546077   -0.016856262940168332   -0.0006129563877365804
-0.0004446711239511702   -0.018653042044714258   -0.0006108184035908122
-0.0011241519489746318   -0.01866767861520852   -0.0006078052596140335
-0.0011690946188024803   -0.01867671730012398   -0.0006367934984045662
-0.0008045653527546077   -0.016856262940168332   -0.0006129563877365804
-0.0004446711239511702   -0.018653042044714258   -0.0006108184035908122
-0.0011690946188024803   -0.01867671730012398   -0.0006367934984045662
0.00014884400591760806   -0.016824521879257967   -0.0006531832466497694
-0.0008045653527546077   -0.016856262940168332   -0.0006129563877365804
-0.0011241519489746318   -0.01866767861520852   -0.0006078052596140335
0.00018647258293416125   -0.016813994365171083   -0.0006131203490107947
-0.0007745699517037885   -0.016861500985429455   -0.0005928975269846262
-0.0011241519489746318   -0.01866767861520852   -0.0006078052596140335
-0.0004446711239511702   -0.018653042044714258   -0.0006108184035908122
0.00018647258293416125   -0.016813994365171083   -0.0006131203490107947
-0.0003853374151838878   -0.018650730791285684   -0.0005620288529144624
-0.0007745699517037885   -0.016861500985429455   -0.0005928975269846262
0.00022627518682000934   -0.016813052653131048   -0.0005765797833020661
-0.0003853374151838878   -0.018650730791285684   -0.0005620288529144624
0.00018647258293416125   -0.016813994365171083   -0.0006131203490107947
-0.0007745699517037885   -0.016861500985429455   -0.0005928975269846262
-0.0003853374151838878   -0.018650730791285684   -0.0005620288529144624
-0.0010812374821871779   -0.018670122727255396   -0.0005812030754768522
-0.0011241519489746318   -0.01866767861520852   -0.0006078052596140335
-0.0007745699517037885   -0.016861500985429455   -0.0005928975269846262
-0.0003853374151838878   -0.018650730791285684   -0.0005620288529144624
-0.0011241519489746318   -0.01866767861520852   -0.0006078052596140335
0.00018647258293416125   -0.016813994365171083   -0.0006131203490107947
-0.0007745699517037885   -0.016861500985429455   -0.0005928975269846262
-0.0010812374821871779   -0.018670122727255396   -0.0005812030754768522
0.00022627518682000934   -0.016813052653131048   -0.0005765797833020661
-0.0007474263722756844   -0.016876477277383298   -0.0005753923979438897
-0.0010812374821871779   -0.018670122727255396   -0.0005812030754768522
-0.0003853374151838878   -0.018650730791285684   -0.0005620288529144624
0.00022627518682000934   -0.016813052653131048   -0.0005765797833020661
-0.00034158998533916584   -0.018662756489840372   -0.0005175471466712121
-0.0007474263722756844   -0.016876477277383298   -0.0005753923979438897
0.0002553818043818827   -0.016821239098212242   -0.0005424588446905933
-0.00034158998533916584   -0.018662756489840372   -0.0005175471466712121
0.00022627518682000934   -0.016813052653131048   -0.0005765797833020661
-0.0007474263722756844   -0.016876477277383298   -0.0005753923979438897
-0.00034158998533916584   -0.018662756489840372   -0.0005175471466712121
-0.0010454047435759274   -0.018686122951723658   -0.0005583896552617067
-0.0010812374821871779   -0.018670122727255396   -0.0005812030754768522
-0.0007474263722756844   -0.016876477277383298   -0.0005753923979438897
-0.00034158998533916584   -0.018662756489840372   -0.0005175471466712121
-0.0010812374821871779   -0.018670122727255396   -0.0005812030754768522
0.00022627518682000934   -0.016813052653131048   -0.0005765797833020661
0.00014884400591760806   -0.016824521879257967   -0.0006531832466497694
-0.0005023792625400661   -0.01866727078510149   -0.0006621376473609393
0.001194227870515212   -0.016756258148640225   -0.0006896299178292015
0.00018647258293416125   -0.016813994365171083   -0.0006131203490107947
-0.0005023792625400661   -0.01866727078510149   -0.0006621376473609393
0.00021019333075083466   -0.018602153069126777   -0.0007130235761754836
0.001194227870515212   -0.016756258148640225   -0.0006896299178292015
0.0003472371762401101   -0.01857152590847698   -0.0006292543677061395
0.00018647258293416125   -0.016813994365171083   -0.0006131203490107947
0.0012906986493434775   -0.01673617371865414   -0.0006282479613687269
0.0003472371762401101   -0.01857152590847698   -0.0006292543677061395
0.001194227870515212   -0.016756258148640225   -0.0006896299178292015
0.00018647258293416125   -0.016813994365171083   -0.0006131203490107947
0.0003472371762401101   -0.01857152590847698   -0.0006292543677061395
-0.0004446711239511702   -0.018653042044714258   -0.0006108184035908122
-0.0005023792625400661   -0.01866727078510149   -0.0006621376473609393
0.00018647258293416125   -0.016813994365171083   -0.0006131203490107947
0.0003472371762401101   -0.01857152590847698   -0.0006292543677061395
-0.0005023792625400661   -0.01866727078510149   -0.0006621376473609393
0.001194227870515212   -0.016756258148640225   -0.0006896299178292015
0.00018647258293416125   -0.016813994365171083   -0.0006131203490107947
-0.0004446711239511702   -0.018653042044714258   -0.0006108184035908122
0.0012906986493434775   -0.01673617371865414   -0.0006282479613687269
0.00022627518682000934   -0.016813052653131048   -0.0005765797833020661
-0.0004446711239511702   -0.018653042044714258   -0.0006108184035908122
0.0003472371762401101   -0.01857152590847698   -0.0006292543677061395
0.0012906986493434775   -0.01673617371865414   -0.0006282479613687269
0.0004547946999734263   -0.0185654876593845   -0.0005503864873350116
0.00022627518682000934   -0.016813052653131048   -0.0005765797833020661
0.001364750381235694   -0.016732691426413107   -0.000571238855598409
0.0004547946999734263   -0.0185654876593845   -0.0005503864873350116
0.0012906986493434775   -0.01673617371865414   -0.0006282479613687269
0.00022627518682000934   -0.016813052653131048   -0.0005765797833020661
0.0004547946999734263   -0.0185654876593845   -0.0005503864873350116
-0.0003853374151838878   -0.018650730791285684   -0.0005620288529144624
-0.0004446711239511702   -0.018653042044714258   -0.0006108184035908122
0.00022627518682000934   -0.016813052653131048   -0.0005765797833020661
0.0004547946999734263   -0.0185654876593845   -0.0005503864873350116
-0.0004446711239511702   -0.018653042044714258   -0.0006108184035908122
0.0012906986493434775   -0.01673617371865414   -0.0006282479613687269
0.00022627518682000934   -0.016813052653131048   -0.0005765797833020661
-0.0003853374151838878   -0.018650730791285684   -0.0005620288529144624
0.001364750381235694   -0.016732691426413107   -0.000571238855598409
0.0002553818043818827   -0.016821239098212242   -0.0005424588446905933
-0.0003853374151838878   -0.018650730791285684   -0.0005620288529144624
0.0004547946999734263   -0.0185654876593845   -0.0005503864873350116
0.001364750381235694   -0.016732691426413107   -0.000571238855598409
0.0005672128039626287   -0.01857138756666106   -0.00047810054469696464
0.0002553818043818827   -0.016821239098212242   -0.0005424588446905933
0.001441972072555343   -0.016738833130927753   -0.0005190593767035129
0.0005672128039626287   -0.01857138756666106   -0.00047810054469696464
0.001364750381235694   -0.016732691426413107   -0.000571238855598409
0.0002553818043818827   -0.016821239098212242   -0.0005424588446905933
0.0005672128039626287   -0.01857138756666106   -0.00047810054469696464
-0.00034158998533916584   -0.018662756489840372   -0.0005175471466712121
-0.0003853374151838878   -0.018650730791285684   -0.0005620288529144624
0.0002553818043818827   -0.016821239098212242   -0.0005424588446905933
0.0005672128039626287   -0.01857138756666106   -0.00047810054469696464
-0.0003853374151838878   -0.018650730791285684   -0.0005620288529144624
0.001364750381235694   -0.016732691426413107   -0.000571238855598409
-0.0032547970845569502   -0.018529485779631642   -0.0005752931139528511
-0.002409985885272903   -0.019568323638045823   -0.0005070123057797028
-0.002455172789330974   -0.01860514236361456   -0.0005978479594437066
-0.003169704386240411   -0.01852750236633884   -0.0006260666812134548
-0.002409985885272903   -0.019568323638045823   -0.0005070123057797028
-0.002032240220017242   -0.01966349524032384   -0.0005634848639223643
-0.002455172789330974   -0.01860514236361456   -0.0005978479594437066
-0.0019834548110967175   -0.019645211138186593   -0.0005837231537030228
-0.003169704386240411   -0.01852750236633884   -0.0006260666812134548
-0.0024161489223176666   -0.018601468772248015   -0.0006166948177763899
-0.0019834548110967175   -0.019645211138186593   -0.0005837231537030228
-0.002455172789330974   -0.01860514236361456   -0.0005978479594437066
-0.003169704386240411   -0.01852750236633884   -0.0006260666812134548
-0.0019834548110967175   -0.019645211138186593   -0.0005837231537030228
-0.002304583105571   -0.019547655209136747   -0.0005677985425808674
-0.002409985885272903   -0.019568323638045823   -0.0005070123057797028
-0.003169704386240411   -0.01852750236633884   -0.0006260666812134548
-0.0019834548110967175   -0.019645211138186593   -0.0005837231537030228
-0.002409985885272903   -0.019568323638045823   -0.0005070123057797028
-0.002455172789330974   -0.01860514236361456   -0.0005978479594437066
-0.003169704386240411   -0.01852750236633884   -0.0006260666812134548
-0.002304583105571   -0.019547655209136747   -0.0005677985425808674
-0.0024161489223176666   -0.018601468772248015   -0.0006166948177763899
-0.003091425117257736   -0.018541378057708717   -0.0006806877566322651
-0.002304583105571   -0.019547655209136747   -0.0005677985425808674
-0.0019834548110967175   -0.019645211138186593   -0.0005837231537030228
-0.0024161489223176666   -0.018601468772248015   -0.0006166948177763899
-0.00192916528769185   -0.019646808244352124   -0.0006041786095798276
-0.003091425117257736   -0.018541378057708717   -0.0006806877566322651
-0.0023700968810212732   -0.018612750745788602   -0.000638265487038732
-0.00192916528769185   -0.019646808244352124   -0.0006041786095798276
-0.0024161489223176666   -0.018601468772248015   -0.0006166948177763899
-0.003091425117257736   -0.018541378057708717   -0.0006806877566322651
-0.00192916528769185   -0.019646808244352124   -0.0006041786095798276
-0.0022137046074082916   -0.01955020307992792   -0.000628411810977678
-0.002304583105571   -0.019547655209136747   -0.0005677985425808674
-0.003091425117257736   -0.018541378057708717   -0.0006806877566322651
-0.00192916528769185   -0.019646808244352124   -0.0006041786095798276
-0.002304583105571   -0.019547655209136747   -0.0005677985425808674
-0.0024161489223176666   -0.018601468772248015   -0.0006166948177763899
-0.003091425117257736   -0.018541378057708717   -0.0006806877566322651
-0.0022137046074082916   -0.01955020307992792   -0.000628411810977678
-0.0023700968810212732   -0.018612750745788602   -0.000638265487038732
-0.002995842143285425   -0.018577919059420512   -0.0007389473695302172
-0.0022137046074082916   -0.01955020307992792   -0.000628411810977678
-0.00192916528769185   -0.019646808244352124   -0.0006041786095798276
-0.0023700968810212732   -0.018612750745788602   -0.000638265487038732
-0.0018788733436627236   -0.019668411340246664   -0.0006249352460861642
-0.002995842143285425   -0.018577919059420512   -0.0007389473695302172
-0.002328327138646034   -0.018639268682569675   -0.0006623889517364
-0.0018788733436627236   -0.019668411340246664   -0.0006249352460861642
-0.0023700968810212732   -0.018612750745788602   -0.000638265487038732
-0.002995842143285425   -0.018577919059420512   -0.0007389473695302172
-0.0018788733436627236   -0.019668411340246664   -0.0006249352460861642
-0.0021057088721038618   -0.019577375016947247   -0.0006903112378347441
-0.0022137046074082916   -0.01955020307992792   -0.000628411810977678
-0.002995842143285425   -0.018577919059420512   -0.0007389473695302172
-0.0018788733436627236   -0.019668411340246664   -0.0006249352460861642
-0.0022137046074082916   -0.01955020307992792   -0.000628411810977678
-0.0023700968810212732   -0.018612750745788602   -0.000638265487038732
-0.002455172789330974   -0.01860514236361456   -0.0005978479594437066
-0.002032240220017242   -0.01966349524032384   -0.0005634848639223643
-0.0017984507336400032   -0.01865313144677615   -0.0006155354559547047
-0.0024161489223176666   -0.018601468772248015   -0.0006166948177763899
-0.002032240220017242   -0.01966349524032384   -0.0005634848639223643
-0.0017528761988348002   -0.019756480327368223   -0.0006132189503956478
-0.0017984507336400032   -0.01865313144677615   -0.0006155354559547047
-0.001701654483180195   -0.01973758586873571   -0.0005997705443889246
-0.0024161489223176666   -0.018601468772248015   -0.0006166948177763899
-0.001758551446621012   -0.018647015646843373   -0.0006097964212452393
-0.001701654483180195   -0.01973758586873571   -0.0005997705443889246
-0.0017984507336400032   -0.01865313144677615   -0.0006155354559547047
-0.0024161489223176666   -0.018601468772248015   -0.0006166948177763899
-0.001701654483180195   -0.01973758586873571   -0.0005997705443889246
-0.0019834548110967175   -0.019645211138186593   -0.0005837231537030228
-0.002032240220017242   -0.01966349524032384   -0.0005634848639223643
-0.0024161489223176666   -0.018601468772248015   -0.0006166948177763899
-0.001701654483180195   -0.01973758586873571   -0.0005997705443889246
-0.002032240220017242   -0.01966349524032384   -0.0005634848639223643
-0.0017984507336400032   -0.01865313144677615   -0.0006155354559547047
-0.0024161489223176666   -0.018601468772248015   -0.0006166948177763899
-0.0019834548110967175   -0.019645211138186593   -0.0005837231537030228
-0.001758551446621012   -0.018647015646843373   -0.0006097964212452393
-0.0023700968810212732   -0.018612750745788602   -0.000638265487038732
-0.0019834548110967175   -0.019645211138186593   -0.0005837231537030228
-0.001701654483180195   -0.01973758586873571   -0.0005997705443889246
-0.001758551446621012   -0.018647015646843373   -0.0006097964212452393
-0.0016520143366064314   -0.01973776336818261   -0.0005861725523308355
-0.0023700968810212732   -0.018612750745788602   -0.000638265487038732
-0.0017191247911542886   -0.018653857013526745   -0.0006067134791411991
-0.0016520143366064314   -0.01973776336818261   -0.0005861725523308355
-0.001758551446621012   -0.018647015646843373   -0.0006097964212452393
-0.0023700968810212732   -0.018612750745788602   -0.000638265487038732
-0.0016520143366064314   -0.01973776336818261   -0.0005861725523308355
-0.00192916528769185   -0.019646808244352124   -0.0006041786095798276
-0.0019834548110967175   -0.019645211138186593   -0.0005837231537030228
-0.0023700968810212732   -0.018612750745788602   -0.000638265487038732
-0.0016520143366064314   -0.01973776336818261   -0.0005861725523308355
-0.0019834548110967175   -0.019645211138186593   -0.0005837231537030228
-0.001758551446621012   -0.018647015646843373   -0.0006097964212452393
-0.0023700968810212732   -0.018612750745788602   -0.000638265487038732
-0.00192916528769185   -0.019646808244352124   -0.0006041786095798276
-0.0017191247911542886   -0.018653857013526745   -0.0006067134791411991
-0.002328327138646034   -0.018639268682569675   -0.0006623889517364
-0.00192916528769185   -0.019646808244352124   -0.0006041786095798276
-0.0016520143366064314   -0.01973776336818261   -0.0005861725523308355
-0.0017191247911542886   -0.018653857013526745   -0.0006067134791411991
-0.0016003529148017237   -0.019756646761611173   -0.0005731547777364904
-0.002328327138646034   -0.018639268682569675   -0.0006623889517364
-0.0016827528780798784   -0.01867404871516684   -0.0006068273912643182
-0.0016003529148017237   -0.019756646761611173   -0.0005731547777364904
-0.0017191247911542886   -0.018653857013526745   -0.0006067134791411991
-0.002328327138646034   -0.018639268682569675   -0.0006623889517364
-0.0016003529148017237   -0.019756646761611173   -0.0005731547777364904
-0.0018788733436627236   -0.019668411340246664   -0.0006249352460861642
-0.00192916528769185   -0.019646808244352124   -0.0006041786095798276
-0.002328327138646034   -0.018639268682569675   -0.0006623889517364
-0.0016003529148017237   -0.019756646761611173   -0.0005731547777364904
-0.00192916528769185   -0.019646808244352124   -0.0006041786095798276
-0.0017191247911542886   -0.018653857013526745   -0.0006067134791411991
-0.0017984507336400032   -0.01865313144677615   -0.0006155354559547047
-0.0017528761988348002   -0.019756480327368223   -0.0006132189503956478
-0.0011690946188024803   -0.01867671730012398   -0.0006367934984045662
-0.001758551446621012   -0.018647015646843373   -0.0006097964212452393
-0.0017528761988348002   -0.019756480327368223   -0.0006132189503956478
-0.001496784201619832   -0.019866011176765633   -0.0006683510982879785
-0.0011690946188024803   -0.01867671730012398   -0.0006367934984045662
-0.0014341545563408798   -0.01984933496383312   -0.0006193805930639404
-0.001758551446621012   -0.018647015646843373   -0.0006097964212452393
-0.0011241519489746318   -0.01866767861520852   -0.0006078052596140335
-0.0014341545563408798   -0.01984933496383312   -0.0006193805930639404
-0.0011690946188024803   -0.01867671730012398   -0.0006367934984045662
-0.001758551446621012   -0.018647015646843373   -0.0006097964212452393
-0.0014341545563408798   -0.01984933496383312   -0.0006193805930639404
-0.001701654483180195   -0.01973758586873571   -0.0005997705443889246
-0.0017528761988348002   -0.019756480327368223   -0.0006132189503956478
-0.001758551446621012   -0.018647015646843373   -0.0006097964212452393
-0.0014341545563408798   -0.01984933496383312   -0.0006193805930639404
-0.0017528761988348002   -0.019756480327368223   -0.0006132189503956478
-0.0011690946188024803   -0.01867671730012398   -0.0006367934984045662
-0.001758551446621012   -0.018647015646843373   -0.0006097964212452393
-0.001701654483180195   -0.01973758586873571   -0.0005997705443889246
-0.0011241519489746318   -0.01866767861520852   -0.0006078052596140335
-0.0017191247911542886   -0.018653857013526745   -0.0006067134791411991
-0.001701654483180195   -0.01973758586873571   -0.0005997705443889246
-0.0014341545563408798   -0.01984933496383312   -0.0006193805930639404
-0.0011241519489746318   -0.01866767861520852   -0.0006078052596140335
-0.0013759413303192872   -0.01984874349657132   -0.0005704672070585724
-0.0017191247911542886   -0.018653857013526745   -0.0006067134791411991
-0.0010812374821871779   -0.018670122727255396   -0.0005812030754768522
-0.0013759413303192872   -0.01984874349657132   -0.0005704672070585724
-0.0011241519489746318   -0.01866767861520852   -0.0006078052596140335
-0.0017191247911542886   -0.018653857013526745   -0.0006067134791411991
-0.0013759413303192872   -0.01984874349657132   -0.0005704672070585724
-0.0016520143366064314   -0.01973776336818261   -0.0005861725523308355
-0.001701654483180195   -0.01973758586873571   -0.0005997705443889246
-0.0017191247911542886   -0.018653857013526745   -0.0006067134791411991
-0.0013759413303192872   -0.01984874349657132   -0.0005704672070585724
-0.001701654483180195   -0.01973758586873571   -0.0005997705443889246
-0.0011241519489746318   -0.01866767861520852   -0.0006078052596140335
-0.0017191247911542886   -0.018653857013526745   -0.0006067134791411991
-0.0016520143366064314   -0.01973776336818261   -0.0005861725523308355
-0.0010812374821871779   -0.018670122727255396   -0.0005812030754768522
-0.0016827528780798784   -0.01867404871516684   -0.0006068273912643182
-0.0016520143366064314   -0.01973776336818261   -0.0005861725523308355
-0.0013759413303192872   -0.01984874349657132   -0.0005704672070585724
-0.0010812374821871779   -0.018670122727255396   -0.0005812030754768522
-0.0013136766158896923   -0.019863446982343408   -0.0005216288561530329
-0.0016827528780798784   -0.01867404871516684   -0.0006068273912643182
-0.0010454047435759274   -0.018686122951723658   -0.0005583896552617067
-0.0013136766158896923   -0.019863446982343408   -0.0005216288561530329
-0.0010812374821871779   -0.018670122727255396   -0.0005812030754768522
-0.0016827528780798784   -0.01867404871516684   -0.0006068273912643182
-0.0013136766158896923   -0.019863446982343408   -0.0005216288561530329
-0.0016003529148017237   -0.019756646761611173   -0.0005731547777364904
-0.0016520143366064314   -0.01973776336818261   -0.0005861725523308355
-0.0016827528780798784   -0.01867404871516684   -0.0006068273912643182
-0.0013136766158896923   -0.019863446982343408   -0.0005216288561530329
-0.0016520143366064314   -0.01973776336818261   -0.0005861725523308355
-0.0010812374821871779   -0.018670122727255396   -0.0005812030754768522
-0.0011690946188024803   -0.01867671730012398   -0.0006367934984045662
-0.001496784201619832   -0.019866011176765633   -0.0006683510982879785
-0.0005023792625400661   -0.01866727078510149   -0.0006621376473609393
-0.0011241519489746318   -0.01866767861520852   -0.0006078052596140335
-0.001496784201619832   -0.019866011176765633   -0.0006683510982879785
-0.0012447381969492753   -0.02   -0.0007121115494352941
-0.0005023792625400661   -0.01866727078510149   -0.0006621376473609393
-0.0011655680091445975   -0.02   -0.0006366253295086806
-0.0011241519489746318   -0.01866767861520852   -0.0006078052596140335
-0.0004446711239511702   -0.018653042044714258   -0.0006108184035908122
-0.0011655680091445975   -0.02   -0.0006366253295086806
-0.0005023792625400661   -0.01866727078510149   -0.0006621376473609393
-0.0011241519489746318   -0.01866767861520852   -0.0006078052596140335
-0.0011655680091445975   -0.02   -0.0006366253295086806
-0.0014341545563408798   -0.01984933496383312   -0.0006193805930639404
-0.001496784201619832   -0.019866011176765633   -0.0006683510982879785
-0.0011241519489746318   -0.01866767861520852   -0.0006078052596140335
-0.0011655680091445975   -0.02   -0.0006366253295086806
-0.001496784201619832   -0.019866011176765633   -0.0006683510982879785
-0.0005023792625400661   -0.01866727078510149   -0.0006621376473609393
-0.0011241519489746318   -0.01866767861520852   -0.0006078052596140335
-0.0014341545563408798   -0.01984933496383312   -0.0006193805930639404
-0.0004446711239511702   -0.018653042044714258   -0.0006108184035908122
-0.0010812374821871779   -0.018670122727255396   -0.0005812030754768522
-0.0014341545563408798   -0.01984933496383312   -0.0006193805930639404
-0.0011655680091445975   -0.02   -0.0006366253295086806
-0.0004446711239511702   -0.018653042044714258   -0.0006108184035908122
-0.0010856987880762433   -0.02   -0.0005602548731829063
-0.0010812374821871779   -0.018670122727255396   -0.0005812030754768522
-0.0003853374151838878   -0.018650730791285684   -0.0005620288529144624
-0.0010856987880762433   -0.02   -0.0005602548731829063
-0.0004446711239511702   -0.018653042044714258   -0.0006108184035908122
-0.0010812374821871779   -0.018670122727255396   -0.0005812030754768522
-0.0010856987880762433   -0.02   -0.0005602548731829063
-0.0013759413303192872   -0.01984874349657132   -0.0005704672070585724
-0.0014341545563408798   -0.01984933496383312   -0.0006193805930639404
-0.0010812374821871779   -0.018670122727255396   -0.0005812030754768522
-0.0010856987880762433   -0.02   -0.0005602548731829063
-0.0014341545563408798   -0.01984933496383312   -0.0006193805930639404
-0.0004446711239511702   -0.018653042044714258   -0.0006108184035908122
-0.0010812374821871779   -0.018670122727255396   -0.0005812030754768522
-0.0013759413303192872   -0.01984874349657132   -0.0005704672070585724
-0.0003853374151838878   -0.018650730791285684   -0.0005620288529144624
-0.0010454047435759274   -0.018686122951723658   -0.0005583896552617067
-0.0013759413303192872   -0.01984874349657132   -0.0005704672070585724
-0.0010856987880762433   -0.02   -0.0005602548731829063
-0.0003853374151838878   -0.018650730791285684   -0.0005620288529144624
-0.0010080295134870158   -0.02   -0.0004849218352096544
-0.0010454047435759274   -0.018686122951723658   -0.0005583896552617067
-0.00034158998533916584   -0.018662756489840372   -0.0005175471466712121
-0.0010080295134870158   -0.02   -0.0004849218352096544
-0.0003853374151838878   -0.018650730791285684   -0.0005620288529144624
-0.0010454047435759274   -0.018686122951723658   -0.0005583896552617067
-0.0010080295134870158   -0.02   -0.0004849218352096544
-0.0013136766158896923   -0.019863446982343408   -0.0005216288561530329
-0.0013759413303192872   -0.01984874349657132   -0.0005704672070585724
-0.0010454047435759274   -0.018686122951723658   -0.0005583896552617067
-0.0010080295134870158   -0.02   -0.0004849218352096544
-0.0013759413303192872   -0.01984874349657132   -0.0005704672070585724
-0.0003853374151838878   -0.018650730791285684   -0.0005620288529144624
-0.0005023792625400661   -0.01866727078510149   -0.0006621376473609393
-0.0012447381969492753   -0.02   -0.0007121115494352941
0.00021019333075083466   -0.018602153069126777   -0.0007130235761754836
-0.0004446711239511702   -0.018653042044714258   -0.0006108184035908122
-0.0012447381969492753   -0.02   -0.0007121115494352941
-0.0010583819271096978   -0.02   -0.0007650996020082118
0.00021019333075083466   -0.018602153069126777   -0.0007130235761754836
-0.0008902462753697507   -0.02   -0.0006553101861515297
-0.0004446711239511702   -0.018653042044714258   -0.0006108184035908122
0.0003472371762401101   -0.01857152590847698   -0.0006292543677061395
-0.0008902462753697507   -0.02   -0.0006553101861515297
0.00021019333075083466   -0.018602153069126777   -0.0007130235761754836
-0.0004446711239511702   -0.018653042044714258   -0.0006108184035908122
-0.0008902462753697507   -0.02   -0.0006553101861515297
-0.0011655680091445975   -0.02   -0.0006366253295086806
-0.0012447381969492753   -0.02   -0.0007121115494352941
-0.0004446711239511702   -0.018653042044714258   -0.0006108184035908122
-0.0008902462753697507   -0.02   -0.0006553101861515297
-0.0012447381969492753   -0.02   -0.0007121115494352941
0.00021019333075083466   -0.018602153069126777   -0.0007130235761754836
-0.0004446711239511702   -0.018653042044714258   -0.0006108184035908122
-0.0011655680091445975   -0.02   -0.0006366253295086806
0.0003472371762401101   -0.01857152590847698   -0.0006292543677061395
-0.0003853374151838878   -0.018650730791285684   -0.0005620288529144624
-0.0011655680091445975   -0.02   -0.0006366253295086806
-0.0008902462753697507   -0.02   -0.0006553101861515297
0.0003472371762401101   -0.01857152590847698   -0.0006292543677061395
-0.0007561869307560235   -0.02   -0.0005503158980699712
-0.0003853374151838878   -0.018650730791285684   -0.0005620288529144624
0.0004547946999734263   -0.0185654876593845   -0.0005503864873350116
-0.0007561869307560235   -0.02   -0.0005503158980699712
0.0003472371762401101   -0.01857152590847698   -0.0006292543677061395
-0.0003853374151838878   -0.018650730791285684   -0.0005620288529144624
-0.0007561869307560235   -0.02   -0.0005503158980699712
-0.0010856987880762433   -0.02   -0.0005602548731829063
-0.0011655680091445975   -0.02   -0.0006366253295086806
-0.0003853374151838878   -0.018650730791285684   -0.0005620288529144624
-0.0007561869307560235   -0.02   -0.0005503158980699712
-0.0011655680091445975   -0.02   -0.0006366253295086806
0.0003472371762401101   -0.01857152590847698   -0.0006292543677061395
-0.0003853374151838878   -0.018650730791285684   -0.0005620288529144624
-0.0010856987880762433   -0.02   -0.0005602548731829063
0.0004547946999734263   -0.0185654876593845   -0.0005503864873350116
-0.00034158998533916584   -0.018662756489840372   -0.0005175471466712121
-0.0010856987880762433   -0.02   -0.0005602548731829063
-0.0007561869307560235   -0.02   -0.0005503158980699712
0.0004547946999734263   -0.0185654876593845   -0.0005503864873350116
-0.0005906884386502241   -0.02   -0.0004412913943777287
-0.00034158998533916584   -0.018662756489840372   -0.0005175471466712121
0.0005672128039626287   -0.01857138756666106   -0.00047810054469696464
-0.0005906884386502241   -0.02   -0.0004412913943777287
0.0004547946999734263   -0.0185654876593845   -0.0005503864873350116
-0.00034158998533916584   -0.018662756489840372   -0.0005175471466712121
-0.0005906884386502241   -0.02   -0.0004412913943777287
-0.0010080295134870158   -0.02   -0.0004849218352096544
-0.0010856987880762433   -0.02   -0.0005602548731829063
-0.00034158998533916584   -0.018662756489840372   -0.0005175471466712121
-0.0005906884386502241   -0.02   -0.0004412913943777287
-0.0010856987880762433   -0.02   -0.0005602548731829063
0.0004547946999734263   -0.0185654876593845   -0.0005503864873350116
-0.002409985885272903   -0.019568323638045823   -0.0005070123057797028
-0.0014754827319777258   -0.019643467039548817   -0.0004344504349096255
-0.002032240220017242   -0.01966349524032384   -0.0005634848639223643
-0.002304583105571   -0.019547655209136747   -0.0005677985425808674
-0.0014754827319777258   -0.019643467039548817   -0.0004344504349096255
-0.0015495823941495837   -0.019717821088314106   -0.0005072340737432686
-0.002032240220017242   -0.01966349524032384   -0.0005634848639223643
-0.0015124918312696468   -0.01969273500925905   -0.0005344959214753953
-0.002304583105571   -0.019547655209136747   -0.0005677985425808674
-0.0019834548110967175   -0.019645211138186593   -0.0005837231537030228
-0.0015124918312696468   -0.01969273500925905   -0.0005344959214753953
-0.002032240220017242   -0.01966349524032384   -0.0005634848639223643
-0.002304583105571   -0.019547655209136747   -0.0005677985425808674
-0.0015124918312696468   -0.01969273500925905   -0.0005344959214753953
-0.0013794545468861256   -0.01961117557943635   -0.0004983901198507984
-0.0014754827319777258   -0.019643467039548817   -0.0004344504349096255
-0.002304583105571   -0.019547655209136747   -0.0005677985425808674
-0.0015124918312696468   -0.01969273500925905   -0.0005344959214753953
-0.0014754827319777258   -0.019643467039548817   -0.0004344504349096255
-0.002032240220017242   -0.01966349524032384   -0.0005634848639223643
-0.002304583105571   -0.019547655209136747   -0.0005677985425808674
-0.0013794545468861256   -0.01961117557943635   -0.0004983901198507984
-0.0019834548110967175   -0.019645211138186593   -0.0005837231537030228
-0.0022137046074082916   -0.01955020307992792   -0.000628411810977678
-0.0013794545468861256   -0.01961117557943635   -0.0004983901198507984
-0.0015124918312696468   -0.01969273500925905   -0.0005344959214753953
-0.0019834548110967175   -0.019645211138186593   -0.0005837231537030228
-0.0014688237140776438   -0.019684176558721962   -0.0005597598935968344
-0.0022137046074082916   -0.01955020307992792   -0.000628411810977678
-0.00192916528769185   -0.019646808244352124   -0.0006041786095798276
-0.0014688237140776438   -0.019684176558721962   -0.0005597598935968344
-0.0019834548110967175   -0.019645211138186593   -0.0005837231537030228
-0.0022137046074082916   -0.01955020307992792   -0.000628411810977678
-0.0014688237140776438   -0.019684176558721962   -0.0005597598935968344
-0.0012995793367858537   -0.01960203119477965   -0.000559856849704256
-0.0013794545468861256   -0.01961117557943635   -0.0004983901198507984
-0.0022137046074082916   -0.01955020307992792   -0.000628411810977678
-0.0014688237140776438   -0.019684176558721962   -0.0005597598935968344
-0.0013794545468861256   -0.01961117557943635   -0.0004983901198507984
-0.0019834548110967175   -0.019645211138186593   -0.0005837231537030228
-0.0022137046074082916   -0.01955020307992792   -0.000628411810977678
-0.0012995793367858537   -0.01960203119477965   -0.000559856849704256
-0.00192916528769185   -0.019646808244352124   -0.0006041786095798276
-0.0021057088721038618   -0.019577375016947247   -0.0006903112378347441
-0.0012995793367858537   -0.01960203119477965   -0.000559856849704256
-0.0014688237140776438   -0.019684176558721962   -0.0005597598935968344
-0.00192916528769185   -0.019646808244352124   -0.0006041786095798276
-0.0014315128395731016   -0.019692301346036892   -0.0005829056895413399
-0.0021057088721038618   -0.019577375016947247   -0.0006903112378347441
-0.0018788733436627236   -0.019668411340246664   -0.0006249352460861642
-0.0014315128395731016   -0.019692301346036892   -0.0005829056895413399
-0.00192916528769185   -0.019646808244352124   -0.0006041786095798276
-0.0021057088721038618   -0.019577375016947247   -0.0006903112378347441
-0.0014315128395731016   -0.019692301346036892   -0.0005829056895413399
-0.0012088386291195753   -0.019612132160859788   -0.0006186018619854892
-0.0012995793367858537   -0.01960203119477965   -0.000559856849704256
-0.0021057088721038618   -0.019577375016947247   -0.0006903112378347441
-0.0014315128395731016   -0.019692301346036892   -0.0005829056895413399
-0.0012995793367858537   -0.01960203119477965   -0.000559856849704256
-0.00192916528769185   -0.019646808244352124   -0.0006041786095798276
-0.002032240220017242   -0.01966349524032384   -0.0005634848639223643
-0.0015495823941495837   -0.019717821088314106   -0.0005072340737432686
-0.0017528761988348002   -0.019756480327368223   -0.0006132189503956478
-0.0019834548110967175   -0.019645211138186593   -0.0005837231537030228
-0.0015495823941495837   -0.019717821088314106   -0.0005072340737432686
-0.001656273757805582   -0.01976262988247132   -0.000565253453176308
-0.0017528761988348002   -0.019756480327368223   -0.0006132189503956478
-0.0016235507586108834   -0.01974017971906515   -0.000565803297760797
-0.0019834548110967175   -0.019645211138186593   -0.0005837231537030228
-0.001701654483180195   -0.01973758586873571   -0.0005997705443889246
-0.0016235507586108834   -0.01974017971906515   -0.000565803297760797
-0.0017528761988348002   -0.019756480327368223   -0.0006132189503956478
-0.0019834548110967175   -0.019645211138186593   -0.0005837231537030228
-0.0016235507586108834   -0.01974017971906515   -0.000565803297760797
-0.0015124918312696468   -0.01969273500925905   -0.0005344959214753953
-0.0015495823941495837   -0.019717821088314106   -0.0005072340737432686
-0.0019834548110967175   -0.019645211138186593   -0.0005837231537030228
-0.0016235507586108834   -0.01974017971906515   -0.000565803297760797
-0.0015495823941495837   -0.019717821088314106   -0.0005072340737432686
-0.0017528761988348002   -0.019756480327368223   -0.0006132189503956478
-0.0019834548110967175   -0.019645211138186593   -0.0005837231537030228
-0.0015124918312696468   -0.01969273500925905   -0.0005344959214753953
-0.001701654483180195   -0.01973758586873571   -0.0005997705443889246
-0.00192916528769185   -0.019646808244352124   -0.0006041786095798276
-0.0015124918312696468   -0.01969273500925905   -0.0005344959214753953
-0.0016235507586108834   -0.01974017971906515   -0.000565803297760797
-0.001701654483180195   -0.01973758586873571   -0.0005997705443889246
-0.0015871706328008837   -0.019732690506276643   -0.0005637644631063408
-0.00192916528769185   -0.019646808244352124   -0.0006041786095798276
-0.0016520143366064314   -0.01973776336818261   -0.0005861725523308355
-0.0015871706328008837   -0.019732690506276643   -0.0005637644631063408
-0.001701654483180195   -0.01973758586873571   -0.0005997705443889246
-0.00192916528769185   -0.019646808244352124   -0.0006041786095798276
-0.0015871706328008837   -0.019732690506276643   -0.0005637644631063408
-0.0014688237140776438   -0.019684176558721962   -0.0005597598935968344
-0.0015124918312696468   -0.01969273500925905   -0.0005344959214753953
-0.00192916528769185   -0.019646808244352124   -0.0006041786095798276
-0.0015871706328008837   -0.019732690506276643   -0.0005637644631063408
-0.0015124918312696468   -0.01969273500925905   -0.0005344959214753953
-0.001701654483180195   -0.01973758586873571   -0.0005997705443889246
-0.00192916528769185   -0.019646808244352124   -0.0006041786095798276
-0.0014688237140776438   -0.019684176558721962   -0.0005597598935968344
-0.0016520143366064314   -0.01973776336818261   -0.0005861725523308355
-0.0018788733436627236   -0.019668411340246664   -0.0006249352460861642
-0.0014688237140776438   -0.019684176558721962   -0.0005597598935968344
-0.0015871706328008837   -0.019732690506276643   -0.0005637644631063408
-0.0016520143366064314   -0.01973776336818261   -0.0005861725523308355
-0.0015502315301512209   -0.01973953824040212   -0.0005596916649355257
-0.0018788733436627236   -0.019668411340246664   -0.0006249352460861642
-0.0016003529148017237   -0.019756646761611173   -0.0005731547777364904
-0.0015502315301512209   -0.01973953824040212   -0.0005596916649355257
-0.0016520143366064314   -0.01973776336818261   -0.0005861725523308355
-0.0018788733436627236   -0.019668411340246664   -0.0006249352460861642
-0.0015502315301512209   -0.01973953824040212   -0.0005596916649355257
-0.0014315128395731016   -0.019692301346036892   -0.0005829056895413399
-0.0014688237140776438   -0.019684176558721962   -0.0005597598935968344
-0.0018788733436627236   -0.019668411340246664   -0.0006249352460861642
-0.0015502315301512209   -0.01973953824040212   -0.0005596916649355257
-0.0014688237140776438   -0.019684176558721962   -0.0005597598935968344
-0.0016520143366064314   -0.01973776336818261   -0.0005861725523308355
-0.0017528761988348002   -0.019756480327368223   -0.0006132189503956478
-0.001656273757805582   -0.01976262988247132   -0.000565253453176308
-0.001496784201619832   -0.019866011176765633   -0.0006683510982879785
-0.001701654483180195   -0.01973758586873571   -0.0005997705443889246
-0.001656273757805582   -0.01976262988247132   -0.000565253453176308
-0.001771481090943332   -0.01977967223106727   -0.0006225443503870907
-0.001496784201619832   -0.019866011176765633   -0.0006683510982879785
-0.0017375769960638054   -0.019758118326303926   -0.0005973931058976636
-0.001701654483180195   -0.01973758586873571   -0.0005997705443889246
-0.0014341545563408798   -0.01984933496383312   -0.0006193805930639404
-0.0017375769960638054   -0.019758118326303926   -0.0005973931058976636
-0.001496784201619832   -0.019866011176765633   -0.0006683510982879785
-0.001701654483180195   -0.01973758586873571   -0.0005997705443889246
-0.0017375769960638054   -0.019758118326303926   -0.0005973931058976636
-0.0016235507586108834   -0.01974017971906515   -0.000565803297760797
-0.001656273757805582   -0.01976262988247132   -0.000565253453176308
-0.001701654483180195   -0.01973758586873571   -0.0005997705443889246
-0.0017375769960638054   -0.019758118326303926   -0.0005973931058976636
-0.001656273757805582   -0.01976262988247132   -0.000565253453176308
-0.001496784201619832   -0.019866011176765633   -0.0006683510982879785
-0.001701654483180195   -0.01973758586873571   -0.0005997705443889246
-0.0016235507586108834   -0.01974017971906515   -0.000565803297760797
-0.0014341545563408798   -0.01984933496383312   -0.0006193805930639404
-0.0016520143366064314   -0.01973776336818261   -0.0005861725523308355
-0.0016235507586108834   -0.01974017971906515   -0.000565803297760797
-0.0017375769960638054   -0.019758118326303926   -0.0005973931058976636
-0.0014341545563408798   -0.01984933496383312   -0.0006193805930639404
-0.0016970344908096816   -0.019751754630965193   -0.0005690849109347178
-0.0016520143366064314   -0.01973776336818261   -0.0005861725523308355
-0.0013759413303192872   -0.01984874349657132   -0.0005704672070585724
-0.0016970344908096816   -0.019751754630965193   -0.0005690849109347178
-0.0014341545563408798   -0.01984933496383312   -0.0006193805930639404
-0.0016520143366064314   -0.01973776336818261   -0.0005861725523308355
-0.0016970344908096816   -0.019751754630965193   -0.0005690849109347178
-0.0015871706328008837   -0.019732690506276643   -0.0005637644631063408
-0.0016235507586108834   -0.01974017971906515   -0.000565803297760797
-0.0016520143366064314   -0.01973776336818261   -0.0005861725523308355
-0.0016970344908096816   -0.019751754630965193   -0.0005690849109347178
-0.0016235507586108834   -0.01974017971906515   -0.000565803297760797
-0.0014341545563408798   -0.01984933496383312   -0.0006193805930639404
-0.0016520143366064314   -0.01973776336818261   -0.0005861725523308355
-0.0015871706328008837   -0.019732690506276643   -0.0005637644631063408
-0.0013759413303192872   -0.01984874349657132   -0.0005704672070585724
-0.0016003529148017237   -0.019756646761611173   -0.0005731547777364904
-0.0015871706328008837   -0.019732690506276643   -0.0005637644631063408
-0.0016970344908096816   -0.019751754630965193   -0.0005690849109347178
-0.0013759413303192872   -0.01984874349657132   -0.0005704672070585724
-0.0016554181299554742   -0.019758342419068816   -0.0005390079881874424
-0.0016003529148017237   -0.019756646761611173   -0.0005731547777364904
-0.0013136766158896923   -0.019863446982343408   -0.0005216288561530329
-0.0016554181299554742   -0.019758342419068816   -0.0005390079881874424
-0.0013759413303192872   -0.01984874349657132   -0.0005704672070585724
-0.0016003529148017237   -0.019756646761611173   -0.0005731547777364904
-0.0016554181299554742   -0.019758342419068816   -0.0005390079881874424
-0.0015502315301512209   -0.01973953824040212   -0.0005596916649355257
-0.0015871706328008837   -0.019732690506276643   -0.0005637644631063408
-0.0016003529148017237   -0.019756646761611173   -0.0005731547777364904
-0.0016554181299554742   -0.019758342419068816   -0.0005390079881874424
-0.0015871706328008837   -0.019732690506276643   -0.0005637644631063408
-0.0013759413303192872   -0.01984874349657132   -0.0005704672070585724
-0.001496784201619832   -0.019866011176765633   -0.0006683510982879785
-0.001771481090943332   -0.01977967223106727   -0.0006225443503870907
-0.0012447381969492753   -0.02   -0.0007121115494352941
-0.0014341545563408798   -0.01984933496383312   -0.0006193805930639404
-0.001771481090943332   -0.01977967223106727   -0.0006225443503870907
-0.0019388781187035316   -0.01975620227655415   -0.0006774636658813819
-0.0012447381969492753   -0.02   -0.0007121115494352941
-0.001894649629765877   -0.01973558238795934   -0.0006277306685032316
-0.0014341545563408798   -0.01984933496383312   -0.0006193805930639404
-0.0011655680091445975   -0.02   -0.0006366253295086806
-0.001894649629765877   -0.01973558238795934   -0.0006277306685032316
-0.0012447381969492753   -0.02   -0.0007121115494352941
-0.0014341545563408798   -0.01984933496383312   -0.0006193805930639404
-0.001894649629765877   -0.01973558238795934   -0.0006277306685032316
-0.0017375769960638054   -0.019758118326303926   -0.0005973931058976636
-0.001771481090943332   -0.01977967223106727   -0.0006225443503870907
-0.0014341545563408798   -0.01984933496383312   -0.0006193805930639404
-0.001894649629765877   -0.01973558238795934   -0.0006277306685032316
-0.001771481090943332   -0.01977967223106727   -0.0006225443503870907
-0.0012447381969492753   -0.02   -0.0007121115494352941
-0.0014341545563408798   -0.01984933496383312   -0.0006193805930639404
-0.0017375769960638054   -0.019758118326303926   -0.0005973931058976636
-0.0011655680091445975   -0.02   -0.0006366253295086806
-0.0013759413303192872   -0.01984874349657132   -0.0005704672070585724
-0.0017375769960638054   -0.019758118326303926   -0.0005973931058976636
-0.001894649629765877   -0.01973558238795934   -0.0006277306685032316
-0.0011655680091445975   -0.02   -0.0006366253295086806
-0.0018359936406176802   -0.019731264635901524   -0.0005744365492019399
-0.0013759413303192872   -0.01984874349657132   -0.0005704672070585724
-0.0010856987880762433   -0.02   -0.0005602548731829063
-0.0018359936406176802   -0.019731264635901524   -0.0005744365492019399
-0.0011655680091445975   -0.02   -0.0006366253295086806
-0.0013759413303192872   -0.01984874349657132   -0.0005704672070585724
-0.0018359936406176802   -0.019731264635901524   -0.0005744365492019399
-0.0016970344908096816   -0.019751754630965193   -0.0005690849109347178
-0.0017375769960638054   -0.019758118326303926   -0.0005973931058976636
-0.0013759413303192872   -0.01984874349657132   -0.0005704672070585724
-0.0018359936406176802   -0.019731264635901524   -0.0005744365492019399
-0.0017375769960638054   -0.019758118326303926   -0.0005973931058976636
-0.0011655680091445975   -0.02   -0.0006366253295086806
-0.0013759413303192872   -0.01984874349657132   -0.0005704672070585724
-0.0016970344908096816   -0.019751754630965193   -0.0005690849109347178
-0.0010856987880762433   -0.02   -0.0005602548731829063
-0.0013136766158896923   -0.019863446982343408   -0.0005216288561530329
-0.0016970344908096816   -0.019751754630965193   -0.0005690849109347178
-0.0018359936406176802   -0.019731264635901524   -0.0005744365492019399
-0.0010856987880762433   -0.02   -0.0005602548731829063
-0.0017812777432992236   -0.019740210994827086   -0.0005191860648975917
-0.0013136766158896923   -0.019863446982343408   -0.0005216288561530329
-0.0010080295134870158   -0.02   -0.0004849218352096544
-0.0017812777432992236   -0.019740210994827086   -0.0005191860648975917
-0.0010856987880762433   -0.02   -0.0005602548731829063
-0.0013136766158896923   -0.019863446982343408   -0.0005216288561530329
-0.0017812777432992236   -0.019740210994827086   -0.0005191860648975917
-0.0016554181299554742   -0.019758342419068816   -0.0005390079881874424
-0.0016970344908096816   -0.019751754630965193   -0.0005690849109347178
-0.0013136766158896923   -0.019863446982343408   -0.0005216288561530329
-0.0017812777432992236   -0.019740210994827086   -0.0005191860648975917
-0.0016970344908096816   -0.019751754630965193   -0.0005690849109347178
-0.0010856987880762433   -0.02   -0.0005602548731829063
-0.0012447381969492753   -0.02   -0.0007121115494352941
-0.0019388781187035316   -0.01975620227655415   -0.0006774636658813819
-0.0010583819271096978   -0.02   -0.0007650996020082118
-0.0011655680091445975   -0.02   -0.0006366253295086806
-0.0019388781187035316   -0.01975620227655415   -0.0006774636658813819
-0.0022708989850297283   -0.01966012043255034   -0.0007366267090029576
-0.0010583819271096978   -0.02   -0.0007650996020082118
-0.002150154053857656   -0.019642276201450065   -0.0006550980913980112
-0.0011655680091445975   -0.02   -0.0006366253295086806
-0.0008902462753697507   -0.02   -0.0006553101861515297
-0.002150154053857656   -0.019642276201450065   -0.0006550980913980112
-0.0010583819271096978   -0.02   -0.0007650996020082118
-0.0011655680091445975   -0.02   -0.0006366253295086806
-0.002150154053857656   -0.019642276201450065   -0.0006550980913980112
-0.001894649629765877   -0.01973558238795934   -0.0006277306685032316
-0.0019388781187035316   -0.01975620227655415   -0.0006774636658813819
-0.0011655680091445975   -0.02   -0.0006366253295086806
-0.002150154053857656   -0.019642276201450065   -0.0006550980913980112
-0.0019388781187035316   -0.01975620227655415   -0.0006774636658813819
-0.0010583819271096978   -0.02   -0.0007650996020082118
-0.0011655680091445975   -0.02   -0.0006366253295086806
-0.001894649629765877   -0.01973558238795934   -0.0006277306685032316
-0.0008902462753697507   -0.02   -0.0006553101861515297
-0.0010856987880762433   -0.02   -0.0005602548731829063
-0.001894649629765877   -0.01973558238795934   -0.0006277306685032316
-0.002150154053857656   -0.019642276201450065   -0.0006550980913980112
-0.0008902462753697507   -0.02   -0.0006553101861515297
-0.0020398641592024092   -0.019640138937354057   -0.0005683727554129768
-0.0010856987880762433   -0.02   -0.0005602548731829063
-0.0007561869307560235   -0.02   -0.0005503158980699712
-0.0020398641592024092   -0.019640138937354057   -0.0005683727554129768
-0.0008902462753697507   -0.02   -0.0006553101861515297
-0.0010856987880762433   -0.02   -0.0005602548731829063
-0.0020398641592024092   -0.019640138937354057   -0.0005683727554129768
-0.0018359936406176802   -0.019731264635901524   -0.0005744365492019399
-0.001894649629765877   -0.01973558238795934   -0.0006277306685032316
-0.0010856987880762433   -0.02   -0.0005602548731829063
-0.0020398641592024092   -0.019640138937354057   -0.0005683727554129768
-0.001894649629765877   -0.01973558238795934   -0.0006277306685032316
-0.0008902462753697507   -0.02   -0.0006553101861515297
-0.0010856987880762433   -0.02   -0.0005602548731829063
-0.0018359936406176802   -0.019731264635901524   -0.0005744365492019399
-0.0007561869307560235   -0.02   -0.0005503158980699712
-0.0010080295134870158   -0.02   -0.0004849218352096544
-0.0018359936406176802   -0.019731264635901524   -0.0005744365492019399
-0.0020398641592024092   -0.019640138937354057   -0.0005683727554129768
-0.0007561869307560235   -0.02   -0.0005503158980699712
-0.001900459003201772   -0.019663431474939166   -0.00047792671231103794
-0.0010080295134870158   -0.02   -0.0004849218352096544
-0.0005906884386502241   -0.02   -0.0004412913943777287
-0.001900459003201772   -0.019663431474939166   -0.00047792671231103794
-0.0007561869307560235   -0.02   -0.0005503158980699712
-0.0010080295134870158   -0.02   -0.0004849218352096544
-0.001900459003201772   -0.019663431474939166   -0.00047792671231103794
-0.0017812777432992236   -0.019740210994827086   -0.0005191860648975917
-0.0018359936406176802   -0.019731264635901524   -0.0005744365492019399
-0.0010080295134870158   -0.02   -0.0004849218352096544
-0.001900459003201772   -0.019663431474939166   -0.00047792671231103794
-0.0018359936406176802   -0.019731264635901524   -0.0005744365492019399
-0.0007561869307560235   -0.02   -0.0005503158980699712
-0.0014754827319777258   -0.019643467039548817   -0.0004344504349096255
-0.0006461475956783178   -0.01893765393732542   -0.000374097384209362
-0.0015495823941495837   -0.019717821088314106   -0.0005072340737432686
-0.0013794545468861256   -0.01961117557943635   -0.0004983901198507984
-0.0006461475956783178   -0.01893765393732542   -0.000374097384209362
-0.0011316797831468163   -0.0189945668225484   -0.0004516220612781312
-0.0015495823941495837   -0.019717821088314106   -0.0005072340737432686
-0.0011051862715148561   -0.018964156408449864   -0.00047612032718639073
-0.0013794545468861256   -0.01961117557943635   -0.0004983901198507984
-0.0015124918312696468   -0.01969273500925905   -0.0005344959214753953
-0.0011051862715148561   -0.018964156408449864   -0.00047612032718639073
-0.0015495823941495837   -0.019717821088314106   -0.0005072340737432686
-0.0013794545468861256   -0.01961117557943635   -0.0004983901198507984
-0.0011051862715148561   -0.018964156408449864   -0.00047612032718639073
-0.0005688501603937958   -0.018899875689204548   -0.000429885777886774
-0.0006461475956783178   -0.01893765393732542   -0.000374097384209362
-0.0013794545468861256   -0.01961117557943635   -0.0004983901198507984
-0.0011051862715148561   -0.018964156408449864   -0.00047612032718639073
-0.0006461475956783178   -0.01893765393732542   -0.000374097384209362
-0.0015495823941495837   -0.019717821088314106   -0.0005072340737432686
-0.0013794545468861256   -0.01961117557943635   -0.0004983901198507984
-0.0005688501603937958   -0.018899875689204548   -0.000429885777886774
-0.0015124918312696468   -0.01969273500925905   -0.0005344959214753953
-0.0012995793367858537   -0.01960203119477965   -0.000559856849704256
-0.0005688501603937958   -0.018899875689204548   -0.000429885777886774
-0.0011051862715148561   -0.018964156408449864   -0.00047612032718639073
-0.0015124918312696468   -0.01969273500925905   -0.0005344959214753953
-0.0010751646796129742   -0.018948029066763402   -0.0004985150250544207
-0.0012995793367858537   -0.01960203119477965   -0.000559856849704256
-0.0014688237140776438   -0.019684176558721962   -0.0005597598935968344
-0.0010751646796129742   -0.018948029066763402   -0.0004985150250544207
-0.0015124918312696468   -0.01969273500925905   -0.0005344959214753953
-0.0012995793367858537   -0.01960203119477965   -0.000559856849704256
-0.0010751646796129742   -0.018948029066763402   -0.0004985150250544207
-0.0005080068979018137   -0.018882706963345944   -0.00048256244122430006
-0.0005688501603937958   -0.018899875689204548   -0.000429885777886774
-0.0012995793367858537   -0.01960203119477965   -0.000559856849704256
-0.0010751646796129742   -0.018948029066763402   -0.0004985150250544207
-0.0005688501603937958   -0.018899875689204548   -0.000429885777886774
-0.0015124918312696468   -0.01969273500925905   -0.0005344959214753953
-0.0012995793367858537   -0.01960203119477965   -0.000559856849704256
-0.0005080068979018137   -0.018882706963345944   -0.00048256244122430006
-0.0014688237140776438   -0.019684176558721962   -0.0005597598935968344
-0.0012088386291195753   -0.019612132160859788   -0.0006186018619854892
-0.0005080068979018137   -0.018882706963345944   -0.00048256244122430006
-0.0010751646796129742   -0.018948029066763402   -0.0004985150250544207
-0.0014688237140776438   -0.019684176558721962   -0.0005597598935968344
-0.001052204113296473   -0.018945725106325386   -0.0005188799713098108
-0.0012088386291195753   -0.019612132160859788   -0.0006186018619854892
-0.0014315128395731016   -0.019692301346036892   -0.0005829056895413399
-0.001052204113296473   -0.018945725106325386   -0.0005188799713098108
-0.0014688237140776438   -0.019684176558721962   -0.0005597598935968344
-0.0012088386291195753   -0.019612132160859788   -0.0006186018619854892
-0.001052204113296473   -0.018945725106325386   -0.0005188799713098108
-0.0004411172662375541   -0.018881055101912295   -0.0005320042227071893
-0.0005080068979018137   -0.018882706963345944   -0.00048256244122430006
-0.0012088386291195753   -0.019612132160859788   -0.0006186018619854892
-0.001052204113296473   -0.018945725106325386   -0.0005188799713098108
-0.0005080068979018137   -0.018882706963345944   -0.00048256244122430006
-0.0014688237140776438   -0.019684176558721962   -0.0005597598935968344
-0.0015495823941495837   -0.019717821088314106   -0.0005072340737432686
-0.0011316797831468163   -0.0189945668225484   -0.0004516220612781312
-0.001656273757805582   -0.01976262988247132   -0.000565253453176308
-0.0015124918312696468   -0.01969273500925905   -0.0005344959214753953
-0.0011316797831468163   -0.0189945668225484   -0.0004516220612781312
-0.0016141869147106224   -0.019014356896010456   -0.0005145419415174381
-0.001656273757805582   -0.01976262988247132   -0.000565253453176308
-0.0015920346572186519   -0.018987853311591515   -0.0005157155635597895
-0.0015124918312696468   -0.01969273500925905   -0.0005344959214753953
-0.0016235507586108834   -0.01974017971906515   -0.000565803297760797
-0.0015920346572186519   -0.018987853311591515   -0.0005157155635597895
-0.001656273757805582   -0.01976262988247132   -0.000565253453176308
-0.0015124918312696468   -0.01969273500925905   -0.0005344959214753953
-0.0015920346572186519   -0.018987853311591515   -0.0005157155635597895
-0.0011051862715148561   -0.018964156408449864   -0.00047612032718639073
-0.0011316797831468163   -0.0189945668225484   -0.0004516220612781312
-0.0015124918312696468   -0.01969273500925905   -0.0005344959214753953
-0.0015920346572186519   -0.018987853311591515   -0.0005157155635597895
-0.0011316797831468163   -0.0189945668225484   -0.0004516220612781312
-0.001656273757805582   -0.01976262988247132   -0.000565253453176308
-0.0015124918312696468   -0.01969273500925905   -0.0005344959214753953
-0.0011051862715148561   -0.018964156408449864   -0.00047612032718639073
-0.0016235507586108834   -0.01974017971906515   -0.000565803297760797
-0.0014688237140776438   -0.019684176558721962   -0.0005597598935968344
-0.0011051862715148561   -0.018964156408449864   -0.00047612032718639073
-0.0015920346572186519   -0.018987853311591515   -0.0005157155635597895
-0.0016235507586108834   -0.01974017971906515   -0.000565803297760797
-0.001569101305866359   -0.018974215660473345   -0.0005149381758627231
-0.0014688237140776438   -0.019684176558721962   -0.0005597598935968344
-0.0015871706328008837   -0.019732690506276643   -0.0005637644631063408
-0.001569101305866359   -0.018974215660473345   -0.0005149381758627231
-0.0016235507586108834   -0.01974017971906515   -0.000565803297760797
-0.0014688237140776438   -0.019684176558721962   -0.0005597598935968344
-0.001569101305866359   -0.018974215660473345   -0.0005149381758627231
-0.0010751646796129742   -0.018948029066763402   -0.0004985150250544207
-0.0011051862715148561   -0.018964156408449864   -0.00047612032718639073
-0.0014688237140776438   -0.019684176558721962   -0.0005597598935968344
-0.001569101305866359   -0.018974215660473345   -0.0005149381758627231
-0.0011051862715148561   -0.018964156408449864   -0.00047612032718639073
-0.0016235507586108834   -0.01974017971906515   -0.000565803297760797
-0.0014688237140776438   -0.019684176558721962   -0.0005597598935968344
-0.0010751646796129742   -0.018948029066763402   -0.0004985150250544207
-0.0015871706328008837   -0.019732690506276643   -0.0005637644631063408
-0.0014315128395731016   -0.019692301346036892   -0.0005829056895413399
-0.0010751646796129742   -0.018948029066763402   -0.0004985150250544207
-0.001569101305866359   -0.018974215660473345   -0.0005149381758627231
-0.0015871706328008837   -0.019732690506276643   -0.0005637644631063408
-0.0015470113283658996   -0.018972873171723664   -0.0005122045751897005
-0.0014315128395731016   -0.019692301346036892   -0.0005829056895413399
-0.0015502315301512209   -0.01973953824040212   -0.0005596916649355257
-0.0015470113283658996   -0.018972873171723664   -0.0005122045751897005
-0.0015871706328008837   -0.019732690506276643   -0.0005637644631063408
-0.0014315128395731016   -0.019692301346036892   -0.0005829056895413399
-0.0015470113283658996   -0.018972873171723664   -0.0005122045751897005
-0.001052204113296473   -0.018945725106325386   -0.0005188799713098108
-0.0010751646796129742   -0.018948029066763402   -0.0004985150250544207
-0.0014315128395731016   -0.019692301346036892   -0.0005829056895413399
-0.0015470113283658996   -0.018972873171723664   -0.0005122045751897005
-0.0010751646796129742   -0.018948029066763402   -0.0004985150250544207
-0.0015871706328008837   -0.019732690506276643   -0.0005637644631063408
-0.001656273757805582   -0.01976262988247132   -0.000565253453176308
-0.0016141869147106224   -0.019014356896010456   -0.0005145419415174381
-0.001771481090943332   -0.01977967223106727   -0.0006225443503870907
-0.0016235507586108834   -0.01974017971906515   -0.000565803297760797
-0.0016141869147106224   -0.019014356896010456   -0.0005145419415174381
-0.002093837523797078   -0.018996136242657204   -0.0005735075486920723
-0.001771481090943332   -0.01977967223106727   -0.0006225443503870907
-0.002071861524896588   -0.01897252747656913   -0.0005522872763172876
-0.0016235507586108834   -0.01974017971906515   -0.000565803297760797
-0.0017375769960638054   -0.019758118326303926   -0.0005973931058976636
-0.002071861524896588   -0.01897252747656913   -0.0005522872763172876
-0.001771481090943332   -0.01977967223106727   -0.0006225443503870907
-0.0016235507586108834   -0.01974017971906515   -0.000565803297760797
-0.002071861524896588   -0.01897252747656913   -0.0005522872763172876
-0.0015920346572186519   -0.018987853311591515   -0.0005157155635597895
-0.0016141869147106224   -0.019014356896010456   -0.0005145419415174381
-0.0016235507586108834   -0.01974017971906515   -0.000565803297760797
-0.002071861524896588   -0.01897252747656913   -0.0005522872763172876
-0.0016141869147106224   -0.019014356896010456   -0.0005145419415174381
-0.001771481090943332   -0.01977967223106727   -0.0006225443503870907
-0.0016235507586108834   -0.01974017971906515   -0.000565803297760797
-0.0015920346572186519   -0.018987853311591515   -0.0005157155635597895
-0.0017375769960638054   -0.019758118326303926   -0.0005973931058976636
-0.0015871706328008837   -0.019732690506276643   -0.0005637644631063408
-0.0015920346572186519   -0.018987853311591515   -0.0005157155635597895
-0.002071861524896588   -0.01897252747656913   -0.0005522872763172876
-0.0017375769960638054   -0.019758118326303926   -0.0005973931058976636
-0.0020472038888684854   -0.01896158379255858   -0.0005291508214240063
-0.0015871706328008837   -0.019732690506276643   -0.0005637644631063408
-0.0016970344908096816   -0.019751754630965193   -0.0005690849109347178
-0.0020472038888684854   -0.01896158379255858   -0.0005291508214240063
-0.0017375769960638054   -0.019758118326303926   -0.0005973931058976636
-0.0015871706328008837   -0.019732690506276643   -0.0005637644631063408
-0.0020472038888684854   -0.01896158379255858   -0.0005291508214240063
-0.001569101305866359   -0.018974215660473345   -0.0005149381758627231
-0.0015920346572186519   -0.018987853311591515   -0.0005157155635597895
-0.0015871706328008837   -0.019732690506276643   -0.0005637644631063408
-0.0020472038888684854   -0.01896158379255858   -0.0005291508214240063
-0.0015920346572186519   -0.018987853311591515   -0.0005157155635597895
-0.0017375769960638054   -0.019758118326303926   -0.0005973931058976636
-0.0015871706328008837   -0.019732690506276643   -0.0005637644631063408
-0.001569101305866359   -0.018974215660473345   -0.0005149381758627231
-0.0016970344908096816   -0.019751754630965193   -0.0005690849109347178
-0.0015502315301512209   -0.01973953824040212   -0.0005596916649355257
-0.001569101305866359   -0.018974215660473345   -0.0005149381758627231
-0.0020472038888684854   -0.01896158379255858   -0.0005291508214240063
-0.0016970344908096816   -0.019751754630965193   -0.0005690849109347178
-0.0020225090086086737   -0.018962158060378407   -0.0005038658067656483
-0.0015502315301512209   -0.01973953824040212   -0.0005596916649355257
-0.0016554181299554742   -0.019758342419068816   -0.0005390079881874424
-0.0020225090086086737   -0.018962158060378407   -0.0005038658067656483
-0.0016970344908096816   -0.019751754630965193   -0.0005690849109347178
-0.0015502315301512209   -0.01973953824040212   -0.0005596916649355257
-0.0020225090086086737   -0.018962158060378407   -0.0005038658067656483
-0.0015470113283658996   -0.018972873171723664   -0.0005122045751897005
-0.001569101305866359   -0.018974215660473345   -0.0005149381758627231
-0.0015502315301512209   -0.01973953824040212   -0.0005596916649355257
-0.0020225090086086737   -0.018962158060378407   -0.0005038658067656483
-0.001569101305866359   -0.018974215660473345   -0.0005149381758627231
-0.0016970344908096816   -0.019751754630965193   -0.0005690849109347178
-0.001771481090943332   -0.01977967223106727   -0.0006225443503870907
-0.002093837523797078   -0.018996136242657204   -0.0005735075486920723
-0.0019388781187035316   -0.01975620227655415   -0.0006774636658813819
-0.0017375769960638054   -0.019758118326303926   -0.0005973931058976636
-0.002093837523797078   -0.018996136242657204   -0.0005735075486920723
-0.0026194988025068137   -0.018937604146755667   -0.0006279230579671548
-0.0019388781187035316   -0.01975620227655415   -0.0006774636658813819
-0.002592416262794672   -0.018916844423274334   -0.0005847385643548513
-0.0017375769960638054   -0.019758118326303926   -0.0005973931058976636
-0.001894649629765877   -0.01973558238795934   -0.0006277306685032316
-0.002592416262794672   -0.018916844423274334   -0.0005847385643548513
-0.0019388781187035316   -0.01975620227655415   -0.0006774636658813819
-0.0017375769960638054   -0.019758118326303926   -0.0005973931058976636
-0.002592416262794672   -0.018916844423274334   -0.0005847385643548513
-0.002071861524896588   -0.01897252747656913   -0.0005522872763172876
-0.002093837523797078   -0.018996136242657204   -0.0005735075486920723
-0.0017375769960638054   -0.019758118326303926   -0.0005973931058976636
-0.002592416262794672   -0.018916844423274334   -0.0005847385643548513
-0.002093837523797078   -0.018996136242657204   -0.0005735075486920723
-0.0019388781187035316   -0.01975620227655415   -0.0006774636658813819
-0.0017375769960638054   -0.019758118326303926   -0.0005973931058976636
-0.002071861524896588   -0.01897252747656913   -0.0005522872763172876
-0.001894649629765877   -0.01973558238795934   -0.0006277306685032316
-0.0016970344908096816   -0.019751754630965193   -0.0005690849109347178
-0.002071861524896588   -0.01897252747656913   -0.0005522872763172876
-0.002592416262794672   -0.018916844423274334   -0.0005847385643548513
-0.001894649629765877   -0.01973558238795934   -0.0006277306685032316
-0.0025548504863378203   -0.018908584423878504   -0.0005397967705388059
-0.0016970344908096816   -0.019751754630965193   -0.0005690849109347178
-0.0018359936406176802   -0.019731264635901524   -0.0005744365492019399
-0.0025548504863378203   -0.018908584423878504   -0.0005397967705388059
-0.001894649629765877   -0.01973558238795934   -0.0006277306685032316
-0.0016970344908096816   -0.019751754630965193   -0.0005690849109347178
-0.0025548504863378203   -0.018908584423878504   -0.0005397967705388059
-0.0020472038888684854   -0.01896158379255858   -0.0005291508214240063
-0.002071861524896588   -0.01897252747656913   -0.0005522872763172876
-0.0016970344908096816   -0.019751754630965193   -0.0005690849109347178
-0.0025548504863378203   -0.018908584423878504   -0.0005397967705388059
-0.002071861524896588   -0.01897252747656913   -0.0005522872763172876
-0.001894649629765877   -0.01973558238795934   -0.0006277306685032316
-0.0016970344908096816   -0.019751754630965193   -0.0005690849109347178
-0.0020472038888684854   -0.01896158379255858   -0.0005291508214240063
-0.0018359936406176802   -0.019731264635901524   -0.0005744365492019399
-0.0016554181299554742   -0.019758342419068816   -0.0005390079881874424
-0.0020472038888684854   -0.01896158379255858   -0.0005291508214240063
-0.0025548504863378203   -0.018908584423878504   -0.0005397967705388059
-0.0018359936406176802   -0.019731264635901524   -0.0005744365492019399
-0.0025223623397720514   -0.018912822017676387   -0.000491893685530029
-0.0016554181299554742   -0.019758342419068816   -0.0005390079881874424
-0.0017812777432992236   -0.019740210994827086   -0.0005191860648975917
-0.0025223623397720514   -0.018912822017676387   -0.000491893685530029
-0.0018359936406176802   -0.019731264635901524   -0.0005744365492019399
-0.0016554181299554742   -0.019758342419068816   -0.0005390079881874424
-0.0025223623397720514   -0.018912822017676387   -0.000491893685530029
-0.0020225090086086737   -0.018962158060378407   -0.0005038658067656483
-0.0020472038888684854   -0.01896158379255858   -0.0005291508214240063
-0.0016554181299554742   -0.019758342419068816   -0.0005390079881874424
-0.0025223623397720514   -0.018912822017676387   -0.000491893685530029
-0.0020472038888684854   -0.01896158379255858   -0.0005291508214240063
-0.0018359936406176802   -0.019731264635901524   -0.0005744365492019399
-0.0019388781187035316   -0.01975620227655415   -0.0006774636658813819
-0.0026194988025068137   -0.018937604146755667   -0.0006279230579671548
-0.0022708989850297283   -0.01966012043255034   -0.0007366267090029576
-0.001894649629765877   -0.01973558238795934   -0.0006277306685032316
-0.0026194988025068137   -0.018937604146755667   -0.0006279230579671548
-0.0032961523648764686   -0.018842409704684208   -0.0006809201962790271
-0.0022708989850297283   -0.01966012043255034   -0.0007366267090029576
-0.003206316584647491   -0.018819577501608658   -0.0006126572152493239
-0.001894649629765877   -0.01973558238795934   -0.0006277306685032316
-0.002150154053857656   -0.019642276201450065   -0.0006550980913980112
-0.003206316584647491   -0.018819577501608658   -0.0006126572152493239
-0.0022708989850297283   -0.01966012043255034   -0.0007366267090029576
-0.001894649629765877   -0.01973558238795934   -0.0006277306685032316
-0.003206316584647491   -0.018819577501608658   -0.0006126572152493239
-0.002592416262794672   -0.018916844423274334   -0.0005847385643548513
-0.0026194988025068137   -0.018937604146755667   -0.0006279230579671548
-0.001894649629765877   -0.01973558238795934   -0.0006277306685032316
-0.003206316584647491   -0.018819577501608658   -0.0006126572152493239
-0.0026194988025068137   -0.018937604146755667   -0.0006279230579671548
-0.0022708989850297283   -0.01966012043255034   -0.0007366267090029576
-0.001894649629765877   -0.01973558238795934   -0.0006277306685032316
-0.002592416262794672   -0.018916844423274334   -0.0005847385643548513
-0.002150154053857656   -0.019642276201450065   -0.0006550980913980112
-0.0018359936406176802   -0.019731264635901524   -0.0005744365492019399
-0.002592416262794672   -0.018916844423274334   -0.0005847385643548513
-0.003206316584647491   -0.018819577501608658   -0.0006126572152493239
-0.002150154053857656   -0.019642276201450065   -0.0006550980913980112
-0.003126328524655442   -0.018811937387174345   -0.0005406687354353441
-0.0018359936406176802   -0.019731264635901524   -0.0005744365492019399
-0.0020398641592024092   -0.019640138937354057   -0.0005683727554129768
-0.003126328524655442   -0.018811937387174345   -0.0005406687354353441
-0.002150154053857656   -0.019642276201450065   -0.0006550980913980112
-0.0018359936406176802   -0.019731264635901524   -0.0005744365492019399
-0.003126328524655442   -0.018811937387174345   -0.0005406687354353441
-0.0025548504863378203   -0.018908584423878504   -0.0005397967705388059
-0.002592416262794672   -0.018916844423274334   -0.0005847385643548513
-0.0018359936406176802   -0.019731264635901524   -0.0005744365492019399
-0.003126328524655442   -0.018811937387174345   -0.0005406687354353441
-0.002592416262794672   -0.018916844423274334   -0.0005847385643548513
-0.002150154053857656   -0.019642276201450065   -0.0006550980913980112
-0.0018359936406176802   -0.019731264635901524   -0.0005744365492019399
-0.0025548504863378203   -0.018908584423878504   -0.0005397967705388059
-0.0020398641592024092   -0.019640138937354057   -0.0005683727554129768
-0.0017812777432992236   -0.019740210994827086   -0.0005191860648975917
-0.0025548504863378203   -0.018908584423878504   -0.0005397967705388059
-0.003126328524655442   -0.018811937387174345   -0.0005406687354353441
-0.0020398641592024092   -0.019640138937354057   -0.0005683727554129768
-0.003022728943954678   -0.01882360571289836   -0.00046561764821009875
-0.0017812777432992236   -0.019740210994827086   -0.0005191860648975917
-0.001900459003201772   -0.019663431474939166   -0.00047792671231103794
-0.003022728943954678   -0.01882360571289836   -0.00046561764821009875
-0.0020398641592024092   -0.019640138937354057   -0.0005683727554129768
-0.0017812777432992236   -0.019740210994827086   -0.0005191860648975917
-0.003022728943954678   -0.01882360571289836   -0.00046561764821009875
-0.0025223623397720514   -0.018912822017676387   -0.000491893685530029
-0.0025548504863378203   -0.018908584423878504   -0.0005397967705388059
-0.0017812777432992236   -0.019740210994827086   -0.0005191860648975917
-0.003022728943954678   -0.01882360571289836   -0.00046561764821009875
-0.0025548504863378203   -0.018908584423878504   -0.0005397967705388059
-0.0020398641592024092   -0.019640138937354057   -0.0005683727554129768
-0.0006461475956783178   -0.01893765393732542   -0.000374097384209362
3.458948747914131e-05   -0.01760981635909699   -0.000308344805785865
-0.0011316797831468163   -0.0189945668225484   -0.0004516220612781312
-0.0005688501603937958   -0.018899875689204548   -0.000429885777886774
3.458948747914131e-05   -0.01760981635909699   -0.000308344805785865
-0.0007959067012031499   -0.017652190059020797   -0.000384651873255798
-0.0011316797831468163   -0.0189945668225484   -0.0004516220612781312
-0.0007816435116614809   -0.017620274574980808   -0.0004043213038544077
-0.0005688501603937958   -0.018899875689204548   -0.000429885777886774
-0.0011051862715148561   -0.018964156408449864   -0.00047612032718639073
-0.0007816435116614809   -0.017620274574980808   -0.0004043213038544077
-0.0011316797831468163   -0.0189945668225484   -0.0004516220612781312
-0.0005688501603937958   -0.018899875689204548   -0.000429885777886774
-0.0007816435116614809   -0.017620274574980808   -0.0004043213038544077
8.945397993867927e-05   -0.017571310032903006   -0.0003533473512765801
3.458948747914131e-05   -0.01760981635909699   -0.000308344805785865
-0.0005688501603937958   -0.018899875689204548   -0.000429885777886774
-0.0007816435116614809   -0.017620274574980808   -0.0004043213038544077
3.458948747914131e-05   -0.01760981635909699   -0.000308344805785865
-0.0011316797831468163   -0.0189945668225484   -0.0004516220612781312
-0.0005688501603937958   -0.018899875689204548   -0.000429885777886774
8.945397993867927e-05   -0.017571310032903006   -0.0003533473512765801
-0.0011051862715148561   -0.018964156408449864   -0.00047612032718639073
-0.0005080068979018137   -0.018882706963345944   -0.00048256244122430006
8.945397993867927e-05   -0.017571310032903006   -0.0003533473512765801
-0.0007816435116614809   -0.017620274574980808   -0.0004043213038544077
-0.0011051862715148561   -0.018964156408449864   -0.00047612032718639073
-0.0007652485765158075   -0.017600151912100546   -0.000421810084695323
-0.0005080068979018137   -0.018882706963345944   -0.00048256244122430006
-0.0010751646796129742   -0.018948029066763402   -0.0004985150250544207
-0.0007652485765158075   -0.017600151912100546   -0.000421810084695323
-0.0011051862715148561   -0.018964156408449864   -0.00047612032718639073
-0.0005080068979018137   -0.018882706963345944   -0.00048256244122430006
-0.0007652485765158075   -0.017600151912100546   -0.000421810084695323
0.00012990745546723014   -0.017549899837939975   -0.0003952968625767271
8.945397993867927e-05   -0.017571310032903006   -0.0003533473512765801
-0.0005080068979018137   -0.018882706963345944   -0.00048256244122430006
-0.0007652485765158075   -0.017600151912100546   -0.000421810084695323
8.945397993867927e-05   -0.017571310032903006   -0.0003533473512765801
-0.0011051862715148561   -0.018964156408449864   -0.00047612032718639073
-0.0005080068979018137   -0.018882706963345944   -0.00048256244122430006
0.00012990745546723014   -0.017549899837939975   -0.0003952968625767271
-0.0010751646796129742   -0.018948029066763402   -0.0004985150250544207
-0.0004411172662375541   -0.018881055101912295   -0.0005320042227071893
0.00012990745546723014   -0.017549899837939975   -0.0003952968625767271
-0.0007652485765158075   -0.017600151912100546   -0.000421810084695323
-0.0010751646796129742   -0.018948029066763402   -0.0004985150250544207
-0.0007554281542983135   -0.0175912014192284   -0.00043733456976820126
-0.0004411172662375541   -0.018881055101912295   -0.0005320042227071893
-0.001052204113296473   -0.018945725106325386   -0.0005188799713098108
-0.0007554281542983135   -0.0175912014192284   -0.00043733456976820126
-0.0010751646796129742   -0.018948029066763402   -0.0004985150250544207
-0.0004411172662375541   -0.018881055101912295   -0.0005320042227071893
-0.0007554281542983135   -0.0175912014192284   -0.00043733456976820126
0.00017363225423503695   -0.017540615102791184   -0.00043418530343185925
0.00012990745546723014   -0.017549899837939975   -0.0003952968625767271
-0.0004411172662375541   -0.018881055101912295   -0.0005320042227071893
-0.0007554281542983135   -0.0175912014192284   -0.00043733456976820126
0.00012990745546723014   -0.017549899837939975   -0.0003952968625767271
-0.0010751646796129742   -0.018948029066763402   -0.0004985150250544207
-0.0011316797831468163   -0.0189945668225484   -0.0004516220612781312
-0.0007959067012031499   -0.017652190059020797   -0.000384651873255798
-0.0016141869147106224   -0.019014356896010456   -0.0005145419415174381
-0.0011051862715148561   -0.018964156408449864   -0.00047612032718639073
-0.0007959067012031499   -0.017652190059020797   -0.000384651873255798
-0.0016022770933864674   -0.0176603683442565   -0.00044707183464124463
-0.0016141869147106224   -0.019014356896010456   -0.0005145419415174381
-0.0015919040806825532   -0.01763307961988194   -0.0004474488522237784
-0.0011051862715148561   -0.018964156408449864   -0.00047612032718639073
-0.0015920346572186519   -0.018987853311591515   -0.0005157155635597895
-0.0015919040806825532   -0.01763307961988194   -0.0004474488522237784
-0.0016141869147106224   -0.019014356896010456   -0.0005145419415174381
-0.0011051862715148561   -0.018964156408449864   -0.00047612032718639073
-0.0015919040806825532   -0.01763307961988194   -0.0004474488522237784
-0.0007816435116614809   -0.017620274574980808   -0.0004043213038544077
-0.0007959067012031499   -0.017652190059020797   -0.000384651873255798
-0.0011051862715148561   -0.018964156408449864   -0.00047612032718639073
-0.0015919040806825532   -0.01763307961988194   -0.0004474488522237784
-0.0007959067012031499   -0.017652190059020797   -0.000384651873255798
-0.0016141869147106224   -0.019014356896010456   -0.0005145419415174381
-0.0011051862715148561   -0.018964156408449864   -0.00047612032718639073
-0.0007816435116614809   -0.017620274574980808   -0.0004043213038544077
-0.0015920346572186519   -0.018987853311591515   -0.0005157155635597895
-0.0010751646796129742   -0.018948029066763402   -0.0004985150250544207
-0.0007816435116614809   -0.017620274574980808   -0.0004043213038544077
-0.0015919040806825532   -0.01763307961988194   -0.0004474488522237784
-0.0015920346572186519   -0.018987853311591515   -0.0005157155635597895
-0.0015812173571920693   -0.017616334912654238   -0.0004457303523691466
-0.0010751646796129742   -0.018948029066763402   -0.0004985150250544207
-0.001569101305866359   -0.018974215660473345   -0.0005149381758627231
-0.0015812173571920693   -0.017616334912654238   -0.0004457303523691466
-0.0015920346572186519   -0.018987853311591515   -0.0005157155635597895
-0.0010751646796129742   -0.018948029066763402   -0.0004985150250544207
-0.0015812173571920693   -0.017616334912654238   -0.0004457303523691466
-0.0007652485765158075   -0.017600151912100546   -0.000421810084695323
-0.0007816435116614809   -0.017620274574980808   -0.0004043213038544077
-0.0010751646796129742   -0.018948029066763402   -0.0004985150250544207
-0.0015812173571920693   -0.017616334912654238   -0.0004457303523691466
-0.0007816435116614809   -0.017620274574980808   -0.0004043213038544077
-0.0015920346572186519   -0.018987853311591515   -0.0005157155635597895
-0.0010751646796129742   -0.018948029066763402   -0.0004985150250544207
-0.0007652485765158075   -0.017600151912100546   -0.000421810084695323
-0.001569101305866359   -0.018974215660473345   -0.0005149381758627231
-0.001052204113296473   -0.018945725106325386   -0.0005188799713098108
-0.0007652485765158075   -0.017600151912100546   -0.000421810084695323
-0.0015812173571920693   -0.017616334912654238   -0.0004457303523691466
-0.001569101305866359   -0.018974215660473345   -0.0005149381758627231
-0.0015718780615409484   -0.017609978145018777   -0.00044206556727472313
-0.001052204113296473   -0.018945725106325386   -0.0005188799713098108
-0.0015470113283658996   -0.018972873171723664   -0.0005122045751897005
-0.0015718780615409484   -0.017609978145018777   -0.00044206556727472313
-0.001569101305866359   -0.018974215660473345   -0.0005149381758627231
-0.001052204113296473   -0.018945725106325386   -0.0005188799713098108
-0.0015718780615409484   -0.017609978145018777   -0.00044206556727472313
-0.0007554281542983135   -0.0175912014192284   -0.00043733456976820126
-0.0007652485765158075   -0.017600151912100546   -0.000421810084695323
-0.001052204113296473   -0.018945725106325386   -0.0005188799713098108
-0.0015718780615409484   -0.017609978145018777   -0.00044206556727472313
-0.0007652485765158075   -0.017600151912100546   -0.000421810084695323
-0.001569101305866359   -0.018974215660473345   -0.0005149381758627231
-0.0016141869147106224   -0.019014356896010456   -0.0005145419415174381
-0.0016022770933864674   -0.0176603683442565   -0.00044707183464124463
-0.002093837523797078   -0.018996136242657204   -0.0005735075486920723
-0.0015920346572186519   -0.018987853311591515   -0.0005157155635597895
-0.0016022770933864674   -0.0176603683442565   -0.00044707183464124463
-0.002396598421902115   -0.017634396069811292   -0.0005033703792420772
-0.002093837523797078   -0.018996136242657204   -0.0005735075486920723
-0.00238695248020002   -0.01761088927197421   -0.0004849122383131426
-0.0015920346572186519   -0.018987853311591515   -0.0005157155635597895
-0.002071861524896588   -0.01897252747656913   -0.0005522872763172876
-0.00238695248020002   -0.01761088927197421   -0.0004849122383131426
-0.002093837523797078   -0.018996136242657204   -0.0005735075486920723
-0.0015920346572186519   -0.018987853311591515   -0.0005157155635597895
-0.00238695248020002   -0.01761088927197421   -0.0004849122383131426
-0.0015919040806825532   -0.01763307961988194   -0.0004474488522237784
-0.0016022770933864674   -0.0176603683442565   -0.00044707183464124463
-0.0015920346572186519   -0.018987853311591515   -0.0005157155635597895
-0.00238695248020002   -0.01761088927197421   -0.0004849122383131426
-0.0016022770933864674   -0.0176603683442565   -0.00044707183464124463
-0.002093837523797078   -0.018996136242657204   -0.0005735075486920723
-0.0015920346572186519   -0.018987853311591515   -0.0005157155635597895
-0.0015919040806825532   -0.01763307961988194   -0.0004474488522237784
-0.002071861524896588   -0.01897252747656913   -0.0005522872763172876
-0.001569101305866359   -0.018974215660473345   -0.0005149381758627231
-0.0015919040806825532   -0.01763307961988194   -0.0004474488522237784
-0.00238695248020002   -0.01761088927197421   -0.0004849122383131426
-0.002071861524896588   -0.01897252747656913   -0.0005522872763172876
-0.0023752849634011124   -0.01759781373131142   -0.0004644094397426767
-0.001569101305866359   -0.018974215660473345   -0.0005149381758627231
-0.0020472038888684854   -0.01896158379255858   -0.0005291508214240063
-0.0023752849634011124   -0.01759781373131142   -0.0004644094397426767
-0.002071861524896588   -0.01897252747656913   -0.0005522872763172876
-0.001569101305866359   -0.018974215660473345   -0.0005149381758627231
-0.0023752849634011124   -0.01759781373131142   -0.0004644094397426767
-0.0015812173571920693   -0.017616334912654238   -0.0004457303523691466
-0.0015919040806825532   -0.01763307961988194   -0.0004474488522237784
-0.001569101305866359   -0.018974215660473345   -0.0005149381758627231
-0.0023752849634011124   -0.01759781373131142   -0.0004644094397426767
-0.0015919040806825532   -0.01763307961988194   -0.0004474488522237784
-0.002071861524896588   -0.01897252747656913   -0.0005522872763172876
-0.001569101305866359   -0.018974215660473345   -0.0005149381758627231
-0.0015812173571920693   -0.017616334912654238   -0.0004457303523691466
-0.0020472038888684854   -0.01896158379255858   -0.0005291508214240063
-0.0015470113283658996   -0.018972873171723664   -0.0005122045751897005
-0.0015812173571920693   -0.017616334912654238   -0.0004457303523691466
-0.0023752849634011124   -0.01759781373131142   -0.0004644094397426767
-0.0020472038888684854   -0.01896158379255858   -0.0005291508214240063
-0.0023639776329384384   -0.01759471867836131   -0.00044192363352358227
-0.0015470113283658996   -0.018972873171723664   -0.0005122045751897005
-0.0020225090086086737   -0.018962158060378407   -0.0005038658067656483
-0.0023639776329384384   -0.01759471867836131   -0.00044192363352358227
-0.0020472038888684854   -0.01896158379255858   -0.0005291508214240063
-0.0015470113283658996   -0.018972873171723664   -0.0005122045751897005
-0.0023639776329384384   -0.01759471867836131   -0.00044192363352358227
-0.0015718780615409484   -0.017609978145018777   -0.00044206556727472313
-0.0015812173571920693   -0.017616334912654238   -0.0004457303523691466
-0.0015470113283658996   -0.018972873171723664   -0.0005122045751897005
-0.0023639776329384384   -0.01759471867836131   -0.00044192363352358227
-0.0015812173571920693   -0.017616334912654238   -0.0004457303523691466
-0.0020472038888684854   -0.01896158379255858   -0.0005291508214240063
-0.002093837523797078   -0.018996136242657204   -0.0005735075486920723
-0.002396598421902115   -0.017634396069811292   -0.0005033703792420772
-0.0026194988025068137   -0.018937604146755667   -0.0006279230579671548
-0.002071861524896588   -0.01897252747656913   -0.0005522872763172876
-0.002396598421902115   -0.017634396069811292   -0.0005033703792420772
-0.003228178991824357   -0.01757510686196852   -0.0005534442667673197
-0.0026194988025068137   -0.018937604146755667   -0.0006279230579671548
-0.0032153960098605886   -0.01755515088217385   -0.0005160977295547602
-0.002071861524896588   -0.01897252747656913   -0.0005522872763172876
-0.002592416262794672   -0.018916844423274334   -0.0005847385643548513
-0.0032153960098605886   -0.01755515088217385   -0.0005160977295547602
-0.0026194988025068137   -0.018937604146755667   -0.0006279230579671548
-0.002071861524896588   -0.01897252747656913   -0.0005522872763172876
-0.0032153960098605886   -0.01755515088217385   -0.0005160977295547602
-0.00238695248020002   -0.01761088927197421   -0.0004849122383131426
-0.002396598421902115   -0.017634396069811292   -0.0005033703792420772
-0.002071861524896588   -0.01897252747656913   -0.0005522872763172876
-0.0032153960098605886   -0.01755515088217385   -0.0005160977295547602
-0.002396598421902115   -0.017634396069811292   -0.0005033703792420772
-0.0026194988025068137   -0.018937604146755667   -0.0006279230579671548
-0.002071861524896588   -0.01897252747656913   -0.0005522872763172876
-0.00238695248020002   -0.01761088927197421   -0.0004849122383131426
-0.002592416262794672   -0.018916844423274334   -0.0005847385643548513
-0.0020472038888684854   -0.01896158379255858   -0.0005291508214240063
-0.00238695248020002   -0.01761088927197421   -0.0004849122383131426
-0.0032153960098605886   -0.01755515088217385   -0.0005160977295547602
-0.002592416262794672   -0.018916844423274334   -0.0005847385643548513
-0.0031936226081954295   -0.017545400956180138   -0.0004770293313713887
-0.0020472038888684854   -0.01896158379255858   -0.0005291508214240063
-0.0025548504863378203   -0.018908584423878504   -0.0005397967705388059
-0.0031936226081954295   -0.017545400956180138   -0.0004770293313713887
-0.002592416262794672   -0.018916844423274334   -0.0005847385643548513
-0.0020472038888684854   -0.01896158379255858   -0.0005291508214240063
-0.0031936226081954295   -0.017545400956180138   -0.0004770293313713887
-0.0023752849634011124   -0.01759781373131142   -0.0004644094397426767
-0.00238695248020002   -0.01761088927197421   -0.0004849122383131426
-0.0020472038888684854   -0.01896158379255858   -0.0005291508214240063
-0.0031936226081954295   -0.017545400956180138   -0.0004770293313713887
-0.00238695248020002   -0.01761088927197421   -0.0004849122383131426
-0.002592416262794672   -0.018916844423274334   -0.0005847385643548513
-0.0020472038888684854   -0.01896158379255858   -0.0005291508214240063
-0.0023752849634011124   -0.01759781373131142   -0.0004644094397426767
-0.0025548504863378203   -0.018908584423878504   -0.0005397967705388059
-0.0020225090086086737   -0.018962158060378407   -0.0005038658067656483
-0.0023752849634011124   -0.01759781373131142   -0.0004644094397426767
-0.0031936226081954295   -0.017545400956180138   -0.0004770293313713887
-0.0025548504863378203   -0.018908584423878504   -0.0005397967705388059
-0.003176151792529594   -0.017546414585139933   -0.00043568412588907053
-0.0020225090086086737   -0.018962158060378407   -0.0005038658067656483
-0.0025223623397720514   -0.018912822017676387   -0.000491893685530029
-0.003176151792529594   -0.017546414585139933   -0.00043568412588907053
-0.0025548504863378203   -0.018908584423878504   -0.0005397967705388059
-0.0020225090086086737   -0.018962158060378407   -0.0005038658067656483
-0.003176151792529594   -0.017546414585139933   -0.00043568412588907053
-0.0023639776329384384   -0.01759471867836131   -0.00044192363352358227
-0.0023752849634011124   -0.01759781373131142   -0.0004644094397426767
-0.0020225090086086737   -0.018962158060378407   -0.0005038658067656483
-0.003176151792529594   -0.017546414585139933   -0.00043568412588907053
-0.0023752849634011124   -0.01759781373131142   -0.0004644094397426767
-0.0025548504863378203   -0.018908584423878504   -0.0005397967705388059
-0.0026194988025068137   -0.018937604146755667   -0.0006279230579671548
-0.003228178991824357   -0.01757510686196852   -0.0005534442667673197
-0.0032961523648764686   -0.018842409704684208   -0.0006809201962790271
-0.002592416262794672   -0.018916844423274334   -0.0005847385643548513
-0.003228178991824357   -0.01757510686196852   -0.0005534442667673197
-0.004197567561965548   -0.01748915046738923   -0.000600669625760284
-0.0032961523648764686   -0.018842409704684208   -0.0006809201962790271
-0.004130274546521632   -0.01746809154269536   -0.0005420875624920093
-0.002592416262794672   -0.018916844423274334   -0.0005847385643548513
-0.003206316584647491   -0.018819577501608658   -0.0006126572152493239
-0.004130274546521632   -0.01746809154269536   -0.0005420875624920093
-0.0032961523648764686   -0.018842409704684208   -0.0006809201962790271
-0.002592416262794672   -0.018916844423274334   -0.0005847385643548513
-0.004130274546521632   -0.01746809154269536   -0.0005420875624920093
-0.0032153960098605886   -0.01755515088217385   -0.0005160977295547602
-0.003228178991824357   -0.01757510686196852   -0.0005534442667673197
-0.002592416262794672   -0.018916844423274334   -0.0005847385643548513
-0.004130274546521632   -0.01746809154269536   -0.0005420875624920093
-0.003228178991824357   -0.01757510686196852   -0.0005534442667673197
-0.0032961523648764686   -0.018842409704684208   -0.0006809201962790271
-0.002592416262794672   -0.018916844423274334   -0.0005847385643548513
-0.0032153960098605886   -0.01755515088217385   -0.0005160977295547602
-0.003206316584647491   -0.018819577501608658   -0.0006126572152493239
-0.0025548504863378203   -0.018908584423878504   -0.0005397967705388059
-0.0032153960098605886   -0.01755515088217385   -0.0005160977295547602
-0.004130274546521632   -0.01746809154269536   -0.0005420875624920093
-0.003206316584647491   -0.018819577501608658   -0.0006126572152493239
-0.004072214905734233   -0.017459246195833625   -0.0004806411819233549
-0.0025548504863378203   -0.018908584423878504   -0.0005397967705388059
-0.003126328524655442   -0.018811937387174345   -0.0005406687354353441
-0.004072214905734233   -0.017459246195833625   -0.0004806411819233549
-0.003206316584647491   -0.018819577501608658   -0.0006126572152493239
-0.0025548504863378203   -0.018908584423878504   -0.0005397967705388059
-0.004072214905734233   -0.017459246195833625   -0.0004806411819233549
-0.0031936226081954295   -0.017545400956180138   -0.0004770293313713887
-0.0032153960098605886   -0.01755515088217385   -0.0005160977295547602
-0.0025548504863378203   -0.018908584423878504   -0.0005397967705388059
-0.004072214905734233   -0.017459246195833625   -0.0004806411819233549
-0.0032153960098605886   -0.01755515088217385   -0.0005160977295547602
-0.003206316584647491   -0.018819577501608658   -0.0006126572152493239
-0.0025548504863378203   -0.018908584423878504   -0.0005397967705388059
-0.0031936226081954295   -0.017545400956180138   -0.0004770293313713887
-0.003126328524655442   -0.018811937387174345   -0.0005406687354353441
-0.0025223623397720514   -0.018912822017676387   -0.000491893685530029
-0.0031936226081954295   -0.017545400956180138   -0.0004770293313713887
-0.004072214905734233   -0.017459246195833625   -0.0004806411819233549
-0.003126328524655442   -0.018811937387174345   -0.0005406687354353441
-0.003994141117691815   -0.01746676679914229   -0.00041671723407950067
-0.0025223623397720514   -0.018912822017676387   -0.000491893685530029
-0.003022728943954678   -0.01882360571289836   -0.00046561764821009875
-0.003994141117691815   -0.01746676679914229   -0.00041671723407950067
-0.003126328524655442   -0.018811937387174345   -0.0005406687354353441
-0.0025223623397720514   -0.018912822017676387   -0.000491893685530029
-0.003994141117691815   -0.01746676679914229   -0.00041671723407950067
-0.003176151792529594   -0.017546414585139933   -0.00043568412588907053
-0.0031936226081954295   -0.017545400956180138   -0.0004770293313713887
-0.0025223623397720514   -0.018912822017676387   -0.000491893685530029
-0.003994141117691815   -0.01746676679914229   -0.00041671723407950067
-0.0031936226081954295   -0.017545400956180138   -0.0004770293313713887
-0.003126328524655442   -0.018811937387174345   -0.0005406687354353441
3.458948747914131e-05   -0.01760981635909699   -0.000308344805785865
0.0005590700859823506   -0.015787115699582892   -0.00023458173196337322
-0.0007959067012031499   -0.017652190059020797   -0.000384651873255798
8.945397993867927e-05   -0.017571310032903006   -0.0003533473512765801
0.0005590700859823506   -0.015787115699582892   -0.00023458173196337322
-0.0005496842669571426   -0.01581568959653423   -0.00030750749903150746
-0.0007959067012031499   -0.017652190059020797   -0.000384651873255798
-0.0005464095769075059   -0.0157839355433714   -0.0003213970863203029
8.945397993867927e-05   -0.017571310032903006   -0.0003533473512765801
-0.0007816435116614809   -0.017620274574980808   -0.0004043213038544077
-0.0005464095769075059   -0.0157839355433714   -0.0003213970863203029
-0.0007959067012031499   -0.017652190059020797   -0.000384651873255798
8.945397993867927e-05   -0.017571310032903006   -0.0003533473512765801
-0.0005464095769075059   -0.0157839355433714   -0.0003213970863203029
0.0005926207857956561   -0.0157494629311403   -0.00026842329079285383
0.0005590700859823506   -0.015787115699582892   -0.00023458173196337322
8.945397993867927e-05   -0.017571310032903006   -0.0003533473512765801
-0.0005464095769075059   -0.0157839355433714   -0.0003213970863203029
0.0005590700859823506   -0.015787115699582892   -0.00023458173196337322
-0.0007959067012031499   -0.017652190059020797   -0.000384651873255798
8.945397993867927e-05   -0.017571310032903006   -0.0003533473512765801
0.0005926207857956561   -0.0157494629311403   -0.00026842329079285383
-0.0007816435116614809   -0.017620274574980808   -0.0004043213038544077
0.00012990745546723014   -0.017549899837939975   -0.0003952968625767271
0.0005926207857956561   -0.0157494629311403   -0.00026842329079285383
-0.0005464095769075059   -0.0157839355433714   -0.0003213970863203029
-0.0007816435116614809   -0.017620274574980808   -0.0004043213038544077
-0.0005421950380278814   -0.015761609256809906   -0.0003332667118759814
0.00012990745546723014   -0.017549899837939975   -0.0003952968625767271
-0.0007652485765158075   -0.017600151912100546   -0.000421810084695323
-0.0005421950380278814   -0.015761609256809906   -0.0003332667118759814
-0.0007816435116614809   -0.017620274574980808   -0.0004043213038544077
0.00012990745546723014   -0.017549899837939975   -0.0003952968625767271
-0.0005421950380278814   -0.015761609256809906   -0.0003332667118759814
0.0006143292519651838   -0.01572559185484598   -0.0002994040436291895
0.0005926207857956561   -0.0157494629311403   -0.00026842329079285383
0.00012990745546723014   -0.017549899837939975   -0.0003952968625767271
-0.0005421950380278814   -0.015761609256809906   -0.0003332667118759814
0.0005926207857956561   -0.0157494629311403   -0.00026842329079285383
-0.0007816435116614809   -0.017620274574980808   -0.0004043213038544077
0.00012990745546723014   -0.017549899837939975   -0.0003952968625767271
0.0006143292519651838   -0.01572559185484598   -0.0002994040436291895
-0.0007652485765158075   -0.017600151912100546   -0.000421810084695323
0.00017363225423503695   -0.017540615102791184   -0.00043418530343185925
0.0006143292519651838   -0.01572559185484598   -0.0002994040436291895
-0.0005421950380278814   -0.015761609256809906   -0.0003332667118759814
-0.0007652485765158075   -0.017600151912100546   -0.000421810084695323
-0.0005436507682996857   -0.015747957438283382   -0.0003432626666157292
0.00017363225423503695   -0.017540615102791184   -0.00043418530343185925
-0.0007554281542983135   -0.0175912014192284   -0.00043733456976820126
-0.0005436507682996857   -0.015747957438283382   -0.0003432626666157292
-0.0007652485765158075   -0.017600151912100546   -0.000421810084695323
0.00017363225423503695   -0.017540615102791184   -0.00043418530343185925
-0.0005436507682996857   -0.015747957438283382   -0.0003432626666157292
0.0006370142951978185   -0.015710640369005022   -0.00032758978097422896
0.0006143292519651838   -0.01572559185484598   -0.0002994040436291895
0.00017363225423503695   -0.017540615102791184   -0.00043418530343185925
-0.0005436507682996857   -0.015747957438283382   -0.0003432626666157292
0.0006143292519651838   -0.01572559185484598   -0.0002994040436291895
-0.0007652485765158075   -0.017600151912100546   -0.000421810084695323
-0.0007959067012031499   -0.017652190059020797   -0.000384651873255798
-0.0005496842669571426   -0.01581568959653423   -0.00030750749903150746
-0.0016022770933864674   -0.0176603683442565   -0.00044707183464124463
-0.0007816435116614809   -0.017620274574980808   -0.0004043213038544077
-0.0005496842669571426   -0.01581568959653423   -0.00030750749903150746
-0.0016190394403364952   -0.015816135953132478   -0.0003670748460591343
-0.0016022770933864674   -0.0176603683442565   -0.00044707183464124463
-0.001619026100130886   -0.015789458327050067   -0.0003657476752303274
-0.0007816435116614809   -0.017620274574980808   -0.0004043213038544077
-0.0015919040806825532   -0.01763307961988194   -0.0004474488522237784
-0.001619026100130886   -0.015789458327050067   -0.0003657476752303274
-0.0016022770933864674   -0.0176603683442565   -0.00044707183464124463
-0.0007816435116614809   -0.017620274574980808   -0.0004043213038544077
-0.001619026100130886   -0.015789458327050067   -0.0003657476752303274
-0.0005464095769075059   -0.0157839355433714   -0.0003213970863203029
-0.0005496842669571426   -0.01581568959653423   -0.00030750749903150746
-0.0007816435116614809   -0.017620274574980808   -0.0004043213038544077
-0.001619026100130886   -0.015789458327050067   -0.0003657476752303274
-0.0005496842669571426   -0.01581568959653423   -0.00030750749903150746
-0.0016022770933864674   -0.0176603683442565   -0.00044707183464124463
-0.0007816435116614809   -0.017620274574980808   -0.0004043213038544077
-0.0005464095769075059   -0.0157839355433714   -0.0003213970863203029
-0.0015919040806825532   -0.01763307961988194   -0.0004474488522237784
-0.0007652485765158075   -0.017600151912100546   -0.000421810084695323
-0.0005464095769075059   -0.0157839355433714   -0.0003213970863203029
-0.001619026100130886   -0.015789458327050067   -0.0003657476752303274
-0.0015919040806825532   -0.01763307961988194   -0.0004474488522237784
-0.0016189313007001103   -0.015771081559698426   -0.00036240157245974485
-0.0007652485765158075   -0.017600151912100546   -0.000421810084695323
-0.0015812173571920693   -0.017616334912654238   -0.0004457303523691466
-0.0016189313007001103   -0.015771081559698426   -0.00036240157245974485
-0.0015919040806825532   -0.01763307961988194   -0.0004474488522237784
-0.0007652485765158075   -0.017600151912100546   -0.000421810084695323
-0.0016189313007001103   -0.015771081559698426   -0.00036240157245974485
-0.0005421950380278814   -0.015761609256809906   -0.0003332667118759814
-0.0005464095769075059   -0.0157839355433714   -0.0003213970863203029
-0.0007652485765158075   -0.017600151912100546   -0.000421810084695323
-0.0016189313007001103   -0.015771081559698426   -0.00036240157245974485
-0.0005464095769075059   -0.0157839355433714   -0.0003213970863203029
-0.0015919040806825532   -0.01763307961988194   -0.0004474488522237784
-0.0007652485765158075   -0.017600151912100546   -0.000421810084695323
-0.0005421950380278814   -0.015761609256809906   -0.0003332667118759814
-0.0015812173571920693   -0.017616334912654238   -0.0004457303523691466
-0.0007554281542983135   -0.0175912014192284   -0.00043733456976820126
-0.0005421950380278814   -0.015761609256809906   -0.0003332667118759814
-0.0016189313007001103   -0.015771081559698426   -0.00036240157245974485
-0.0015812173571920693   -0.017616334912654238   -0.0004457303523691466
-0.0016202486402109298   -0.015761023200165328   -0.0003571501935434063
-0.0007554281542983135   -0.0175912014192284   -0.00043733456976820126
-0.0015718780615409484   -0.017609978145018777   -0.00044206556727472313
-0.0016202486402109298   -0.015761023200165328   -0.0003571501935434063
-0.0015812173571920693   -0.017616334912654238   -0.0004457303523691466
-0.0007554281542983135   -0.0175912014192284   -0.00043733456976820126
-0.0016202486402109298   -0.015761023200165328   -0.0003571501935434063
-0.0005436507682996857   -0.015747957438283382   -0.0003432626666157292
-0.0005421950380278814   -0.015761609256809906   -0.0003332667118759814
-0.0007554281542983135   -0.0175912014192284   -0.00043733456976820126
-0.0016202486402109298   -0.015761023200165328   -0.0003571501935434063
-0.0005421950380278814   -0.015761609256809906   -0.0003332667118759814
-0.0015812173571920693   -0.017616334912654238   -0.0004457303523691466
-0.0016022770933864674   -0.0176603683442565   -0.00044707183464124463
-0.0016190394403364952   -0.015816135953132478   -0.0003670748460591343
-0.002396598421902115   -0.017634396069811292   -0.0005033703792420772
-0.0015919040806825532   -0.01763307961988194   -0.0004474488522237784
-0.0016190394403364952   -0.015816135953132478   -0.0003670748460591343
-0.0026708163027320737   -0.015789286224348265   -0.00041907287887873177
-0.002396598421902115   -0.017634396069811292   -0.0005033703792420772
-0.002671614979407381   -0.015767010982223117   -0.00040272021416582247
-0.0015919040806825532   -0.01763307961988194   -0.0004474488522237784
-0.00238695248020002   -0.01761088927197421   -0.0004849122383131426
-0.002671614979407381   -0.015767010982223117   -0.00040272021416582247
-0.002396598421902115   -0.017634396069811292   -0.0005033703792420772
-0.0015919040806825532   -0.01763307961988194   -0.0004474488522237784
-0.002671614979407381   -0.015767010982223117   -0.00040272021416582247
-0.001619026100130886   -0.015789458327050067   -0.0003657476752303274
-0.0016190394403364952   -0.015816135953132478   -0.0003670748460591343
-0.0015919040806825532   -0.01763307961988194   -0.0004474488522237784
-0.002671614979407381   -0.015767010982223117   -0.00040272021416582247
-0.0016190394403364952   -0.015816135953132478   -0.0003670748460591343
-0.002396598421902115   -0.017634396069811292   -0.0005033703792420772
-0.0015919040806825532   -0.01763307961988194   -0.0004474488522237784
-0.001619026100130886   -0.015789458327050067   -0.0003657476752303274
-0.00238695248020002   -0.01761088927197421   -0.0004849122383131426
-0.0015812173571920693   -0.017616334912654238   -0.0004457303523691466
-0.001619026100130886   -0.015789458327050067   -0.0003657476752303274
-0.002671614979407381   -0.015767010982223117   -0.00040272021416582247
-0.00238695248020002   -0.01761088927197421   -0.0004849122383131426
-0.0026706370355091416   -0.01575296400995601   -0.0003843925094598813
-0.0015812173571920693   -0.017616334912654238   -0.0004457303523691466
-0.0023752849634011124   -0.01759781373131142   -0.0004644094397426767
-0.0026706370355091416   -0.01575296400995601   -0.0003843925094598813
-0.00238695248020002   -0.01761088927197421   -0.0004849122383131426
-0.0015812173571920693   -0.017616334912654238   -0.0004457303523691466
-0.0026706370355091416   -0.01575296400995601   -0.0003843925094598813
-0.0016189313007001103   -0.015771081559698426   -0.00036240157245974485
-0.001619026100130886   -0.015789458327050067   -0.0003657476752303274
-0.0015812173571920693   -0.017616334912654238   -0.0004457303523691466
-0.0026706370355091416   -0.01575296400995601   -0.0003843925094598813
-0.001619026100130886   -0.015789458327050067   -0.0003657476752303274
-0.00238695248020002   -0.01761088927197421   -0.0004849122383131426
-0.0015812173571920693   -0.017616334912654238   -0.0004457303523691466
-0.0016189313007001103   -0.015771081559698426   -0.00036240157245974485
-0.0023752849634011124   -0.01759781373131142   -0.0004644094397426767
-0.0015718780615409484   -0.017609978145018777   -0.00044206556727472313
-0.0016189313007001103   -0.015771081559698426   -0.00036240157245974485
-0.0026706370355091416   -0.01575296400995601   -0.0003843925094598813
-0.0023752849634011124   -0.01759781373131142   -0.0004644094397426767
-0.002670000516646427   -0.01574700977028021   -0.0003641450530093146
-0.0015718780615409484   -0.017609978145018777   -0.00044206556727472313
-0.0023639776329384384   -0.01759471867836131   -0.00044192363352358227
-0.002670000516646427   -0.01574700977028021   -0.0003641450530093146
-0.0023752849634011124   -0.01759781373131142   -0.0004644094397426767
-0.0015718780615409484   -0.017609978145018777   -0.00044206556727472313
-0.002670000516646427   -0.01574700977028021   -0.0003641450530093146
-0.0016202486402109298   -0.015761023200165328   -0.0003571501935434063
-0.0016189313007001103   -0.015771081559698426   -0.00036240157245974485
-0.0015718780615409484   -0.017609978145018777   -0.00044206556727472313
-0.002670000516646427   -0.01574700977028021   -0.0003641450530093146
-0.0016189313007001103   -0.015771081559698426   -0.00036240157245974485
-0.0023752849634011124   -0.01759781373131142   -0.0004644094397426767
-0.002396598421902115   -0.017634396069811292   -0.0005033703792420772
-0.0026708163027320737   -0.015789286224348265   -0.00041907287887873177
-0.003228178991824357   -0.01757510686196852   -0.0005534442667673197
-0.00238695248020002   -0.01761088927197421   -0.0004849122383131426
-0.0026708163027320737   -0.015789286224348265   -0.00041907287887873177
-0.0037549920651510343   -0.0157360858388912   -0.000463684992480134
-0.003228178991824357   -0.01757510686196852   -0.0005534442667673197
-0.00375347241823169   -0.015717976417449667   -0.0004321154893311192
-0.00238695248020002   -0.01761088927197421   -0.0004849122383131426
-0.0032153960098605886   -0.01755515088217385   -0.0005160977295547602
-0.00375347241823169   -0.015717976417449667   -0.0004321154893311192
-0.003228178991824357   -0.01757510686196852   -0.0005534442667673197
-0.00238695248020002   -0.01761088927197421   -0.0004849122383131426
-0.00375347241823169   -0.015717976417449667   -0.0004321154893311192
-0.002671614979407381   -0.015767010982223117   -0.00040272021416582247
-0.0026708163027320737   -0.015789286224348265   -0.00041907287887873177
-0.00238695248020002   -0.01761088927197421   -0.0004849122383131426
-0.00375347241823169   -0.015717976417449667   -0.0004321154893311192
-0.0026708163027320737   -0.015789286224348265   -0.00041907287887873177
-0.003228178991824357   -0.01757510686196852   -0.0005534442667673197
-0.00238695248020002   -0.01761088927197421   -0.0004849122383131426
-0.002671614979407381   -0.015767010982223117   -0.00040272021416582247
-0.0032153960098605886   -0.01755515088217385   -0.0005160977295547602
-0.0023752849634011124   -0.01759781373131142   -0.0004644094397426767
-0.002671614979407381   -0.015767010982223117   -0.00040272021416582247
-0.00375347241823169   -0.015717976417449667   -0.0004321154893311192
-0.0032153960098605886   -0.01755515088217385   -0.0005160977295547602
-0.003744058615023809   -0.015707857980995842   -0.00039887179757627404
-0.0023752849634011124   -0.01759781373131142   -0.0004644094397426767
-0.0031936226081954295   -0.017545400956180138   -0.0004770293313713887
-0.003744058615023809   -0.015707857980995842   -0.00039887179757627404
-0.0032153960098605886   -0.01755515088217385   -0.0005160977295547602
-0.0023752849634011124   -0.01759781373131142   -0.0004644094397426767
-0.003744058615023809   -0.015707857980995842   -0.00039887179757627404
-0.0026706370355091416   -0.01575296400995601   -0.0003843925094598813
-0.002671614979407381   -0.015767010982223117   -0.00040272021416582247
-0.0023752849634011124   -0.01759781373131142   -0.0004644094397426767
-0.003744058615023809   -0.015707857980995842   -0.00039887179757627404
-0.002671614979407381   -0.015767010982223117   -0.00040272021416582247
-0.0032153960098605886   -0.01755515088217385   -0.0005160977295547602
-0.0023752849634011124   -0.01759781373131142   -0.0004644094397426767
-0.0026706370355091416   -0.01575296400995601   -0.0003843925094598813
-0.0031936226081954295   -0.017545400956180138   -0.0004770293313713887
-0.0023639776329384384   -0.01759471867836131   -0.00044192363352358227
-0.0026706370355091416   -0.01575296400995601   -0.0003843925094598813
-0.003744058615023809   -0.015707857980995842   -0.00039887179757627404
-0.0031936226081954295   -0.017545400956180138   -0.0004770293313713887
-0.003737841980486053   -0.01570652175857291   -0.00036354905695082704
-0.0023639776329384384   -0.01759471867836131   -0.00044192363352358227
-0.003176151792529594   -0.017546414585139933   -0.00043568412588907053
-0.003737841980486053   -0.01570652175857291   -0.00036354905695082704
-0.0031936226081954295   -0.017545400956180138   -0.0004770293313713887
-0.0023639776329384384   -0.01759471867836131   -0.00044192363352358227
-0.003737841980486053   -0.01570652175857291   -0.00036354905695082704
-0.002670000516646427   -0.01574700977028021   -0.0003641450530093146
-0.0026706370355091416   -0.01575296400995601   -0.0003843925094598813
-0.0023639776329384384   -0.01759471867836131   -0.00044192363352358227
-0.003737841980486053   -0.01570652175857291   -0.00036354905695082704
-0.0026706370355091416   -0.01575296400995601   -0.0003843925094598813
-0.0031936226081954295   -0.017545400956180138   -0.0004770293313713887
-0.003228178991824357   -0.01757510686196852   -0.0005534442667673197
-0.0037549920651510343   -0.0157360858388912   -0.000463684992480134
-0.004197567561965548   -0.01748915046738923   -0.000600669625760284
-0.0032153960098605886   -0.01755515088217385   -0.0005160977295547602
-0.0037549920651510343   -0.0157360858388912   -0.000463684992480134
-0.004966145545055117   -0.01566215025399863   -0.0005042132856202402
-0.004197567561965548   -0.01748915046738923   -0.000600669625760284
-0.004919188267758474   -0.015644229133464388   -0.0004557389460760536
-0.0032153960098605886   -0.01755515088217385   -0.0005160977295547602
-0.004130274546521632   -0.01746809154269536   -0.0005420875624920093
-0.004919188267758474   -0.015644229133464388   -0.0004557389460760536
-0.004197567561965548   -0.01748915046738923   -0.000600669625760284
-0.0032153960098605886   -0.01755515088217385   -0.0005160977295547602
-0.004919188267758474   -0.015644229133464388   -0.0004557389460760536
-0.00375347241823169   -0.015717976417449667   -0.0004321154893311192
-0.0037549920651510343   -0.0157360858388912   -0.000463684992480134
-0.0032153960098605886   -0.01755515088217385   -0.0005160977295547602
-0.004919188267758474   -0.015644229133464388   -0.0004557389460760536
-0.0037549920651510343   -0.0157360858388912   -0.000463684992480134
-0.004197567561965548   -0.01748915046738923   -0.000600669625760284
-0.0032153960098605886   -0.01755515088217385   -0.0005160977295547602
-0.00375347241823169   -0.015717976417449667   -0.0004321154893311192
-0.004130274546521632   -0.01746809154269536   -0.0005420875624920093
-0.0031936226081954295   -0.017545400956180138   -0.0004770293313713887
-0.00375347241823169   -0.015717976417449667   -0.0004321154893311192
-0.004919188267758474   -0.015644229133464388   -0.0004557389460760536
-0.004130274546521632   -0.01746809154269536   -0.0005420875624920093
-0.0048792493425868794   -0.01563555321936232   -0.00040443001561059214
-0.0031936226081954295   -0.017545400956180138   -0.0004770293313713887
-0.004072214905734233   -0.017459246195833625   -0.0004806411819233549
-0.0048792493425868794   -0.01563555321936232   -0.00040443001561059214
-0.004130274546521632   -0.01746809154269536   -0.0005420875624920093
-0.0031936226081954295   -0.017545400956180138   -0.0004770293313713887
-0.0048792493425868794   -0.01563555321936232   -0.00040443001561059214
-0.003744058615023809   -0.015707857980995842   -0.00039887179757627404
-0.00375347241823169   -0.015717976417449667   -0.0004321154893311192
-0.0031936226081954295   -0.017545400956180138   -0.0004770293313713887
-0.0048792493425868794   -0.01563555321936232   -0.00040443001561059214
-0.00375347241823169   -0.015717976417449667   -0.0004321154893311192
-0.004130274546521632   -0.01746809154269536   -0.0005420875624920093
-0.0031936226081954295   -0.017545400956180138   -0.0004770293313713887
-0.003744058615023809   -0.015707857980995842   -0.00039887179757627404
-0.004072214905734233   -0.017459246195833625   -0.0004806411819233549
-0.003176151792529594   -0.017546414585139933   -0.00043568412588907053
-0.003744058615023809   -0.015707857980995842   -0.00039887179757627404
-0.0048792493425868794   -0.01563555321936232   -0.00040443001561059214
-0.004072214905734233   -0.017459246195833625   -0.0004806411819233549
-0.004821913864701276   -0.01564072509024744   -0.00035068476909988944
-0.003176151792529594   -0.017546414585139933   -0.00043568412588907053
-0.003994141117691815   -0.01746676679914229   -0.00041671723407950067
-0.004821913864701276   -0.01564072509024744   -0.00035068476909988944
-0.004072214905734233   -0.017459246195833625   -0.0004806411819233549
-0.003176151792529594   -0.017546414585139933   -0.00043568412588907053
-0.004821913864701276   -0.01564072509024744   -0.00035068476909988944
-0.003737841980486053   -0.01570652175857291   -0.00036354905695082704
-0.003744058615023809   -0.015707857980995842   -0.00039887179757627404
-0.003176151792529594   -0.017546414585139933   -0.00043568412588907053
-0.004821913864701276   -0.01564072509024744   -0.00035068476909988944
-0.003744058615023809   -0.015707857980995842   -0.00039887179757627404
-0.004072214905734233   -0.017459246195833625   -0.0004806411819233549
0.0005590700859823506   -0.015787115699582892   -0.00023458173196337322
0.0009277296188741454   -0.01357719729220716   -0.00015661786107543451
-0.0005496842669571426   -0.01581568959653423   -0.00030750749903150746
0.0005926207857956561   -0.0157494629311403   -0.00026842329079285383
0.0009277296188741454   -0.01357719729220716   -0.00015661786107543451
-0.0003962543173114388   -0.013591872386947144   -0.0002251735093010587
-0.0005496842669571426   -0.01581568959653423   -0.00030750749903150746
-0.00040191022667592055   -0.01356093324645761   -0.00023294456040419526
0.0005926207857956561   -0.0157494629311403   -0.00026842329079285383
-0.0005464095769075059   -0.0157839355433714   -0.0003213970863203029
-0.00040191022667592055   -0.01356093324645761   -0.00023294456040419526
-0.0005496842669571426   -0.01581568959653423   -0.00030750749903150746
0.0005926207857956561   -0.0157494629311403   -0.00026842329079285383
-0.00040191022667592055   -0.01356093324645761   -0.00023294456040419526
0.0009421512214487813   -0.013540912970342456   -0.00017934047217939338
0.0009277296188741454   -0.01357719729220716   -0.00015661786107543451
0.0005926207857956561   -0.0157494629311403   -0.00026842329079285383
-0.00040191022667592055   -0.01356093324645761   -0.00023294456040419526
0.0009277296188741454   -0.01357719729220716   -0.00015661786107543451
-0.0005496842669571426   -0.01581568959653423   -0.00030750749903150746
0.0005926207857956561   -0.0157494629311403   -0.00026842329079285383
0.0009421512214487813   -0.013540912970342456   -0.00017934047217939338
-0.0005464095769075059   -0.0157839355433714   -0.0003213970863203029
0.0006143292519651838   -0.01572559185484598   -0.0002994040436291895
0.0009421512214487813   -0.013540912970342456   -0.00017934047217939338
-0.00040191022667592055   -0.01356093324645761   -0.00023294456040419526
-0.0005464095769075059   -0.0157839355433714   -0.0003213970863203029
-0.000407784844505227   -0.013537092623998687   -0.0002388841797338732
0.0006143292519651838   -0.01572559185484598   -0.0002994040436291895
-0.0005421950380278814   -0.015761609256809906   -0.0003332667118759814
-0.000407784844505227   -0.013537092623998687   -0.0002388841797338732
-0.0005464095769075059   -0.0157839355433714   -0.0003213970863203029
0.0006143292519651838   -0.01572559185484598   -0.0002994040436291895
-0.000407784844505227   -0.013537092623998687   -0.0002388841797338732
0.0009473783647126854   -0.013515269202630286   -0.0001993542592699182
0.0009421512214487813   -0.013540912970342456   -0.00017934047217939338
0.0006143292519651838   -0.01572559185484598   -0.0002994040436291895
-0.000407784844505227   -0.013537092623998687   -0.0002388841797338732
0.0009421512214487813   -0.013540912970342456   -0.00017934047217939338
-0.0005464095769075059   -0.0157839355433714   -0.0003213970863203029
0.0006143292519651838   -0.01572559185484598   -0.0002994040436291895
0.0009473783647126854   -0.013515269202630286   -0.0001993542592699182
-0.0005421950380278814   -0.015761609256809906   -0.0003332667118759814
0.0006370142951978185   -0.015710640369005022   -0.00032758978097422896
0.0009473783647126854   -0.013515269202630286   -0.0001993542592699182
-0.000407784844505227   -0.013537092623998687   -0.0002388841797338732
-0.0005421950380278814   -0.015761609256809906   -0.0003332667118759814
-0.00041830932488474265   -0.013519554905778488   -0.00024305272370758993
0.0006370142951978185   -0.015710640369005022   -0.00032758978097422896
-0.0005436507682996857   -0.015747957438283382   -0.0003432626666157292
-0.00041830932488474265   -0.013519554905778488   -0.00024305272370758993
-0.0005421950380278814   -0.015761609256809906   -0.0003332667118759814
0.0006370142951978185   -0.015710640369005022   -0.00032758978097422896
-0.00041830932488474265   -0.013519554905778488   -0.00024305272370758993
0.0009512676052191882   -0.013495466537592137   -0.00021679095663779943
0.0009473783647126854   -0.013515269202630286   -0.0001993542592699182
0.0006370142951978185   -0.015710640369005022   -0.00032758978097422896
-0.00041830932488474265   -0.013519554905778488   -0.00024305272370758993
0.0009473783647126854   -0.013515269202630286   -0.0001993542592699182
-0.0005421950380278814   -0.015761609256809906   -0.0003332667118759814
-0.0005496842669571426   -0.01581568959653423   -0.00030750749903150746
-0.0003962543173114388   -0.013591872386947144   -0.0002251735093010587
-0.0016190394403364952   -0.015816135953132478   -0.0003670748460591343
-0.0005464095769075059   -0.0157839355433714   -0.0003213970863203029
-0.0003962543173114388   -0.013591872386947144   -0.0002251735093010587
-0.0016670327388706872   -0.013585161171547018   -0.0002809393410493764
-0.0016190394403364952   -0.015816135953132478   -0.0003670748460591343
-0.0016752510607172832   -0.013559567886872648   -0.0002775365556353789
-0.0005464095769075059   -0.0157839355433714   -0.0003213970863203029
-0.001619026100130886   -0.015789458327050067   -0.0003657476752303274
-0.0016752510607172832   -0.013559567886872648   -0.0002775365556353789
-0.0016190394403364952   -0.015816135953132478   -0.0003670748460591343
-0.0005464095769075059   -0.0157839355433714   -0.0003213970863203029
-0.0016752510607172832   -0.013559567886872648   -0.0002775365556353789
-0.00040191022667592055   -0.01356093324645761   -0.00023294456040419526
-0.0003962543173114388   -0.013591872386947144   -0.0002251735093010587
-0.0005464095769075059   -0.0157839355433714   -0.0003213970863203029
-0.0016752510607172832   -0.013559567886872648   -0.0002775365556353789
-0.0003962543173114388   -0.013591872386947144   -0.0002251735093010587
-0.0016190394403364952   -0.015816135953132478   -0.0003670748460591343
-0.0005464095769075059   -0.0157839355433714   -0.0003213970863203029
-0.00040191022667592055   -0.01356093324645761   -0.00023294456040419526
-0.001619026100130886   -0.015789458327050067   -0.0003657476752303274
-0.0005421950380278814   -0.015761609256809906   -0.0003332667118759814
-0.00040191022667592055   -0.01356093324645761   -0.00023294456040419526
-0.0016752510607172832   -0.013559567886872648   -0.0002775365556353789
-0.001619026100130886   -0.015789458327050067   -0.0003657476752303274
-0.0016835857559015497   -0.013540052520570332   -0.000272241780522228
-0.0005421950380278814   -0.015761609256809906   -0.0003332667118759814
-0.0016189313007001103   -0.015771081559698426   -0.00036240157245974485
-0.0016835857559015497   -0.013540052520570332   -0.000272241780522228
-0.001619026100130886   -0.015789458327050067   -0.0003657476752303274
-0.0005421950380278814   -0.015761609256809906   -0.0003332667118759814
-0.0016835857559015497   -0.013540052520570332   -0.000272241780522228
-0.000407784844505227   -0.013537092623998687   -0.0002388841797338732
-0.00040191022667592055   -0.01356093324645761   -0.00023294456040419526
-0.0005421950380278814   -0.015761609256809906   -0.0003332667118759814
-0.0016835857559015497   -0.013540052520570332   -0.000272241780522228
-0.00040191022667592055   -0.01356093324645761   -0.00023294456040419526
-0.001619026100130886   -0.015789458327050067   -0.0003657476752303274
-0.0005421950380278814   -0.015761609256809906   -0.0003332667118759814
-0.000407784844505227   -0.013537092623998687   -0.0002388841797338732
-0.0016189313007001103   -0.015771081559698426   -0.00036240157245974485
-0.0005436507682996857   -0.015747957438283382   -0.0003432626666157292
-0.000407784844505227   -0.013537092623998687   -0.0002388841797338732
-0.0016835857559015497   -0.013540052520570332   -0.000272241780522228
-0.0016189313007001103   -0.015771081559698426   -0.00036240157245974485
-0.0016932718210602208   -0.013526714873874019   -0.0002651545385690678
-0.0005436507682996857   -0.015747957438283382   -0.0003432626666157292
-0.0016202486402109298   -0.015761023200165328   -0.0003571501935434063
-0.0016932718210602208   -0.013526714873874019   -0.0002651545385690678
-0.0016189313007001103   -0.015771081559698426   -0.00036240157245974485
-0.0005436507682996857   -0.015747957438283382   -0.0003432626666157292
-0.0016932718210602208   -0.013526714873874019   -0.0002651545385690678
-0.00041830932488474265   -0.013519554905778488   -0.00024305272370758993
-0.000407784844505227   -0.013537092623998687   -0.0002388841797338732
-0.0005436507682996857   -0.015747957438283382   -0.0003432626666157292
-0.0016932718210602208   -0.013526714873874019   -0.0002651545385690678
-0.000407784844505227   -0.013537092623998687   -0.0002388841797338732
-0.0016189313007001103   -0.015771081559698426   -0.00036240157245974485
-0.0016190394403364952   -0.015816135953132478   -0.0003670748460591343
-0.0016670327388706872   -0.013585161171547018   -0.0002809393410493764
-0.0026708163027320737   -0.015789286224348265   -0.00041907287887873177
-0.001619026100130886   -0.015789458327050067   -0.0003657476752303274
-0.0016670327388706872   -0.013585161171547018   -0.0002809393410493764
-0.0029167086346074357   -0.013558571459129197   -0.00032833760221922934
-0.0026708163027320737   -0.015789286224348265   -0.00041907287887873177
-0.0029256573435353273   -0.013537781248571265   -0.0003138316490819649
-0.001619026100130886   -0.015789458327050067   -0.0003657476752303274
-0.002671614979407381   -0.015767010982223117   -0.00040272021416582247
-0.0029256573435353273   -0.013537781248571265   -0.0003138316490819649
-0.0026708163027320737   -0.015789286224348265   -0.00041907287887873177
-0.001619026100130886   -0.015789458327050067   -0.0003657476752303274
-0.0029256573435353273   -0.013537781248571265   -0.0003138316490819649
-0.0016752510607172832   -0.013559567886872648   -0.0002775365556353789
-0.0016670327388706872   -0.013585161171547018   -0.0002809393410493764
-0.001619026100130886   -0.015789458327050067   -0.0003657476752303274
-0.0029256573435353273   -0.013537781248571265   -0.0003138316490819649
-0.0016670327388706872   -0.013585161171547018   -0.0002809393410493764
-0.0026708163027320737   -0.015789286224348265   -0.00041907287887873177
-0.001619026100130886   -0.015789458327050067   -0.0003657476752303274
-0.0016752510607172832   -0.013559567886872648   -0.0002775365556353789
-0.002671614979407381   -0.015767010982223117   -0.00040272021416582247
-0.0016189313007001103   -0.015771081559698426   -0.00036240157245974485
-0.0016752510607172832   -0.013559567886872648   -0.0002775365556353789
-0.0029256573435353273   -0.013537781248571265   -0.0003138316490819649
-0.002671614979407381   -0.015767010982223117   -0.00040272021416582247
-0.0029330137950320328   -0.013523012131160786   -0.0002974711298374519
-0.0016189313007001103   -0.015771081559698426   -0.00036240157245974485
-0.0026706370355091416   -0.01575296400995601   -0.0003843925094598813
-0.0029330137950320328   -0.013523012131160786   -0.0002974711298374519
-0.002671614979407381   -0.015767010982223117   -0.00040272021416582247
-0.0016189313007001103   -0.015771081559698426   -0.00036240157245974485
-0.0029330137950320328   -0.013523012131160786   -0.0002974711298374519
-0.0016835857559015497   -0.013540052520570332   -0.000272241780522228
-0.0016752510607172832   -0.013559567886872648   -0.0002775365556353789
-0.0016189313007001103   -0.015771081559698426   -0.00036240157245974485
-0.0029330137950320328   -0.013523012131160786   -0.0002974711298374519
-0.0016752510607172832   -0.013559567886872648   -0.0002775365556353789
-0.002671614979407381   -0.015767010982223117   -0.00040272021416582247
-0.0016189313007001103   -0.015771081559698426   -0.00036240157245974485
-0.0016835857559015497   -0.013540052520570332   -0.000272241780522228
-0.0026706370355091416   -0.01575296400995601   -0.0003843925094598813
-0.0016202486402109298   -0.015761023200165328   -0.0003571501935434063
-0.0016835857559015497   -0.013540052520570332   -0.000272241780522228
-0.0029330137950320328   -0.013523012131160786   -0.0002974711298374519
-0.0026706370355091416   -0.01575296400995601   -0.0003843925094598813
-0.002940603016147807   -0.013514235969612733   -0.0002793080088962858
-0.0016202486402109298   -0.015761023200165328   -0.0003571501935434063
-0.002670000516646427   -0.01574700977028021   -0.0003641450530093146
-0.002940603016147807   -0.013514235969612733   -0.0002793080088962858
-0.0026706370355091416   -0.01575296400995601   -0.0003843925094598813
-0.0016202486402109298   -0.015761023200165328   -0.0003571501935434063
-0.002940603016147807   -0.013514235969612733   -0.0002793080088962858
-0.0016932718210602208   -0.013526714873874019   -0.0002651545385690678
-0.0016835857559015497   -0.013540052520570332   -0.000272241780522228
-0.0016202486402109298   -0.015761023200165328   -0.0003571501935434063
-0.002940603016147807   -0.013514235969612733   -0.0002793080088962858
-0.0016835857559015497   -0.013540052520570332   -0.000272241780522228
-0.0026706370355091416   -0.01575296400995601   -0.0003843925094598813
-0.0026708163027320737   -0.015789286224348265   -0.00041907287887873177
-0.0029167086346074357   -0.013558571459129197   -0.00032833760221922934
-0.0037549920651510343   -0.0157360858388912   -0.000463684992480134
-0.002671614979407381   -0.015767010982223117   -0.00040272021416582247
-0.0029167086346074357   -0.013558571459129197   -0.00032833760221922934
-0.00419606268689313   -0.013512601202359741   -0.0003676189891771622
-0.0037549920651510343   -0.0157360858388912   -0.000463684992480134
-0.004203319625756027   -0.013496464890071874   -0.00034185073047175073
-0.002671614979407381   -0.015767010982223117   -0.00040272021416582247
-0.00375347241823169   -0.015717976417449667   -0.0004321154893311192
-0.004203319625756027   -0.013496464890071874   -0.00034185073047175073
-0.0037549920651510343   -0.0157360858388912   -0.000463684992480134
-0.002671614979407381   -0.015767010982223117   -0.00040272021416582247
-0.004203319625756027   -0.013496464890071874   -0.00034185073047175073
-0.0029256573435353273   -0.013537781248571265   -0.0003138316490819649
-0.0029167086346074357   -0.013558571459129197   -0.00032833760221922934
-0.002671614979407381   -0.015767010982223117   -0.00040272021416582247
-0.004203319625756027   -0.013496464890071874   -0.00034185073047175073
-0.0029167086346074357   -0.013558571459129197   -0.00032833760221922934
-0.0037549920651510343   -0.0157360858388912   -0.000463684992480134
-0.002671614979407381   -0.015767010982223117   -0.00040272021416582247
-0.0029256573435353273   -0.013537781248571265   -0.0003138316490819649
-0.00375347241823169   -0.015717976417449667   -0.0004321154893311192
-0.0026706370355091416   -0.01575296400995601   -0.0003843925094598813
-0.0029256573435353273   -0.013537781248571265   -0.0003138316490819649
-0.004203319625756027   -0.013496464890071874   -0.00034185073047175073
-0.00375347241823169   -0.015717976417449667   -0.0004321154893311192
-0.004203751691713912   -0.013486042546604262   -0.0003144831722770546
-0.0026706370355091416   -0.01575296400995601   -0.0003843925094598813
-0.003744058615023809   -0.015707857980995842   -0.00039887179757627404
-0.004203751691713912   -0.013486042546604262   -0.0003144831722770546
-0.00375347241823169   -0.015717976417449667   -0.0004321154893311192
-0.0026706370355091416   -0.01575296400995601   -0.0003843925094598813
-0.004203751691713912   -0.013486042546604262   -0.0003144831722770546
-0.0029330137950320328   -0.013523012131160786   -0.0002974711298374519
-0.0029256573435353273   -0.013537781248571265   -0.0003138316490819649
-0.0026706370355091416   -0.01575296400995601   -0.0003843925094598813
-0.004203751691713912   -0.013486042546604262   -0.0003144831722770546
-0.0029256573435353273   -0.013537781248571265   -0.0003138316490819649
-0.00375347241823169   -0.015717976417449667   -0.0004321154893311192
-0.0026706370355091416   -0.01575296400995601   -0.0003843925094598813
-0.0029330137950320328   -0.013523012131160786   -0.0002974711298374519
-0.003744058615023809   -0.015707857980995842   -0.00039887179757627404
-0.002670000516646427   -0.01574700977028021   -0.0003641450530093146
-0.0029330137950320328   -0.013523012131160786   -0.0002974711298374519
-0.004203751691713912   -0.013486042546604262   -0.0003144831722770546
-0.003744058615023809   -0.015707857980995842   -0.00039887179757627404
-0.004206238604255684   -0.013482165494658124   -0.00028517335390429747
-0.002670000516646427   -0.01574700977028021   -0.0003641450530093146
-0.003737841980486053   -0.01570652175857291   -0.00036354905695082704
-0.004206238604255684   -0.013482165494658124   -0.00028517335390429747
-0.003744058615023809   -0.015707857980995842   -0.00039887179757627404
-0.002670000516646427   -0.01574700977028021   -0.0003641450530093146
-0.004206238604255684   -0.013482165494658124   -0.00028517335390429747
-0.002940603016147807   -0.013514235969612733   -0.0002793080088962858
-0.0029330137950320328   -0.013523012131160786   -0.0002974711298374519
-0.002670000516646427   -0.01574700977028021   -0.0003641450530093146
-0.004206238604255684   -0.013482165494658124   -0.00028517335390429747
-0.0029330137950320328   -0.013523012131160786   -0.0002974711298374519
-0.003744058615023809   -0.015707857980995842   -0.00039887179757627404
-0.0037549920651510343   -0.0157360858388912   -0.000463684992480134
-0.00419606268689313   -0.013512601202359741   -0.0003676189891771622
-0.004966145545055117   -0.01566215025399863   -0.0005042132856202402
-0.00375347241823169   -0.015717976417449667   -0.0004321154893311192
-0.00419606268689313   -0.013512601202359741   -0.0003676189891771622
-0.005592020742752836   -0.013451709739449287   -0.0004012074079284096
-0.004966145545055117   -0.01566215025399863   -0.0005042132856202402
-0.005563543844058164   -0.013436963025502109   -0.0003633459380385749
-0.00375347241823169   -0.015717976417449667   -0.0004321154893311192
-0.004919188267758474   -0.015644229133464388   -0.0004557389460760536
-0.005563543844058164   -0.013436963025502109   -0.0003633459380385749
-0.004966145545055117   -0.01566215025399863   -0.0005042132856202402
-0.00375347241823169   -0.015717976417449667   -0.0004321154893311192
-0.005563543844058164   -0.013436963025502109   -0.0003633459380385749
-0.004203319625756027   -0.013496464890071874   -0.00034185073047175073
-0.00419606268689313   -0.013512601202359741   -0.0003676189891771622
-0.00375347241823169   -0.015717976417449667   -0.0004321154893311192
-0.005563543844058164   -0.013436963025502109   -0.0003633459380385749
-0.00419606268689313   -0.013512601202359741   -0.0003676189891771622
-0.004966145545055117   -0.01566215025399863   -0.0005042132856202402
-0.00375347241823169   -0.015717976417449667   -0.0004321154893311192
-0.004203319625756027   -0.013496464890071874   -0.00034185073047175073
-0.004919188267758474   -0.015644229133464388   -0.0004557389460760536
-0.003744058615023809   -0.015707857980995842   -0.00039887179757627404
-0.004203319625756027   -0.013496464890071874   -0.00034185073047175073
-0.005563543844058164   -0.013436963025502109   -0.0003633459380385749
-0.004919188267758474   -0.015644229133464388   -0.0004557389460760536
-0.005539642365694108   -0.013428392450876485   -0.0003226800209798346
-0.003744058615023809   -0.015707857980995842   -0.00039887179757627404
-0.0048792493425868794   -0.01563555321936232   -0.00040443001561059214
-0.005539642365694108   -0.013428392450876485   -0.0003226800209798346
-0.004919188267758474   -0.015644229133464388   -0.0004557389460760536
-0.003744058615023809   -0.015707857980995842   -0.00039887179757627404
-0.005539642365694108   -0.013428392450876485   -0.0003226800209798346
-0.004203751691713912   -0.013486042546604262   -0.0003144831722770546
-0.004203319625756027   -0.013496464890071874   -0.00034185073047175073
-0.003744058615023809   -0.015707857980995842   -0.00039887179757627404
-0.005539642365694108   -0.013428392450876485   -0.0003226800209798346
-0.004203319625756027   -0.013496464890071874   -0.00034185073047175073
-0.004919188267758474   -0.015644229133464388   -0.0004557389460760536
-0.003744058615023809   -0.015707857980995842   -0.00039887179757627404
-0.004203751691713912   -0.013486042546604262   -0.0003144831722770546
-0.0048792493425868794   -0.01563555321936232   -0.00040443001561059214
-0.003737841980486053   -0.01570652175857291   -0.00036354905695082704
-0.004203751691713912   -0.013486042546604262   -0.0003144831722770546
-0.005539642365694108   -0.013428392450876485   -0.0003226800209798346
-0.0048792493425868794   -0.01563555321936232   -0.00040443001561059214
-0.005500834963745664   -0.013430848931474176   -0.00027956296448093947
-0.003737841980486053   -0.01570652175857291   -0.00036354905695082704
-0.004821913864701276   -0.01564072509024744   -0.00035068476909988944
-0.005500834963745664   -0.013430848931474176   -0.00027956296448093947
-0.0048792493425868794   -0.01563555321936232   -0.00040443001561059214
-0.003737841980486053   -0.01570652175857291   -0.00036354905695082704
-0.005500834963745664   -0.013430848931474176   -0.00027956296448093947
-0.004206238604255684   -0.013482165494658124   -0.00028517335390429747
-0.004203751691713912   -0.013486042546604262   -0.0003144831722770546
-0.003737841980486053   -0.01570652175857291   -0.00036354905695082704
-0.005500834963745664   -0.013430848931474176   -0.00027956296448093947
-0.004203751691713912   -0.013486042546604262   -0.0003144831722770546
-0.0048792493425868794   -0.01563555321936232   -0.00040443001561059214
0.0009277296188741454   -0.01357719729220716   -0.00015661786107543451
0.0011402983429810254   -0.011081287730527245   -8.083485146741856e-05
-0.0003962543173114388   -0.013591872386947144   -0.0002251735093010587
0.0009421512214487813   -0.013540912970342456   -0.00017934047217939338
0.0011402983429810254   -0.011081287730527245   -8.083485146741856e-05
-0.0003376289717825523   -0.011081999900557792   -0.00014417746815565552
-0.0003962543173114388   -0.013591872386947144   -0.0002251735093010587
-0.000350090288214681   -0.011052172305774332   -0.00014565197580888303
0.0009421512214487813   -0.013540912970342456   -0.00017934047217939338
-0.00040191022667592055   -0.01356093324645761   -0.00023294456040419526
-0.000350090288214681   -0.011052172305774332   -0.00014565197580888303
-0.0003962543173114388   -0.013591872386947144   -0.0002251735093010587
0.0009421512214487813   -0.013540912970342456   -0.00017934047217939338
-0.000350090288214681   -0.011052172305774332   -0.00014565197580888303
0.001137808449710656   -0.011046625098191867   -9.238690397752255e-05
0.0011402983429810254   -0.011081287730527245   -8.083485146741856e-05
0.0009421512214487813   -0.013540912970342456   -0.00017934047217939338
-0.000350090288214681   -0.011052172305774332   -0.00014565197580888303
0.0011402983429810254   -0.011081287730527245   -8.083485146741856e-05
-0.0003962543173114388   -0.013591872386947144   -0.0002251735093010587
0.0009421512214487813   -0.013540912970342456   -0.00017934047217939338
0.001137808449710656   -0.011046625098191867   -9.238690397752255e-05
-0.00040191022667592055   -0.01356093324645761   -0.00023294456040419526
0.0009473783647126854   -0.013515269202630286   -0.0001993542592699182
0.001137808449710656   -0.011046625098191867   -9.238690397752255e-05
-0.000350090288214681   -0.011052172305774332   -0.00014565197580888303
-0.00040191022667592055   -0.01356093324645761   -0.00023294456040419526
-0.0003639511606469   -0.011027036389218895   -0.00014547464675467348
0.0009473783647126854   -0.013515269202630286   -0.0001993542592699182
-0.000407784844505227   -0.013537092623998687   -0.0002388841797338732
-0.0003639511606469   -0.011027036389218895   -0.00014547464675467348
-0.00040191022667592055   -0.01356093324645761   -0.00023294456040419526
0.0009473783647126854   -0.013515269202630286   -0.0001993542592699182
-0.0003639511606469   -0.011027036389218895   -0.00014547464675467348
0.0011286533506796028   -0.011019456916728846   -0.00010129115389239118
0.001137808449710656   -0.011046625098191867   -9.238690397752255e-05
0.0009473783647126854   -0.013515269202630286   -0.0001993542592699182
-0.0003639511606469   -0.011027036389218895   -0.00014547464675467348
0.001137808449710656   -0.011046625098191867   -9.238690397752255e-05
-0.00040191022667592055   -0.01356093324645761   -0.00023294456040419526
0.0009473783647126854   -0.013515269202630286   -0.0001993542592699182
0.0011286533506796028   -0.011019456916728846   -0.00010129115389239118
-0.000407784844505227   -0.013537092623998687   -0.0002388841797338732
0.0009512676052191882   -0.013495466537592137   -0.00021679095663779943
0.0011286533506796028   -0.011019456916728846   -0.00010129115389239118
-0.0003639511606469   -0.011027036389218895   -0.00014547464675467348
-0.000407784844505227   -0.013537092623998687   -0.0002388841797338732
-0.00038142375818681935   -0.011005897482530263   -0.00014358035634205293
0.0009512676052191882   -0.013495466537592137   -0.00021679095663779943
-0.00041830932488474265   -0.013519554905778488   -0.00024305272370758993
-0.00038142375818681935   -0.011005897482530263   -0.00014358035634205293
-0.000407784844505227   -0.013537092623998687   -0.0002388841797338732
0.0009512676052191882   -0.013495466537592137   -0.00021679095663779943
-0.00038142375818681935   -0.011005897482530263   -0.00014358035634205293
0.001115609926822538   -0.010995031970597544   -0.00010773279428908896
0.0011286533506796028   -0.011019456916728846   -0.00010129115389239118
0.0009512676052191882   -0.013495466537592137   -0.00021679095663779943
-0.00038142375818681935   -0.011005897482530263   -0.00014358035634205293
0.0011286533506796028   -0.011019456916728846   -0.00010129115389239118
-0.000407784844505227   -0.013537092623998687   -0.0002388841797338732
-0.0003962543173114388   -0.013591872386947144   -0.0002251735093010587
-0.0003376289717825523   -0.011081999900557792   -0.00014417746815565552
-0.0016670327388706872   -0.013585161171547018   -0.0002809393410493764
-0.00040191022667592055   -0.01356093324645761   -0.00023294456040419526
-0.0003376289717825523   -0.011081999900557792   -0.00014417746815565552
-0.0017481438759662062   -0.01106885891273739   -0.00019567276270378002
-0.0016670327388706872   -0.013585161171547018   -0.0002809393410493764
-0.0017623706858461942   -0.011044425187658836   -0.00018998237615126608
-0.00040191022667592055   -0.01356093324645761   -0.00023294456040419526
-0.0016752510607172832   -0.013559567886872648   -0.0002775365556353789
-0.0017623706858461942   -0.011044425187658836   -0.00018998237615126608
-0.0016670327388706872   -0.013585161171547018   -0.0002809393410493764
-0.00040191022667592055   -0.01356093324645761   -0.00023294456040419526
-0.0017623706858461942   -0.011044425187658836   -0.00018998237615126608
-0.000350090288214681   -0.011052172305774332   -0.00014565197580888303
-0.0003376289717825523   -0.011081999900557792   -0.00014417746815565552
-0.00040191022667592055   -0.01356093324645761   -0.00023294456040419526
-0.0017623706858461942   -0.011044425187658836   -0.00018998237615126608
-0.0003376289717825523   -0.011081999900557792   -0.00014417746815565552
-0.0016670327388706872   -0.013585161171547018   -0.0002809393410493764
-0.00040191022667592055   -0.01356093324645761   -0.00023294456040419526
-0.000350090288214681   -0.011052172305774332   -0.00014565197580888303
-0.0016752510607172832   -0.013559567886872648   -0.0002775365556353789
-0.000407784844505227   -0.013537092623998687   -0.0002388841797338732
-0.000350090288214681   -0.011052172305774332   -0.00014565197580888303
-0.0017623706858461942   -0.011044425187658836   -0.00018998237615126608
-0.0016752510607172832   -0.013559567886872648   -0.0002775365556353789
-0.001776901966230697   -0.011023808874326881   -0.00018256429850529898
-0.000407784844505227   -0.013537092623998687   -0.0002388841797338732
-0.0016835857559015497   -0.013540052520570332   -0.000272241780522228
-0.001776901966230697   -0.011023808874326881   -0.00018256429850529898
-0.0016752510607172832   -0.013559567886872648   -0.0002775365556353789
-0.000407784844505227   -0.013537092623998687   -0.0002388841797338732
-0.001776901966230697   -0.011023808874326881   -0.00018256429850529898
-0.0003639511606469   -0.011027036389218895   -0.00014547464675467348
-0.000350090288214681   -0.011052172305774332   -0.00014565197580888303
-0.000407784844505227   -0.013537092623998687   -0.0002388841797338732
-0.001776901966230697   -0.011023808874326881   -0.00018256429850529898
-0.000350090288214681   -0.011052172305774332   -0.00014565197580888303
-0.0016752510607172832   -0.013559567886872648   -0.0002775365556353789
-0.000407784844505227   -0.013537092623998687   -0.0002388841797338732
-0.0003639511606469   -0.011027036389218895   -0.00014547464675467348
-0.0016835857559015497   -0.013540052520570332   -0.000272241780522228
-0.00041830932488474265   -0.013519554905778488   -0.00024305272370758993
-0.0003639511606469   -0.011027036389218895   -0.00014547464675467348
-0.001776901966230697   -0.011023808874326881   -0.00018256429850529898
-0.0016835857559015497   -0.013540052520570332   -0.000272241780522228
-0.001792706607305466   -0.011007225405640045   -0.00017350760931683266
-0.00041830932488474265   -0.013519554905778488   -0.00024305272370758993
-0.0016932718210602208   -0.013526714873874019   -0.0002651545385690678
-0.001792706607305466   -0.011007225405640045   -0.00017350760931683266
-0.0016835857559015497   -0.013540052520570332   -0.000272241780522228
-0.00041830932488474265   -0.013519554905778488   -0.00024305272370758993
-0.001792706607305466   -0.011007225405640045   -0.00017350760931683266
-0.00038142375818681935   -0.011005897482530263   -0.00014358035634205293
-0.0003639511606469   -0.011027036389218895   -0.00014547464675467348
-0.00041830932488474265   -0.013519554905778488   -0.00024305272370758993
-0.001792706607305466   -0.011007225405640045   -0.00017350760931683266
-0.0003639511606469   -0.011027036389218895   -0.00014547464675467348
-0.0016835857559015497   -0.013540052520570332   -0.000272241780522228
-0.0016670327388706872   -0.013585161171547018   -0.0002809393410493764
-0.0017481438759662062   -0.01106885891273739   -0.00019567276270378002
-0.0029167086346074357   -0.013558571459129197   -0.00032833760221922934
-0.0016752510607172832   -0.013559567886872648   -0.0002775365556353789
-0.0017481438759662062   -0.01106885891273739   -0.00019567276270378002
-0.003134850842928733   -0.01104362898590091   -0.0002386798384805308
-0.0029167086346074357   -0.013558571459129197   -0.00032833760221922934
-0.0031495914936254415   -0.011024115230697054   -0.00022586160915532972
-0.0016752510607172832   -0.013559567886872648   -0.0002775365556353789
-0.0029256573435353273   -0.013537781248571265   -0.0003138316490819649
-0.0031495914936254415   -0.011024115230697054   -0.00022586160915532972
-0.0029167086346074357   -0.013558571459129197   -0.00032833760221922934
-0.0016752510607172832   -0.013559567886872648   -0.0002775365556353789
-0.0031495914936254415   -0.011024115230697054   -0.00022586160915532972
-0.0017623706858461942   -0.011044425187658836   -0.00018998237615126608
-0.0017481438759662062   -0.01106885891273739   -0.00019567276270378002
-0.0016752510607172832   -0.013559567886872648   -0.0002775365556353789
-0.0031495914936254415   -0.011024115230697054   -0.00022586160915532972
-0.0017481438759662062   -0.01106885891273739   -0.00019567276270378002
-0.0029167086346074357   -0.013558571459129197   -0.00032833760221922934
-0.0016752510607172832   -0.013559567886872648   -0.0002775365556353789
-0.0017623706858461942   -0.011044425187658836   -0.00018998237615126608
-0.0029256573435353273   -0.013537781248571265   -0.0003138316490819649
-0.0016835857559015497   -0.013540052520570332   -0.000272241780522228
-0.0017623706858461942   -0.011044425187658836   -0.00018998237615126608
-0.0031495914936254415   -0.011024115230697054   -0.00022586160915532972
-0.0029256573435353273   -0.013537781248571265   -0.0003138316490819649
-0.003162919407812856   -0.011008392139661309   -0.0002113585355010209
-0.0016835857559015497   -0.013540052520570332   -0.000272241780522228
-0.0029330137950320328   -0.013523012131160786   -0.0002974711298374519
-0.003162919407812856   -0.011008392139661309   -0.0002113585355010209
-0.0029256573435353273   -0.013537781248571265   -0.0003138316490819649
-0.0016835857559015497   -0.013540052520570332   -0.000272241780522228
-0.003162919407812856   -0.011008392139661309   -0.0002113585355010209
-0.001776901966230697   -0.011023808874326881   -0.00018256429850529898
-0.0017623706858461942   -0.011044425187658836   -0.00018998237615126608
-0.0016835857559015497   -0.013540052520570332   -0.000272241780522228
-0.003162919407812856   -0.011008392139661309   -0.0002113585355010209
-0.0017623706858461942   -0.011044425187658836   -0.00018998237615126608
-0.0029256573435353273   -0.013537781248571265   -0.0003138316490819649
-0.0016835857559015497   -0.013540052520570332   -0.000272241780522228
-0.001776901966230697   -0.011023808874326881   -0.00018256429850529898
-0.0029330137950320328   -0.013523012131160786   -0.0002974711298374519
-0.0016932718210602208   -0.013526714873874019   -0.0002651545385690678
-0.001776901966230697   -0.011023808874326881   -0.00018256429850529898
-0.003162919407812856   -0.011008392139661309   -0.0002113585355010209
-0.0029330137950320328   -0.013523012131160786   -0.0002974711298374519
-0.0031763797518075637   -0.01099648028868456   -0.00019523178500350656
-0.0016932718210602208   -0.013526714873874019   -0.0002651545385690678
-0.002940603016147807   -0.013514235969612733   -0.0002793080088962858
-0.0031763797518075637   -0.01099648028868456   -0.00019523178500350656
-0.0029330137950320328   -0.013523012131160786   -0.0002974711298374519
-0.0016932718210602208   -0.013526714873874019   -0.0002651545385690678
-0.0031763797518075637   -0.01099648028868456   -0.00019523178500350656
-0.001792706607305466   -0.011007225405640045   -0.00017350760931683266
-0.001776901966230697   -0.011023808874326881   -0.00018256429850529898
-0.0016932718210602208   -0.013526714873874019   -0.0002651545385690678
-0.0031763797518075637   -0.01099648028868456   -0.00019523178500350656
-0.001776901966230697   -0.011023808874326881   -0.00018256429850529898
-0.0029330137950320328   -0.013523012131160786   -0.0002974711298374519
-0.0029167086346074357   -0.013558571459129197   -0.00032833760221922934
-0.003134850842928733   -0.01104362898590091   -0.0002386798384805308
-0.00419606268689313   -0.013512601202359741   -0.0003676189891771622
-0.0029256573435353273   -0.013537781248571265   -0.0003138316490819649
-0.003134850842928733   -0.01104362898590091   -0.0002386798384805308
-0.004549219126180253   -0.011005787857179112   -0.00027334635919491214
-0.00419606268689313   -0.013512601202359741   -0.0003676189891771622
-0.004562818763290402   -0.01099121168546408   -0.0002533414243191034
-0.0029256573435353273   -0.013537781248571265   -0.0003138316490819649
-0.004203319625756027   -0.013496464890071874   -0.00034185073047175073
-0.004562818763290402   -0.01099121168546408   -0.0002533414243191034
-0.00419606268689313   -0.013512601202359741   -0.0003676189891771622
-0.0029256573435353273   -0.013537781248571265   -0.0003138316490819649
-0.004562818763290402   -0.01099121168546408   -0.0002533414243191034
-0.0031495914936254415   -0.011024115230697054   -0.00022586160915532972
-0.003134850842928733   -0.01104362898590091   -0.0002386798384805308
-0.0029256573435353273   -0.013537781248571265   -0.0003138316490819649
-0.004562818763290402   -0.01099121168546408   -0.0002533414243191034
-0.003134850842928733   -0.01104362898590091   -0.0002386798384805308
-0.00419606268689313   -0.013512601202359741   -0.0003676189891771622
-0.0029256573435353273   -0.013537781248571265   -0.0003138316490819649
-0.0031495914936254415   -0.011024115230697054   -0.00022586160915532972
-0.004203319625756027   -0.013496464890071874   -0.00034185073047175073
-0.0029330137950320328   -0.013523012131160786   -0.0002974711298374519
-0.0031495914936254415   -0.011024115230697054   -0.00022586160915532972
-0.004562818763290402   -0.01099121168546408   -0.0002533414243191034
-0.004203319625756027   -0.013496464890071874   -0.00034185073047175073
-0.00457072689423259   -0.010980012015583891   -0.000231872119148134
-0.0029330137950320328   -0.013523012131160786   -0.0002974711298374519
-0.004203751691713912   -0.013486042546604262   -0.0003144831722770546
-0.00457072689423259   -0.010980012015583891   -0.000231872119148134
-0.004203319625756027   -0.013496464890071874   -0.00034185073047175073
-0.0029330137950320328   -0.013523012131160786   -0.0002974711298374519
-0.00457072689423259   -0.010980012015583891   -0.000231872119148134
-0.003162919407812856   -0.011008392139661309   -0.0002113585355010209
-0.0031495914936254415   -0.011024115230697054   -0.00022586160915532972
-0.0029330137950320328   -0.013523012131160786   -0.0002974711298374519
-0.00457072689423259   -0.010980012015583891   -0.000231872119148134
-0.0031495914936254415   -0.011024115230697054   -0.00022586160915532972
-0.004203319625756027   -0.013496464890071874   -0.00034185073047175073
-0.0029330137950320328   -0.013523012131160786   -0.0002974711298374519
-0.003162919407812856   -0.011008392139661309   -0.0002113585355010209
-0.004203751691713912   -0.013486042546604262   -0.0003144831722770546
-0.002940603016147807   -0.013514235969612733   -0.0002793080088962858
-0.003162919407812856   -0.011008392139661309   -0.0002113585355010209
-0.00457072689423259   -0.010980012015583891   -0.000231872119148134
-0.004203751691713912   -0.013486042546604262   -0.0003144831722770546
-0.0045795844335257884   -0.010972970457733756   -0.00020863897101194316
-0.002940603016147807   -0.013514235969612733   -0.0002793080088962858
-0.004206238604255684   -0.013482165494658124   -0.00028517335390429747
-0.0045795844335257884   -0.010972970457733756   -0.00020863897101194316
-0.004203751691713912   -0.013486042546604262   -0.0003144831722770546
-0.002940603016147807   -0.013514235969612733   -0.0002793080088962858
-0.0045795844335257884   -0.010972970457733756   -0.00020863897101194316
-0.0031763797518075637   -0.01099648028868456   -0.00019523178500350656
-0.003162919407812856   -0.011008392139661309   -0.0002113585355010209
-0.002940603016147807   -0.013514235969612733   -0.0002793080088962858
-0.0045795844335257884   -0.010972970457733756   -0.00020863897101194316
-0.003162919407812856   -0.011008392139661309   -0.0002113585355010209
-0.004203751691713912   -0.013486042546604262   -0.0003144831722770546
-0.00419606268689313   -0.013512601202359741   -0.0003676189891771622
-0.004549219126180253   -0.011005787857179112   -0.00027334635919491214
-0.005592020742752836   -0.013451709739449287   -0.0004012074079284096
-0.004203319625756027   -0.013496464890071874   -0.00034185073047175073
-0.004549219126180253   -0.011005787857179112   -0.00027334635919491214
-0.006068769204352007   -0.010958668223049162   -0.0003006100685505165
-0.005592020742752836   -0.013451709739449287   -0.0004012074079284096
-0.006056631780547671   -0.010946566465431254   -0.00027361177546394533
-0.004203319625756027   -0.013496464890071874   -0.00034185073047175073
-0.005563543844058164   -0.013436963025502109   -0.0003633459380385749
-0.006056631780547671   -0.010946566465431254   -0.00027361177546394533
-0.005592020742752836   -0.013451709739449287   -0.0004012074079284096
-0.004203319625756027   -0.013496464890071874   -0.00034185073047175073
-0.006056631780547671   -0.010946566465431254   -0.00027361177546394533
-0.004562818763290402   -0.01099121168546408   -0.0002533414243191034
-0.004549219126180253   -0.011005787857179112   -0.00027334635919491214
-0.004203319625756027   -0.013496464890071874   -0.00034185073047175073
-0.006056631780547671   -0.010946566465431254   -0.00027361177546394533
-0.004549219126180253   -0.011005787857179112   -0.00027334635919491214
-0.005592020742752836   -0.013451709739449287   -0.0004012074079284096
-0.004203319625756027   -0.013496464890071874   -0.00034185073047175073
-0.004562818763290402   -0.01099121168546408   -0.0002533414243191034
-0.005563543844058164   -0.013436963025502109   -0.0003633459380385749
-0.004203751691713912   -0.013486042546604262   -0.0003144831722770546
-0.004562818763290402   -0.01099121168546408   -0.0002533414243191034
-0.006056631780547671   -0.010946566465431254   -0.00027361177546394533
-0.005563543844058164   -0.013436963025502109   -0.0003633459380385749
-0.006046717263729469   -0.01093750439971242   -0.00024392525649510237
-0.004203751691713912   -0.013486042546604262   -0.0003144831722770546
-0.005539642365694108   -0.013428392450876485   -0.0003226800209798346
-0.006046717263729469   -0.01093750439971242   -0.00024392525649510237
-0.005563543844058164   -0.013436963025502109   -0.0003633459380385749
-0.004203751691713912   -0.013486042546604262   -0.0003144831722770546
-0.006046717263729469   -0.01093750439971242   -0.00024392525649510237
-0.00457072689423259   -0.010980012015583891   -0.000231872119148134
-0.004562818763290402   -0.01099121168546408   -0.0002533414243191034
-0.004203751691713912   -0.013486042546604262   -0.0003144831722770546
-0.006046717263729469   -0.01093750439971242   -0.00024392525649510237
-0.004562818763290402   -0.01099121168546408   -0.0002533414243191034
-0.005563543844058164   -0.013436963025502109   -0.0003633459380385749
-0.004203751691713912   -0.013486042546604262   -0.0003144831722770546
-0.00457072689423259   -0.010980012015583891   -0.000231872119148134
-0.005539642365694108   -0.013428392450876485   -0.0003226800209798346
-0.004206238604255684   -0.013482165494658124   -0.00028517335390429747
-0.00457072689423259   -0.010980012015583891   -0.000231872119148134
-0.006046717263729469   -0.01093750439971242   -0.00024392525649510237
-0.005539642365694108   -0.013428392450876485   -0.0003226800209798346
-0.006024559957231884   -0.01093639116336572   -0.0002118549755675785
-0.004206238604255684   -0.013482165494658124   -0.00028517335390429747
-0.005500834963745664   -0.013430848931474176   -0.00027956296448093947
-0.006024559957231884   -0.01093639116336572   -0.0002118549755675785
-0.005539642365694108   -0.013428392450876485   -0.0003226800209798346
-0.004206238604255684   -0.013482165494658124   -0.00028517335390429747
-0.006024559957231884   -0.01093639116336572   -0.0002118549755675785
-0.0045795844335257884   -0.010972970457733756   -0.00020863897101194316
-0.00457072689423259   -0.010980012015583891   -0.000231872119148134
-0.004206238604255684   -0.013482165494658124   -0.00028517335390429747
-0.006024559957231884   -0.01093639116336572   -0.0002118549755675785
-0.00457072689423259   -0.010980012015583891   -0.000231872119148134
-0.005539642365694108   -0.013428392450876485   -0.0003226800209798346
0.0011402983429810254   -0.011081287730527245   -8.083485146741856e-05
0.001194448926897546   -0.00839811080098674   -1.4680411741622817e-05
-0.0003376289717825523   -0.011081999900557792   -0.00014417746815565552
0.001137808449710656   -0.011046625098191867   -9.238690397752255e-05
0.001194448926897546   -0.00839811080098674   -1.4680411741622817e-05
-0.00037502674057855327   -0.008385244164864934   -7.116469974904144e-05
-0.0003376289717825523   -0.011081999900557792   -0.00014417746815565552
-0.0003924845365452059   -0.008356856312143623   -6.623847540096687e-05
0.001137808449710656   -0.011046625098191867   -9.238690397752255e-05
-0.000350090288214681   -0.011052172305774332   -0.00014565197580888303
-0.0003924845365452059   -0.008356856312143623   -6.623847540096687e-05
-0.0003376289717825523   -0.011081999900557792   -0.00014417746815565552
0.001137808449710656   -0.011046625098191867   -9.238690397752255e-05
-0.0003924845365452059   -0.008356856312143623   -6.623847540096687e-05
0.001176897752785549   -0.008365205235669729   -1.471119041864852e-05
0.001194448926897546   -0.00839811080098674   -1.4680411741622817e-05
0.001137808449710656   -0.011046625098191867   -9.238690397752255e-05
-0.0003924845365452059   -0.008356856312143623   -6.623847540096687e-05
0.001194448926897546   -0.00839811080098674   -1.4680411741622817e-05
-0.0003376289717825523   -0.011081999900557792   -0.00014417746815565552
0.001137808449710656   -0.011046625098191867   -9.238690397752255e-05
0.001176897752785549   -0.008365205235669729   -1.471119041864852e-05
-0.000350090288214681   -0.011052172305774332   -0.00014565197580888303
0.0011286533506796028   -0.011019456916728846   -0.00010129115389239118
0.001176897752785549   -0.008365205235669729   -1.471119041864852e-05
-0.0003924845365452059   -0.008356856312143623   -6.623847540096687e-05
-0.000350090288214681   -0.011052172305774332   -0.00014565197580888303
-0.0004125472994567718   -0.008330448858486886   -5.978978465597387e-05
0.0011286533506796028   -0.011019456916728846   -0.00010129115389239118
-0.0003639511606469   -0.011027036389218895   -0.00014547464675467348
-0.0004125472994567718   -0.008330448858486886   -5.978978465597387e-05
-0.000350090288214681   -0.011052172305774332   -0.00014565197580888303
0.0011286533506796028   -0.011019456916728846   -0.00010129115389239118
-0.0004125472994567718   -0.008330448858486886   -5.978978465597387e-05
0.0011545958281807128   -0.008336385301733085   -1.1647868965381697e-05
0.001176897752785549   -0.008365205235669729   -1.471119041864852e-05
0.0011286533506796028   -0.011019456916728846   -0.00010129115389239118
-0.0004125472994567718   -0.008330448858486886   -5.978978465597387e-05
0.001176897752785549   -0.008365205235669729   -1.471119041864852e-05
-0.000350090288214681   -0.011052172305774332   -0.00014565197580888303
0.0011286533506796028   -0.011019456916728846   -0.00010129115389239118
0.0011545958281807128   -0.008336385301733085   -1.1647868965381697e-05
-0.0003639511606469   -0.011027036389218895   -0.00014547464675467348
0.001115609926822538   -0.010995031970597544   -0.00010773279428908896
0.0011545958281807128   -0.008336385301733085   -1.1647868965381697e-05
-0.0004125472994567718   -0.008330448858486886   -5.978978465597387e-05
-0.0003639511606469   -0.011027036389218895   -0.00014547464675467348
-0.0004352533346144091   -0.00830564062719285   -5.144025354770024e-05
0.001115609926822538   -0.010995031970597544   -0.00010773279428908896
-0.00038142375818681935   -0.011005897482530263   -0.00014358035634205293
-0.0004352533346144091   -0.00830564062719285   -5.144025354770024e-05
-0.0003639511606469   -0.011027036389218895   -0.00014547464675467348
0.001115609926822538   -0.010995031970597544   -0.00010773279428908896
-0.0004352533346144091   -0.00830564062719285   -5.144025354770024e-05
0.0011249977405714496   -0.008306532287337737   -5.625274823835027e-06
0.0011545958281807128   -0.008336385301733085   -1.1647868965381697e-05
0.001115609926822538   -0.010995031970597544   -0.00010773279428908896
-0.0004352533346144091   -0.00830564062719285   -5.144025354770024e-05
0.0011545958281807128   -0.008336385301733085   -1.1647868965381697e-05
-0.0003639511606469   -0.011027036389218895   -0.00014547464675467348
-0.0003376289717825523   -0.011081999900557792   -0.00014417746815565552
-0.00037502674057855327   -0.008385244164864934   -7.116469974904144e-05
-0.0017481438759662062   -0.01106885891273739   -0.00019567276270378002
-0.000350090288214681   -0.011052172305774332   -0.00014565197580888303
-0.00037502674057855327   -0.008385244164864934   -7.116469974904144e-05
-0.001861923515914147   -0.008369282327267864   -0.00011815684485836266
-0.0017481438759662062   -0.01106885891273739   -0.00019567276270378002
-0.0018799806660532684   -0.008345899478626196   -0.000109983161725135
-0.000350090288214681   -0.011052172305774332   -0.00014565197580888303
-0.0017623706858461942   -0.011044425187658836   -0.00018998237615126608
-0.0018799806660532684   -0.008345899478626196   -0.000109983161725135
-0.0017481438759662062   -0.01106885891273739   -0.00019567276270378002
-0.000350090288214681   -0.011052172305774332   -0.00014565197580888303
-0.0018799806660532684   -0.008345899478626196   -0.000109983161725135
-0.0003924845365452059   -0.008356856312143623   -6.623847540096687e-05
-0.00037502674057855327   -0.008385244164864934   -7.116469974904144e-05
-0.000350090288214681   -0.011052172305774332   -0.00014565197580888303
-0.0018799806660532684   -0.008345899478626196   -0.000109983161725135
-0.00037502674057855327   -0.008385244164864934   -7.116469974904144e-05
-0.0017481438759662062   -0.01106885891273739   -0.00019567276270378002
-0.000350090288214681   -0.011052172305774332   -0.00014565197580888303
-0.0003924845365452059   -0.008356856312143623   -6.623847540096687e-05
-0.0017623706858461942   -0.011044425187658836   -0.00018998237615126608
-0.0003639511606469   -0.011027036389218895   -0.00014547464675467348
-0.0003924845365452059   -0.008356856312143623   -6.623847540096687e-05
-0.0018799806660532684   -0.008345899478626196   -0.000109983161725135
-0.0017623706858461942   -0.011044425187658836   -0.00018998237615126608
-0.0018984716494194745   -0.008324045248445126   -0.0001003453084302305
-0.0003639511606469   -0.011027036389218895   -0.00014547464675467348
-0.001776901966230697   -0.011023808874326881   -0.00018256429850529898
-0.0018984716494194745   -0.008324045248445126   -0.0001003453084302305
-0.0017623706858461942   -0.011044425187658836   -0.00018998237615126608
-0.0003639511606469   -0.011027036389218895   -0.00014547464675467348
-0.0018984716494194745   -0.008324045248445126   -0.0001003453084302305
-0.0004125472994567718   -0.008330448858486886   -5.978978465597387e-05
-0.0003924845365452059   -0.008356856312143623   -6.623847540096687e-05
-0.0003639511606469   -0.011027036389218895   -0.00014547464675467348
-0.0018984716494194745   -0.008324045248445126   -0.0001003453084302305
-0.0003924845365452059   -0.008356856312143623   -6.623847540096687e-05
-0.0017623706858461942   -0.011044425187658836   -0.00018998237615126608
-0.0003639511606469   -0.011027036389218895   -0.00014547464675467348
-0.0004125472994567718   -0.008330448858486886   -5.978978465597387e-05
-0.001776901966230697   -0.011023808874326881   -0.00018256429850529898
-0.00038142375818681935   -0.011005897482530263   -0.00014358035634205293
-0.0004125472994567718   -0.008330448858486886   -5.978978465597387e-05
-0.0018984716494194745   -0.008324045248445126   -0.0001003453084302305
-0.001776901966230697   -0.011023808874326881   -0.00018256429850529898
-0.0019181840862323553   -0.008304098897137378   -8.923776153845739e-05
-0.00038142375818681935   -0.011005897482530263   -0.00014358035634205293
-0.001792706607305466   -0.011007225405640045   -0.00017350760931683266
-0.0019181840862323553   -0.008304098897137378   -8.923776153845739e-05
-0.001776901966230697   -0.011023808874326881   -0.00018256429850529898
-0.00038142375818681935   -0.011005897482530263   -0.00014358035634205293
-0.0019181840862323553   -0.008304098897137378   -8.923776153845739e-05
-0.0004352533346144091   -0.00830564062719285   -5.144025354770024e-05
-0.0004125472994567718   -0.008330448858486886   -5.978978465597387e-05
-0.00038142375818681935   -0.011005897482530263   -0.00014358035634205293
-0.0019181840862323553   -0.008304098897137378   -8.923776153845739e-05
-0.0004125472994567718   -0.008330448858486886   -5.978978465597387e-05
-0.001776901966230697   -0.011023808874326881   -0.00018256429850529898
-0.0017481438759662062   -0.01106885891273739   -0.00019567276270378002
-0.001861923515914147   -0.008369282327267864   -0.00011815684485836266
-0.003134850842928733   -0.01104362898590091   -0.0002386798384805308
-0.0017623706858461942   -0.011044425187658836   -0.00018998237615126608
-0.001861923515914147   -0.008369282327267864   -0.00011815684485836266
-0.0033241281119366552   -0.008349698958879445   -0.00015758320898058713
-0.003134850842928733   -0.01104362898590091   -0.0002386798384805308
-0.0033421516393166194   -0.008330901239920871   -0.0001462025730006652
-0.0017623706858461942   -0.011044425187658836   -0.00018998237615126608
-0.0031495914936254415   -0.011024115230697054   -0.00022586160915532972
-0.0033421516393166194   -0.008330901239920871   -0.0001462025730006652
-0.003134850842928733   -0.01104362898590091   -0.0002386798384805308
-0.0017623706858461942   -0.011044425187658836   -0.00018998237615126608
-0.0033421516393166194   -0.008330901239920871   -0.0001462025730006652
-0.0018799806660532684   -0.008345899478626196   -0.000109983161725135
-0.001861923515914147   -0.008369282327267864   -0.00011815684485836266
-0.0017623706858461942   -0.011044425187658836   -0.00018998237615126608
-0.0033421516393166194   -0.008330901239920871   -0.0001462025730006652
-0.001861923515914147   -0.008369282327267864   -0.00011815684485836266
-0.003134850842928733   -0.01104362898590091   -0.0002386798384805308
-0.0017623706858461942   -0.011044425187658836   -0.00018998237615126608
-0.0018799806660532684   -0.008345899478626196   -0.000109983161725135
-0.0031495914936254415   -0.011024115230697054   -0.00022586160915532972
-0.001776901966230697   -0.011023808874326881   -0.00018256429850529898
-0.0018799806660532684   -0.008345899478626196   -0.000109983161725135
-0.0033421516393166194   -0.008330901239920871   -0.0001462025730006652
-0.0031495914936254415   -0.011024115230697054   -0.00022586160915532972
-0.0033589814556659685   -0.008313701565697959   -0.00013340720000358947
-0.001776901966230697   -0.011023808874326881   -0.00018256429850529898
-0.003162919407812856   -0.011008392139661309   -0.0002113585355010209
-0.0033589814556659685   -0.008313701565697959   -0.00013340720000358947
-0.0031495914936254415   -0.011024115230697054   -0.00022586160915532972
-0.001776901966230697   -0.011023808874326881   -0.00018256429850529898
-0.0033589814556659685   -0.008313701565697959   -0.00013340720000358947
-0.0018984716494194745   -0.008324045248445126   -0.0001003453084302305
-0.0018799806660532684   -0.008345899478626196   -0.000109983161725135
-0.001776901966230697   -0.011023808874326881   -0.00018256429850529898
-0.0033589814556659685   -0.008313701565697959   -0.00013340720000358947
-0.0018799806660532684   -0.008345899478626196   -0.000109983161725135
-0.0031495914936254415   -0.011024115230697054   -0.00022586160915532972
-0.001776901966230697   -0.011023808874326881   -0.00018256429850529898
-0.0018984716494194745   -0.008324045248445126   -0.0001003453084302305
-0.003162919407812856   -0.011008392139661309   -0.0002113585355010209
-0.001792706607305466   -0.011007225405640045   -0.00017350760931683266
-0.0018984716494194745   -0.008324045248445126   -0.0001003453084302305
-0.0033589814556659685   -0.008313701565697959   -0.00013340720000358947
-0.003162919407812856   -0.011008392139661309   -0.0002113585355010209
-0.003375872380682985   -0.008298141295318225   -0.00011926409620034663
-0.001792706607305466   -0.011007225405640045   -0.00017350760931683266
-0.0031763797518075637   -0.01099648028868456   -0.00019523178500350656
-0.003375872380682985   -0.008298141295318225   -0.00011926409620034663
-0.003162919407812856   -0.011008392139661309   -0.0002113585355010209
-0.001792706607305466   -0.011007225405640045   -0.00017350760931683266
-0.003375872380682985   -0.008298141295318225   -0.00011926409620034663
-0.0019181840862323553   -0.008304098897137378   -8.923776153845739e-05
-0.0018984716494194745   -0.008324045248445126   -0.0001003453084302305
-0.001792706607305466   -0.011007225405640045   -0.00017350760931683266
-0.003375872380682985   -0.008298141295318225   -0.00011926409620034663
-0.0018984716494194745   -0.008324045248445126   -0.0001003453084302305
-0.003162919407812856   -0.011008392139661309   -0.0002113585355010209
-0.003134850842928733   -0.01104362898590091   -0.0002386798384805308
-0.0033241281119366552   -0.008349698958879445   -0.00015758320898058713
-0.004549219126180253   -0.011005787857179112   -0.00027334635919491214
-0.0031495914936254415   -0.011024115230697054   -0.00022586160915532972
-0.0033241281119366552   -0.008349698958879445   -0.00015758320898058713
-0.004813045411649927   -0.008322937568004002   -0.00018909940964983695
-0.004549219126180253   -0.011005787857179112   -0.00027334635919491214
-0.004830266232803842   -0.00830895734325204   -0.00017455204229516793
-0.0031495914936254415   -0.011024115230697054   -0.00022586160915532972
-0.004562818763290402   -0.01099121168546408   -0.0002533414243191034
-0.004830266232803842   -0.00830895734325204   -0.00017455204229516793
-0.004549219126180253   -0.011005787857179112   -0.00027334635919491214
-0.0031495914936254415   -0.011024115230697054   -0.00022586160915532972
-0.004830266232803842   -0.00830895734325204   -0.00017455204229516793
-0.0033421516393166194   -0.008330901239920871   -0.0001462025730006652
-0.0033241281119366552   -0.008349698958879445   -0.00015758320898058713
-0.0031495914936254415   -0.011024115230697054   -0.00022586160915532972
-0.004830266232803842   -0.00830895734325204   -0.00017455204229516793
-0.0033241281119366552   -0.008349698958879445   -0.00015758320898058713
-0.004549219126180253   -0.011005787857179112   -0.00027334635919491214
-0.0031495914936254415   -0.011024115230697054   -0.00022586160915532972
-0.0033421516393166194   -0.008330901239920871   -0.0001462025730006652
-0.004562818763290402   -0.01099121168546408   -0.0002533414243191034
-0.003162919407812856   -0.011008392139661309   -0.0002113585355010209
-0.0033421516393166194   -0.008330901239920871   -0.0001462025730006652
-0.004830266232803842   -0.00830895734325204   -0.00017455204229516793
-0.004562818763290402   -0.01099121168546408   -0.0002533414243191034
-0.004843094369456465   -0.00829607003686556   -0.00015880898022334396
-0.003162919407812856   -0.011008392139661309   -0.0002113585355010209
-0.00457072689423259   -0.010980012015583891   -0.000231872119148134
-0.004843094369456465   -0.00829607003686556   -0.00015880898022334396
-0.004562818763290402   -0.01099121168546408   -0.0002533414243191034
-0.003162919407812856   -0.011008392139661309   -0.0002113585355010209
-0.004843094369456465   -0.00829607003686556   -0.00015880898022334396
-0.0033589814556659685   -0.008313701565697959   -0.00013340720000358947
-0.0033421516393166194   -0.008330901239920871   -0.0001462025730006652
-0.003162919407812856   -0.011008392139661309   -0.0002113585355010209
-0.004843094369456465   -0.00829607003686556   -0.00015880898022334396
-0.0033421516393166194   -0.008330901239920871   -0.0001462025730006652
-0.004562818763290402   -0.01099121168546408   -0.0002533414243191034
-0.003162919407812856   -0.011008392139661309   -0.0002113585355010209
-0.0033589814556659685   -0.008313701565697959   -0.00013340720000358947
-0.00457072689423259   -0.010980012015583891   -0.000231872119148134
-0.0031763797518075637   -0.01099648028868456   -0.00019523178500350656
-0.0033589814556659685   -0.008313701565697959   -0.00013340720000358947
-0.004843094369456465   -0.00829607003686556   -0.00015880898022334396
-0.00457072689423259   -0.010980012015583891   -0.000231872119148134
-0.004855876534023863   -0.008284931176904176   -0.00014157093266855465
-0.0031763797518075637   -0.01099648028868456   -0.00019523178500350656
-0.0045795844335257884   -0.010972970457733756   -0.00020863897101194316
-0.004855876534023863   -0.008284931176904176   -0.00014157093266855465
-0.00457072689423259   -0.010980012015583891   -0.000231872119148134
-0.0031763797518075637   -0.01099648028868456   -0.00019523178500350656
-0.004855876534023863   -0.008284931176904176   -0.00014157093266855465
-0.003375872380682985   -0.008298141295318225   -0.00011926409620034663
-0.0033589814556659685   -0.008313701565697959   -0.00013340720000358947
-0.0031763797518075637   -0.01099648028868456   -0.00019523178500350656
-0.004855876534023863   -0.008284931176904176   -0.00014157093266855465
-0.0033589814556659685   -0.008313701565697959   -0.00013340720000358947
-0.00457072689423259   -0.010980012015583891   -0.000231872119148134
-0.004549219126180253   -0.011005787857179112   -0.00027334635919491214
-0.004813045411649927   -0.008322937568004002   -0.00018909940964983695
-0.006068769204352007   -0.010958668223049162   -0.0003006100685505165
-0.004562818763290402   -0.01099121168546408   -0.0002533414243191034
-0.004813045411649927   -0.008322937568004002   -0.00018909940964983695
-0.006393308985980225   -0.008290822361670853   -0.00021181893446858371
-0.006068769204352007   -0.010958668223049162   -0.0003006100685505165
-0.006394631255409505   -0.008280040340801246   -0.00019533230496106822
-0.004562818763290402   -0.01099121168546408   -0.0002533414243191034
-0.006056631780547671   -0.010946566465431254   -0.00027361177546394533
-0.006394631255409505   -0.008280040340801246   -0.00019533230496106822
-0.006068769204352007   -0.010958668223049162   -0.0003006100685505165
-0.004562818763290402   -0.01099121168546408   -0.0002533414243191034
-0.006394631255409505   -0.008280040340801246   -0.00019533230496106822
-0.004830266232803842   -0.00830895734325204   -0.00017455204229516793
-0.004813045411649927   -0.008322937568004002   -0.00018909940964983695
-0.004562818763290402   -0.01099121168546408   -0.0002533414243191034
-0.006394631255409505   -0.008280040340801246   -0.00019533230496106822
-0.004813045411649927   -0.008322937568004002   -0.00018909940964983695
-0.006068769204352007   -0.010958668223049162   -0.0003006100685505165
-0.004562818763290402   -0.01099121168546408   -0.0002533414243191034
-0.004830266232803842   -0.00830895734325204   -0.00017455204229516793
-0.006056631780547671   -0.010946566465431254   -0.00027361177546394533
-0.00457072689423259   -0.010980012015583891   -0.000231872119148134
-0.004830266232803842   -0.00830895734325204   -0.00017455204229516793
-0.006394631255409505   -0.008280040340801246   -0.00019533230496106822
-0.006056631780547671   -0.010946566465431254   -0.00027361177546394533
-0.0063962087630325525   -0.008269373727739318   -0.00017645451175501056
-0.00457072689423259   -0.010980012015583891   -0.000231872119148134
-0.006046717263729469   -0.01093750439971242   -0.00024392525649510237
-0.0063962087630325525   -0.008269373727739318   -0.00017645451175501056
-0.006056631780547671   -0.010946566465431254   -0.00027361177546394533
-0.00457072689423259   -0.010980012015583891   -0.000231872119148134
-0.0063962087630325525   -0.008269373727739318   -0.00017645451175501056
-0.004843094369456465   -0.00829607003686556   -0.00015880898022334396
-0.004830266232803842   -0.00830895734325204   -0.00017455204229516793
-0.00457072689423259   -0.010980012015583891   -0.000231872119148134
-0.0063962087630325525   -0.008269373727739318   -0.00017645451175501056
-0.004830266232803842   -0.00830895734325204   -0.00017455204229516793
-0.006056631780547671   -0.010946566465431254   -0.00027361177546394533
-0.00457072689423259   -0.010980012015583891   -0.000231872119148134
-0.004843094369456465   -0.00829607003686556   -0.00015880898022334396
-0.006046717263729469   -0.01093750439971242   -0.00024392525649510237
-0.0045795844335257884   -0.010972970457733756   -0.00020863897101194316
-0.004843094369456465   -0.00829607003686556   -0.00015880898022334396
-0.0063962087630325525   -0.008269373727739318   -0.00017645451175501056
-0.006046717263729469   -0.01093750439971242   -0.00024392525649510237
-0.006388543932796657   -0.008263453801035572   -0.00015545993950239918
-0.0045795844335257884   -0.010972970457733756   -0.00020863897101194316
-0.006024559957231884   -0.01093639116336572   -0.0002118549755675785
-0.006388543932796657   -0.008263453801035572   -0.00015545993950239918
-0.006046717263729469   -0.01093750439971242   -0.00024392525649510237
-0.0045795844335257884   -0.010972970457733756   -0.00020863897101194316
-0.006388543932796657   -0.008263453801035572   -0.00015545993950239918
-0.004855876534023863   -0.008284931176904176   -0.00014157093266855465
-0.004843094369456465   -0.00829607003686556   -0.00015880898022334396
-0.0045795844335257884   -0.010972970457733756   -0.00020863897101194316
-0.006388543932796657   -0.008263453801035572   -0.00015545993950239918
-0.004843094369456465   -0.00829607003686556   -0.00015880898022334396
-0.006046717263729469   -0.01093750439971242   -0.00024392525649510237
0.001194448926897546   -0.00839811080098674   -1.4680411741622817e-05
0.001081258410598212   -0.005621493173535028   3.1124467467126696e-05
-0.00037502674057855327   -0.008385244164864934   -7.116469974904144e-05
0.001176897752785549   -0.008365205235669729   -1.471119041864852e-05
0.001081258410598212   -0.005621493173535028   3.1124467467126696e-05
-0.0005073954934752277   -0.005596253350365008   -1.2776515673892331e-05
-0.00037502674057855327   -0.008385244164864934   -7.116469974904144e-05
-0.0005286892892793814   -0.005570808274467843   -1.8354192733809859e-06
0.001176897752785549   -0.008365205235669729   -1.471119041864852e-05
-0.0003924845365452059   -0.008356856312143623   -6.623847540096687e-05
-0.0005286892892793814   -0.005570808274467843   -1.8354192733809859e-06
-0.00037502674057855327   -0.008385244164864934   -7.116469974904144e-05
0.001176897752785549   -0.008365205235669729   -1.471119041864852e-05
-0.0005286892892793814   -0.005570808274467843   -1.8354192733809859e-06
0.0010484131410367652   -0.0055903403661637175   4.415013531448433e-05
0.001081258410598212   -0.005621493173535028   3.1124467467126696e-05
0.001176897752785549   -0.008365205235669729   -1.471119041864852e-05
-0.0005286892892793814   -0.005570808274467843   -1.8354192733809859e-06
0.001081258410598212   -0.005621493173535028   3.1124467467126696e-05
-0.00037502674057855327   -0.008385244164864934   -7.116469974904144e-05
0.001176897752785549   -0.008365205235669729   -1.471119041864852e-05
0.0010484131410367652   -0.0055903403661637175   4.415013531448433e-05
-0.0003924845365452059   -0.008356856312143623   -6.623847540096687e-05
0.0011545958281807128   -0.008336385301733085   -1.1647868965381697e-05
0.0010484131410367652   -0.0055903403661637175   4.415013531448433e-05
-0.0005286892892793814   -0.005570808274467843   -1.8354192733809859e-06
-0.0003924845365452059   -0.008356856312143623   -6.623847540096687e-05
-0.0005537142081794647   -0.005544103033356832   1.1143431469779435e-05
0.0011545958281807128   -0.008336385301733085   -1.1647868965381697e-05
-0.0004125472994567718   -0.008330448858486886   -5.978978465597387e-05
-0.0005537142081794647   -0.005544103033356832   1.1143431469779435e-05
-0.0003924845365452059   -0.008356856312143623   -6.623847540096687e-05
0.0011545958281807128   -0.008336385301733085   -1.1647868965381697e-05
-0.0005537142081794647   -0.005544103033356832   1.1143431469779435e-05
0.0010111365976543955   -0.0055597632148027655   6.339556514742198e-05
0.0010484131410367652   -0.0055903403661637175   4.415013531448433e-05
0.0011545958281807128   -0.008336385301733085   -1.1647868965381697e-05
-0.0005537142081794647   -0.005544103033356832   1.1143431469779435e-05
0.0010484131410367652   -0.0055903403661637175   4.415013531448433e-05
-0.0003924845365452059   -0.008356856312143623   -6.623847540096687e-05
0.0011545958281807128   -0.008336385301733085   -1.1647868965381697e-05
0.0010111365976543955   -0.0055597632148027655   6.339556514742198e-05
-0.0004125472994567718   -0.008330448858486886   -5.978978465597387e-05
0.0011249977405714496   -0.008306532287337737   -5.625274823835027e-06
0.0010111365976543955   -0.0055597632148027655   6.339556514742198e-05
-0.0005537142081794647   -0.005544103033356832   1.1143431469779435e-05
-0.0004125472994567718   -0.008330448858486886   -5.978978465597387e-05
-0.0005797351095892635   -0.005515883151921546   2.6151192163762134e-05
0.0011249977405714496   -0.008306532287337737   -5.625274823835027e-06
-0.0004352533346144091   -0.00830564062719285   -5.144025354770024e-05
-0.0005797351095892635   -0.005515883151921546   2.6151192163762134e-05
-0.0004125472994567718   -0.008330448858486886   -5.978978465597387e-05
0.0011249977405714496   -0.008306532287337737   -5.625274823835027e-06
-0.0005797351095892635   -0.005515883151921546   2.6151192163762134e-05
0.0009655316413689182   -0.005522060861308599   8.46657760691616e-05
0.0010111365976543955   -0.0055597632148027655   6.339556514742198e-05
0.0011249977405714496   -0.008306532287337737   -5.625274823835027e-06
-0.0005797351095892635   -0.005515883151921546   2.6151192163762134e-05
0.0010111365976543955   -0.0055597632148027655   6.339556514742198e-05
-0.0004125472994567718   -0.008330448858486886   -5.978978465597387e-05
-0.00037502674057855327   -0.008385244164864934   -7.116469974904144e-05
-0.0005073954934752277   -0.005596253350365008   -1.2776515673892331e-05
-0.001861923515914147   -0.008369282327267864   -0.00011815684485836266
-0.0003924845365452059   -0.008356856312143623   -6.623847540096687e-05
-0.0005073954934752277   -0.005596253350365008   -1.2776515673892331e-05
-0.0020013496931766015   -0.005589672539530643   -5.465703016099439e-05
-0.001861923515914147   -0.008369282327267864   -0.00011815684485836266
-0.0020208245956978193   -0.005567796441810357   -4.418937170498135e-05
-0.0003924845365452059   -0.008356856312143623   -6.623847540096687e-05
-0.0018799806660532684   -0.008345899478626196   -0.000109983161725135
-0.0020208245956978193   -0.005567796441810357   -4.418937170498135e-05
-0.001861923515914147   -0.008369282327267864   -0.00011815684485836266
-0.0003924845365452059   -0.008356856312143623   -6.623847540096687e-05
-0.0020208245956978193   -0.005567796441810357   -4.418937170498135e-05
-0.0005286892892793814   -0.005570808274467843   -1.8354192733809859e-06
-0.0005073954934752277   -0.005596253350365008   -1.2776515673892331e-05
-0.0003924845365452059   -0.008356856312143623   -6.623847540096687e-05
-0.0020208245956978193   -0.005567796441810357   -4.418937170498135e-05
-0.0005073954934752277   -0.005596253350365008   -1.2776515673892331e-05
-0.001861923515914147   -0.008369282327267864   -0.00011815684485836266
-0.0003924845365452059   -0.008356856312143623   -6.623847540096687e-05
-0.0005286892892793814   -0.005570808274467843   -1.8354192733809859e-06
-0.0018799806660532684   -0.008345899478626196   -0.000109983161725135
-0.0004125472994567718   -0.008330448858486886   -5.978978465597387e-05
-0.0005286892892793814   -0.005570808274467843   -1.8354192733809859e-06
-0.0020208245956978193   -0.005567796441810357   -4.418937170498135e-05
-0.0018799806660532684   -0.008345899478626196   -0.000109983161725135
-0.0020410270046600605   -0.005545099452082336   -3.2628221388746054e-05
-0.0004125472994567718   -0.008330448858486886   -5.978978465597387e-05
-0.0018984716494194745   -0.008324045248445126   -0.0001003453084302305
-0.0020410270046600605   -0.005545099452082336   -3.2628221388746054e-05
-0.0018799806660532684   -0.008345899478626196   -0.000109983161725135
-0.0004125472994567718   -0.008330448858486886   -5.978978465597387e-05
-0.0020410270046600605   -0.005545099452082336   -3.2628221388746054e-05
-0.0005537142081794647   -0.005544103033356832   1.1143431469779435e-05
-0.0005286892892793814   -0.005570808274467843   -1.8354192733809859e-06
-0.0004125472994567718   -0.008330448858486886   -5.978978465597387e-05
-0.0020410270046600605   -0.005545099452082336   -3.2628221388746054e-05
-0.0005286892892793814   -0.005570808274467843   -1.8354192733809859e-06
-0.0018799806660532684   -0.008345899478626196   -0.000109983161725135
-0.0004125472994567718   -0.008330448858486886   -5.978978465597387e-05
-0.0005537142081794647   -0.005544103033356832   1.1143431469779435e-05
-0.0018984716494194745   -0.008324045248445126   -0.0001003453084302305
-0.0004352533346144091   -0.00830564062719285   -5.144025354770024e-05
-0.0005537142081794647   -0.005544103033356832   1.1143431469779435e-05
-0.0020410270046600605   -0.005545099452082336   -3.2628221388746054e-05
-0.0018984716494194745   -0.008324045248445126   -0.0001003453084302305
-0.0020621161354897988   -0.005522066620327949   -1.9767636008182937e-05
-0.0004352533346144091   -0.00830564062719285   -5.144025354770024e-05
-0.0019181840862323553   -0.008304098897137378   -8.923776153845739e-05
-0.0020621161354897988   -0.005522066620327949   -1.9767636008182937e-05
-0.0018984716494194745   -0.008324045248445126   -0.0001003453084302305
-0.0004352533346144091   -0.00830564062719285   -5.144025354770024e-05
-0.0020621161354897988   -0.005522066620327949   -1.9767636008182937e-05
-0.0005797351095892635   -0.005515883151921546   2.6151192163762134e-05
-0.0005537142081794647   -0.005544103033356832   1.1143431469779435e-05
-0.0004352533346144091   -0.00830564062719285   -5.144025354770024e-05
-0.0020621161354897988   -0.005522066620327949   -1.9767636008182937e-05
-0.0005537142081794647   -0.005544103033356832   1.1143431469779435e-05
-0.0018984716494194745   -0.008324045248445126   -0.0001003453084302305
-0.001861923515914147   -0.008369282327267864   -0.00011815684485836266
-0.0020013496931766015   -0.005589672539530643   -5.465703016099439e-05
-0.0033241281119366552   -0.008349698958879445   -0.00015758320898058713
-0.0018799806660532684   -0.008345899478626196   -0.000109983161725135
-0.0020013496931766015   -0.005589672539530643   -5.465703016099439e-05
-0.003478516157001371   -0.005587773579227867   -9.224141834710862e-05
-0.0033241281119366552   -0.008349698958879445   -0.00015758320898058713
-0.003497245485478655   -0.0055688315828138395   -8.200928996648007e-05
-0.0018799806660532684   -0.008345899478626196   -0.000109983161725135
-0.0033421516393166194   -0.008330901239920871   -0.0001462025730006652
-0.003497245485478655   -0.0055688315828138395   -8.200928996648007e-05
-0.0033241281119366552   -0.008349698958879445   -0.00015758320898058713
-0.0018799806660532684   -0.008345899478626196   -0.000109983161725135
-0.003497245485478655   -0.0055688315828138395   -8.200928996648007e-05
-0.0020208245956978193   -0.005567796441810357   -4.418937170498135e-05
-0.0020013496931766015   -0.005589672539530643   -5.465703016099439e-05
-0.0018799806660532684   -0.008345899478626196   -0.000109983161725135
-0.003497245485478655   -0.0055688315828138395   -8.200928996648007e-05
-0.0020013496931766015   -0.005589672539530643   -5.465703016099439e-05
-0.0033241281119366552   -0.008349698958879445   -0.00015758320898058713
-0.0018799806660532684   -0.008345899478626196   -0.000109983161725135
-0.0020208245956978193   -0.005567796441810357   -4.418937170498135e-05
-0.0033421516393166194   -0.008330901239920871   -0.0001462025730006652
-0.0018984716494194745   -0.008324045248445126   -0.0001003453084302305
-0.0020208245956978193   -0.005567796441810357   -4.418937170498135e-05
-0.003497245485478655   -0.0055688315828138395   -8.200928996648007e-05
-0.0033421516393166194   -0.008330901239920871   -0.0001462025730006652
-0.0035150937126987095   -0.005549641997568152   -7.081171952468824e-05
-0.0018984716494194745   -0.008324045248445126   -0.0001003453084302305
-0.0033589814556659685   -0.008313701565697959   -0.00013340720000358947
-0.0035150937126987095   -0.005549641997568152   -7.081171952468824e-05
-0.0033421516393166194   -0.008330901239920871   -0.0001462025730006652
-0.0018984716494194745   -0.008324045248445126   -0.0001003453084302305
-0.0035150937126987095   -0.005549641997568152   -7.081171952468824e-05
-0.0020410270046600605   -0.005545099452082336   -3.2628221388746054e-05
-0.0020208245956978193   -0.005567796441810357   -4.418937170498135e-05
-0.0018984716494194745   -0.008324045248445126   -0.0001003453084302305
-0.0035150937126987095   -0.005549641997568152   -7.081171952468824e-05
-0.0020208245956978193   -0.005567796441810357   -4.418937170498135e-05
-0.0033421516393166194   -0.008330901239920871   -0.0001462025730006652
-0.0018984716494194745   -0.008324045248445126   -0.0001003453084302305
-0.0020410270046600605   -0.005545099452082336   -3.2628221388746054e-05
-0.0033589814556659685   -0.008313701565697959   -0.00013340720000358947
-0.0019181840862323553   -0.008304098897137378   -8.923776153845739e-05
-0.0020410270046600605   -0.005545099452082336   -3.2628221388746054e-05
-0.0035150937126987095   -0.005549641997568152   -7.081171952468824e-05
-0.0033589814556659685   -0.008313701565697959   -0.00013340720000358947
-0.003532768569613142   -0.005530080563480649   -5.869477021360196e-05
-0.0019181840862323553   -0.008304098897137378   -8.923776153845739e-05
-0.003375872380682985   -0.008298141295318225   -0.00011926409620034663
-0.003532768569613142   -0.005530080563480649   -5.869477021360196e-05
-0.0033589814556659685   -0.008313701565697959   -0.00013340720000358947
-0.0019181840862323553   -0.008304098897137378   -8.923776153845739e-05
-0.003532768569613142   -0.005530080563480649   -5.869477021360196e-05
-0.0020621161354897988   -0.005522066620327949   -1.9767636008182937e-05
-0.0020410270046600605   -0.005545099452082336   -3.2628221388746054e-05
-0.0019181840862323553   -0.008304098897137378   -8.923776153845739e-05
-0.003532768569613142   -0.005530080563480649   -5.869477021360196e-05
-0.0020410270046600605   -0.005545099452082336   -3.2628221388746054e-05
-0.0033589814556659685   -0.008313701565697959   -0.00013340720000358947
-0.0033241281119366552   -0.008349698958879445   -0.00015758320898058713
-0.003478516157001371   -0.005587773579227867   -9.224141834710862e-05
-0.004813045411649927   -0.008322937568004002   -0.00018909940964983695
-0.0033421516393166194   -0.008330901239920871   -0.0001462025730006652
-0.003478516157001371   -0.005587773579227867   -9.224141834710862e-05
-0.004987192971898207   -0.005578847396118678   -0.0001232713671682856
-0.004813045411649927   -0.008322937568004002   -0.00018909940964983695
-0.005005044050534576   -0.005563798540758602   -0.00011335759022505609
-0.0033421516393166194   -0.008330901239920871   -0.0001462025730006652
-0.004830266232803842   -0.00830895734325204   -0.00017455204229516793
-0.005005044050534576   -0.005563798540758602   -0.00011335759022505609
-0.004813045411649927   -0.008322937568004002   -0.00018909940964983695
-0.0033421516393166194   -0.008330901239920871   -0.0001462025730006652
-0.005005044050534576   -0.005563798540758602   -0.00011335759022505609
-0.003497245485478655   -0.0055688315828138395   -8.200928996648007e-05
-0.003478516157001371   -0.005587773579227867   -9.224141834710862e-05
-0.0033421516393166194   -0.008330901239920871   -0.0001462025730006652
-0.005005044050534576   -0.005563798540758602   -0.00011335759022505609
-0.003478516157001371   -0.005587773579227867   -9.224141834710862e-05
-0.004813045411649927   -0.008322937568004002   -0.00018909940964983695
-0.0033421516393166194   -0.008330901239920871   -0.0001462025730006652
-0.003497245485478655   -0.0055688315828138395   -8.200928996648007e-05
-0.004830266232803842   -0.00830895734325204   -0.00017455204229516793
-0.0033589814556659685   -0.008313701565697959   -0.00013340720000358947
-0.003497245485478655   -0.0055688315828138395   -8.200928996648007e-05
-0.005005044050534576   -0.005563798540758602   -0.00011335759022505609
-0.004830266232803842   -0.00830895734325204   -0.00017455204229516793
-0.005020046646924065   -0.0055479579663490495   -0.0001027311749490361
-0.0033589814556659685   -0.008313701565697959   -0.00013340720000358947
-0.004843094369456465   -0.00829607003686556   -0.00015880898022334396
-0.005020046646924065   -0.0055479579663490495   -0.0001027311749490361
-0.004830266232803842   -0.00830895734325204   -0.00017455204229516793
-0.0033589814556659685   -0.008313701565697959   -0.00013340720000358947
-0.005020046646924065   -0.0055479579663490495   -0.0001027311749490361
-0.0035150937126987095   -0.005549641997568152   -7.081171952468824e-05
-0.003497245485478655   -0.0055688315828138395   -8.200928996648007e-05
-0.0033589814556659685   -0.008313701565697959   -0.00013340720000358947
-0.005020046646924065   -0.0055479579663490495   -0.0001027311749490361
-0.003497245485478655   -0.0055688315828138395   -8.200928996648007e-05
-0.004830266232803842   -0.00830895734325204   -0.00017455204229516793
-0.0033589814556659685   -0.008313701565697959   -0.00013340720000358947
-0.0035150937126987095   -0.005549641997568152   -7.081171952468824e-05
-0.004843094369456465   -0.00829607003686556   -0.00015880898022334396
-0.003375872380682985   -0.008298141295318225   -0.00011926409620034663
-0.0035150937126987095   -0.005549641997568152   -7.081171952468824e-05
-0.005020046646924065   -0.0055479579663490495   -0.0001027311749490361
-0.004843094369456465   -0.00829607003686556   -0.00015880898022334396
-0.00503421928274228   -0.005531782633333164   -9.110750711906241e-05
-0.003375872380682985   -0.008298141295318225   -0.00011926409620034663
-0.004855876534023863   -0.008284931176904176   -0.00014157093266855465
-0.00503421928274228   -0.005531782633333164   -9.110750711906241e-05
-0.004843094369456465   -0.00829607003686556   -0.00015880898022334396
-0.003375872380682985   -0.008298141295318225   -0.00011926409620034663
-0.00503421928274228   -0.005531782633333164   -9.110750711906241e-05
-0.003532768569613142   -0.005530080563480649   -5.869477021360196e-05
-0.0035150937126987095   -0.005549641997568152   -7.081171952468824e-05
-0.003375872380682985   -0.008298141295318225   -0.00011926409620034663
-0.00503421928274228   -0.005531782633333164   -9.110750711906241e-05
-0.0035150937126987095   -0.005549641997568152   -7.081171952468824e-05
-0.004843094369456465   -0.00829607003686556   -0.00015880898022334396
-0.004813045411649927   -0.008322937568004002   -0.00018909940964983695
-0.004987192971898207   -0.005578847396118678   -0.0001232713671682856
-0.006393308985980225   -0.008290822361670853   -0.00021181893446858371
-0.004830266232803842   -0.00830895734325204   -0.00017455204229516793
-0.004987192971898207   -0.005578847396118678   -0.0001232713671682856
-0.006570168073921961   -0.005563789256521477   -0.00014535461300670946
-0.006393308985980225   -0.008290822361670853   -0.00021181893446858371
-0.006580608890008697   -0.005551539407720039   -0.0001375260852954262
-0.004830266232803842   -0.00830895734325204   -0.00017455204229516793
-0.006394631255409505   -0.008280040340801246   -0.00019533230496106822
-0.006580608890008697   -0.005551539407720039   -0.0001375260852954262
-0.006393308985980225   -0.008290822361670853   -0.00021181893446858371
-0.004830266232803842   -0.00830895734325204   -0.00017455204229516793
-0.006580608890008697   -0.005551539407720039   -0.0001375260852954262
-0.005005044050534576   -0.005563798540758602   -0.00011335759022505609
-0.004987192971898207   -0.005578847396118678   -0.0001232713671682856
-0.004830266232803842   -0.00830895734325204   -0.00017455204229516793
-0.006580608890008697   -0.005551539407720039   -0.0001375260852954262
-0.004987192971898207   -0.005578847396118678   -0.0001232713671682856
-0.006393308985980225   -0.008290822361670853   -0.00021181893446858371
-0.004830266232803842   -0.00830895734325204   -0.00017455204229516793
-0.005005044050534576   -0.005563798540758602   -0.00011335759022505609
-0.006394631255409505   -0.008280040340801246   -0.00019533230496106822
-0.004843094369456465   -0.00829607003686556   -0.00015880898022334396
-0.005005044050534576   -0.005563798540758602   -0.00011335759022505609
-0.006580608890008697   -0.005551539407720039   -0.0001375260852954262
-0.006394631255409505   -0.008280040340801246   -0.00019533230496106822
-0.00659015624994842   -0.005537518003742152   -0.00012800450000314547
-0.004843094369456465   -0.00829607003686556   -0.00015880898022334396
-0.0063962087630325525   -0.008269373727739318   -0.00017645451175501056
-0.00659015624994842   -0.005537518003742152   -0.00012800450000314547
-0.006394631255409505   -0.008280040340801246   -0.00019533230496106822
-0.004843094369456465   -0.00829607003686556   -0.00015880898022334396
-0.00659015624994842   -0.005537518003742152   -0.00012800450000314547
-0.005020046646924065   -0.0055479579663490495   -0.0001027311749490361
-0.005005044050534576   -0.005563798540758602   -0.00011335759022505609
-0.004843094369456465   -0.00829607003686556   -0.00015880898022334396
-0.00659015624994842   -0.005537518003742152   -0.00012800450000314547
-0.005005044050534576   -0.005563798540758602   -0.00011335759022505609
-0.006394631255409505   -0.008280040340801246   -0.00019533230496106822
-0.004843094369456465   -0.00829607003686556   -0.00015880898022334396
-0.005020046646924065   -0.0055479579663490495   -0.0001027311749490361
-0.0063962087630325525   -0.008269373727739318   -0.00017645451175501056
-0.004855876534023863   -0.008284931176904176   -0.00014157093266855465
-0.005020046646924065   -0.0055479579663490495   -0.0001027311749490361
-0.00659015624994842   -0.005537518003742152   -0.00012800450000314547
-0.0063962087630325525   -0.008269373727739318   -0.00017645451175501056
-0.006594049722412716   -0.005525129432487563   -0.00011718233661434263
-0.004855876534023863   -0.008284931176904176   -0.00014157093266855465
-0.006388543932796657   -0.008263453801035572   -0.00015545993950239918
-0.006594049722412716   -0.005525129432487563   -0.00011718233661434263
-0.0063962087630325525   -0.008269373727739318   -0.00017645451175501056
-0.004855876534023863   -0.008284931176904176   -0.00014157093266855465
-0.006594049722412716   -0.005525129432487563   -0.00011718233661434263
-0.00503421928274228   -0.005531782633333164   -9.110750711906241e-05
-0.005020046646924065   -0.0055479579663490495   -0.0001027311749490361
-0.004855876534023863   -0.008284931176904176   -0.00014157093266855465
-0.006594049722412716   -0.005525129432487563   -0.00011718233661434263
-0.005020046646924065   -0.0055479579663490495   -0.0001027311749490361
-0.0063962087630325525   -0.008269373727739318   -0.00017645451175501056
0.001081258410598212   -0.005621493173535028   3.1124467467126696e-05
0.000764358384628011   -0.0028360766264913795   3.4239234441884467e-05
-0.0005073954934752277   -0.005596253350365008   -1.2776515673892331e-05
0.0010484131410367652   -0.0055903403661637175   4.415013531448433e-05
0.000764358384628011   -0.0028360766264913795   3.4239234441884467e-05
-0.0007252955351509775   -0.002801418749410382   2.0891321273367153e-05
-0.0005073954934752277   -0.005596253350365008   -1.2776515673892331e-05
-0.0007467599198500417   -0.002789634779765966   3.652707736966002e-05
0.0010484131410367652   -0.0055903403661637175   4.415013531448433e-05
-0.0005286892892793814   -0.005570808274467843   -1.8354192733809859e-06
-0.0007467599198500417   -0.002789634779765966   3.652707736966002e-05
-0.0005073954934752277   -0.005596253350365008   -1.2776515673892331e-05
0.0010484131410367652   -0.0055903403661637175   4.415013531448433e-05
-0.0007467599198500417   -0.002789634779765966   3.652707736966002e-05
0.0006971377667758981   -0.002802497824590568   7.25249605939681e-05
0.000764358384628011   -0.0028360766264913795   3.4239234441884467e-05
0.0010484131410367652   -0.0055903403661637175   4.415013531448433e-05
-0.0007467599198500417   -0.002789634779765966   3.652707736966002e-05
0.000764358384628011   -0.0028360766264913795   3.4239234441884467e-05
-0.0005073954934752277   -0.005596253350365008   -1.2776515673892331e-05
0.0010484131410367652   -0.0055903403661637175   4.415013531448433e-05
0.0006971377667758981   -0.002802497824590568   7.25249605939681e-05
-0.0005286892892793814   -0.005570808274467843   -1.8354192733809859e-06
0.0010111365976543955   -0.0055597632148027655   6.339556514742198e-05
0.0006971377667758981   -0.002802497824590568   7.25249605939681e-05
-0.0007467599198500417   -0.002789634779765966   3.652707736966002e-05
-0.0005286892892793814   -0.005570808274467843   -1.8354192733809859e-06
-0.0007754569600395081   -0.002766998855947157   5.565372200061661e-05
0.0010111365976543955   -0.0055597632148027655   6.339556514742198e-05
-0.0005537142081794647   -0.005544103033356832   1.1143431469779435e-05
-0.0007754569600395081   -0.002766998855947157   5.565372200061661e-05
-0.0005286892892793814   -0.005570808274467843   -1.8354192733809859e-06
0.0010111365976543955   -0.0055597632148027655   6.339556514742198e-05
-0.0007754569600395081   -0.002766998855947157   5.565372200061661e-05
0.0006579925894884758   -0.002775811261874383   0.00010082471550699833
0.0006971377667758981   -0.002802497824590568   7.25249605939681e-05
0.0010111365976543955   -0.0055597632148027655   6.339556514742198e-05
-0.0007754569600395081   -0.002766998855947157   5.565372200061661e-05
0.0006971377667758981   -0.002802497824590568   7.25249605939681e-05
-0.0005286892892793814   -0.005570808274467843   -1.8354192733809859e-06
0.0010111365976543955   -0.0055597632148027655   6.339556514742198e-05
0.0006579925894884758   -0.002775811261874383   0.00010082471550699833
-0.0005537142081794647   -0.005544103033356832   1.1143431469779435e-05
0.0009655316413689182   -0.005522060861308599   8.46657760691616e-05
0.0006579925894884758   -0.002775811261874383   0.00010082471550699833
-0.0007754569600395081   -0.002766998855947157   5.565372200061661e-05
-0.0005537142081794647   -0.005544103033356832   1.1143431469779435e-05
-0.0007997978519441181   -0.002742956592993845   7.246123568147847e-05
0.0009655316413689182   -0.005522060861308599   8.46657760691616e-05
-0.0005797351095892635   -0.005515883151921546   2.6151192163762134e-05
-0.0007997978519441181   -0.002742956592993845   7.246123568147847e-05
-0.0005537142081794647   -0.005544103033356832   1.1143431469779435e-05
0.0009655316413689182   -0.005522060861308599   8.46657760691616e-05
-0.0007997978519441181   -0.002742956592993845   7.246123568147847e-05
0.0006074750038483842   -0.0027342962225821166   0.00013335645387900708
0.0006579925894884758   -0.002775811261874383   0.00010082471550699833
0.0009655316413689182   -0.005522060861308599   8.46657760691616e-05
-0.0007997978519441181   -0.002742956592993845   7.246123568147847e-05
0.0006579925894884758   -0.002775811261874383   0.00010082471550699833
-0.0005537142081794647   -0.005544103033356832   1.1143431469779435e-05
-0.0005073954934752277   -0.005596253350365008   -1.2776515673892331e-05
-0.0007252955351509775   -0.002801418749410382   2.0891321273367153e-05
-0.0020013496931766015   -0.005589672539530643   -5.465703016099439e-05
-0.0005286892892793814   -0.005570808274467843   -1.8354192733809859e-06
-0.0007252955351509775   -0.002801418749410382   2.0891321273367153e-05
-0.002136952463438511   -0.0028443404343406558   -1.1319275933720683e-05
-0.0020013496931766015   -0.005589672539530643   -5.465703016099439e-05
-0.0021571488546576942   -0.0028251588429007335   -6.755141228291613e-08
-0.0005286892892793814   -0.005570808274467843   -1.8354192733809859e-06
-0.0020208245956978193   -0.005567796441810357   -4.418937170498135e-05
-0.0021571488546576942   -0.0028251588429007335   -6.755141228291613e-08
-0.0020013496931766015   -0.005589672539530643   -5.465703016099439e-05
-0.0005286892892793814   -0.005570808274467843   -1.8354192733809859e-06
-0.0021571488546576942   -0.0028251588429007335   -6.755141228291613e-08
-0.0007467599198500417   -0.002789634779765966   3.652707736966002e-05
-0.0007252955351509775   -0.002801418749410382   2.0891321273367153e-05
-0.0005286892892793814   -0.005570808274467843   -1.8354192733809859e-06
-0.0021571488546576942   -0.0028251588429007335   -6.755141228291613e-08
-0.0007252955351509775   -0.002801418749410382   2.0891321273367153e-05
-0.0020013496931766015   -0.005589672539530643   -5.465703016099439e-05
-0.0005286892892793814   -0.005570808274467843   -1.8354192733809859e-06
-0.0007467599198500417   -0.002789634779765966   3.652707736966002e-05
-0.0020208245956978193   -0.005567796441810357   -4.418937170498135e-05
-0.0005537142081794647   -0.005544103033356832   1.1143431469779435e-05
-0.0007467599198500417   -0.002789634779765966   3.652707736966002e-05
-0.0021571488546576942   -0.0028251588429007335   -6.755141228291613e-08
-0.0020208245956978193   -0.005567796441810357   -4.418937170498135e-05
-0.002178523438476716   -0.002803201519488122   1.1958254041880824e-05
-0.0005537142081794647   -0.005544103033356832   1.1143431469779435e-05
-0.0020410270046600605   -0.005545099452082336   -3.2628221388746054e-05
-0.002178523438476716   -0.002803201519488122   1.1958254041880824e-05
-0.0020208245956978193   -0.005567796441810357   -4.418937170498135e-05
-0.0005537142081794647   -0.005544103033356832   1.1143431469779435e-05
-0.002178523438476716   -0.002803201519488122   1.1958254041880824e-05
-0.0007754569600395081   -0.002766998855947157   5.565372200061661e-05
-0.0007467599198500417   -0.002789634779765966   3.652707736966002e-05
-0.0005537142081794647   -0.005544103033356832   1.1143431469779435e-05
-0.002178523438476716   -0.002803201519488122   1.1958254041880824e-05
-0.0007467599198500417   -0.002789634779765966   3.652707736966002e-05
-0.0020208245956978193   -0.005567796441810357   -4.418937170498135e-05
-0.0005537142081794647   -0.005544103033356832   1.1143431469779435e-05
-0.0007754569600395081   -0.002766998855947157   5.565372200061661e-05
-0.0020410270046600605   -0.005545099452082336   -3.2628221388746054e-05
-0.0005797351095892635   -0.005515883151921546   2.6151192163762134e-05
-0.0007754569600395081   -0.002766998855947157   5.565372200061661e-05
-0.002178523438476716   -0.002803201519488122   1.1958254041880824e-05
-0.0020410270046600605   -0.005545099452082336   -3.2628221388746054e-05
-0.0021990342786281144   -0.0027791327648208877   2.5290990680853345e-05
-0.0005797351095892635   -0.005515883151921546   2.6151192163762134e-05
-0.0020621161354897988   -0.005522066620327949   -1.9767636008182937e-05
-0.0021990342786281144   -0.0027791327648208877   2.5290990680853345e-05
-0.0020410270046600605   -0.005545099452082336   -3.2628221388746054e-05
-0.0005797351095892635   -0.005515883151921546   2.6151192163762134e-05
-0.0021990342786281144   -0.0027791327648208877   2.5290990680853345e-05
-0.0007997978519441181   -0.002742956592993845   7.246123568147847e-05
-0.0007754569600395081   -0.002766998855947157   5.565372200061661e-05
-0.0005797351095892635   -0.005515883151921546   2.6151192163762134e-05
-0.0021990342786281144   -0.0027791327648208877   2.5290990680853345e-05
-0.0007754569600395081   -0.002766998855947157   5.565372200061661e-05
-0.0020410270046600605   -0.005545099452082336   -3.2628221388746054e-05
-0.0020013496931766015   -0.005589672539530643   -5.465703016099439e-05
-0.002136952463438511   -0.0028443404343406558   -1.1319275933720683e-05
-0.003478516157001371   -0.005587773579227867   -9.224141834710862e-05
-0.0020208245956978193   -0.005567796441810357   -4.418937170498135e-05
-0.002136952463438511   -0.0028443404343406558   -1.1319275933720683e-05
-0.0035805669627808796   -0.0028779122440612606   -4.777140326624033e-05
-0.003478516157001371   -0.005587773579227867   -9.224141834710862e-05
-0.0035988959786486152   -0.0028581320354588227   -3.890711238748081e-05
-0.0020208245956978193   -0.005567796441810357   -4.418937170498135e-05
-0.003497245485478655   -0.0055688315828138395   -8.200928996648007e-05
-0.0035988959786486152   -0.0028581320354588227   -3.890711238748081e-05
-0.003478516157001371   -0.005587773579227867   -9.224141834710862e-05
-0.0020208245956978193   -0.005567796441810357   -4.418937170498135e-05
-0.0035988959786486152   -0.0028581320354588227   -3.890711238748081e-05
-0.0021571488546576942   -0.0028251588429007335   -6.755141228291613e-08
-0.002136952463438511   -0.0028443404343406558   -1.1319275933720683e-05
-0.0020208245956978193   -0.005567796441810357   -4.418937170498135e-05
-0.0035988959786486152   -0.0028581320354588227   -3.890711238748081e-05
-0.002136952463438511   -0.0028443404343406558   -1.1319275933720683e-05
-0.003478516157001371   -0.005587773579227867   -9.224141834710862e-05
-0.0020208245956978193   -0.005567796441810357   -4.418937170498135e-05
-0.0021571488546576942   -0.0028251588429007335   -6.755141228291613e-08
-0.003497245485478655   -0.0055688315828138395   -8.200928996648007e-05
-0.0020410270046600605   -0.005545099452082336   -3.2628221388746054e-05
-0.0021571488546576942   -0.0028251588429007335   -6.755141228291613e-08
-0.0035988959786486152   -0.0028581320354588227   -3.890711238748081e-05
-0.003497245485478655   -0.0055688315828138395   -8.200928996648007e-05
-0.0036165732005261084   -0.002837108187286557   -2.998722397385948e-05
-0.0020410270046600605   -0.005545099452082336   -3.2628221388746054e-05
-0.0035150937126987095   -0.005549641997568152   -7.081171952468824e-05
-0.0036165732005261084   -0.002837108187286557   -2.998722397385948e-05
-0.003497245485478655   -0.0055688315828138395   -8.200928996648007e-05
-0.0020410270046600605   -0.005545099452082336   -3.2628221388746054e-05
-0.0036165732005261084   -0.002837108187286557   -2.998722397385948e-05
-0.002178523438476716   -0.002803201519488122   1.1958254041880824e-05
-0.0021571488546576942   -0.0028251588429007335   -6.755141228291613e-08
-0.0020410270046600605   -0.005545099452082336   -3.2628221388746054e-05
-0.0036165732005261084   -0.002837108187286557   -2.998722397385948e-05
-0.0021571488546576942   -0.0028251588429007335   -6.755141228291613e-08
-0.003497245485478655   -0.0055688315828138395   -8.200928996648007e-05
-0.0020410270046600605   -0.005545099452082336   -3.2628221388746054e-05
-0.002178523438476716   -0.002803201519488122   1.1958254041880824e-05
-0.0035150937126987095   -0.005549641997568152   -7.081171952468824e-05
-0.0020621161354897988   -0.005522066620327949   -1.9767636008182937e-05
-0.002178523438476716   -0.002803201519488122   1.1958254041880824e-05
-0.0036165732005261084   -0.002837108187286557   -2.998722397385948e-05
-0.0035150937126987095   -0.005549641997568152   -7.081171952468824e-05
-0.0036329763842257176   -0.0028142419467020304   -2.0186706749032832e-05
-0.0020621161354897988   -0.005522066620327949   -1.9767636008182937e-05
-0.003532768569613142   -0.005530080563480649   -5.869477021360196e-05
-0.0036329763842257176   -0.0028142419467020304   -2.0186706749032832e-05
-0.0035150937126987095   -0.005549641997568152   -7.081171952468824e-05
-0.0020621161354897988   -0.005522066620327949   -1.9767636008182937e-05
-0.0036329763842257176   -0.0028142419467020304   -2.0186706749032832e-05
-0.0021990342786281144   -0.0027791327648208877   2.5290990680853345e-05
-0.002178523438476716   -0.002803201519488122   1.1958254041880824e-05
-0.0020621161354897988   -0.005522066620327949   -1.9767636008182937e-05
-0.0036329763842257176   -0.0028142419467020304   -2.0186706749032832e-05
-0.002178523438476716   -0.002803201519488122   1.1958254041880824e-05
-0.0035150937126987095   -0.005549641997568152   -7.081171952468824e-05
-0.003478516157001371   -0.005587773579227867   -9.224141834710862e-05
-0.0035805669627808796   -0.0028779122440612606   -4.777140326624033e-05
-0.004987192971898207   -0.005578847396118678   -0.0001232713671682856
-0.003497245485478655   -0.0055688315828138395   -8.200928996648007e-05
-0.0035805669627808796   -0.0028779122440612606   -4.777140326624033e-05
-0.005074968450860166   -0.0028918264516124507   -8.124563209818013e-05
-0.004987192971898207   -0.005578847396118678   -0.0001232713671682856
-0.005091523019074049   -0.0028742902436826724   -7.466349649123995e-05
-0.003497245485478655   -0.0055688315828138395   -8.200928996648007e-05
-0.005005044050534576   -0.005563798540758602   -0.00011335759022505609
-0.005091523019074049   -0.0028742902436826724   -7.466349649123995e-05
-0.004987192971898207   -0.005578847396118678   -0.0001232713671682856
-0.003497245485478655   -0.0055688315828138395   -8.200928996648007e-05
-0.005091523019074049   -0.0028742902436826724   -7.466349649123995e-05
-0.0035988959786486152   -0.0028581320354588227   -3.890711238748081e-05
-0.0035805669627808796   -0.0028779122440612606   -4.777140326624033e-05
-0.003497245485478655   -0.0055688315828138395   -8.200928996648007e-05
-0.005091523019074049   -0.0028742902436826724   -7.466349649123995e-05
-0.0035805669627808796   -0.0028779122440612606   -4.777140326624033e-05
-0.004987192971898207   -0.005578847396118678   -0.0001232713671682856
-0.003497245485478655   -0.0055688315828138395   -8.200928996648007e-05
-0.0035988959786486152   -0.0028581320354588227   -3.890711238748081e-05
-0.005005044050534576   -0.005563798540758602   -0.00011335759022505609
-0.0035150937126987095   -0.005549641997568152   -7.081171952468824e-05
-0.0035988959786486152   -0.0028581320354588227   -3.890711238748081e-05
-0.005091523019074049   -0.0028742902436826724   -7.466349649123995e-05
-0.005005044050534576   -0.005563798540758602   -0.00011335759022505609
-0.005106283317769   -0.0028550102059935628   -6.81914511445423e-05
-0.0035150937126987095   -0.005549641997568152   -7.081171952468824e-05
-0.005020046646924065   -0.0055479579663490495   -0.0001027311749490361
-0.005106283317769   -0.0028550102059935628   -6.81914511445423e-05
-0.005005044050534576   -0.005563798540758602   -0.00011335759022505609
-0.0035150937126987095   -0.005549641997568152   -7.081171952468824e-05
-0.005106283317769   -0.0028550102059935628   -6.81914511445423e-05
-0.0036165732005261084   -0.002837108187286557   -2.998722397385948e-05
-0.0035988959786486152   -0.0028581320354588227   -3.890711238748081e-05
-0.0035150937126987095   -0.005549641997568152   -7.081171952468824e-05
-0.005106283317769   -0.0028550102059935628   -6.81914511445423e-05
-0.0035988959786486152   -0.0028581320354588227   -3.890711238748081e-05
-0.005005044050534576   -0.005563798540758602   -0.00011335759022505609
-0.0035150937126987095   -0.005549641997568152   -7.081171952468824e-05
-0.0036165732005261084   -0.002837108187286557   -2.998722397385948e-05
-0.005020046646924065   -0.0055479579663490495   -0.0001027311749490361
-0.003532768569613142   -0.005530080563480649   -5.869477021360196e-05
-0.0036165732005261084   -0.002837108187286557   -2.998722397385948e-05
-0.005106283317769   -0.0028550102059935628   -6.81914511445423e-05
-0.005020046646924065   -0.0055479579663490495   -0.0001027311749490361
-0.005119681965947648   -0.0028343984528803345   -6.143659619003785e-05
-0.003532768569613142   -0.005530080563480649   -5.869477021360196e-05
-0.00503421928274228   -0.005531782633333164   -9.110750711906241e-05
-0.005119681965947648   -0.0028343984528803345   -6.143659619003785e-05
-0.005020046646924065   -0.0055479579663490495   -0.0001027311749490361
-0.003532768569613142   -0.005530080563480649   -5.869477021360196e-05
-0.005119681965947648   -0.0028343984528803345   -6.143659619003785e-05
-0.0036329763842257176   -0.0028142419467020304   -2.0186706749032832e-05
-0.0036165732005261084   -0.002837108187286557   -2.998722397385948e-05
-0.003532768569613142   -0.005530080563480649   -5.869477021360196e-05
-0.005119681965947648   -0.0028343984528803345   -6.143659619003785e-05
-0.0036165732005261084   -0.002837108187286557   -2.998722397385948e-05
-0.005020046646924065   -0.0055479579663490495   -0.0001027311749490361
-0.004987192971898207   -0.005578847396118678   -0.0001232713671682856
-0.005074968450860166   -0.0028918264516124507   -8.124563209818013e-05
-0.006570168073921961   -0.005563789256521477   -0.00014535461300670946
-0.005005044050534576   -0.005563798540758602   -0.00011335759022505609
-0.005074968450860166   -0.0028918264516124507   -8.124563209818013e-05
-0.006625096864263991   -0.002893159089631886   -0.00010843595082257782
-0.006570168073921961   -0.005563789256521477   -0.00014535461300670946
-0.006639119898396328   -0.002876242222217811   -0.00010537779070231648
-0.005005044050534576   -0.005563798540758602   -0.00011335759022505609
-0.006580608890008697   -0.005551539407720039   -0.0001375260852954262
-0.006639119898396328   -0.002876242222217811   -0.00010537779070231648
-0.006570168073921961   -0.005563789256521477   -0.00014535461300670946
-0.005005044050534576   -0.005563798540758602   -0.00011335759022505609
-0.006639119898396328   -0.002876242222217811   -0.00010537779070231648
-0.005091523019074049   -0.0028742902436826724   -7.466349649123995e-05
-0.005074968450860166   -0.0028918264516124507   -8.124563209818013e-05
-0.005005044050534576   -0.005563798540758602   -0.00011335759022505609
-0.006639119898396328   -0.002876242222217811   -0.00010537779070231648
-0.005074968450860166   -0.0028918264516124507   -8.124563209818013e-05
-0.006570168073921961   -0.005563789256521477   -0.00014535461300670946
-0.005005044050534576   -0.005563798540758602   -0.00011335759022505609
-0.005091523019074049   -0.0028742902436826724   -7.466349649123995e-05
-0.006580608890008697   -0.005551539407720039   -0.0001375260852954262
-0.005020046646924065   -0.0055479579663490495   -0.0001027311749490361
-0.005091523019074049   -0.0028742902436826724   -7.466349649123995e-05
-0.006639119898396328   -0.002876242222217811   -0.00010537779070231648
-0.006580608890008697   -0.005551539407720039   -0.0001375260852954262
-0.006651683560764913   -0.00285776940085129   -0.00010175804040016794
-0.005020046646924065   -0.0055479579663490495   -0.0001027311749490361
-0.00659015624994842   -0.005537518003742152   -0.00012800450000314547
-0.006651683560764913   -0.00285776940085129   -0.00010175804040016794
-0.006580608890008697   -0.005551539407720039   -0.0001375260852954262
-0.005020046646924065   -0.0055479579663490495   -0.0001027311749490361
-0.006651683560764913   -0.00285776940085129   -0.00010175804040016794
-0.005106283317769   -0.0028550102059935628   -6.81914511445423e-05
-0.005091523019074049   -0.0028742902436826724   -7.466349649123995e-05
-0.005020046646924065   -0.0055479579663490495   -0.0001027311749490361
-0.006651683560764913   -0.00285776940085129   -0.00010175804040016794
-0.005091523019074049   -0.0028742902436826724   -7.466349649123995e-05
-0.006580608890008697   -0.005551539407720039   -0.0001375260852954262
-0.005020046646924065   -0.0055479579663490495   -0.0001027311749490361
-0.005106283317769   -0.0028550102059935628   -6.81914511445423e-05
-0.00659015624994842   -0.005537518003742152   -0.00012800450000314547
-0.00503421928274228   -0.005531782633333164   -9.110750711906241e-05
-0.005106283317769   -0.0028550102059935628   -6.81914511445423e-05
-0.006651683560764913   -0.00285776940085129   -0.00010175804040016794
-0.00659015624994842   -0.005537518003742152   -0.00012800450000314547
-0.006661990105621655   -0.0028382430732250804   -9.824364387874374e-05
-0.00503421928274228   -0.005531782633333164   -9.110750711906241e-05
-0.006594049722412716   -0.005525129432487563   -0.00011718233661434263
-0.006661990105621655   -0.0028382430732250804   -9.824364387874374e-05
-0.00659015624994842   -0.005537518003742152   -0.00012800450000314547
-0.00503421928274228   -0.005531782633333164   -9.110750711906241e-05
-0.006661990105621655   -0.0028382430732250804   -9.824364387874374e-05
-0.005119681965947648   -0.0028343984528803345   -6.143659619003785e-05
-0.005106283317769   -0.0028550102059935628   -6.81914511445423e-05
-0.00503421928274228   -0.005531782633333164   -9.110750711906241e-05
-0.006661990105621655   -0.0028382430732250804   -9.824364387874374e-05
-0.005106283317769   -0.0028550102059935628   -6.81914511445423e-05
-0.00659015624994842   -0.005537518003742152   -0.00012800450000314547
0.000764358384628011   -0.0028360766264913795   3.4239234441884467e-05
0.0   0.0   0.0
-0.0007252955351509775   -0.002801418749410382   2.0891321273367153e-05
0.0006971377667758981   -0.002802497824590568   7.25249605939681e-05
0.0   0.0   0.0
-0.0009020193253438442   -0.00024306007799533997   -4.2009087879260904e-06
-0.0007252955351509775   -0.002801418749410382   2.0891321273367153e-05
-0.0009562195891641847   -0.00019178147862779804   2.8330741195645168e-05
0.0006971377667758981   -0.002802497824590568   7.25249605939681e-05
-0.0007467599198500417   -0.002789634779765966   3.652707736966002e-05
-0.0009562195891641847   -0.00019178147862779804   2.8330741195645168e-05
-0.0007252955351509775   -0.002801418749410382   2.0891321273367153e-05
0.0006971377667758981   -0.002802497824590568   7.25249605939681e-05
-0.0009562195891641847   -0.00019178147862779804   2.8330741195645168e-05
0.0   0.0   0.0
0.0   0.0   0.0
0.0006971377667758981   -0.002802497824590568   7.25249605939681e-05
-0.0009562195891641847   -0.00019178147862779804   2.8330741195645168e-05
0.0   0.0   0.0
-0.0007252955351509775   -0.002801418749410382   2.0891321273367153e-05
0.0006971377667758981   -0.002802497824590568   7.25249605939681e-05
0.0   0.0   0.0
-0.0007467599198500417   -0.002789634779765966   3.652707736966002e-05
0.0006579925894884758   -0.002775811261874383   0.00010082471550699833
0.0   0.0   0.0
-0.0009562195891641847   -0.00019178147862779804   2.8330741195645168e-05
-0.0007467599198500417   -0.002789634779765966   3.652707736966002e-05
-0.0009906681504083855   -0.00016745455501987662   4.759037890856517e-05
0.0006579925894884758   -0.002775811261874383   0.00010082471550699833
-0.0007754569600395081   -0.002766998855947157   5.565372200061661e-05
-0.0009906681504083855   -0.00016745455501987662   4.759037890856517e-05
-0.0007467599198500417   -0.002789634779765966   3.652707736966002e-05
0.0006579925894884758   -0.002775811261874383   0.00010082471550699833
-0.0009906681504083855   -0.00016745455501987662   4.759037890856517e-05
0.0   0.0   0.0
0.0   0.0   0.0
0.0006579925894884758   -0.002775811261874383   0.00010082471550699833
-0.0009906681504083855   -0.00016745455501987662   4.759037890856517e-05
0.0   0.0   0.0
-0.0007467599198500417   -0.002789634779765966   3.652707736966002e-05
0.0006579925894884758   -0.002775811261874383   0.00010082471550699833
0.0   0.0   0.0
-0.0007754569600395081   -0.002766998855947157   5.565372200061661e-05
0.0006074750038483842   -0.0027342962225821166   0.00013335645387900708
0.0   0.0   0.0
-0.0009906681504083855   -0.00016745455501987662   4.759037890856517e-05
-0.0007754569600395081   -0.002766998855947157   5.565372200061661e-05
-0.0010376094391236449   -0.00013490361174719293   6.978934585975428e-05
0.0006074750038483842   -0.0027342962225821166   0.00013335645387900708
-0.0007997978519441181   -0.002742956592993845   7.246123568147847e-05
-0.0010376094391236449   -0.00013490361174719293   6.978934585975428e-05
-0.0007754569600395081   -0.002766998855947157   5.565372200061661e-05
0.0006074750038483842   -0.0027342962225821166   0.00013335645387900708
-0.0010376094391236449   -0.00013490361174719293   6.978934585975428e-05
0.0   0.0   0.0
0.0   0.0   0.0
0.0006074750038483842   -0.0027342962225821166   0.00013335645387900708
-0.0010376094391236449   -0.00013490361174719293   6.978934585975428e-05
0.0   0.0   0.0
-0.0007754569600395081   -0.002766998855947157   5.565372200061661e-05
-0.0007252955351509775   -0.002801418749410382   2.0891321273367153e-05
-0.0009020193253438442   -0.00024306007799533997   -4.2009087879260904e-06
-0.002136952463438511   -0.0028443404343406558   -1.1319275933720683e-05
-0.0007467599198500417   -0.002789634779765966   3.652707736966002e-05
-0.0009020193253438442   -0.00024306007799533997   -4.2009087879260904e-06
-0.0021976441949450847   -0.0003236448019747054   9.889555733577533e-07
-0.002136952463438511   -0.0028443404343406558   -1.1319275933720683e-05
-0.002226141821648369   -0.00029643462319771223   9.983553482050613e-06
-0.0007467599198500417   -0.002789634779765966   3.652707736966002e-05
-0.0021571488546576942   -0.0028251588429007335   -6.755141228291613e-08
-0.002226141821648369   -0.00029643462319771223   9.983553482050613e-06
-0.002136952463438511   -0.0028443404343406558   -1.1319275933720683e-05
-0.0007467599198500417   -0.002789634779765966   3.652707736966002e-05
-0.002226141821648369   -0.00029643462319771223   9.983553482050613e-06
-0.0009562195891641847   -0.00019178147862779804   2.8330741195645168e-05
-0.0009020193253438442   -0.00024306007799533997   -4.2009087879260904e-06
-0.0007467599198500417   -0.002789634779765966   3.652707736966002e-05
-0.002226141821648369   -0.00029643462319771223   9.983553482050613e-06
-0.0009020193253438442   -0.00024306007799533997   -4.2009087879260904e-06
-0.002136952463438511   -0.0028443404343406558   -1.1319275933720683e-05
-0.0007467599198500417   -0.002789634779765966   3.652707736966002e-05
-0.0009562195891641847   -0.00019178147862779804   2.8330741195645168e-05
-0.0021571488546576942   -0.0028251588429007335   -6.755141228291613e-08
-0.0007754569600395081   -0.002766998855947157   5.565372200061661e-05
-0.0009562195891641847   -0.00019178147862779804   2.8330741195645168e-05
-0.002226141821648369   -0.00029643462319771223   9.983553482050613e-06
-0.0021571488546576942   -0.0028251588429007335   -6.755141228291613e-08
-0.002254720190876223   -0.00026438055116415965   2.559820607065967e-05
-0.0007754569600395081   -0.002766998855947157   5.565372200061661e-05
-0.002178523438476716   -0.002803201519488122   1.1958254041880824e-05
-0.002254720190876223   -0.00026438055116415965   2.559820607065967e-05
-0.0021571488546576942   -0.0028251588429007335   -6.755141228291613e-08
-0.0007754569600395081   -0.002766998855947157   5.565372200061661e-05
-0.002254720190876223   -0.00026438055116415965   2.559820607065967e-05
-0.0009906681504083855   -0.00016745455501987662   4.759037890856517e-05
-0.0009562195891641847   -0.00019178147862779804   2.8330741195645168e-05
-0.0007754569600395081   -0.002766998855947157   5.565372200061661e-05
-0.002254720190876223   -0.00026438055116415965   2.559820607065967e-05
-0.0009562195891641847   -0.00019178147862779804   2.8330741195645168e-05
-0.0021571488546576942   -0.0028251588429007335   -6.755141228291613e-08
-0.0007754569600395081   -0.002766998855947157   5.565372200061661e-05
-0.0009906681504083855   -0.00016745455501987662   4.759037890856517e-05
-0.002178523438476716   -0.002803201519488122   1.1958254041880824e-05
-0.0007997978519441181   -0.002742956592993845   7.246123568147847e-05
-0.0009906681504083855   -0.00016745455501987662   4.759037890856517e-05
-0.002254720190876223   -0.00026438055116415965   2.559820607065967e-05
-0.002178523438476716   -0.002803201519488122   1.1958254041880824e-05
-0.00228714896960074   -0.00022682709132356823   4.085956097537323e-05
-0.0007997978519441181   -0.002742956592993845   7.246123568147847e-05
-0.0021990342786281144   -0.0027791327648208877   2.5290990680853345e-05
-0.00228714896960074   -0.00022682709132356823   4.085956097537323e-05
-0.002178523438476716   -0.002803201519488122   1.1958254041880824e-05
-0.0007997978519441181   -0.002742956592993845   7.246123568147847e-05
-0.00228714896960074   -0.00022682709132356823   4.085956097537323e-05
-0.0010376094391236449   -0.00013490361174719293   6.978934585975428e-05
-0.0009906681504083855   -0.00016745455501987662   4.759037890856517e-05
-0.0007997978519441181   -0.002742956592993845   7.246123568147847e-05
-0.00228714896960074   -0.00022682709132356823   4.085956097537323e-05
-0.0009906681504083855   -0.00016745455501987662   4.759037890856517e-05
-0.002178523438476716   -0.002803201519488122   1.1958254041880824e-05
-0.002136952463438511   -0.0028443404343406558   -1.1319275933720683e-05
-0.0021976441949450847   -0.0003236448019747054   9.889555733577533e-07
-0.0035805669627808796   -0.0028779122440612606   -4.777140326624033e-05
-0.0021571488546576942   -0.0028251588429007335   -6.755141228291613e-08
-0.0021976441949450847   -0.0003236448019747054   9.889555733577533e-07
-0.0036149657228254327   -0.00034912001043600543   -2.0255804995171167e-05
-0.0035805669627808796   -0.0028779122440612606   -4.777140326624033e-05
-0.0036325805168341972   -0.00032880810199661264   -1.7467792005041036e-05
-0.0021571488546576942   -0.0028251588429007335   -6.755141228291613e-08
-0.0035988959786486152   -0.0028581320354588227   -3.890711238748081e-05
-0.0036325805168341972   -0.00032880810199661264   -1.7467792005041036e-05
-0.0035805669627808796   -0.0028779122440612606   -4.777140326624033e-05
-0.0021571488546576942   -0.0028251588429007335   -6.755141228291613e-08
-0.0036325805168341972   -0.00032880810199661264   -1.7467792005041036e-05
-0.002226141821648369   -0.00029643462319771223   9.983553482050613e-06
-0.0021976441949450847   -0.0003236448019747054   9.889555733577533e-07
-0.0021571488546576942   -0.0028251588429007335   -6.755141228291613e-08
-0.0036325805168341972   -0.00032880810199661264   -1.7467792005041036e-05
-0.0021976441949450847   -0.0003236448019747054   9.889555733577533e-07
-0.0035805669627808796   -0.0028779122440612606   -4.777140326624033e-05
-0.0021571488546576942   -0.0028251588429007335   -6.755141228291613e-08
-0.002226141821648369   -0.00029643462319771223   9.983553482050613e-06
-0.0035988959786486152   -0.0028581320354588227   -3.890711238748081e-05
-0.002178523438476716   -0.002803201519488122   1.1958254041880824e-05
-0.002226141821648369   -0.00029643462319771223   9.983553482050613e-06
-0.0036325805168341972   -0.00032880810199661264   -1.7467792005041036e-05
-0.0035988959786486152   -0.0028581320354588227   -3.890711238748081e-05
-0.0036509546813066522   -0.00030478183985958147   -1.2744989433494226e-05
-0.002178523438476716   -0.002803201519488122   1.1958254041880824e-05
-0.0036165732005261084   -0.002837108187286557   -2.998722397385948e-05
-0.0036509546813066522   -0.00030478183985958147   -1.2744989433494226e-05
-0.0035988959786486152   -0.0028581320354588227   -3.890711238748081e-05
-0.002178523438476716   -0.002803201519488122   1.1958254041880824e-05
-0.0036509546813066522   -0.00030478183985958147   -1.2744989433494226e-05
-0.002254720190876223   -0.00026438055116415965   2.559820607065967e-05
-0.002226141821648369   -0.00029643462319771223   9.983553482050613e-06
-0.002178523438476716   -0.002803201519488122   1.1958254041880824e-05
-0.0036509546813066522   -0.00030478183985958147   -1.2744989433494226e-05
-0.002226141821648369   -0.00029643462319771223   9.983553482050613e-06
-0.0035988959786486152   -0.0028581320354588227   -3.890711238748081e-05
-0.002178523438476716   -0.002803201519488122   1.1958254041880824e-05
-0.002254720190876223   -0.00026438055116415965   2.559820607065967e-05
-0.0036165732005261084   -0.002837108187286557   -2.998722397385948e-05
-0.0021990342786281144   -0.0027791327648208877   2.5290990680853345e-05
-0.002254720190876223   -0.00026438055116415965   2.559820607065967e-05
-0.0036509546813066522   -0.00030478183985958147   -1.2744989433494226e-05
-0.0036165732005261084   -0.002837108187286557   -2.998722397385948e-05
-0.003669036241465169   -0.00027479985595789576   -6.494033255117696e-06
-0.0021990342786281144   -0.0027791327648208877   2.5290990680853345e-05
-0.0036329763842257176   -0.0028142419467020304   -2.0186706749032832e-05
-0.003669036241465169   -0.00027479985595789576   -6.494033255117696e-06
-0.0036165732005261084   -0.002837108187286557   -2.998722397385948e-05
-0.0021990342786281144   -0.0027791327648208877   2.5290990680853345e-05
-0.003669036241465169   -0.00027479985595789576   -6.494033255117696e-06
-0.00228714896960074   -0.00022682709132356823   4.085956097537323e-05
-0.002254720190876223   -0.00026438055116415965   2.559820607065967e-05
-0.0021990342786281144   -0.0027791327648208877   2.5290990680853345e-05
-0.003669036241465169   -0.00027479985595789576   -6.494033255117696e-06
-0.002254720190876223   -0.00026438055116415965   2.559820607065967e-05
-0.0036165732005261084   -0.002837108187286557   -2.998722397385948e-05
-0.0035805669627808796   -0.0028779122440612606   -4.777140326624033e-05
-0.0036149657228254327   -0.00034912001043600543   -2.0255804995171167e-05
-0.005074968450860166   -0.0028918264516124507   -8.124563209818013e-05
-0.0035988959786486152   -0.0028581320354588227   -3.890711238748081e-05
-0.0036149657228254327   -0.00034912001043600543   -2.0255804995171167e-05
-0.005101728921168312   -0.0003481177389700868   -5.313948761309817e-05
-0.005074968450860166   -0.0028918264516124507   -8.124563209818013e-05
-0.005113710329260661   -0.000330541985263037   -5.19010496198532e-05
-0.0035988959786486152   -0.0028581320354588227   -3.890711238748081e-05
-0.005091523019074049   -0.0028742902436826724   -7.466349649123995e-05
-0.005113710329260661   -0.000330541985263037   -5.19010496198532e-05
-0.005074968450860166   -0.0028918264516124507   -8.124563209818013e-05
-0.0035988959786486152   -0.0028581320354588227   -3.890711238748081e-05
-0.005113710329260661   -0.000330541985263037   -5.19010496198532e-05
-0.0036325805168341972   -0.00032880810199661264   -1.7467792005041036e-05
-0.0036149657228254327   -0.00034912001043600543   -2.0255804995171167e-05
-0.0035988959786486152   -0.0028581320354588227   -3.890711238748081e-05
-0.005113710329260661   -0.000330541985263037   -5.19010496198532e-05
-0.0036149657228254327   -0.00034912001043600543   -2.0255804995171167e-05
-0.005074968450860166   -0.0028918264516124507   -8.124563209818013e-05
-0.0035988959786486152   -0.0028581320354588227   -3.890711238748081e-05
-0.0036325805168341972   -0.00032880810199661264   -1.7467792005041036e-05
-0.005091523019074049   -0.0028742902436826724   -7.466349649123995e-05
-0.0036165732005261084   -0.002837108187286557   -2.998722397385948e-05
-0.0036325805168341972   -0.00032880810199661264   -1.7467792005041036e-05
-0.005113710329260661   -0.000330541985263037   -5.19010496198532e-05
-0.005091523019074049   -0.0028742902436826724   -7.466349649123995e-05
-0.005126190658380957   -0.0003105443105209215   -5.078931876903834e-05
-0.0036165732005261084   -0.002837108187286557   -2.998722397385948e-05
-0.005106283317769   -0.0028550102059935628   -6.81914511445423e-05
-0.005126190658380957   -0.0003105443105209215   -5.078931876903834e-05
-0.005091523019074049   -0.0028742902436826724   -7.466349649123995e-05
-0.0036165732005261084   -0.002837108187286557   -2.998722397385948e-05
-0.005126190658380957   -0.0003105443105209215   -5.078931876903834e-05
-0.0036509546813066522   -0.00030478183985958147   -1.2744989433494226e-05
-0.0036325805168341972   -0.00032880810199661264   -1.7467792005041036e-05
-0.0036165732005261084   -0.002837108187286557   -2.998722397385948e-05
-0.005126190658380957   -0.0003105443105209215   -5.078931876903834e-05
-0.0036325805168341972   -0.00032880810199661264   -1.7467792005041036e-05
-0.005091523019074049   -0.0028742902436826724   -7.466349649123995e-05
-0.0036165732005261084   -0.002837108187286557   -2.998722397385948e-05
-0.0036509546813066522   -0.00030478183985958147   -1.2744989433494226e-05
-0.005106283317769   -0.0028550102059935628   -6.81914511445423e-05
-0.0036329763842257176   -0.0028142419467020304   -2.0186706749032832e-05
-0.0036509546813066522   -0.00030478183985958147   -1.2744989433494226e-05
-0.005126190658380957   -0.0003105443105209215   -5.078931876903834e-05
-0.005106283317769   -0.0028550102059935628   -6.81914511445423e-05
-0.005136125204749292   -0.00028844973177701743   -4.9833750837345086e-05
-0.0036329763842257176   -0.0028142419467020304   -2.0186706749032832e-05
-0.005119681965947648   -0.0028343984528803345   -6.143659619003785e-05
-0.005136125204749292   -0.00028844973177701743   -4.9833750837345086e-05
-0.005106283317769   -0.0028550102059935628   -6.81914511445423e-05
-0.0036329763842257176   -0.0028142419467020304   -2.0186706749032832e-05
-0.005136125204749292   -0.00028844973177701743   -4.9833750837345086e-05
-0.003669036241465169   -0.00027479985595789576   -6.494033255117696e-06
-0.0036509546813066522   -0.00030478183985958147   -1.2744989433494226e-05
-0.0036329763842257176   -0.0028142419467020304   -2.0186706749032832e-05
-0.005136125204749292   -0.00028844973177701743   -4.9833750837345086e-05
-0.0036509546813066522   -0.00030478183985958147   -1.2744989433494226e-05
-0.005106283317769   -0.0028550102059935628   -6.81914511445423e-05
-0.005074968450860166   -0.0028918264516124507   -8.124563209818013e-05
-0.005101728921168312   -0.0003481177389700868   -5.313948761309817e-05
-0.006625096864263991   -0.002893159089631886   -0.00010843595082257782
-0.005091523019074049   -0.0028742902436826724   -7.466349649123995e-05
-0.005101728921168312   -0.0003481177389700868   -5.313948761309817e-05
-0.006631359902900841   -0.00034612878796774267   -8.572826364094456e-05
-0.006625096864263991   -0.002893159089631886   -0.00010843595082257782
-0.006640939544431412   -0.00032722357289059317   -8.556715111095456e-05
-0.005091523019074049   -0.0028742902436826724   -7.466349649123995e-05
-0.006639119898396328   -0.002876242222217811   -0.00010537779070231648
-0.006640939544431412   -0.00032722357289059317   -8.556715111095456e-05
-0.006625096864263991   -0.002893159089631886   -0.00010843595082257782
-0.005091523019074049   -0.0028742902436826724   -7.466349649123995e-05
-0.006640939544431412   -0.00032722357289059317   -8.556715111095456e-05
-0.005113710329260661   -0.000330541985263037   -5.19010496198532e-05
-0.005101728921168312   -0.0003481177389700868   -5.313948761309817e-05
-0.005091523019074049   -0.0028742902436826724   -7.466349649123995e-05
-0.006640939544431412   -0.00032722357289059317   -8.556715111095456e-05
-0.005101728921168312   -0.0003481177389700868   -5.313948761309817e-05
-0.006625096864263991   -0.002893159089631886   -0.00010843595082257782
-0.005091523019074049   -0.0028742902436826724   -7.466349649123995e-05
-0.005113710329260661   -0.000330541985263037   -5.19010496198532e-05
-0.006639119898396328   -0.002876242222217811   -0.00010537779070231648
-0.005106283317769   -0.0028550102059935628   -6.81914511445423e-05
-0.005113710329260661   -0.000330541985263037   -5.19010496198532e-05
-0.006640939544431412   -0.00032722357289059317   -8.556715111095456e-05
-0.006639119898396328   -0.002876242222217811   -0.00010537779070231648
-0.006651415939068624   -0.0003080426201105066   -8.689675085244466e-05
-0.005106283317769   -0.0028550102059935628   -6.81914511445423e-05
-0.006651683560764913   -0.00285776940085129   -0.00010175804040016794
-0.006651415939068624   -0.0003080426201105066   -8.689675085244466e-05
-0.006639119898396328   -0.002876242222217811   -0.00010537779070231648
-0.005106283317769   -0.0028550102059935628   -6.81914511445423e-05
-0.006651415939068624   -0.0003080426201105066   -8.689675085244466e-05
-0.005126190658380957   -0.0003105443105209215   -5.078931876903834e-05
-0.005113710329260661   -0.000330541985263037   -5.19010496198532e-05
-0.005106283317769   -0.0028550102059935628   -6.81914511445423e-05
-0.006651415939068624   -0.0003080426201105066   -8.689675085244466e-05
-0.005113710329260661   -0.000330541985263037   -5.19010496198532e-05
-0.006639119898396328   -0.002876242222217811   -0.00010537779070231648
-0.005106283317769   -0.0028550102059935628   -6.81914511445423e-05
-0.005126190658380957   -0.0003105443105209215   -5.078931876903834e-05
-0.006651683560764913   -0.00285776940085129   -0.00010175804040016794
-0.005119681965947648   -0.0028343984528803345   -6.143659619003785e-05
-0.005126190658380957   -0.0003105443105209215   -5.078931876903834e-05
-0.006651415939068624   -0.0003080426201105066   -8.689675085244466e-05
-0.006651683560764913   -0.00285776940085129   -0.00010175804040016794
-0.006659283542557637   -0.0002869540974915561   -8.824112366156882e-05
-0.005119681965947648   -0.0028343984528803345   -6.143659619003785e-05
-0.006661990105621655   -0.0028382430732250804   -9.824364387874374e-05
-0.006659283542557637   -0.0002869540974915561   -8.824112366156882e-05
-0.006651683560764913   -0.00285776940085129   -0.00010175804040016794
-0.005119681965947648   -0.0028343984528803345   -6.143659619003785e-05
-0.006659283542557637   -0.0002869540974915561   -8.824112366156882e-05
-0.005136125204749292   -0.00028844973177701743   -4.9833750837345086e-05
-0.005126190658380957   -0.0003105443105209215   -5.078931876903834e-05
-0.005119681965947648   -0.0028343984528803345   -6.143659619003785e-05
-0.006659283542557637   -0.0002869540974915561   -8.824112366156882e-05
-0.005126190658380957   -0.0003105443105209215   -5.078931876903834e-05
-0.006651683560764913   -0.00285776940085129   -0.00010175804040016794
              </DataArray>   
          </PointData>  
       </Piece>  
   </UnstructuredGrid> 
</VTKFile> 
