<?xml version="1.0"?> 
<VTKFile type="UnstructuredGrid"> 
   <UnstructuredGrid> 
      <Piece NumberOfPoints="6000"  NumberOfCells="1500">  
          <Points>  
             <DataArray type="Float64" NumberOfComponents="3" format="ascii">   
-500.0   0.0   0.0
-450.0   0.0   0.0
-500.0   30.0   0.0
-500.0   0.0   16.666666666666668
-450.0   0.0   0.0
-450.0   30.0   0.0
-500.0   30.0   0.0
-450.0   30.0   16.666666666666668
-500.0   0.0   16.666666666666668
-500.0   30.0   16.666666666666668
-450.0   30.0   16.666666666666668
-500.0   30.0   0.0
-500.0   0.0   16.666666666666668
-450.0   30.0   16.666666666666668
-450.0   0.0   16.666666666666668
-450.0   0.0   0.0
-500.0   0.0   16.666666666666668
-450.0   30.0   16.666666666666668
-450.0   0.0   0.0
-500.0   30.0   0.0
-500.0   0.0   16.666666666666668
-450.0   0.0   16.666666666666668
-500.0   30.0   16.666666666666668
-500.0   0.0   33.333333333333336
-450.0   0.0   16.666666666666668
-450.0   30.0   16.666666666666668
-500.0   30.0   16.666666666666668
-450.0   30.0   33.333333333333336
-500.0   0.0   33.333333333333336
-500.0   30.0   33.333333333333336
-450.0   30.0   33.333333333333336
-500.0   30.0   16.666666666666668
-500.0   0.0   33.333333333333336
-450.0   30.0   33.333333333333336
-450.0   0.0   33.333333333333336
-450.0   0.0   16.666666666666668
-500.0   0.0   33.333333333333336
-450.0   30.0   33.333333333333336
-450.0   0.0   16.666666666666668
-500.0   30.0   16.666666666666668
-500.0   0.0   33.333333333333336
-450.0   0.0   33.333333333333336
-500.0   30.0   33.333333333333336
-500.0   0.0   50.0
-450.0   0.0   33.333333333333336
-450.0   30.0   33.333333333333336
-500.0   30.0   33.333333333333336
-450.0   30.0   50.0
-500.0   0.0   50.0
-500.0   30.0   50.0
-450.0   30.0   50.0
-500.0   30.0   33.333333333333336
-500.0   0.0   50.0
-450.0   30.0   50.0
-450.0   0.0   50.0
-450.0   0.0   33.333333333333336
-500.0   0.0   50.0
-450.0   30.0   50.0
-450.0   0.0   33.333333333333336
-500.0   30.0   33.333333333333336
-500.0   30.0   0.0
-450.0   30.0   0.0
-500.0   60.0   0.0
-500.0   30.0   16.666666666666668
-450.0   30.0   0.0
-450.0   60.0   0.0
-500.0   60.0   0.0
-450.0   60.0   16.666666666666668
-500.0   30.0   16.666666666666668
-500.0   60.0   16.666666666666668
-450.0   60.0   16.666666666666668
-500.0   60.0   0.0
-500.0   30.0   16.666666666666668
-450.0   60.0   16.666666666666668
-450.0   30.0   16.666666666666668
-450.0   30.0   0.0
-500.0   30.0   16.666666666666668
-450.0   60.0   16.666666666666668
-450.0   30.0   0.0
-500.0   60.0   0.0
-500.0   30.0   16.666666666666668
-450.0   30.0   16.666666666666668
-500.0   60.0   16.666666666666668
-500.0   30.0   33.333333333333336
-450.0   30.0   16.666666666666668
-450.0   60.0   16.666666666666668
-500.0   60.0   16.666666666666668
-450.0   60.0   33.333333333333336
-500.0   30.0   33.333333333333336
-500.0   60.0   33.333333333333336
-450.0   60.0   33.333333333333336
-500.0   60.0   16.666666666666668
-500.0   30.0   33.333333333333336
-450.0   60.0   33.333333333333336
-450.0   30.0   33.333333333333336
-450.0   30.0   16.666666666666668
-500.0   30.0   33.333333333333336
-450.0   60.0   33.333333333333336
-450.0   30.0   16.666666666666668
-500.0   60.0   16.666666666666668
-500.0   30.0   33.333333333333336
-450.0   30.0   33.333333333333336
-500.0   60.0   33.333333333333336
-500.0   30.0   50.0
-450.0   30.0   33.333333333333336
-450.0   60.0   33.333333333333336
-500.0   60.0   33.333333333333336
-450.0   60.0   50.0
-500.0   30.0   50.0
-500.0   60.0   50.0
-450.0   60.0   50.0
-500.0   60.0   33.333333333333336
-500.0   30.0   50.0
-450.0   60.0   50.0
-450.0   30.0   50.0
-450.0   30.0   33.333333333333336
-500.0   30.0   50.0
-450.0   60.0   50.0
-450.0   30.0   33.333333333333336
-500.0   60.0   33.333333333333336
-500.0   60.0   0.0
-450.0   60.0   0.0
-500.0   90.0   0.0
-500.0   60.0   16.666666666666668
-450.0   60.0   0.0
-450.0   90.0   0.0
-500.0   90.0   0.0
-450.0   90.0   16.666666666666668
-500.0   60.0   16.666666666666668
-500.0   90.0   16.666666666666668
-450.0   90.0   16.666666666666668
-500.0   90.0   0.0
-500.0   60.0   16.666666666666668
-450.0   90.0   16.666666666666668
-450.0   60.0   16.666666666666668
-450.0   60.0   0.0
-500.0   60.0   16.666666666666668
-450.0   90.0   16.666666666666668
-450.0   60.0   0.0
-500.0   90.0   0.0
-500.0   60.0   16.666666666666668
-450.0   60.0   16.666666666666668
-500.0   90.0   16.666666666666668
-500.0   60.0   33.333333333333336
-450.0   60.0   16.666666666666668
-450.0   90.0   16.666666666666668
-500.0   90.0   16.666666666666668
-450.0   90.0   33.333333333333336
-500.0   60.0   33.333333333333336
-500.0   90.0   33.333333333333336
-450.0   90.0   33.333333333333336
-500.0   90.0   16.666666666666668
-500.0   60.0   33.333333333333336
-450.0   90.0   33.333333333333336
-450.0   60.0   33.333333333333336
-450.0   60.0   16.666666666666668
-500.0   60.0   33.333333333333336
-450.0   90.0   33.333333333333336
-450.0   60.0   16.666666666666668
-500.0   90.0   16.666666666666668
-500.0   60.0   33.333333333333336
-450.0   60.0   33.333333333333336
-500.0   90.0   33.333333333333336
-500.0   60.0   50.0
-450.0   60.0   33.333333333333336
-450.0   90.0   33.333333333333336
-500.0   90.0   33.333333333333336
-450.0   90.0   50.0
-500.0   60.0   50.0
-500.0   90.0   50.0
-450.0   90.0   50.0
-500.0   90.0   33.333333333333336
-500.0   60.0   50.0
-450.0   90.0   50.0
-450.0   60.0   50.0
-450.0   60.0   33.333333333333336
-500.0   60.0   50.0
-450.0   90.0   50.0
-450.0   60.0   33.333333333333336
-500.0   90.0   33.333333333333336
-500.0   90.0   0.0
-450.0   90.0   0.0
-500.0   120.0   0.0
-500.0   90.0   16.666666666666668
-450.0   90.0   0.0
-450.0   120.0   0.0
-500.0   120.0   0.0
-450.0   120.0   16.666666666666668
-500.0   90.0   16.666666666666668
-500.0   120.0   16.666666666666668
-450.0   120.0   16.666666666666668
-500.0   120.0   0.0
-500.0   90.0   16.666666666666668
-450.0   120.0   16.666666666666668
-450.0   90.0   16.666666666666668
-450.0   90.0   0.0
-500.0   90.0   16.666666666666668
-450.0   120.0   16.666666666666668
-450.0   90.0   0.0
-500.0   120.0   0.0
-500.0   90.0   16.666666666666668
-450.0   90.0   16.666666666666668
-500.0   120.0   16.666666666666668
-500.0   90.0   33.333333333333336
-450.0   90.0   16.666666666666668
-450.0   120.0   16.666666666666668
-500.0   120.0   16.666666666666668
-450.0   120.0   33.333333333333336
-500.0   90.0   33.333333333333336
-500.0   120.0   33.333333333333336
-450.0   120.0   33.333333333333336
-500.0   120.0   16.666666666666668
-500.0   90.0   33.333333333333336
-450.0   120.0   33.333333333333336
-450.0   90.0   33.333333333333336
-450.0   90.0   16.666666666666668
-500.0   90.0   33.333333333333336
-450.0   120.0   33.333333333333336
-450.0   90.0   16.666666666666668
-500.0   120.0   16.666666666666668
-500.0   90.0   33.333333333333336
-450.0   90.0   33.333333333333336
-500.0   120.0   33.333333333333336
-500.0   90.0   50.0
-450.0   90.0   33.333333333333336
-450.0   120.0   33.333333333333336
-500.0   120.0   33.333333333333336
-450.0   120.0   50.0
-500.0   90.0   50.0
-500.0   120.0   50.0
-450.0   120.0   50.0
-500.0   120.0   33.333333333333336
-500.0   90.0   50.0
-450.0   120.0   50.0
-450.0   90.0   50.0
-450.0   90.0   33.333333333333336
-500.0   90.0   50.0
-450.0   120.0   50.0
-450.0   90.0   33.333333333333336
-500.0   120.0   33.333333333333336
-500.0   120.0   0.0
-450.0   120.0   0.0
-500.0   150.0   0.0
-500.0   120.0   16.666666666666668
-450.0   120.0   0.0
-450.0   150.0   0.0
-500.0   150.0   0.0
-450.0   150.0   16.666666666666668
-500.0   120.0   16.666666666666668
-500.0   150.0   16.666666666666668
-450.0   150.0   16.666666666666668
-500.0   150.0   0.0
-500.0   120.0   16.666666666666668
-450.0   150.0   16.666666666666668
-450.0   120.0   16.666666666666668
-450.0   120.0   0.0
-500.0   120.0   16.666666666666668
-450.0   150.0   16.666666666666668
-450.0   120.0   0.0
-500.0   150.0   0.0
-500.0   120.0   16.666666666666668
-450.0   120.0   16.666666666666668
-500.0   150.0   16.666666666666668
-500.0   120.0   33.333333333333336
-450.0   120.0   16.666666666666668
-450.0   150.0   16.666666666666668
-500.0   150.0   16.666666666666668
-450.0   150.0   33.333333333333336
-500.0   120.0   33.333333333333336
-500.0   150.0   33.333333333333336
-450.0   150.0   33.333333333333336
-500.0   150.0   16.666666666666668
-500.0   120.0   33.333333333333336
-450.0   150.0   33.333333333333336
-450.0   120.0   33.333333333333336
-450.0   120.0   16.666666666666668
-500.0   120.0   33.333333333333336
-450.0   150.0   33.333333333333336
-450.0   120.0   16.666666666666668
-500.0   150.0   16.666666666666668
-500.0   120.0   33.333333333333336
-450.0   120.0   33.333333333333336
-500.0   150.0   33.333333333333336
-500.0   120.0   50.0
-450.0   120.0   33.333333333333336
-450.0   150.0   33.333333333333336
-500.0   150.0   33.333333333333336
-450.0   150.0   50.0
-500.0   120.0   50.0
-500.0   150.0   50.0
-450.0   150.0   50.0
-500.0   150.0   33.333333333333336
-500.0   120.0   50.0
-450.0   150.0   50.0
-450.0   120.0   50.0
-450.0   120.0   33.333333333333336
-500.0   120.0   50.0
-450.0   150.0   50.0
-450.0   120.0   33.333333333333336
-500.0   150.0   33.333333333333336
-450.0   0.0   0.0
-400.0   0.0   0.0
-450.0   30.0   0.0
-450.0   0.0   16.666666666666668
-400.0   0.0   0.0
-400.0   30.0   0.0
-450.0   30.0   0.0
-400.0   30.0   16.666666666666668
-450.0   0.0   16.666666666666668
-450.0   30.0   16.666666666666668
-400.0   30.0   16.666666666666668
-450.0   30.0   0.0
-450.0   0.0   16.666666666666668
-400.0   30.0   16.666666666666668
-400.0   0.0   16.666666666666668
-400.0   0.0   0.0
-450.0   0.0   16.666666666666668
-400.0   30.0   16.666666666666668
-400.0   0.0   0.0
-450.0   30.0   0.0
-450.0   0.0   16.666666666666668
-400.0   0.0   16.666666666666668
-450.0   30.0   16.666666666666668
-450.0   0.0   33.333333333333336
-400.0   0.0   16.666666666666668
-400.0   30.0   16.666666666666668
-450.0   30.0   16.666666666666668
-400.0   30.0   33.333333333333336
-450.0   0.0   33.333333333333336
-450.0   30.0   33.333333333333336
-400.0   30.0   33.333333333333336
-450.0   30.0   16.666666666666668
-450.0   0.0   33.333333333333336
-400.0   30.0   33.333333333333336
-400.0   0.0   33.333333333333336
-400.0   0.0   16.666666666666668
-450.0   0.0   33.333333333333336
-400.0   30.0   33.333333333333336
-400.0   0.0   16.666666666666668
-450.0   30.0   16.666666666666668
-450.0   0.0   33.333333333333336
-400.0   0.0   33.333333333333336
-450.0   30.0   33.333333333333336
-450.0   0.0   50.0
-400.0   0.0   33.333333333333336
-400.0   30.0   33.333333333333336
-450.0   30.0   33.333333333333336
-400.0   30.0   50.0
-450.0   0.0   50.0
-450.0   30.0   50.0
-400.0   30.0   50.0
-450.0   30.0   33.333333333333336
-450.0   0.0   50.0
-400.0   30.0   50.0
-400.0   0.0   50.0
-400.0   0.0   33.333333333333336
-450.0   0.0   50.0
-400.0   30.0   50.0
-400.0   0.0   33.333333333333336
-450.0   30.0   33.333333333333336
-450.0   30.0   0.0
-400.0   30.0   0.0
-450.0   60.0   0.0
-450.0   30.0   16.666666666666668
-400.0   30.0   0.0
-400.0   60.0   0.0
-450.0   60.0   0.0
-400.0   60.0   16.666666666666668
-450.0   30.0   16.666666666666668
-450.0   60.0   16.666666666666668
-400.0   60.0   16.666666666666668
-450.0   60.0   0.0
-450.0   30.0   16.666666666666668
-400.0   60.0   16.666666666666668
-400.0   30.0   16.666666666666668
-400.0   30.0   0.0
-450.0   30.0   16.666666666666668
-400.0   60.0   16.666666666666668
-400.0   30.0   0.0
-450.0   60.0   0.0
-450.0   30.0   16.666666666666668
-400.0   30.0   16.666666666666668
-450.0   60.0   16.666666666666668
-450.0   30.0   33.333333333333336
-400.0   30.0   16.666666666666668
-400.0   60.0   16.666666666666668
-450.0   60.0   16.666666666666668
-400.0   60.0   33.333333333333336
-450.0   30.0   33.333333333333336
-450.0   60.0   33.333333333333336
-400.0   60.0   33.333333333333336
-450.0   60.0   16.666666666666668
-450.0   30.0   33.333333333333336
-400.0   60.0   33.333333333333336
-400.0   30.0   33.333333333333336
-400.0   30.0   16.666666666666668
-450.0   30.0   33.333333333333336
-400.0   60.0   33.333333333333336
-400.0   30.0   16.666666666666668
-450.0   60.0   16.666666666666668
-450.0   30.0   33.333333333333336
-400.0   30.0   33.333333333333336
-450.0   60.0   33.333333333333336
-450.0   30.0   50.0
-400.0   30.0   33.333333333333336
-400.0   60.0   33.333333333333336
-450.0   60.0   33.333333333333336
-400.0   60.0   50.0
-450.0   30.0   50.0
-450.0   60.0   50.0
-400.0   60.0   50.0
-450.0   60.0   33.333333333333336
-450.0   30.0   50.0
-400.0   60.0   50.0
-400.0   30.0   50.0
-400.0   30.0   33.333333333333336
-450.0   30.0   50.0
-400.0   60.0   50.0
-400.0   30.0   33.333333333333336
-450.0   60.0   33.333333333333336
-450.0   60.0   0.0
-400.0   60.0   0.0
-450.0   90.0   0.0
-450.0   60.0   16.666666666666668
-400.0   60.0   0.0
-400.0   90.0   0.0
-450.0   90.0   0.0
-400.0   90.0   16.666666666666668
-450.0   60.0   16.666666666666668
-450.0   90.0   16.666666666666668
-400.0   90.0   16.666666666666668
-450.0   90.0   0.0
-450.0   60.0   16.666666666666668
-400.0   90.0   16.666666666666668
-400.0   60.0   16.666666666666668
-400.0   60.0   0.0
-450.0   60.0   16.666666666666668
-400.0   90.0   16.666666666666668
-400.0   60.0   0.0
-450.0   90.0   0.0
-450.0   60.0   16.666666666666668
-400.0   60.0   16.666666666666668
-450.0   90.0   16.666666666666668
-450.0   60.0   33.333333333333336
-400.0   60.0   16.666666666666668
-400.0   90.0   16.666666666666668
-450.0   90.0   16.666666666666668
-400.0   90.0   33.333333333333336
-450.0   60.0   33.333333333333336
-450.0   90.0   33.333333333333336
-400.0   90.0   33.333333333333336
-450.0   90.0   16.666666666666668
-450.0   60.0   33.333333333333336
-400.0   90.0   33.333333333333336
-400.0   60.0   33.333333333333336
-400.0   60.0   16.666666666666668
-450.0   60.0   33.333333333333336
-400.0   90.0   33.333333333333336
-400.0   60.0   16.666666666666668
-450.0   90.0   16.666666666666668
-450.0   60.0   33.333333333333336
-400.0   60.0   33.333333333333336
-450.0   90.0   33.333333333333336
-450.0   60.0   50.0
-400.0   60.0   33.333333333333336
-400.0   90.0   33.333333333333336
-450.0   90.0   33.333333333333336
-400.0   90.0   50.0
-450.0   60.0   50.0
-450.0   90.0   50.0
-400.0   90.0   50.0
-450.0   90.0   33.333333333333336
-450.0   60.0   50.0
-400.0   90.0   50.0
-400.0   60.0   50.0
-400.0   60.0   33.333333333333336
-450.0   60.0   50.0
-400.0   90.0   50.0
-400.0   60.0   33.333333333333336
-450.0   90.0   33.333333333333336
-450.0   90.0   0.0
-400.0   90.0   0.0
-450.0   120.0   0.0
-450.0   90.0   16.666666666666668
-400.0   90.0   0.0
-400.0   120.0   0.0
-450.0   120.0   0.0
-400.0   120.0   16.666666666666668
-450.0   90.0   16.666666666666668
-450.0   120.0   16.666666666666668
-400.0   120.0   16.666666666666668
-450.0   120.0   0.0
-450.0   90.0   16.666666666666668
-400.0   120.0   16.666666666666668
-400.0   90.0   16.666666666666668
-400.0   90.0   0.0
-450.0   90.0   16.666666666666668
-400.0   120.0   16.666666666666668
-400.0   90.0   0.0
-450.0   120.0   0.0
-450.0   90.0   16.666666666666668
-400.0   90.0   16.666666666666668
-450.0   120.0   16.666666666666668
-450.0   90.0   33.333333333333336
-400.0   90.0   16.666666666666668
-400.0   120.0   16.666666666666668
-450.0   120.0   16.666666666666668
-400.0   120.0   33.333333333333336
-450.0   90.0   33.333333333333336
-450.0   120.0   33.333333333333336
-400.0   120.0   33.333333333333336
-450.0   120.0   16.666666666666668
-450.0   90.0   33.333333333333336
-400.0   120.0   33.333333333333336
-400.0   90.0   33.333333333333336
-400.0   90.0   16.666666666666668
-450.0   90.0   33.333333333333336
-400.0   120.0   33.333333333333336
-400.0   90.0   16.666666666666668
-450.0   120.0   16.666666666666668
-450.0   90.0   33.333333333333336
-400.0   90.0   33.333333333333336
-450.0   120.0   33.333333333333336
-450.0   90.0   50.0
-400.0   90.0   33.333333333333336
-400.0   120.0   33.333333333333336
-450.0   120.0   33.333333333333336
-400.0   120.0   50.0
-450.0   90.0   50.0
-450.0   120.0   50.0
-400.0   120.0   50.0
-450.0   120.0   33.333333333333336
-450.0   90.0   50.0
-400.0   120.0   50.0
-400.0   90.0   50.0
-400.0   90.0   33.333333333333336
-450.0   90.0   50.0
-400.0   120.0   50.0
-400.0   90.0   33.333333333333336
-450.0   120.0   33.333333333333336
-450.0   120.0   0.0
-400.0   120.0   0.0
-450.0   150.0   0.0
-450.0   120.0   16.666666666666668
-400.0   120.0   0.0
-400.0   150.0   0.0
-450.0   150.0   0.0
-400.0   150.0   16.666666666666668
-450.0   120.0   16.666666666666668
-450.0   150.0   16.666666666666668
-400.0   150.0   16.666666666666668
-450.0   150.0   0.0
-450.0   120.0   16.666666666666668
-400.0   150.0   16.666666666666668
-400.0   120.0   16.666666666666668
-400.0   120.0   0.0
-450.0   120.0   16.666666666666668
-400.0   150.0   16.666666666666668
-400.0   120.0   0.0
-450.0   150.0   0.0
-450.0   120.0   16.666666666666668
-400.0   120.0   16.666666666666668
-450.0   150.0   16.666666666666668
-450.0   120.0   33.333333333333336
-400.0   120.0   16.666666666666668
-400.0   150.0   16.666666666666668
-450.0   150.0   16.666666666666668
-400.0   150.0   33.333333333333336
-450.0   120.0   33.333333333333336
-450.0   150.0   33.333333333333336
-400.0   150.0   33.333333333333336
-450.0   150.0   16.666666666666668
-450.0   120.0   33.333333333333336
-400.0   150.0   33.333333333333336
-400.0   120.0   33.333333333333336
-400.0   120.0   16.666666666666668
-450.0   120.0   33.333333333333336
-400.0   150.0   33.333333333333336
-400.0   120.0   16.666666666666668
-450.0   150.0   16.666666666666668
-450.0   120.0   33.333333333333336
-400.0   120.0   33.333333333333336
-450.0   150.0   33.333333333333336
-450.0   120.0   50.0
-400.0   120.0   33.333333333333336
-400.0   150.0   33.333333333333336
-450.0   150.0   33.333333333333336
-400.0   150.0   50.0
-450.0   120.0   50.0
-450.0   150.0   50.0
-400.0   150.0   50.0
-450.0   150.0   33.333333333333336
-450.0   120.0   50.0
-400.0   150.0   50.0
-400.0   120.0   50.0
-400.0   120.0   33.333333333333336
-450.0   120.0   50.0
-400.0   150.0   50.0
-400.0   120.0   33.333333333333336
-450.0   150.0   33.333333333333336
-400.0   0.0   0.0
-350.0   0.0   0.0
-400.0   30.0   0.0
-400.0   0.0   16.666666666666668
-350.0   0.0   0.0
-350.0   30.0   0.0
-400.0   30.0   0.0
-350.0   30.0   16.666666666666668
-400.0   0.0   16.666666666666668
-400.0   30.0   16.666666666666668
-350.0   30.0   16.666666666666668
-400.0   30.0   0.0
-400.0   0.0   16.666666666666668
-350.0   30.0   16.666666666666668
-350.0   0.0   16.666666666666668
-350.0   0.0   0.0
-400.0   0.0   16.666666666666668
-350.0   30.0   16.666666666666668
-350.0   0.0   0.0
-400.0   30.0   0.0
-400.0   0.0   16.666666666666668
-350.0   0.0   16.666666666666668
-400.0   30.0   16.666666666666668
-400.0   0.0   33.333333333333336
-350.0   0.0   16.666666666666668
-350.0   30.0   16.666666666666668
-400.0   30.0   16.666666666666668
-350.0   30.0   33.333333333333336
-400.0   0.0   33.333333333333336
-400.0   30.0   33.333333333333336
-350.0   30.0   33.333333333333336
-400.0   30.0   16.666666666666668
-400.0   0.0   33.333333333333336
-350.0   30.0   33.333333333333336
-350.0   0.0   33.333333333333336
-350.0   0.0   16.666666666666668
-400.0   0.0   33.333333333333336
-350.0   30.0   33.333333333333336
-350.0   0.0   16.666666666666668
-400.0   30.0   16.666666666666668
-400.0   0.0   33.333333333333336
-350.0   0.0   33.333333333333336
-400.0   30.0   33.333333333333336
-400.0   0.0   50.0
-350.0   0.0   33.333333333333336
-350.0   30.0   33.333333333333336
-400.0   30.0   33.333333333333336
-350.0   30.0   50.0
-400.0   0.0   50.0
-400.0   30.0   50.0
-350.0   30.0   50.0
-400.0   30.0   33.333333333333336
-400.0   0.0   50.0
-350.0   30.0   50.0
-350.0   0.0   50.0
-350.0   0.0   33.333333333333336
-400.0   0.0   50.0
-350.0   30.0   50.0
-350.0   0.0   33.333333333333336
-400.0   30.0   33.333333333333336
-400.0   30.0   0.0
-350.0   30.0   0.0
-400.0   60.0   0.0
-400.0   30.0   16.666666666666668
-350.0   30.0   0.0
-350.0   60.0   0.0
-400.0   60.0   0.0
-350.0   60.0   16.666666666666668
-400.0   30.0   16.666666666666668
-400.0   60.0   16.666666666666668
-350.0   60.0   16.666666666666668
-400.0   60.0   0.0
-400.0   30.0   16.666666666666668
-350.0   60.0   16.666666666666668
-350.0   30.0   16.666666666666668
-350.0   30.0   0.0
-400.0   30.0   16.666666666666668
-350.0   60.0   16.666666666666668
-350.0   30.0   0.0
-400.0   60.0   0.0
-400.0   30.0   16.666666666666668
-350.0   30.0   16.666666666666668
-400.0   60.0   16.666666666666668
-400.0   30.0   33.333333333333336
-350.0   30.0   16.666666666666668
-350.0   60.0   16.666666666666668
-400.0   60.0   16.666666666666668
-350.0   60.0   33.333333333333336
-400.0   30.0   33.333333333333336
-400.0   60.0   33.333333333333336
-350.0   60.0   33.333333333333336
-400.0   60.0   16.666666666666668
-400.0   30.0   33.333333333333336
-350.0   60.0   33.333333333333336
-350.0   30.0   33.333333333333336
-350.0   30.0   16.666666666666668
-400.0   30.0   33.333333333333336
-350.0   60.0   33.333333333333336
-350.0   30.0   16.666666666666668
-400.0   60.0   16.666666666666668
-400.0   30.0   33.333333333333336
-350.0   30.0   33.333333333333336
-400.0   60.0   33.333333333333336
-400.0   30.0   50.0
-350.0   30.0   33.333333333333336
-350.0   60.0   33.333333333333336
-400.0   60.0   33.333333333333336
-350.0   60.0   50.0
-400.0   30.0   50.0
-400.0   60.0   50.0
-350.0   60.0   50.0
-400.0   60.0   33.333333333333336
-400.0   30.0   50.0
-350.0   60.0   50.0
-350.0   30.0   50.0
-350.0   30.0   33.333333333333336
-400.0   30.0   50.0
-350.0   60.0   50.0
-350.0   30.0   33.333333333333336
-400.0   60.0   33.333333333333336
-400.0   60.0   0.0
-350.0   60.0   0.0
-400.0   90.0   0.0
-400.0   60.0   16.666666666666668
-350.0   60.0   0.0
-350.0   90.0   0.0
-400.0   90.0   0.0
-350.0   90.0   16.666666666666668
-400.0   60.0   16.666666666666668
-400.0   90.0   16.666666666666668
-350.0   90.0   16.666666666666668
-400.0   90.0   0.0
-400.0   60.0   16.666666666666668
-350.0   90.0   16.666666666666668
-350.0   60.0   16.666666666666668
-350.0   60.0   0.0
-400.0   60.0   16.666666666666668
-350.0   90.0   16.666666666666668
-350.0   60.0   0.0
-400.0   90.0   0.0
-400.0   60.0   16.666666666666668
-350.0   60.0   16.666666666666668
-400.0   90.0   16.666666666666668
-400.0   60.0   33.333333333333336
-350.0   60.0   16.666666666666668
-350.0   90.0   16.666666666666668
-400.0   90.0   16.666666666666668
-350.0   90.0   33.333333333333336
-400.0   60.0   33.333333333333336
-400.0   90.0   33.333333333333336
-350.0   90.0   33.333333333333336
-400.0   90.0   16.666666666666668
-400.0   60.0   33.333333333333336
-350.0   90.0   33.333333333333336
-350.0   60.0   33.333333333333336
-350.0   60.0   16.666666666666668
-400.0   60.0   33.333333333333336
-350.0   90.0   33.333333333333336
-350.0   60.0   16.666666666666668
-400.0   90.0   16.666666666666668
-400.0   60.0   33.333333333333336
-350.0   60.0   33.333333333333336
-400.0   90.0   33.333333333333336
-400.0   60.0   50.0
-350.0   60.0   33.333333333333336
-350.0   90.0   33.333333333333336
-400.0   90.0   33.333333333333336
-350.0   90.0   50.0
-400.0   60.0   50.0
-400.0   90.0   50.0
-350.0   90.0   50.0
-400.0   90.0   33.333333333333336
-400.0   60.0   50.0
-350.0   90.0   50.0
-350.0   60.0   50.0
-350.0   60.0   33.333333333333336
-400.0   60.0   50.0
-350.0   90.0   50.0
-350.0   60.0   33.333333333333336
-400.0   90.0   33.333333333333336
-400.0   90.0   0.0
-350.0   90.0   0.0
-400.0   120.0   0.0
-400.0   90.0   16.666666666666668
-350.0   90.0   0.0
-350.0   120.0   0.0
-400.0   120.0   0.0
-350.0   120.0   16.666666666666668
-400.0   90.0   16.666666666666668
-400.0   120.0   16.666666666666668
-350.0   120.0   16.666666666666668
-400.0   120.0   0.0
-400.0   90.0   16.666666666666668
-350.0   120.0   16.666666666666668
-350.0   90.0   16.666666666666668
-350.0   90.0   0.0
-400.0   90.0   16.666666666666668
-350.0   120.0   16.666666666666668
-350.0   90.0   0.0
-400.0   120.0   0.0
-400.0   90.0   16.666666666666668
-350.0   90.0   16.666666666666668
-400.0   120.0   16.666666666666668
-400.0   90.0   33.333333333333336
-350.0   90.0   16.666666666666668
-350.0   120.0   16.666666666666668
-400.0   120.0   16.666666666666668
-350.0   120.0   33.333333333333336
-400.0   90.0   33.333333333333336
-400.0   120.0   33.333333333333336
-350.0   120.0   33.333333333333336
-400.0   120.0   16.666666666666668
-400.0   90.0   33.333333333333336
-350.0   120.0   33.333333333333336
-350.0   90.0   33.333333333333336
-350.0   90.0   16.666666666666668
-400.0   90.0   33.333333333333336
-350.0   120.0   33.333333333333336
-350.0   90.0   16.666666666666668
-400.0   120.0   16.666666666666668
-400.0   90.0   33.333333333333336
-350.0   90.0   33.333333333333336
-400.0   120.0   33.333333333333336
-400.0   90.0   50.0
-350.0   90.0   33.333333333333336
-350.0   120.0   33.333333333333336
-400.0   120.0   33.333333333333336
-350.0   120.0   50.0
-400.0   90.0   50.0
-400.0   120.0   50.0
-350.0   120.0   50.0
-400.0   120.0   33.333333333333336
-400.0   90.0   50.0
-350.0   120.0   50.0
-350.0   90.0   50.0
-350.0   90.0   33.333333333333336
-400.0   90.0   50.0
-350.0   120.0   50.0
-350.0   90.0   33.333333333333336
-400.0   120.0   33.333333333333336
-400.0   120.0   0.0
-350.0   120.0   0.0
-400.0   150.0   0.0
-400.0   120.0   16.666666666666668
-350.0   120.0   0.0
-350.0   150.0   0.0
-400.0   150.0   0.0
-350.0   150.0   16.666666666666668
-400.0   120.0   16.666666666666668
-400.0   150.0   16.666666666666668
-350.0   150.0   16.666666666666668
-400.0   150.0   0.0
-400.0   120.0   16.666666666666668
-350.0   150.0   16.666666666666668
-350.0   120.0   16.666666666666668
-350.0   120.0   0.0
-400.0   120.0   16.666666666666668
-350.0   150.0   16.666666666666668
-350.0   120.0   0.0
-400.0   150.0   0.0
-400.0   120.0   16.666666666666668
-350.0   120.0   16.666666666666668
-400.0   150.0   16.666666666666668
-400.0   120.0   33.333333333333336
-350.0   120.0   16.666666666666668
-350.0   150.0   16.666666666666668
-400.0   150.0   16.666666666666668
-350.0   150.0   33.333333333333336
-400.0   120.0   33.333333333333336
-400.0   150.0   33.333333333333336
-350.0   150.0   33.333333333333336
-400.0   150.0   16.666666666666668
-400.0   120.0   33.333333333333336
-350.0   150.0   33.333333333333336
-350.0   120.0   33.333333333333336
-350.0   120.0   16.666666666666668
-400.0   120.0   33.333333333333336
-350.0   150.0   33.333333333333336
-350.0   120.0   16.666666666666668
-400.0   150.0   16.666666666666668
-400.0   120.0   33.333333333333336
-350.0   120.0   33.333333333333336
-400.0   150.0   33.333333333333336
-400.0   120.0   50.0
-350.0   120.0   33.333333333333336
-350.0   150.0   33.333333333333336
-400.0   150.0   33.333333333333336
-350.0   150.0   50.0
-400.0   120.0   50.0
-400.0   150.0   50.0
-350.0   150.0   50.0
-400.0   150.0   33.333333333333336
-400.0   120.0   50.0
-350.0   150.0   50.0
-350.0   120.0   50.0
-350.0   120.0   33.333333333333336
-400.0   120.0   50.0
-350.0   150.0   50.0
-350.0   120.0   33.333333333333336
-400.0   150.0   33.333333333333336
-350.0   0.0   0.0
-300.0   0.0   0.0
-350.0   30.0   0.0
-350.0   0.0   16.666666666666668
-300.0   0.0   0.0
-300.0   30.0   0.0
-350.0   30.0   0.0
-300.0   30.0   16.666666666666668
-350.0   0.0   16.666666666666668
-350.0   30.0   16.666666666666668
-300.0   30.0   16.666666666666668
-350.0   30.0   0.0
-350.0   0.0   16.666666666666668
-300.0   30.0   16.666666666666668
-300.0   0.0   16.666666666666668
-300.0   0.0   0.0
-350.0   0.0   16.666666666666668
-300.0   30.0   16.666666666666668
-300.0   0.0   0.0
-350.0   30.0   0.0
-350.0   0.0   16.666666666666668
-300.0   0.0   16.666666666666668
-350.0   30.0   16.666666666666668
-350.0   0.0   33.333333333333336
-300.0   0.0   16.666666666666668
-300.0   30.0   16.666666666666668
-350.0   30.0   16.666666666666668
-300.0   30.0   33.333333333333336
-350.0   0.0   33.333333333333336
-350.0   30.0   33.333333333333336
-300.0   30.0   33.333333333333336
-350.0   30.0   16.666666666666668
-350.0   0.0   33.333333333333336
-300.0   30.0   33.333333333333336
-300.0   0.0   33.333333333333336
-300.0   0.0   16.666666666666668
-350.0   0.0   33.333333333333336
-300.0   30.0   33.333333333333336
-300.0   0.0   16.666666666666668
-350.0   30.0   16.666666666666668
-350.0   0.0   33.333333333333336
-300.0   0.0   33.333333333333336
-350.0   30.0   33.333333333333336
-350.0   0.0   50.0
-300.0   0.0   33.333333333333336
-300.0   30.0   33.333333333333336
-350.0   30.0   33.333333333333336
-300.0   30.0   50.0
-350.0   0.0   50.0
-350.0   30.0   50.0
-300.0   30.0   50.0
-350.0   30.0   33.333333333333336
-350.0   0.0   50.0
-300.0   30.0   50.0
-300.0   0.0   50.0
-300.0   0.0   33.333333333333336
-350.0   0.0   50.0
-300.0   30.0   50.0
-300.0   0.0   33.333333333333336
-350.0   30.0   33.333333333333336
-350.0   30.0   0.0
-300.0   30.0   0.0
-350.0   60.0   0.0
-350.0   30.0   16.666666666666668
-300.0   30.0   0.0
-300.0   60.0   0.0
-350.0   60.0   0.0
-300.0   60.0   16.666666666666668
-350.0   30.0   16.666666666666668
-350.0   60.0   16.666666666666668
-300.0   60.0   16.666666666666668
-350.0   60.0   0.0
-350.0   30.0   16.666666666666668
-300.0   60.0   16.666666666666668
-300.0   30.0   16.666666666666668
-300.0   30.0   0.0
-350.0   30.0   16.666666666666668
-300.0   60.0   16.666666666666668
-300.0   30.0   0.0
-350.0   60.0   0.0
-350.0   30.0   16.666666666666668
-300.0   30.0   16.666666666666668
-350.0   60.0   16.666666666666668
-350.0   30.0   33.333333333333336
-300.0   30.0   16.666666666666668
-300.0   60.0   16.666666666666668
-350.0   60.0   16.666666666666668
-300.0   60.0   33.333333333333336
-350.0   30.0   33.333333333333336
-350.0   60.0   33.333333333333336
-300.0   60.0   33.333333333333336
-350.0   60.0   16.666666666666668
-350.0   30.0   33.333333333333336
-300.0   60.0   33.333333333333336
-300.0   30.0   33.333333333333336
-300.0   30.0   16.666666666666668
-350.0   30.0   33.333333333333336
-300.0   60.0   33.333333333333336
-300.0   30.0   16.666666666666668
-350.0   60.0   16.666666666666668
-350.0   30.0   33.333333333333336
-300.0   30.0   33.333333333333336
-350.0   60.0   33.333333333333336
-350.0   30.0   50.0
-300.0   30.0   33.333333333333336
-300.0   60.0   33.333333333333336
-350.0   60.0   33.333333333333336
-300.0   60.0   50.0
-350.0   30.0   50.0
-350.0   60.0   50.0
-300.0   60.0   50.0
-350.0   60.0   33.333333333333336
-350.0   30.0   50.0
-300.0   60.0   50.0
-300.0   30.0   50.0
-300.0   30.0   33.333333333333336
-350.0   30.0   50.0
-300.0   60.0   50.0
-300.0   30.0   33.333333333333336
-350.0   60.0   33.333333333333336
-350.0   60.0   0.0
-300.0   60.0   0.0
-350.0   90.0   0.0
-350.0   60.0   16.666666666666668
-300.0   60.0   0.0
-300.0   90.0   0.0
-350.0   90.0   0.0
-300.0   90.0   16.666666666666668
-350.0   60.0   16.666666666666668
-350.0   90.0   16.666666666666668
-300.0   90.0   16.666666666666668
-350.0   90.0   0.0
-350.0   60.0   16.666666666666668
-300.0   90.0   16.666666666666668
-300.0   60.0   16.666666666666668
-300.0   60.0   0.0
-350.0   60.0   16.666666666666668
-300.0   90.0   16.666666666666668
-300.0   60.0   0.0
-350.0   90.0   0.0
-350.0   60.0   16.666666666666668
-300.0   60.0   16.666666666666668
-350.0   90.0   16.666666666666668
-350.0   60.0   33.333333333333336
-300.0   60.0   16.666666666666668
-300.0   90.0   16.666666666666668
-350.0   90.0   16.666666666666668
-300.0   90.0   33.333333333333336
-350.0   60.0   33.333333333333336
-350.0   90.0   33.333333333333336
-300.0   90.0   33.333333333333336
-350.0   90.0   16.666666666666668
-350.0   60.0   33.333333333333336
-300.0   90.0   33.333333333333336
-300.0   60.0   33.333333333333336
-300.0   60.0   16.666666666666668
-350.0   60.0   33.333333333333336
-300.0   90.0   33.333333333333336
-300.0   60.0   16.666666666666668
-350.0   90.0   16.666666666666668
-350.0   60.0   33.333333333333336
-300.0   60.0   33.333333333333336
-350.0   90.0   33.333333333333336
-350.0   60.0   50.0
-300.0   60.0   33.333333333333336
-300.0   90.0   33.333333333333336
-350.0   90.0   33.333333333333336
-300.0   90.0   50.0
-350.0   60.0   50.0
-350.0   90.0   50.0
-300.0   90.0   50.0
-350.0   90.0   33.333333333333336
-350.0   60.0   50.0
-300.0   90.0   50.0
-300.0   60.0   50.0
-300.0   60.0   33.333333333333336
-350.0   60.0   50.0
-300.0   90.0   50.0
-300.0   60.0   33.333333333333336
-350.0   90.0   33.333333333333336
-350.0   90.0   0.0
-300.0   90.0   0.0
-350.0   120.0   0.0
-350.0   90.0   16.666666666666668
-300.0   90.0   0.0
-300.0   120.0   0.0
-350.0   120.0   0.0
-300.0   120.0   16.666666666666668
-350.0   90.0   16.666666666666668
-350.0   120.0   16.666666666666668
-300.0   120.0   16.666666666666668
-350.0   120.0   0.0
-350.0   90.0   16.666666666666668
-300.0   120.0   16.666666666666668
-300.0   90.0   16.666666666666668
-300.0   90.0   0.0
-350.0   90.0   16.666666666666668
-300.0   120.0   16.666666666666668
-300.0   90.0   0.0
-350.0   120.0   0.0
-350.0   90.0   16.666666666666668
-300.0   90.0   16.666666666666668
-350.0   120.0   16.666666666666668
-350.0   90.0   33.333333333333336
-300.0   90.0   16.666666666666668
-300.0   120.0   16.666666666666668
-350.0   120.0   16.666666666666668
-300.0   120.0   33.333333333333336
-350.0   90.0   33.333333333333336
-350.0   120.0   33.333333333333336
-300.0   120.0   33.333333333333336
-350.0   120.0   16.666666666666668
-350.0   90.0   33.333333333333336
-300.0   120.0   33.333333333333336
-300.0   90.0   33.333333333333336
-300.0   90.0   16.666666666666668
-350.0   90.0   33.333333333333336
-300.0   120.0   33.333333333333336
-300.0   90.0   16.666666666666668
-350.0   120.0   16.666666666666668
-350.0   90.0   33.333333333333336
-300.0   90.0   33.333333333333336
-350.0   120.0   33.333333333333336
-350.0   90.0   50.0
-300.0   90.0   33.333333333333336
-300.0   120.0   33.333333333333336
-350.0   120.0   33.333333333333336
-300.0   120.0   50.0
-350.0   90.0   50.0
-350.0   120.0   50.0
-300.0   120.0   50.0
-350.0   120.0   33.333333333333336
-350.0   90.0   50.0
-300.0   120.0   50.0
-300.0   90.0   50.0
-300.0   90.0   33.333333333333336
-350.0   90.0   50.0
-300.0   120.0   50.0
-300.0   90.0   33.333333333333336
-350.0   120.0   33.333333333333336
-350.0   120.0   0.0
-300.0   120.0   0.0
-350.0   150.0   0.0
-350.0   120.0   16.666666666666668
-300.0   120.0   0.0
-300.0   150.0   0.0
-350.0   150.0   0.0
-300.0   150.0   16.666666666666668
-350.0   120.0   16.666666666666668
-350.0   150.0   16.666666666666668
-300.0   150.0   16.666666666666668
-350.0   150.0   0.0
-350.0   120.0   16.666666666666668
-300.0   150.0   16.666666666666668
-300.0   120.0   16.666666666666668
-300.0   120.0   0.0
-350.0   120.0   16.666666666666668
-300.0   150.0   16.666666666666668
-300.0   120.0   0.0
-350.0   150.0   0.0
-350.0   120.0   16.666666666666668
-300.0   120.0   16.666666666666668
-350.0   150.0   16.666666666666668
-350.0   120.0   33.333333333333336
-300.0   120.0   16.666666666666668
-300.0   150.0   16.666666666666668
-350.0   150.0   16.666666666666668
-300.0   150.0   33.333333333333336
-350.0   120.0   33.333333333333336
-350.0   150.0   33.333333333333336
-300.0   150.0   33.333333333333336
-350.0   150.0   16.666666666666668
-350.0   120.0   33.333333333333336
-300.0   150.0   33.333333333333336
-300.0   120.0   33.333333333333336
-300.0   120.0   16.666666666666668
-350.0   120.0   33.333333333333336
-300.0   150.0   33.333333333333336
-300.0   120.0   16.666666666666668
-350.0   150.0   16.666666666666668
-350.0   120.0   33.333333333333336
-300.0   120.0   33.333333333333336
-350.0   150.0   33.333333333333336
-350.0   120.0   50.0
-300.0   120.0   33.333333333333336
-300.0   150.0   33.333333333333336
-350.0   150.0   33.333333333333336
-300.0   150.0   50.0
-350.0   120.0   50.0
-350.0   150.0   50.0
-300.0   150.0   50.0
-350.0   150.0   33.333333333333336
-350.0   120.0   50.0
-300.0   150.0   50.0
-300.0   120.0   50.0
-300.0   120.0   33.333333333333336
-350.0   120.0   50.0
-300.0   150.0   50.0
-300.0   120.0   33.333333333333336
-350.0   150.0   33.333333333333336
-300.0   0.0   0.0
-250.0   0.0   0.0
-300.0   30.0   0.0
-300.0   0.0   16.666666666666668
-250.0   0.0   0.0
-250.0   30.0   0.0
-300.0   30.0   0.0
-250.0   30.0   16.666666666666668
-300.0   0.0   16.666666666666668
-300.0   30.0   16.666666666666668
-250.0   30.0   16.666666666666668
-300.0   30.0   0.0
-300.0   0.0   16.666666666666668
-250.0   30.0   16.666666666666668
-250.0   0.0   16.666666666666668
-250.0   0.0   0.0
-300.0   0.0   16.666666666666668
-250.0   30.0   16.666666666666668
-250.0   0.0   0.0
-300.0   30.0   0.0
-300.0   0.0   16.666666666666668
-250.0   0.0   16.666666666666668
-300.0   30.0   16.666666666666668
-300.0   0.0   33.333333333333336
-250.0   0.0   16.666666666666668
-250.0   30.0   16.666666666666668
-300.0   30.0   16.666666666666668
-250.0   30.0   33.333333333333336
-300.0   0.0   33.333333333333336
-300.0   30.0   33.333333333333336
-250.0   30.0   33.333333333333336
-300.0   30.0   16.666666666666668
-300.0   0.0   33.333333333333336
-250.0   30.0   33.333333333333336
-250.0   0.0   33.333333333333336
-250.0   0.0   16.666666666666668
-300.0   0.0   33.333333333333336
-250.0   30.0   33.333333333333336
-250.0   0.0   16.666666666666668
-300.0   30.0   16.666666666666668
-300.0   0.0   33.333333333333336
-250.0   0.0   33.333333333333336
-300.0   30.0   33.333333333333336
-300.0   0.0   50.0
-250.0   0.0   33.333333333333336
-250.0   30.0   33.333333333333336
-300.0   30.0   33.333333333333336
-250.0   30.0   50.0
-300.0   0.0   50.0
-300.0   30.0   50.0
-250.0   30.0   50.0
-300.0   30.0   33.333333333333336
-300.0   0.0   50.0
-250.0   30.0   50.0
-250.0   0.0   50.0
-250.0   0.0   33.333333333333336
-300.0   0.0   50.0
-250.0   30.0   50.0
-250.0   0.0   33.333333333333336
-300.0   30.0   33.333333333333336
-300.0   30.0   0.0
-250.0   30.0   0.0
-300.0   60.0   0.0
-300.0   30.0   16.666666666666668
-250.0   30.0   0.0
-250.0   60.0   0.0
-300.0   60.0   0.0
-250.0   60.0   16.666666666666668
-300.0   30.0   16.666666666666668
-300.0   60.0   16.666666666666668
-250.0   60.0   16.666666666666668
-300.0   60.0   0.0
-300.0   30.0   16.666666666666668
-250.0   60.0   16.666666666666668
-250.0   30.0   16.666666666666668
-250.0   30.0   0.0
-300.0   30.0   16.666666666666668
-250.0   60.0   16.666666666666668
-250.0   30.0   0.0
-300.0   60.0   0.0
-300.0   30.0   16.666666666666668
-250.0   30.0   16.666666666666668
-300.0   60.0   16.666666666666668
-300.0   30.0   33.333333333333336
-250.0   30.0   16.666666666666668
-250.0   60.0   16.666666666666668
-300.0   60.0   16.666666666666668
-250.0   60.0   33.333333333333336
-300.0   30.0   33.333333333333336
-300.0   60.0   33.333333333333336
-250.0   60.0   33.333333333333336
-300.0   60.0   16.666666666666668
-300.0   30.0   33.333333333333336
-250.0   60.0   33.333333333333336
-250.0   30.0   33.333333333333336
-250.0   30.0   16.666666666666668
-300.0   30.0   33.333333333333336
-250.0   60.0   33.333333333333336
-250.0   30.0   16.666666666666668
-300.0   60.0   16.666666666666668
-300.0   30.0   33.333333333333336
-250.0   30.0   33.333333333333336
-300.0   60.0   33.333333333333336
-300.0   30.0   50.0
-250.0   30.0   33.333333333333336
-250.0   60.0   33.333333333333336
-300.0   60.0   33.333333333333336
-250.0   60.0   50.0
-300.0   30.0   50.0
-300.0   60.0   50.0
-250.0   60.0   50.0
-300.0   60.0   33.333333333333336
-300.0   30.0   50.0
-250.0   60.0   50.0
-250.0   30.0   50.0
-250.0   30.0   33.333333333333336
-300.0   30.0   50.0
-250.0   60.0   50.0
-250.0   30.0   33.333333333333336
-300.0   60.0   33.333333333333336
-300.0   60.0   0.0
-250.0   60.0   0.0
-300.0   90.0   0.0
-300.0   60.0   16.666666666666668
-250.0   60.0   0.0
-250.0   90.0   0.0
-300.0   90.0   0.0
-250.0   90.0   16.666666666666668
-300.0   60.0   16.666666666666668
-300.0   90.0   16.666666666666668
-250.0   90.0   16.666666666666668
-300.0   90.0   0.0
-300.0   60.0   16.666666666666668
-250.0   90.0   16.666666666666668
-250.0   60.0   16.666666666666668
-250.0   60.0   0.0
-300.0   60.0   16.666666666666668
-250.0   90.0   16.666666666666668
-250.0   60.0   0.0
-300.0   90.0   0.0
-300.0   60.0   16.666666666666668
-250.0   60.0   16.666666666666668
-300.0   90.0   16.666666666666668
-300.0   60.0   33.333333333333336
-250.0   60.0   16.666666666666668
-250.0   90.0   16.666666666666668
-300.0   90.0   16.666666666666668
-250.0   90.0   33.333333333333336
-300.0   60.0   33.333333333333336
-300.0   90.0   33.333333333333336
-250.0   90.0   33.333333333333336
-300.0   90.0   16.666666666666668
-300.0   60.0   33.333333333333336
-250.0   90.0   33.333333333333336
-250.0   60.0   33.333333333333336
-250.0   60.0   16.666666666666668
-300.0   60.0   33.333333333333336
-250.0   90.0   33.333333333333336
-250.0   60.0   16.666666666666668
-300.0   90.0   16.666666666666668
-300.0   60.0   33.333333333333336
-250.0   60.0   33.333333333333336
-300.0   90.0   33.333333333333336
-300.0   60.0   50.0
-250.0   60.0   33.333333333333336
-250.0   90.0   33.333333333333336
-300.0   90.0   33.333333333333336
-250.0   90.0   50.0
-300.0   60.0   50.0
-300.0   90.0   50.0
-250.0   90.0   50.0
-300.0   90.0   33.333333333333336
-300.0   60.0   50.0
-250.0   90.0   50.0
-250.0   60.0   50.0
-250.0   60.0   33.333333333333336
-300.0   60.0   50.0
-250.0   90.0   50.0
-250.0   60.0   33.333333333333336
-300.0   90.0   33.333333333333336
-300.0   90.0   0.0
-250.0   90.0   0.0
-300.0   120.0   0.0
-300.0   90.0   16.666666666666668
-250.0   90.0   0.0
-250.0   120.0   0.0
-300.0   120.0   0.0
-250.0   120.0   16.666666666666668
-300.0   90.0   16.666666666666668
-300.0   120.0   16.666666666666668
-250.0   120.0   16.666666666666668
-300.0   120.0   0.0
-300.0   90.0   16.666666666666668
-250.0   120.0   16.666666666666668
-250.0   90.0   16.666666666666668
-250.0   90.0   0.0
-300.0   90.0   16.666666666666668
-250.0   120.0   16.666666666666668
-250.0   90.0   0.0
-300.0   120.0   0.0
-300.0   90.0   16.666666666666668
-250.0   90.0   16.666666666666668
-300.0   120.0   16.666666666666668
-300.0   90.0   33.333333333333336
-250.0   90.0   16.666666666666668
-250.0   120.0   16.666666666666668
-300.0   120.0   16.666666666666668
-250.0   120.0   33.333333333333336
-300.0   90.0   33.333333333333336
-300.0   120.0   33.333333333333336
-250.0   120.0   33.333333333333336
-300.0   120.0   16.666666666666668
-300.0   90.0   33.333333333333336
-250.0   120.0   33.333333333333336
-250.0   90.0   33.333333333333336
-250.0   90.0   16.666666666666668
-300.0   90.0   33.333333333333336
-250.0   120.0   33.333333333333336
-250.0   90.0   16.666666666666668
-300.0   120.0   16.666666666666668
-300.0   90.0   33.333333333333336
-250.0   90.0   33.333333333333336
-300.0   120.0   33.333333333333336
-300.0   90.0   50.0
-250.0   90.0   33.333333333333336
-250.0   120.0   33.333333333333336
-300.0   120.0   33.333333333333336
-250.0   120.0   50.0
-300.0   90.0   50.0
-300.0   120.0   50.0
-250.0   120.0   50.0
-300.0   120.0   33.333333333333336
-300.0   90.0   50.0
-250.0   120.0   50.0
-250.0   90.0   50.0
-250.0   90.0   33.333333333333336
-300.0   90.0   50.0
-250.0   120.0   50.0
-250.0   90.0   33.333333333333336
-300.0   120.0   33.333333333333336
-300.0   120.0   0.0
-250.0   120.0   0.0
-300.0   150.0   0.0
-300.0   120.0   16.666666666666668
-250.0   120.0   0.0
-250.0   150.0   0.0
-300.0   150.0   0.0
-250.0   150.0   16.666666666666668
-300.0   120.0   16.666666666666668
-300.0   150.0   16.666666666666668
-250.0   150.0   16.666666666666668
-300.0   150.0   0.0
-300.0   120.0   16.666666666666668
-250.0   150.0   16.666666666666668
-250.0   120.0   16.666666666666668
-250.0   120.0   0.0
-300.0   120.0   16.666666666666668
-250.0   150.0   16.666666666666668
-250.0   120.0   0.0
-300.0   150.0   0.0
-300.0   120.0   16.666666666666668
-250.0   120.0   16.666666666666668
-300.0   150.0   16.666666666666668
-300.0   120.0   33.333333333333336
-250.0   120.0   16.666666666666668
-250.0   150.0   16.666666666666668
-300.0   150.0   16.666666666666668
-250.0   150.0   33.333333333333336
-300.0   120.0   33.333333333333336
-300.0   150.0   33.333333333333336
-250.0   150.0   33.333333333333336
-300.0   150.0   16.666666666666668
-300.0   120.0   33.333333333333336
-250.0   150.0   33.333333333333336
-250.0   120.0   33.333333333333336
-250.0   120.0   16.666666666666668
-300.0   120.0   33.333333333333336
-250.0   150.0   33.333333333333336
-250.0   120.0   16.666666666666668
-300.0   150.0   16.666666666666668
-300.0   120.0   33.333333333333336
-250.0   120.0   33.333333333333336
-300.0   150.0   33.333333333333336
-300.0   120.0   50.0
-250.0   120.0   33.333333333333336
-250.0   150.0   33.333333333333336
-300.0   150.0   33.333333333333336
-250.0   150.0   50.0
-300.0   120.0   50.0
-300.0   150.0   50.0
-250.0   150.0   50.0
-300.0   150.0   33.333333333333336
-300.0   120.0   50.0
-250.0   150.0   50.0
-250.0   120.0   50.0
-250.0   120.0   33.333333333333336
-300.0   120.0   50.0
-250.0   150.0   50.0
-250.0   120.0   33.333333333333336
-300.0   150.0   33.333333333333336
-250.0   0.0   0.0
-200.0   0.0   0.0
-250.0   30.0   0.0
-250.0   0.0   16.666666666666668
-200.0   0.0   0.0
-200.0   30.0   0.0
-250.0   30.0   0.0
-200.0   30.0   16.666666666666668
-250.0   0.0   16.666666666666668
-250.0   30.0   16.666666666666668
-200.0   30.0   16.666666666666668
-250.0   30.0   0.0
-250.0   0.0   16.666666666666668
-200.0   30.0   16.666666666666668
-200.0   0.0   16.666666666666668
-200.0   0.0   0.0
-250.0   0.0   16.666666666666668
-200.0   30.0   16.666666666666668
-200.0   0.0   0.0
-250.0   30.0   0.0
-250.0   0.0   16.666666666666668
-200.0   0.0   16.666666666666668
-250.0   30.0   16.666666666666668
-250.0   0.0   33.333333333333336
-200.0   0.0   16.666666666666668
-200.0   30.0   16.666666666666668
-250.0   30.0   16.666666666666668
-200.0   30.0   33.333333333333336
-250.0   0.0   33.333333333333336
-250.0   30.0   33.333333333333336
-200.0   30.0   33.333333333333336
-250.0   30.0   16.666666666666668
-250.0   0.0   33.333333333333336
-200.0   30.0   33.333333333333336
-200.0   0.0   33.333333333333336
-200.0   0.0   16.666666666666668
-250.0   0.0   33.333333333333336
-200.0   30.0   33.333333333333336
-200.0   0.0   16.666666666666668
-250.0   30.0   16.666666666666668
-250.0   0.0   33.333333333333336
-200.0   0.0   33.333333333333336
-250.0   30.0   33.333333333333336
-250.0   0.0   50.0
-200.0   0.0   33.333333333333336
-200.0   30.0   33.333333333333336
-250.0   30.0   33.333333333333336
-200.0   30.0   50.0
-250.0   0.0   50.0
-250.0   30.0   50.0
-200.0   30.0   50.0
-250.0   30.0   33.333333333333336
-250.0   0.0   50.0
-200.0   30.0   50.0
-200.0   0.0   50.0
-200.0   0.0   33.333333333333336
-250.0   0.0   50.0
-200.0   30.0   50.0
-200.0   0.0   33.333333333333336
-250.0   30.0   33.333333333333336
-250.0   30.0   0.0
-200.0   30.0   0.0
-250.0   60.0   0.0
-250.0   30.0   16.666666666666668
-200.0   30.0   0.0
-200.0   60.0   0.0
-250.0   60.0   0.0
-200.0   60.0   16.666666666666668
-250.0   30.0   16.666666666666668
-250.0   60.0   16.666666666666668
-200.0   60.0   16.666666666666668
-250.0   60.0   0.0
-250.0   30.0   16.666666666666668
-200.0   60.0   16.666666666666668
-200.0   30.0   16.666666666666668
-200.0   30.0   0.0
-250.0   30.0   16.666666666666668
-200.0   60.0   16.666666666666668
-200.0   30.0   0.0
-250.0   60.0   0.0
-250.0   30.0   16.666666666666668
-200.0   30.0   16.666666666666668
-250.0   60.0   16.666666666666668
-250.0   30.0   33.333333333333336
-200.0   30.0   16.666666666666668
-200.0   60.0   16.666666666666668
-250.0   60.0   16.666666666666668
-200.0   60.0   33.333333333333336
-250.0   30.0   33.333333333333336
-250.0   60.0   33.333333333333336
-200.0   60.0   33.333333333333336
-250.0   60.0   16.666666666666668
-250.0   30.0   33.333333333333336
-200.0   60.0   33.333333333333336
-200.0   30.0   33.333333333333336
-200.0   30.0   16.666666666666668
-250.0   30.0   33.333333333333336
-200.0   60.0   33.333333333333336
-200.0   30.0   16.666666666666668
-250.0   60.0   16.666666666666668
-250.0   30.0   33.333333333333336
-200.0   30.0   33.333333333333336
-250.0   60.0   33.333333333333336
-250.0   30.0   50.0
-200.0   30.0   33.333333333333336
-200.0   60.0   33.333333333333336
-250.0   60.0   33.333333333333336
-200.0   60.0   50.0
-250.0   30.0   50.0
-250.0   60.0   50.0
-200.0   60.0   50.0
-250.0   60.0   33.333333333333336
-250.0   30.0   50.0
-200.0   60.0   50.0
-200.0   30.0   50.0
-200.0   30.0   33.333333333333336
-250.0   30.0   50.0
-200.0   60.0   50.0
-200.0   30.0   33.333333333333336
-250.0   60.0   33.333333333333336
-250.0   60.0   0.0
-200.0   60.0   0.0
-250.0   90.0   0.0
-250.0   60.0   16.666666666666668
-200.0   60.0   0.0
-200.0   90.0   0.0
-250.0   90.0   0.0
-200.0   90.0   16.666666666666668
-250.0   60.0   16.666666666666668
-250.0   90.0   16.666666666666668
-200.0   90.0   16.666666666666668
-250.0   90.0   0.0
-250.0   60.0   16.666666666666668
-200.0   90.0   16.666666666666668
-200.0   60.0   16.666666666666668
-200.0   60.0   0.0
-250.0   60.0   16.666666666666668
-200.0   90.0   16.666666666666668
-200.0   60.0   0.0
-250.0   90.0   0.0
-250.0   60.0   16.666666666666668
-200.0   60.0   16.666666666666668
-250.0   90.0   16.666666666666668
-250.0   60.0   33.333333333333336
-200.0   60.0   16.666666666666668
-200.0   90.0   16.666666666666668
-250.0   90.0   16.666666666666668
-200.0   90.0   33.333333333333336
-250.0   60.0   33.333333333333336
-250.0   90.0   33.333333333333336
-200.0   90.0   33.333333333333336
-250.0   90.0   16.666666666666668
-250.0   60.0   33.333333333333336
-200.0   90.0   33.333333333333336
-200.0   60.0   33.333333333333336
-200.0   60.0   16.666666666666668
-250.0   60.0   33.333333333333336
-200.0   90.0   33.333333333333336
-200.0   60.0   16.666666666666668
-250.0   90.0   16.666666666666668
-250.0   60.0   33.333333333333336
-200.0   60.0   33.333333333333336
-250.0   90.0   33.333333333333336
-250.0   60.0   50.0
-200.0   60.0   33.333333333333336
-200.0   90.0   33.333333333333336
-250.0   90.0   33.333333333333336
-200.0   90.0   50.0
-250.0   60.0   50.0
-250.0   90.0   50.0
-200.0   90.0   50.0
-250.0   90.0   33.333333333333336
-250.0   60.0   50.0
-200.0   90.0   50.0
-200.0   60.0   50.0
-200.0   60.0   33.333333333333336
-250.0   60.0   50.0
-200.0   90.0   50.0
-200.0   60.0   33.333333333333336
-250.0   90.0   33.333333333333336
-250.0   90.0   0.0
-200.0   90.0   0.0
-250.0   120.0   0.0
-250.0   90.0   16.666666666666668
-200.0   90.0   0.0
-200.0   120.0   0.0
-250.0   120.0   0.0
-200.0   120.0   16.666666666666668
-250.0   90.0   16.666666666666668
-250.0   120.0   16.666666666666668
-200.0   120.0   16.666666666666668
-250.0   120.0   0.0
-250.0   90.0   16.666666666666668
-200.0   120.0   16.666666666666668
-200.0   90.0   16.666666666666668
-200.0   90.0   0.0
-250.0   90.0   16.666666666666668
-200.0   120.0   16.666666666666668
-200.0   90.0   0.0
-250.0   120.0   0.0
-250.0   90.0   16.666666666666668
-200.0   90.0   16.666666666666668
-250.0   120.0   16.666666666666668
-250.0   90.0   33.333333333333336
-200.0   90.0   16.666666666666668
-200.0   120.0   16.666666666666668
-250.0   120.0   16.666666666666668
-200.0   120.0   33.333333333333336
-250.0   90.0   33.333333333333336
-250.0   120.0   33.333333333333336
-200.0   120.0   33.333333333333336
-250.0   120.0   16.666666666666668
-250.0   90.0   33.333333333333336
-200.0   120.0   33.333333333333336
-200.0   90.0   33.333333333333336
-200.0   90.0   16.666666666666668
-250.0   90.0   33.333333333333336
-200.0   120.0   33.333333333333336
-200.0   90.0   16.666666666666668
-250.0   120.0   16.666666666666668
-250.0   90.0   33.333333333333336
-200.0   90.0   33.333333333333336
-250.0   120.0   33.333333333333336
-250.0   90.0   50.0
-200.0   90.0   33.333333333333336
-200.0   120.0   33.333333333333336
-250.0   120.0   33.333333333333336
-200.0   120.0   50.0
-250.0   90.0   50.0
-250.0   120.0   50.0
-200.0   120.0   50.0
-250.0   120.0   33.333333333333336
-250.0   90.0   50.0
-200.0   120.0   50.0
-200.0   90.0   50.0
-200.0   90.0   33.333333333333336
-250.0   90.0   50.0
-200.0   120.0   50.0
-200.0   90.0   33.333333333333336
-250.0   120.0   33.333333333333336
-250.0   120.0   0.0
-200.0   120.0   0.0
-250.0   150.0   0.0
-250.0   120.0   16.666666666666668
-200.0   120.0   0.0
-200.0   150.0   0.0
-250.0   150.0   0.0
-200.0   150.0   16.666666666666668
-250.0   120.0   16.666666666666668
-250.0   150.0   16.666666666666668
-200.0   150.0   16.666666666666668
-250.0   150.0   0.0
-250.0   120.0   16.666666666666668
-200.0   150.0   16.666666666666668
-200.0   120.0   16.666666666666668
-200.0   120.0   0.0
-250.0   120.0   16.666666666666668
-200.0   150.0   16.666666666666668
-200.0   120.0   0.0
-250.0   150.0   0.0
-250.0   120.0   16.666666666666668
-200.0   120.0   16.666666666666668
-250.0   150.0   16.666666666666668
-250.0   120.0   33.333333333333336
-200.0   120.0   16.666666666666668
-200.0   150.0   16.666666666666668
-250.0   150.0   16.666666666666668
-200.0   150.0   33.333333333333336
-250.0   120.0   33.333333333333336
-250.0   150.0   33.333333333333336
-200.0   150.0   33.333333333333336
-250.0   150.0   16.666666666666668
-250.0   120.0   33.333333333333336
-200.0   150.0   33.333333333333336
-200.0   120.0   33.333333333333336
-200.0   120.0   16.666666666666668
-250.0   120.0   33.333333333333336
-200.0   150.0   33.333333333333336
-200.0   120.0   16.666666666666668
-250.0   150.0   16.666666666666668
-250.0   120.0   33.333333333333336
-200.0   120.0   33.333333333333336
-250.0   150.0   33.333333333333336
-250.0   120.0   50.0
-200.0   120.0   33.333333333333336
-200.0   150.0   33.333333333333336
-250.0   150.0   33.333333333333336
-200.0   150.0   50.0
-250.0   120.0   50.0
-250.0   150.0   50.0
-200.0   150.0   50.0
-250.0   150.0   33.333333333333336
-250.0   120.0   50.0
-200.0   150.0   50.0
-200.0   120.0   50.0
-200.0   120.0   33.333333333333336
-250.0   120.0   50.0
-200.0   150.0   50.0
-200.0   120.0   33.333333333333336
-250.0   150.0   33.333333333333336
-200.0   0.0   0.0
-150.0   0.0   0.0
-200.0   30.0   0.0
-200.0   0.0   16.666666666666668
-150.0   0.0   0.0
-150.0   30.0   0.0
-200.0   30.0   0.0
-150.0   30.0   16.666666666666668
-200.0   0.0   16.666666666666668
-200.0   30.0   16.666666666666668
-150.0   30.0   16.666666666666668
-200.0   30.0   0.0
-200.0   0.0   16.666666666666668
-150.0   30.0   16.666666666666668
-150.0   0.0   16.666666666666668
-150.0   0.0   0.0
-200.0   0.0   16.666666666666668
-150.0   30.0   16.666666666666668
-150.0   0.0   0.0
-200.0   30.0   0.0
-200.0   0.0   16.666666666666668
-150.0   0.0   16.666666666666668
-200.0   30.0   16.666666666666668
-200.0   0.0   33.333333333333336
-150.0   0.0   16.666666666666668
-150.0   30.0   16.666666666666668
-200.0   30.0   16.666666666666668
-150.0   30.0   33.333333333333336
-200.0   0.0   33.333333333333336
-200.0   30.0   33.333333333333336
-150.0   30.0   33.333333333333336
-200.0   30.0   16.666666666666668
-200.0   0.0   33.333333333333336
-150.0   30.0   33.333333333333336
-150.0   0.0   33.333333333333336
-150.0   0.0   16.666666666666668
-200.0   0.0   33.333333333333336
-150.0   30.0   33.333333333333336
-150.0   0.0   16.666666666666668
-200.0   30.0   16.666666666666668
-200.0   0.0   33.333333333333336
-150.0   0.0   33.333333333333336
-200.0   30.0   33.333333333333336
-200.0   0.0   50.0
-150.0   0.0   33.333333333333336
-150.0   30.0   33.333333333333336
-200.0   30.0   33.333333333333336
-150.0   30.0   50.0
-200.0   0.0   50.0
-200.0   30.0   50.0
-150.0   30.0   50.0
-200.0   30.0   33.333333333333336
-200.0   0.0   50.0
-150.0   30.0   50.0
-150.0   0.0   50.0
-150.0   0.0   33.333333333333336
-200.0   0.0   50.0
-150.0   30.0   50.0
-150.0   0.0   33.333333333333336
-200.0   30.0   33.333333333333336
-200.0   30.0   0.0
-150.0   30.0   0.0
-200.0   60.0   0.0
-200.0   30.0   16.666666666666668
-150.0   30.0   0.0
-150.0   60.0   0.0
-200.0   60.0   0.0
-150.0   60.0   16.666666666666668
-200.0   30.0   16.666666666666668
-200.0   60.0   16.666666666666668
-150.0   60.0   16.666666666666668
-200.0   60.0   0.0
-200.0   30.0   16.666666666666668
-150.0   60.0   16.666666666666668
-150.0   30.0   16.666666666666668
-150.0   30.0   0.0
-200.0   30.0   16.666666666666668
-150.0   60.0   16.666666666666668
-150.0   30.0   0.0
-200.0   60.0   0.0
-200.0   30.0   16.666666666666668
-150.0   30.0   16.666666666666668
-200.0   60.0   16.666666666666668
-200.0   30.0   33.333333333333336
-150.0   30.0   16.666666666666668
-150.0   60.0   16.666666666666668
-200.0   60.0   16.666666666666668
-150.0   60.0   33.333333333333336
-200.0   30.0   33.333333333333336
-200.0   60.0   33.333333333333336
-150.0   60.0   33.333333333333336
-200.0   60.0   16.666666666666668
-200.0   30.0   33.333333333333336
-150.0   60.0   33.333333333333336
-150.0   30.0   33.333333333333336
-150.0   30.0   16.666666666666668
-200.0   30.0   33.333333333333336
-150.0   60.0   33.333333333333336
-150.0   30.0   16.666666666666668
-200.0   60.0   16.666666666666668
-200.0   30.0   33.333333333333336
-150.0   30.0   33.333333333333336
-200.0   60.0   33.333333333333336
-200.0   30.0   50.0
-150.0   30.0   33.333333333333336
-150.0   60.0   33.333333333333336
-200.0   60.0   33.333333333333336
-150.0   60.0   50.0
-200.0   30.0   50.0
-200.0   60.0   50.0
-150.0   60.0   50.0
-200.0   60.0   33.333333333333336
-200.0   30.0   50.0
-150.0   60.0   50.0
-150.0   30.0   50.0
-150.0   30.0   33.333333333333336
-200.0   30.0   50.0
-150.0   60.0   50.0
-150.0   30.0   33.333333333333336
-200.0   60.0   33.333333333333336
-200.0   60.0   0.0
-150.0   60.0   0.0
-200.0   90.0   0.0
-200.0   60.0   16.666666666666668
-150.0   60.0   0.0
-150.0   90.0   0.0
-200.0   90.0   0.0
-150.0   90.0   16.666666666666668
-200.0   60.0   16.666666666666668
-200.0   90.0   16.666666666666668
-150.0   90.0   16.666666666666668
-200.0   90.0   0.0
-200.0   60.0   16.666666666666668
-150.0   90.0   16.666666666666668
-150.0   60.0   16.666666666666668
-150.0   60.0   0.0
-200.0   60.0   16.666666666666668
-150.0   90.0   16.666666666666668
-150.0   60.0   0.0
-200.0   90.0   0.0
-200.0   60.0   16.666666666666668
-150.0   60.0   16.666666666666668
-200.0   90.0   16.666666666666668
-200.0   60.0   33.333333333333336
-150.0   60.0   16.666666666666668
-150.0   90.0   16.666666666666668
-200.0   90.0   16.666666666666668
-150.0   90.0   33.333333333333336
-200.0   60.0   33.333333333333336
-200.0   90.0   33.333333333333336
-150.0   90.0   33.333333333333336
-200.0   90.0   16.666666666666668
-200.0   60.0   33.333333333333336
-150.0   90.0   33.333333333333336
-150.0   60.0   33.333333333333336
-150.0   60.0   16.666666666666668
-200.0   60.0   33.333333333333336
-150.0   90.0   33.333333333333336
-150.0   60.0   16.666666666666668
-200.0   90.0   16.666666666666668
-200.0   60.0   33.333333333333336
-150.0   60.0   33.333333333333336
-200.0   90.0   33.333333333333336
-200.0   60.0   50.0
-150.0   60.0   33.333333333333336
-150.0   90.0   33.333333333333336
-200.0   90.0   33.333333333333336
-150.0   90.0   50.0
-200.0   60.0   50.0
-200.0   90.0   50.0
-150.0   90.0   50.0
-200.0   90.0   33.333333333333336
-200.0   60.0   50.0
-150.0   90.0   50.0
-150.0   60.0   50.0
-150.0   60.0   33.333333333333336
-200.0   60.0   50.0
-150.0   90.0   50.0
-150.0   60.0   33.333333333333336
-200.0   90.0   33.333333333333336
-200.0   90.0   0.0
-150.0   90.0   0.0
-200.0   120.0   0.0
-200.0   90.0   16.666666666666668
-150.0   90.0   0.0
-150.0   120.0   0.0
-200.0   120.0   0.0
-150.0   120.0   16.666666666666668
-200.0   90.0   16.666666666666668
-200.0   120.0   16.666666666666668
-150.0   120.0   16.666666666666668
-200.0   120.0   0.0
-200.0   90.0   16.666666666666668
-150.0   120.0   16.666666666666668
-150.0   90.0   16.666666666666668
-150.0   90.0   0.0
-200.0   90.0   16.666666666666668
-150.0   120.0   16.666666666666668
-150.0   90.0   0.0
-200.0   120.0   0.0
-200.0   90.0   16.666666666666668
-150.0   90.0   16.666666666666668
-200.0   120.0   16.666666666666668
-200.0   90.0   33.333333333333336
-150.0   90.0   16.666666666666668
-150.0   120.0   16.666666666666668
-200.0   120.0   16.666666666666668
-150.0   120.0   33.333333333333336
-200.0   90.0   33.333333333333336
-200.0   120.0   33.333333333333336
-150.0   120.0   33.333333333333336
-200.0   120.0   16.666666666666668
-200.0   90.0   33.333333333333336
-150.0   120.0   33.333333333333336
-150.0   90.0   33.333333333333336
-150.0   90.0   16.666666666666668
-200.0   90.0   33.333333333333336
-150.0   120.0   33.333333333333336
-150.0   90.0   16.666666666666668
-200.0   120.0   16.666666666666668
-200.0   90.0   33.333333333333336
-150.0   90.0   33.333333333333336
-200.0   120.0   33.333333333333336
-200.0   90.0   50.0
-150.0   90.0   33.333333333333336
-150.0   120.0   33.333333333333336
-200.0   120.0   33.333333333333336
-150.0   120.0   50.0
-200.0   90.0   50.0
-200.0   120.0   50.0
-150.0   120.0   50.0
-200.0   120.0   33.333333333333336
-200.0   90.0   50.0
-150.0   120.0   50.0
-150.0   90.0   50.0
-150.0   90.0   33.333333333333336
-200.0   90.0   50.0
-150.0   120.0   50.0
-150.0   90.0   33.333333333333336
-200.0   120.0   33.333333333333336
-200.0   120.0   0.0
-150.0   120.0   0.0
-200.0   150.0   0.0
-200.0   120.0   16.666666666666668
-150.0   120.0   0.0
-150.0   150.0   0.0
-200.0   150.0   0.0
-150.0   150.0   16.666666666666668
-200.0   120.0   16.666666666666668
-200.0   150.0   16.666666666666668
-150.0   150.0   16.666666666666668
-200.0   150.0   0.0
-200.0   120.0   16.666666666666668
-150.0   150.0   16.666666666666668
-150.0   120.0   16.666666666666668
-150.0   120.0   0.0
-200.0   120.0   16.666666666666668
-150.0   150.0   16.666666666666668
-150.0   120.0   0.0
-200.0   150.0   0.0
-200.0   120.0   16.666666666666668
-150.0   120.0   16.666666666666668
-200.0   150.0   16.666666666666668
-200.0   120.0   33.333333333333336
-150.0   120.0   16.666666666666668
-150.0   150.0   16.666666666666668
-200.0   150.0   16.666666666666668
-150.0   150.0   33.333333333333336
-200.0   120.0   33.333333333333336
-200.0   150.0   33.333333333333336
-150.0   150.0   33.333333333333336
-200.0   150.0   16.666666666666668
-200.0   120.0   33.333333333333336
-150.0   150.0   33.333333333333336
-150.0   120.0   33.333333333333336
-150.0   120.0   16.666666666666668
-200.0   120.0   33.333333333333336
-150.0   150.0   33.333333333333336
-150.0   120.0   16.666666666666668
-200.0   150.0   16.666666666666668
-200.0   120.0   33.333333333333336
-150.0   120.0   33.333333333333336
-200.0   150.0   33.333333333333336
-200.0   120.0   50.0
-150.0   120.0   33.333333333333336
-150.0   150.0   33.333333333333336
-200.0   150.0   33.333333333333336
-150.0   150.0   50.0
-200.0   120.0   50.0
-200.0   150.0   50.0
-150.0   150.0   50.0
-200.0   150.0   33.333333333333336
-200.0   120.0   50.0
-150.0   150.0   50.0
-150.0   120.0   50.0
-150.0   120.0   33.333333333333336
-200.0   120.0   50.0
-150.0   150.0   50.0
-150.0   120.0   33.333333333333336
-200.0   150.0   33.333333333333336
-150.0   0.0   0.0
-100.0   0.0   0.0
-150.0   30.0   0.0
-150.0   0.0   16.666666666666668
-100.0   0.0   0.0
-100.0   30.0   0.0
-150.0   30.0   0.0
-100.0   30.0   16.666666666666668
-150.0   0.0   16.666666666666668
-150.0   30.0   16.666666666666668
-100.0   30.0   16.666666666666668
-150.0   30.0   0.0
-150.0   0.0   16.666666666666668
-100.0   30.0   16.666666666666668
-100.0   0.0   16.666666666666668
-100.0   0.0   0.0
-150.0   0.0   16.666666666666668
-100.0   30.0   16.666666666666668
-100.0   0.0   0.0
-150.0   30.0   0.0
-150.0   0.0   16.666666666666668
-100.0   0.0   16.666666666666668
-150.0   30.0   16.666666666666668
-150.0   0.0   33.333333333333336
-100.0   0.0   16.666666666666668
-100.0   30.0   16.666666666666668
-150.0   30.0   16.666666666666668
-100.0   30.0   33.333333333333336
-150.0   0.0   33.333333333333336
-150.0   30.0   33.333333333333336
-100.0   30.0   33.333333333333336
-150.0   30.0   16.666666666666668
-150.0   0.0   33.333333333333336
-100.0   30.0   33.333333333333336
-100.0   0.0   33.333333333333336
-100.0   0.0   16.666666666666668
-150.0   0.0   33.333333333333336
-100.0   30.0   33.333333333333336
-100.0   0.0   16.666666666666668
-150.0   30.0   16.666666666666668
-150.0   0.0   33.333333333333336
-100.0   0.0   33.333333333333336
-150.0   30.0   33.333333333333336
-150.0   0.0   50.0
-100.0   0.0   33.333333333333336
-100.0   30.0   33.333333333333336
-150.0   30.0   33.333333333333336
-100.0   30.0   50.0
-150.0   0.0   50.0
-150.0   30.0   50.0
-100.0   30.0   50.0
-150.0   30.0   33.333333333333336
-150.0   0.0   50.0
-100.0   30.0   50.0
-100.0   0.0   50.0
-100.0   0.0   33.333333333333336
-150.0   0.0   50.0
-100.0   30.0   50.0
-100.0   0.0   33.333333333333336
-150.0   30.0   33.333333333333336
-150.0   30.0   0.0
-100.0   30.0   0.0
-150.0   60.0   0.0
-150.0   30.0   16.666666666666668
-100.0   30.0   0.0
-100.0   60.0   0.0
-150.0   60.0   0.0
-100.0   60.0   16.666666666666668
-150.0   30.0   16.666666666666668
-150.0   60.0   16.666666666666668
-100.0   60.0   16.666666666666668
-150.0   60.0   0.0
-150.0   30.0   16.666666666666668
-100.0   60.0   16.666666666666668
-100.0   30.0   16.666666666666668
-100.0   30.0   0.0
-150.0   30.0   16.666666666666668
-100.0   60.0   16.666666666666668
-100.0   30.0   0.0
-150.0   60.0   0.0
-150.0   30.0   16.666666666666668
-100.0   30.0   16.666666666666668
-150.0   60.0   16.666666666666668
-150.0   30.0   33.333333333333336
-100.0   30.0   16.666666666666668
-100.0   60.0   16.666666666666668
-150.0   60.0   16.666666666666668
-100.0   60.0   33.333333333333336
-150.0   30.0   33.333333333333336
-150.0   60.0   33.333333333333336
-100.0   60.0   33.333333333333336
-150.0   60.0   16.666666666666668
-150.0   30.0   33.333333333333336
-100.0   60.0   33.333333333333336
-100.0   30.0   33.333333333333336
-100.0   30.0   16.666666666666668
-150.0   30.0   33.333333333333336
-100.0   60.0   33.333333333333336
-100.0   30.0   16.666666666666668
-150.0   60.0   16.666666666666668
-150.0   30.0   33.333333333333336
-100.0   30.0   33.333333333333336
-150.0   60.0   33.333333333333336
-150.0   30.0   50.0
-100.0   30.0   33.333333333333336
-100.0   60.0   33.333333333333336
-150.0   60.0   33.333333333333336
-100.0   60.0   50.0
-150.0   30.0   50.0
-150.0   60.0   50.0
-100.0   60.0   50.0
-150.0   60.0   33.333333333333336
-150.0   30.0   50.0
-100.0   60.0   50.0
-100.0   30.0   50.0
-100.0   30.0   33.333333333333336
-150.0   30.0   50.0
-100.0   60.0   50.0
-100.0   30.0   33.333333333333336
-150.0   60.0   33.333333333333336
-150.0   60.0   0.0
-100.0   60.0   0.0
-150.0   90.0   0.0
-150.0   60.0   16.666666666666668
-100.0   60.0   0.0
-100.0   90.0   0.0
-150.0   90.0   0.0
-100.0   90.0   16.666666666666668
-150.0   60.0   16.666666666666668
-150.0   90.0   16.666666666666668
-100.0   90.0   16.666666666666668
-150.0   90.0   0.0
-150.0   60.0   16.666666666666668
-100.0   90.0   16.666666666666668
-100.0   60.0   16.666666666666668
-100.0   60.0   0.0
-150.0   60.0   16.666666666666668
-100.0   90.0   16.666666666666668
-100.0   60.0   0.0
-150.0   90.0   0.0
-150.0   60.0   16.666666666666668
-100.0   60.0   16.666666666666668
-150.0   90.0   16.666666666666668
-150.0   60.0   33.333333333333336
-100.0   60.0   16.666666666666668
-100.0   90.0   16.666666666666668
-150.0   90.0   16.666666666666668
-100.0   90.0   33.333333333333336
-150.0   60.0   33.333333333333336
-150.0   90.0   33.333333333333336
-100.0   90.0   33.333333333333336
-150.0   90.0   16.666666666666668
-150.0   60.0   33.333333333333336
-100.0   90.0   33.333333333333336
-100.0   60.0   33.333333333333336
-100.0   60.0   16.666666666666668
-150.0   60.0   33.333333333333336
-100.0   90.0   33.333333333333336
-100.0   60.0   16.666666666666668
-150.0   90.0   16.666666666666668
-150.0   60.0   33.333333333333336
-100.0   60.0   33.333333333333336
-150.0   90.0   33.333333333333336
-150.0   60.0   50.0
-100.0   60.0   33.333333333333336
-100.0   90.0   33.333333333333336
-150.0   90.0   33.333333333333336
-100.0   90.0   50.0
-150.0   60.0   50.0
-150.0   90.0   50.0
-100.0   90.0   50.0
-150.0   90.0   33.333333333333336
-150.0   60.0   50.0
-100.0   90.0   50.0
-100.0   60.0   50.0
-100.0   60.0   33.333333333333336
-150.0   60.0   50.0
-100.0   90.0   50.0
-100.0   60.0   33.333333333333336
-150.0   90.0   33.333333333333336
-150.0   90.0   0.0
-100.0   90.0   0.0
-150.0   120.0   0.0
-150.0   90.0   16.666666666666668
-100.0   90.0   0.0
-100.0   120.0   0.0
-150.0   120.0   0.0
-100.0   120.0   16.666666666666668
-150.0   90.0   16.666666666666668
-150.0   120.0   16.666666666666668
-100.0   120.0   16.666666666666668
-150.0   120.0   0.0
-150.0   90.0   16.666666666666668
-100.0   120.0   16.666666666666668
-100.0   90.0   16.666666666666668
-100.0   90.0   0.0
-150.0   90.0   16.666666666666668
-100.0   120.0   16.666666666666668
-100.0   90.0   0.0
-150.0   120.0   0.0
-150.0   90.0   16.666666666666668
-100.0   90.0   16.666666666666668
-150.0   120.0   16.666666666666668
-150.0   90.0   33.333333333333336
-100.0   90.0   16.666666666666668
-100.0   120.0   16.666666666666668
-150.0   120.0   16.666666666666668
-100.0   120.0   33.333333333333336
-150.0   90.0   33.333333333333336
-150.0   120.0   33.333333333333336
-100.0   120.0   33.333333333333336
-150.0   120.0   16.666666666666668
-150.0   90.0   33.333333333333336
-100.0   120.0   33.333333333333336
-100.0   90.0   33.333333333333336
-100.0   90.0   16.666666666666668
-150.0   90.0   33.333333333333336
-100.0   120.0   33.333333333333336
-100.0   90.0   16.666666666666668
-150.0   120.0   16.666666666666668
-150.0   90.0   33.333333333333336
-100.0   90.0   33.333333333333336
-150.0   120.0   33.333333333333336
-150.0   90.0   50.0
-100.0   90.0   33.333333333333336
-100.0   120.0   33.333333333333336
-150.0   120.0   33.333333333333336
-100.0   120.0   50.0
-150.0   90.0   50.0
-150.0   120.0   50.0
-100.0   120.0   50.0
-150.0   120.0   33.333333333333336
-150.0   90.0   50.0
-100.0   120.0   50.0
-100.0   90.0   50.0
-100.0   90.0   33.333333333333336
-150.0   90.0   50.0
-100.0   120.0   50.0
-100.0   90.0   33.333333333333336
-150.0   120.0   33.333333333333336
-150.0   120.0   0.0
-100.0   120.0   0.0
-150.0   150.0   0.0
-150.0   120.0   16.666666666666668
-100.0   120.0   0.0
-100.0   150.0   0.0
-150.0   150.0   0.0
-100.0   150.0   16.666666666666668
-150.0   120.0   16.666666666666668
-150.0   150.0   16.666666666666668
-100.0   150.0   16.666666666666668
-150.0   150.0   0.0
-150.0   120.0   16.666666666666668
-100.0   150.0   16.666666666666668
-100.0   120.0   16.666666666666668
-100.0   120.0   0.0
-150.0   120.0   16.666666666666668
-100.0   150.0   16.666666666666668
-100.0   120.0   0.0
-150.0   150.0   0.0
-150.0   120.0   16.666666666666668
-100.0   120.0   16.666666666666668
-150.0   150.0   16.666666666666668
-150.0   120.0   33.333333333333336
-100.0   120.0   16.666666666666668
-100.0   150.0   16.666666666666668
-150.0   150.0   16.666666666666668
-100.0   150.0   33.333333333333336
-150.0   120.0   33.333333333333336
-150.0   150.0   33.333333333333336
-100.0   150.0   33.333333333333336
-150.0   150.0   16.666666666666668
-150.0   120.0   33.333333333333336
-100.0   150.0   33.333333333333336
-100.0   120.0   33.333333333333336
-100.0   120.0   16.666666666666668
-150.0   120.0   33.333333333333336
-100.0   150.0   33.333333333333336
-100.0   120.0   16.666666666666668
-150.0   150.0   16.666666666666668
-150.0   120.0   33.333333333333336
-100.0   120.0   33.333333333333336
-150.0   150.0   33.333333333333336
-150.0   120.0   50.0
-100.0   120.0   33.333333333333336
-100.0   150.0   33.333333333333336
-150.0   150.0   33.333333333333336
-100.0   150.0   50.0
-150.0   120.0   50.0
-150.0   150.0   50.0
-100.0   150.0   50.0
-150.0   150.0   33.333333333333336
-150.0   120.0   50.0
-100.0   150.0   50.0
-100.0   120.0   50.0
-100.0   120.0   33.333333333333336
-150.0   120.0   50.0
-100.0   150.0   50.0
-100.0   120.0   33.333333333333336
-150.0   150.0   33.333333333333336
-100.0   0.0   0.0
-50.0   0.0   0.0
-100.0   30.0   0.0
-100.0   0.0   16.666666666666668
-50.0   0.0   0.0
-50.0   30.0   0.0
-100.0   30.0   0.0
-50.0   30.0   16.666666666666668
-100.0   0.0   16.666666666666668
-100.0   30.0   16.666666666666668
-50.0   30.0   16.666666666666668
-100.0   30.0   0.0
-100.0   0.0   16.666666666666668
-50.0   30.0   16.666666666666668
-50.0   0.0   16.666666666666668
-50.0   0.0   0.0
-100.0   0.0   16.666666666666668
-50.0   30.0   16.666666666666668
-50.0   0.0   0.0
-100.0   30.0   0.0
-100.0   0.0   16.666666666666668
-50.0   0.0   16.666666666666668
-100.0   30.0   16.666666666666668
-100.0   0.0   33.333333333333336
-50.0   0.0   16.666666666666668
-50.0   30.0   16.666666666666668
-100.0   30.0   16.666666666666668
-50.0   30.0   33.333333333333336
-100.0   0.0   33.333333333333336
-100.0   30.0   33.333333333333336
-50.0   30.0   33.333333333333336
-100.0   30.0   16.666666666666668
-100.0   0.0   33.333333333333336
-50.0   30.0   33.333333333333336
-50.0   0.0   33.333333333333336
-50.0   0.0   16.666666666666668
-100.0   0.0   33.333333333333336
-50.0   30.0   33.333333333333336
-50.0   0.0   16.666666666666668
-100.0   30.0   16.666666666666668
-100.0   0.0   33.333333333333336
-50.0   0.0   33.333333333333336
-100.0   30.0   33.333333333333336
-100.0   0.0   50.0
-50.0   0.0   33.333333333333336
-50.0   30.0   33.333333333333336
-100.0   30.0   33.333333333333336
-50.0   30.0   50.0
-100.0   0.0   50.0
-100.0   30.0   50.0
-50.0   30.0   50.0
-100.0   30.0   33.333333333333336
-100.0   0.0   50.0
-50.0   30.0   50.0
-50.0   0.0   50.0
-50.0   0.0   33.333333333333336
-100.0   0.0   50.0
-50.0   30.0   50.0
-50.0   0.0   33.333333333333336
-100.0   30.0   33.333333333333336
-100.0   30.0   0.0
-50.0   30.0   0.0
-100.0   60.0   0.0
-100.0   30.0   16.666666666666668
-50.0   30.0   0.0
-50.0   60.0   0.0
-100.0   60.0   0.0
-50.0   60.0   16.666666666666668
-100.0   30.0   16.666666666666668
-100.0   60.0   16.666666666666668
-50.0   60.0   16.666666666666668
-100.0   60.0   0.0
-100.0   30.0   16.666666666666668
-50.0   60.0   16.666666666666668
-50.0   30.0   16.666666666666668
-50.0   30.0   0.0
-100.0   30.0   16.666666666666668
-50.0   60.0   16.666666666666668
-50.0   30.0   0.0
-100.0   60.0   0.0
-100.0   30.0   16.666666666666668
-50.0   30.0   16.666666666666668
-100.0   60.0   16.666666666666668
-100.0   30.0   33.333333333333336
-50.0   30.0   16.666666666666668
-50.0   60.0   16.666666666666668
-100.0   60.0   16.666666666666668
-50.0   60.0   33.333333333333336
-100.0   30.0   33.333333333333336
-100.0   60.0   33.333333333333336
-50.0   60.0   33.333333333333336
-100.0   60.0   16.666666666666668
-100.0   30.0   33.333333333333336
-50.0   60.0   33.333333333333336
-50.0   30.0   33.333333333333336
-50.0   30.0   16.666666666666668
-100.0   30.0   33.333333333333336
-50.0   60.0   33.333333333333336
-50.0   30.0   16.666666666666668
-100.0   60.0   16.666666666666668
-100.0   30.0   33.333333333333336
-50.0   30.0   33.333333333333336
-100.0   60.0   33.333333333333336
-100.0   30.0   50.0
-50.0   30.0   33.333333333333336
-50.0   60.0   33.333333333333336
-100.0   60.0   33.333333333333336
-50.0   60.0   50.0
-100.0   30.0   50.0
-100.0   60.0   50.0
-50.0   60.0   50.0
-100.0   60.0   33.333333333333336
-100.0   30.0   50.0
-50.0   60.0   50.0
-50.0   30.0   50.0
-50.0   30.0   33.333333333333336
-100.0   30.0   50.0
-50.0   60.0   50.0
-50.0   30.0   33.333333333333336
-100.0   60.0   33.333333333333336
-100.0   60.0   0.0
-50.0   60.0   0.0
-100.0   90.0   0.0
-100.0   60.0   16.666666666666668
-50.0   60.0   0.0
-50.0   90.0   0.0
-100.0   90.0   0.0
-50.0   90.0   16.666666666666668
-100.0   60.0   16.666666666666668
-100.0   90.0   16.666666666666668
-50.0   90.0   16.666666666666668
-100.0   90.0   0.0
-100.0   60.0   16.666666666666668
-50.0   90.0   16.666666666666668
-50.0   60.0   16.666666666666668
-50.0   60.0   0.0
-100.0   60.0   16.666666666666668
-50.0   90.0   16.666666666666668
-50.0   60.0   0.0
-100.0   90.0   0.0
-100.0   60.0   16.666666666666668
-50.0   60.0   16.666666666666668
-100.0   90.0   16.666666666666668
-100.0   60.0   33.333333333333336
-50.0   60.0   16.666666666666668
-50.0   90.0   16.666666666666668
-100.0   90.0   16.666666666666668
-50.0   90.0   33.333333333333336
-100.0   60.0   33.333333333333336
-100.0   90.0   33.333333333333336
-50.0   90.0   33.333333333333336
-100.0   90.0   16.666666666666668
-100.0   60.0   33.333333333333336
-50.0   90.0   33.333333333333336
-50.0   60.0   33.333333333333336
-50.0   60.0   16.666666666666668
-100.0   60.0   33.333333333333336
-50.0   90.0   33.333333333333336
-50.0   60.0   16.666666666666668
-100.0   90.0   16.666666666666668
-100.0   60.0   33.333333333333336
-50.0   60.0   33.333333333333336
-100.0   90.0   33.333333333333336
-100.0   60.0   50.0
-50.0   60.0   33.333333333333336
-50.0   90.0   33.333333333333336
-100.0   90.0   33.333333333333336
-50.0   90.0   50.0
-100.0   60.0   50.0
-100.0   90.0   50.0
-50.0   90.0   50.0
-100.0   90.0   33.333333333333336
-100.0   60.0   50.0
-50.0   90.0   50.0
-50.0   60.0   50.0
-50.0   60.0   33.333333333333336
-100.0   60.0   50.0
-50.0   90.0   50.0
-50.0   60.0   33.333333333333336
-100.0   90.0   33.333333333333336
-100.0   90.0   0.0
-50.0   90.0   0.0
-100.0   120.0   0.0
-100.0   90.0   16.666666666666668
-50.0   90.0   0.0
-50.0   120.0   0.0
-100.0   120.0   0.0
-50.0   120.0   16.666666666666668
-100.0   90.0   16.666666666666668
-100.0   120.0   16.666666666666668
-50.0   120.0   16.666666666666668
-100.0   120.0   0.0
-100.0   90.0   16.666666666666668
-50.0   120.0   16.666666666666668
-50.0   90.0   16.666666666666668
-50.0   90.0   0.0
-100.0   90.0   16.666666666666668
-50.0   120.0   16.666666666666668
-50.0   90.0   0.0
-100.0   120.0   0.0
-100.0   90.0   16.666666666666668
-50.0   90.0   16.666666666666668
-100.0   120.0   16.666666666666668
-100.0   90.0   33.333333333333336
-50.0   90.0   16.666666666666668
-50.0   120.0   16.666666666666668
-100.0   120.0   16.666666666666668
-50.0   120.0   33.333333333333336
-100.0   90.0   33.333333333333336
-100.0   120.0   33.333333333333336
-50.0   120.0   33.333333333333336
-100.0   120.0   16.666666666666668
-100.0   90.0   33.333333333333336
-50.0   120.0   33.333333333333336
-50.0   90.0   33.333333333333336
-50.0   90.0   16.666666666666668
-100.0   90.0   33.333333333333336
-50.0   120.0   33.333333333333336
-50.0   90.0   16.666666666666668
-100.0   120.0   16.666666666666668
-100.0   90.0   33.333333333333336
-50.0   90.0   33.333333333333336
-100.0   120.0   33.333333333333336
-100.0   90.0   50.0
-50.0   90.0   33.333333333333336
-50.0   120.0   33.333333333333336
-100.0   120.0   33.333333333333336
-50.0   120.0   50.0
-100.0   90.0   50.0
-100.0   120.0   50.0
-50.0   120.0   50.0
-100.0   120.0   33.333333333333336
-100.0   90.0   50.0
-50.0   120.0   50.0
-50.0   90.0   50.0
-50.0   90.0   33.333333333333336
-100.0   90.0   50.0
-50.0   120.0   50.0
-50.0   90.0   33.333333333333336
-100.0   120.0   33.333333333333336
-100.0   120.0   0.0
-50.0   120.0   0.0
-100.0   150.0   0.0
-100.0   120.0   16.666666666666668
-50.0   120.0   0.0
-50.0   150.0   0.0
-100.0   150.0   0.0
-50.0   150.0   16.666666666666668
-100.0   120.0   16.666666666666668
-100.0   150.0   16.666666666666668
-50.0   150.0   16.666666666666668
-100.0   150.0   0.0
-100.0   120.0   16.666666666666668
-50.0   150.0   16.666666666666668
-50.0   120.0   16.666666666666668
-50.0   120.0   0.0
-100.0   120.0   16.666666666666668
-50.0   150.0   16.666666666666668
-50.0   120.0   0.0
-100.0   150.0   0.0
-100.0   120.0   16.666666666666668
-50.0   120.0   16.666666666666668
-100.0   150.0   16.666666666666668
-100.0   120.0   33.333333333333336
-50.0   120.0   16.666666666666668
-50.0   150.0   16.666666666666668
-100.0   150.0   16.666666666666668
-50.0   150.0   33.333333333333336
-100.0   120.0   33.333333333333336
-100.0   150.0   33.333333333333336
-50.0   150.0   33.333333333333336
-100.0   150.0   16.666666666666668
-100.0   120.0   33.333333333333336
-50.0   150.0   33.333333333333336
-50.0   120.0   33.333333333333336
-50.0   120.0   16.666666666666668
-100.0   120.0   33.333333333333336
-50.0   150.0   33.333333333333336
-50.0   120.0   16.666666666666668
-100.0   150.0   16.666666666666668
-100.0   120.0   33.333333333333336
-50.0   120.0   33.333333333333336
-100.0   150.0   33.333333333333336
-100.0   120.0   50.0
-50.0   120.0   33.333333333333336
-50.0   150.0   33.333333333333336
-100.0   150.0   33.333333333333336
-50.0   150.0   50.0
-100.0   120.0   50.0
-100.0   150.0   50.0
-50.0   150.0   50.0
-100.0   150.0   33.333333333333336
-100.0   120.0   50.0
-50.0   150.0   50.0
-50.0   120.0   50.0
-50.0   120.0   33.333333333333336
-100.0   120.0   50.0
-50.0   150.0   50.0
-50.0   120.0   33.333333333333336
-100.0   150.0   33.333333333333336
-50.0   0.0   0.0
0.0   0.0   0.0
-50.0   30.0   0.0
-50.0   0.0   16.666666666666668
0.0   0.0   0.0
0.0   30.0   0.0
-50.0   30.0   0.0
0.0   30.0   16.666666666666668
-50.0   0.0   16.666666666666668
-50.0   30.0   16.666666666666668
0.0   30.0   16.666666666666668
-50.0   30.0   0.0
-50.0   0.0   16.666666666666668
0.0   30.0   16.666666666666668
0.0   0.0   16.666666666666668
0.0   0.0   0.0
-50.0   0.0   16.666666666666668
0.0   30.0   16.666666666666668
0.0   0.0   0.0
-50.0   30.0   0.0
-50.0   0.0   16.666666666666668
0.0   0.0   16.666666666666668
-50.0   30.0   16.666666666666668
-50.0   0.0   33.333333333333336
0.0   0.0   16.666666666666668
0.0   30.0   16.666666666666668
-50.0   30.0   16.666666666666668
0.0   30.0   33.333333333333336
-50.0   0.0   33.333333333333336
-50.0   30.0   33.333333333333336
0.0   30.0   33.333333333333336
-50.0   30.0   16.666666666666668
-50.0   0.0   33.333333333333336
0.0   30.0   33.333333333333336
0.0   0.0   33.333333333333336
0.0   0.0   16.666666666666668
-50.0   0.0   33.333333333333336
0.0   30.0   33.333333333333336
0.0   0.0   16.666666666666668
-50.0   30.0   16.666666666666668
-50.0   0.0   33.333333333333336
0.0   0.0   33.333333333333336
-50.0   30.0   33.333333333333336
-50.0   0.0   50.0
0.0   0.0   33.333333333333336
0.0   30.0   33.333333333333336
-50.0   30.0   33.333333333333336
0.0   30.0   50.0
-50.0   0.0   50.0
-50.0   30.0   50.0
0.0   30.0   50.0
-50.0   30.0   33.333333333333336
-50.0   0.0   50.0
0.0   30.0   50.0
0.0   0.0   50.0
0.0   0.0   33.333333333333336
-50.0   0.0   50.0
0.0   30.0   50.0
0.0   0.0   33.333333333333336
-50.0   30.0   33.333333333333336
-50.0   30.0   0.0
0.0   30.0   0.0
-50.0   60.0   0.0
-50.0   30.0   16.666666666666668
0.0   30.0   0.0
0.0   60.0   0.0
-50.0   60.0   0.0
0.0   60.0   16.666666666666668
-50.0   30.0   16.666666666666668
-50.0   60.0   16.666666666666668
0.0   60.0   16.666666666666668
-50.0   60.0   0.0
-50.0   30.0   16.666666666666668
0.0   60.0   16.666666666666668
0.0   30.0   16.666666666666668
0.0   30.0   0.0
-50.0   30.0   16.666666666666668
0.0   60.0   16.666666666666668
0.0   30.0   0.0
-50.0   60.0   0.0
-50.0   30.0   16.666666666666668
0.0   30.0   16.666666666666668
-50.0   60.0   16.666666666666668
-50.0   30.0   33.333333333333336
0.0   30.0   16.666666666666668
0.0   60.0   16.666666666666668
-50.0   60.0   16.666666666666668
0.0   60.0   33.333333333333336
-50.0   30.0   33.333333333333336
-50.0   60.0   33.333333333333336
0.0   60.0   33.333333333333336
-50.0   60.0   16.666666666666668
-50.0   30.0   33.333333333333336
0.0   60.0   33.333333333333336
0.0   30.0   33.333333333333336
0.0   30.0   16.666666666666668
-50.0   30.0   33.333333333333336
0.0   60.0   33.333333333333336
0.0   30.0   16.666666666666668
-50.0   60.0   16.666666666666668
-50.0   30.0   33.333333333333336
0.0   30.0   33.333333333333336
-50.0   60.0   33.333333333333336
-50.0   30.0   50.0
0.0   30.0   33.333333333333336
0.0   60.0   33.333333333333336
-50.0   60.0   33.333333333333336
0.0   60.0   50.0
-50.0   30.0   50.0
-50.0   60.0   50.0
0.0   60.0   50.0
-50.0   60.0   33.333333333333336
-50.0   30.0   50.0
0.0   60.0   50.0
0.0   30.0   50.0
0.0   30.0   33.333333333333336
-50.0   30.0   50.0
0.0   60.0   50.0
0.0   30.0   33.333333333333336
-50.0   60.0   33.333333333333336
-50.0   60.0   0.0
0.0   60.0   0.0
-50.0   90.0   0.0
-50.0   60.0   16.666666666666668
0.0   60.0   0.0
0.0   90.0   0.0
-50.0   90.0   0.0
0.0   90.0   16.666666666666668
-50.0   60.0   16.666666666666668
-50.0   90.0   16.666666666666668
0.0   90.0   16.666666666666668
-50.0   90.0   0.0
-50.0   60.0   16.666666666666668
0.0   90.0   16.666666666666668
0.0   60.0   16.666666666666668
0.0   60.0   0.0
-50.0   60.0   16.666666666666668
0.0   90.0   16.666666666666668
0.0   60.0   0.0
-50.0   90.0   0.0
-50.0   60.0   16.666666666666668
0.0   60.0   16.666666666666668
-50.0   90.0   16.666666666666668
-50.0   60.0   33.333333333333336
0.0   60.0   16.666666666666668
0.0   90.0   16.666666666666668
-50.0   90.0   16.666666666666668
0.0   90.0   33.333333333333336
-50.0   60.0   33.333333333333336
-50.0   90.0   33.333333333333336
0.0   90.0   33.333333333333336
-50.0   90.0   16.666666666666668
-50.0   60.0   33.333333333333336
0.0   90.0   33.333333333333336
0.0   60.0   33.333333333333336
0.0   60.0   16.666666666666668
-50.0   60.0   33.333333333333336
0.0   90.0   33.333333333333336
0.0   60.0   16.666666666666668
-50.0   90.0   16.666666666666668
-50.0   60.0   33.333333333333336
0.0   60.0   33.333333333333336
-50.0   90.0   33.333333333333336
-50.0   60.0   50.0
0.0   60.0   33.333333333333336
0.0   90.0   33.333333333333336
-50.0   90.0   33.333333333333336
0.0   90.0   50.0
-50.0   60.0   50.0
-50.0   90.0   50.0
0.0   90.0   50.0
-50.0   90.0   33.333333333333336
-50.0   60.0   50.0
0.0   90.0   50.0
0.0   60.0   50.0
0.0   60.0   33.333333333333336
-50.0   60.0   50.0
0.0   90.0   50.0
0.0   60.0   33.333333333333336
-50.0   90.0   33.333333333333336
-50.0   90.0   0.0
0.0   90.0   0.0
-50.0   120.0   0.0
-50.0   90.0   16.666666666666668
0.0   90.0   0.0
0.0   120.0   0.0
-50.0   120.0   0.0
0.0   120.0   16.666666666666668
-50.0   90.0   16.666666666666668
-50.0   120.0   16.666666666666668
0.0   120.0   16.666666666666668
-50.0   120.0   0.0
-50.0   90.0   16.666666666666668
0.0   120.0   16.666666666666668
0.0   90.0   16.666666666666668
0.0   90.0   0.0
-50.0   90.0   16.666666666666668
0.0   120.0   16.666666666666668
0.0   90.0   0.0
-50.0   120.0   0.0
-50.0   90.0   16.666666666666668
0.0   90.0   16.666666666666668
-50.0   120.0   16.666666666666668
-50.0   90.0   33.333333333333336
0.0   90.0   16.666666666666668
0.0   120.0   16.666666666666668
-50.0   120.0   16.666666666666668
0.0   120.0   33.333333333333336
-50.0   90.0   33.333333333333336
-50.0   120.0   33.333333333333336
0.0   120.0   33.333333333333336
-50.0   120.0   16.666666666666668
-50.0   90.0   33.333333333333336
0.0   120.0   33.333333333333336
0.0   90.0   33.333333333333336
0.0   90.0   16.666666666666668
-50.0   90.0   33.333333333333336
0.0   120.0   33.333333333333336
0.0   90.0   16.666666666666668
-50.0   120.0   16.666666666666668
-50.0   90.0   33.333333333333336
0.0   90.0   33.333333333333336
-50.0   120.0   33.333333333333336
-50.0   90.0   50.0
0.0   90.0   33.333333333333336
0.0   120.0   33.333333333333336
-50.0   120.0   33.333333333333336
0.0   120.0   50.0
-50.0   90.0   50.0
-50.0   120.0   50.0
0.0   120.0   50.0
-50.0   120.0   33.333333333333336
-50.0   90.0   50.0
0.0   120.0   50.0
0.0   90.0   50.0
0.0   90.0   33.333333333333336
-50.0   90.0   50.0
0.0   120.0   50.0
0.0   90.0   33.333333333333336
-50.0   120.0   33.333333333333336
-50.0   120.0   0.0
0.0   120.0   0.0
-50.0   150.0   0.0
-50.0   120.0   16.666666666666668
0.0   120.0   0.0
0.0   150.0   0.0
-50.0   150.0   0.0
0.0   150.0   16.666666666666668
-50.0   120.0   16.666666666666668
-50.0   150.0   16.666666666666668
0.0   150.0   16.666666666666668
-50.0   150.0   0.0
-50.0   120.0   16.666666666666668
0.0   150.0   16.666666666666668
0.0   120.0   16.666666666666668
0.0   120.0   0.0
-50.0   120.0   16.666666666666668
0.0   150.0   16.666666666666668
0.0   120.0   0.0
-50.0   150.0   0.0
-50.0   120.0   16.666666666666668
0.0   120.0   16.666666666666668
-50.0   150.0   16.666666666666668
-50.0   120.0   33.333333333333336
0.0   120.0   16.666666666666668
0.0   150.0   16.666666666666668
-50.0   150.0   16.666666666666668
0.0   150.0   33.333333333333336
-50.0   120.0   33.333333333333336
-50.0   150.0   33.333333333333336
0.0   150.0   33.333333333333336
-50.0   150.0   16.666666666666668
-50.0   120.0   33.333333333333336
0.0   150.0   33.333333333333336
0.0   120.0   33.333333333333336
0.0   120.0   16.666666666666668
-50.0   120.0   33.333333333333336
0.0   150.0   33.333333333333336
0.0   120.0   16.666666666666668
-50.0   150.0   16.666666666666668
-50.0   120.0   33.333333333333336
0.0   120.0   33.333333333333336
-50.0   150.0   33.333333333333336
-50.0   120.0   50.0
0.0   120.0   33.333333333333336
0.0   150.0   33.333333333333336
-50.0   150.0   33.333333333333336
0.0   150.0   50.0
-50.0   120.0   50.0
-50.0   150.0   50.0
0.0   150.0   50.0
-50.0   150.0   33.333333333333336
-50.0   120.0   50.0
0.0   150.0   50.0
0.0   120.0   50.0
0.0   120.0   33.333333333333336
-50.0   120.0   50.0
0.0   150.0   50.0
0.0   120.0   33.333333333333336
-50.0   150.0   33.333333333333336
0.0   0.0   0.0
50.0   0.0   0.0
0.0   30.0   0.0
0.0   0.0   16.666666666666668
50.0   0.0   0.0
50.0   30.0   0.0
0.0   30.0   0.0
50.0   30.0   16.666666666666668
0.0   0.0   16.666666666666668
0.0   30.0   16.666666666666668
50.0   30.0   16.666666666666668
0.0   30.0   0.0
0.0   0.0   16.666666666666668
50.0   30.0   16.666666666666668
50.0   0.0   16.666666666666668
50.0   0.0   0.0
0.0   0.0   16.666666666666668
50.0   30.0   16.666666666666668
50.0   0.0   0.0
0.0   30.0   0.0
0.0   0.0   16.666666666666668
50.0   0.0   16.666666666666668
0.0   30.0   16.666666666666668
0.0   0.0   33.333333333333336
50.0   0.0   16.666666666666668
50.0   30.0   16.666666666666668
0.0   30.0   16.666666666666668
50.0   30.0   33.333333333333336
0.0   0.0   33.333333333333336
0.0   30.0   33.333333333333336
50.0   30.0   33.333333333333336
0.0   30.0   16.666666666666668
0.0   0.0   33.333333333333336
50.0   30.0   33.333333333333336
50.0   0.0   33.333333333333336
50.0   0.0   16.666666666666668
0.0   0.0   33.333333333333336
50.0   30.0   33.333333333333336
50.0   0.0   16.666666666666668
0.0   30.0   16.666666666666668
0.0   0.0   33.333333333333336
50.0   0.0   33.333333333333336
0.0   30.0   33.333333333333336
0.0   0.0   50.0
50.0   0.0   33.333333333333336
50.0   30.0   33.333333333333336
0.0   30.0   33.333333333333336
50.0   30.0   50.0
0.0   0.0   50.0
0.0   30.0   50.0
50.0   30.0   50.0
0.0   30.0   33.333333333333336
0.0   0.0   50.0
50.0   30.0   50.0
50.0   0.0   50.0
50.0   0.0   33.333333333333336
0.0   0.0   50.0
50.0   30.0   50.0
50.0   0.0   33.333333333333336
0.0   30.0   33.333333333333336
0.0   30.0   0.0
50.0   30.0   0.0
0.0   60.0   0.0
0.0   30.0   16.666666666666668
50.0   30.0   0.0
50.0   60.0   0.0
0.0   60.0   0.0
50.0   60.0   16.666666666666668
0.0   30.0   16.666666666666668
0.0   60.0   16.666666666666668
50.0   60.0   16.666666666666668
0.0   60.0   0.0
0.0   30.0   16.666666666666668
50.0   60.0   16.666666666666668
50.0   30.0   16.666666666666668
50.0   30.0   0.0
0.0   30.0   16.666666666666668
50.0   60.0   16.666666666666668
50.0   30.0   0.0
0.0   60.0   0.0
0.0   30.0   16.666666666666668
50.0   30.0   16.666666666666668
0.0   60.0   16.666666666666668
0.0   30.0   33.333333333333336
50.0   30.0   16.666666666666668
50.0   60.0   16.666666666666668
0.0   60.0   16.666666666666668
50.0   60.0   33.333333333333336
0.0   30.0   33.333333333333336
0.0   60.0   33.333333333333336
50.0   60.0   33.333333333333336
0.0   60.0   16.666666666666668
0.0   30.0   33.333333333333336
50.0   60.0   33.333333333333336
50.0   30.0   33.333333333333336
50.0   30.0   16.666666666666668
0.0   30.0   33.333333333333336
50.0   60.0   33.333333333333336
50.0   30.0   16.666666666666668
0.0   60.0   16.666666666666668
0.0   30.0   33.333333333333336
50.0   30.0   33.333333333333336
0.0   60.0   33.333333333333336
0.0   30.0   50.0
50.0   30.0   33.333333333333336
50.0   60.0   33.333333333333336
0.0   60.0   33.333333333333336
50.0   60.0   50.0
0.0   30.0   50.0
0.0   60.0   50.0
50.0   60.0   50.0
0.0   60.0   33.333333333333336
0.0   30.0   50.0
50.0   60.0   50.0
50.0   30.0   50.0
50.0   30.0   33.333333333333336
0.0   30.0   50.0
50.0   60.0   50.0
50.0   30.0   33.333333333333336
0.0   60.0   33.333333333333336
0.0   60.0   0.0
50.0   60.0   0.0
0.0   90.0   0.0
0.0   60.0   16.666666666666668
50.0   60.0   0.0
50.0   90.0   0.0
0.0   90.0   0.0
50.0   90.0   16.666666666666668
0.0   60.0   16.666666666666668
0.0   90.0   16.666666666666668
50.0   90.0   16.666666666666668
0.0   90.0   0.0
0.0   60.0   16.666666666666668
50.0   90.0   16.666666666666668
50.0   60.0   16.666666666666668
50.0   60.0   0.0
0.0   60.0   16.666666666666668
50.0   90.0   16.666666666666668
50.0   60.0   0.0
0.0   90.0   0.0
0.0   60.0   16.666666666666668
50.0   60.0   16.666666666666668
0.0   90.0   16.666666666666668
0.0   60.0   33.333333333333336
50.0   60.0   16.666666666666668
50.0   90.0   16.666666666666668
0.0   90.0   16.666666666666668
50.0   90.0   33.333333333333336
0.0   60.0   33.333333333333336
0.0   90.0   33.333333333333336
50.0   90.0   33.333333333333336
0.0   90.0   16.666666666666668
0.0   60.0   33.333333333333336
50.0   90.0   33.333333333333336
50.0   60.0   33.333333333333336
50.0   60.0   16.666666666666668
0.0   60.0   33.333333333333336
50.0   90.0   33.333333333333336
50.0   60.0   16.666666666666668
0.0   90.0   16.666666666666668
0.0   60.0   33.333333333333336
50.0   60.0   33.333333333333336
0.0   90.0   33.333333333333336
0.0   60.0   50.0
50.0   60.0   33.333333333333336
50.0   90.0   33.333333333333336
0.0   90.0   33.333333333333336
50.0   90.0   50.0
0.0   60.0   50.0
0.0   90.0   50.0
50.0   90.0   50.0
0.0   90.0   33.333333333333336
0.0   60.0   50.0
50.0   90.0   50.0
50.0   60.0   50.0
50.0   60.0   33.333333333333336
0.0   60.0   50.0
50.0   90.0   50.0
50.0   60.0   33.333333333333336
0.0   90.0   33.333333333333336
0.0   90.0   0.0
50.0   90.0   0.0
0.0   120.0   0.0
0.0   90.0   16.666666666666668
50.0   90.0   0.0
50.0   120.0   0.0
0.0   120.0   0.0
50.0   120.0   16.666666666666668
0.0   90.0   16.666666666666668
0.0   120.0   16.666666666666668
50.0   120.0   16.666666666666668
0.0   120.0   0.0
0.0   90.0   16.666666666666668
50.0   120.0   16.666666666666668
50.0   90.0   16.666666666666668
50.0   90.0   0.0
0.0   90.0   16.666666666666668
50.0   120.0   16.666666666666668
50.0   90.0   0.0
0.0   120.0   0.0
0.0   90.0   16.666666666666668
50.0   90.0   16.666666666666668
0.0   120.0   16.666666666666668
0.0   90.0   33.333333333333336
50.0   90.0   16.666666666666668
50.0   120.0   16.666666666666668
0.0   120.0   16.666666666666668
50.0   120.0   33.333333333333336
0.0   90.0   33.333333333333336
0.0   120.0   33.333333333333336
50.0   120.0   33.333333333333336
0.0   120.0   16.666666666666668
0.0   90.0   33.333333333333336
50.0   120.0   33.333333333333336
50.0   90.0   33.333333333333336
50.0   90.0   16.666666666666668
0.0   90.0   33.333333333333336
50.0   120.0   33.333333333333336
50.0   90.0   16.666666666666668
0.0   120.0   16.666666666666668
0.0   90.0   33.333333333333336
50.0   90.0   33.333333333333336
0.0   120.0   33.333333333333336
0.0   90.0   50.0
50.0   90.0   33.333333333333336
50.0   120.0   33.333333333333336
0.0   120.0   33.333333333333336
50.0   120.0   50.0
0.0   90.0   50.0
0.0   120.0   50.0
50.0   120.0   50.0
0.0   120.0   33.333333333333336
0.0   90.0   50.0
50.0   120.0   50.0
50.0   90.0   50.0
50.0   90.0   33.333333333333336
0.0   90.0   50.0
50.0   120.0   50.0
50.0   90.0   33.333333333333336
0.0   120.0   33.333333333333336
0.0   120.0   0.0
50.0   120.0   0.0
0.0   150.0   0.0
0.0   120.0   16.666666666666668
50.0   120.0   0.0
50.0   150.0   0.0
0.0   150.0   0.0
50.0   150.0   16.666666666666668
0.0   120.0   16.666666666666668
0.0   150.0   16.666666666666668
50.0   150.0   16.666666666666668
0.0   150.0   0.0
0.0   120.0   16.666666666666668
50.0   150.0   16.666666666666668
50.0   120.0   16.666666666666668
50.0   120.0   0.0
0.0   120.0   16.666666666666668
50.0   150.0   16.666666666666668
50.0   120.0   0.0
0.0   150.0   0.0
0.0   120.0   16.666666666666668
50.0   120.0   16.666666666666668
0.0   150.0   16.666666666666668
0.0   120.0   33.333333333333336
50.0   120.0   16.666666666666668
50.0   150.0   16.666666666666668
0.0   150.0   16.666666666666668
50.0   150.0   33.333333333333336
0.0   120.0   33.333333333333336
0.0   150.0   33.333333333333336
50.0   150.0   33.333333333333336
0.0   150.0   16.666666666666668
0.0   120.0   33.333333333333336
50.0   150.0   33.333333333333336
50.0   120.0   33.333333333333336
50.0   120.0   16.666666666666668
0.0   120.0   33.333333333333336
50.0   150.0   33.333333333333336
50.0   120.0   16.666666666666668
0.0   150.0   16.666666666666668
0.0   120.0   33.333333333333336
50.0   120.0   33.333333333333336
0.0   150.0   33.333333333333336
0.0   120.0   50.0
50.0   120.0   33.333333333333336
50.0   150.0   33.333333333333336
0.0   150.0   33.333333333333336
50.0   150.0   50.0
0.0   120.0   50.0
0.0   150.0   50.0
50.0   150.0   50.0
0.0   150.0   33.333333333333336
0.0   120.0   50.0
50.0   150.0   50.0
50.0   120.0   50.0
50.0   120.0   33.333333333333336
0.0   120.0   50.0
50.0   150.0   50.0
50.0   120.0   33.333333333333336
0.0   150.0   33.333333333333336
50.0   0.0   0.0
100.0   0.0   0.0
50.0   30.0   0.0
50.0   0.0   16.666666666666668
100.0   0.0   0.0
100.0   30.0   0.0
50.0   30.0   0.0
100.0   30.0   16.666666666666668
50.0   0.0   16.666666666666668
50.0   30.0   16.666666666666668
100.0   30.0   16.666666666666668
50.0   30.0   0.0
50.0   0.0   16.666666666666668
100.0   30.0   16.666666666666668
100.0   0.0   16.666666666666668
100.0   0.0   0.0
50.0   0.0   16.666666666666668
100.0   30.0   16.666666666666668
100.0   0.0   0.0
50.0   30.0   0.0
50.0   0.0   16.666666666666668
100.0   0.0   16.666666666666668
50.0   30.0   16.666666666666668
50.0   0.0   33.333333333333336
100.0   0.0   16.666666666666668
100.0   30.0   16.666666666666668
50.0   30.0   16.666666666666668
100.0   30.0   33.333333333333336
50.0   0.0   33.333333333333336
50.0   30.0   33.333333333333336
100.0   30.0   33.333333333333336
50.0   30.0   16.666666666666668
50.0   0.0   33.333333333333336
100.0   30.0   33.333333333333336
100.0   0.0   33.333333333333336
100.0   0.0   16.666666666666668
50.0   0.0   33.333333333333336
100.0   30.0   33.333333333333336
100.0   0.0   16.666666666666668
50.0   30.0   16.666666666666668
50.0   0.0   33.333333333333336
100.0   0.0   33.333333333333336
50.0   30.0   33.333333333333336
50.0   0.0   50.0
100.0   0.0   33.333333333333336
100.0   30.0   33.333333333333336
50.0   30.0   33.333333333333336
100.0   30.0   50.0
50.0   0.0   50.0
50.0   30.0   50.0
100.0   30.0   50.0
50.0   30.0   33.333333333333336
50.0   0.0   50.0
100.0   30.0   50.0
100.0   0.0   50.0
100.0   0.0   33.333333333333336
50.0   0.0   50.0
100.0   30.0   50.0
100.0   0.0   33.333333333333336
50.0   30.0   33.333333333333336
50.0   30.0   0.0
100.0   30.0   0.0
50.0   60.0   0.0
50.0   30.0   16.666666666666668
100.0   30.0   0.0
100.0   60.0   0.0
50.0   60.0   0.0
100.0   60.0   16.666666666666668
50.0   30.0   16.666666666666668
50.0   60.0   16.666666666666668
100.0   60.0   16.666666666666668
50.0   60.0   0.0
50.0   30.0   16.666666666666668
100.0   60.0   16.666666666666668
100.0   30.0   16.666666666666668
100.0   30.0   0.0
50.0   30.0   16.666666666666668
100.0   60.0   16.666666666666668
100.0   30.0   0.0
50.0   60.0   0.0
50.0   30.0   16.666666666666668
100.0   30.0   16.666666666666668
50.0   60.0   16.666666666666668
50.0   30.0   33.333333333333336
100.0   30.0   16.666666666666668
100.0   60.0   16.666666666666668
50.0   60.0   16.666666666666668
100.0   60.0   33.333333333333336
50.0   30.0   33.333333333333336
50.0   60.0   33.333333333333336
100.0   60.0   33.333333333333336
50.0   60.0   16.666666666666668
50.0   30.0   33.333333333333336
100.0   60.0   33.333333333333336
100.0   30.0   33.333333333333336
100.0   30.0   16.666666666666668
50.0   30.0   33.333333333333336
100.0   60.0   33.333333333333336
100.0   30.0   16.666666666666668
50.0   60.0   16.666666666666668
50.0   30.0   33.333333333333336
100.0   30.0   33.333333333333336
50.0   60.0   33.333333333333336
50.0   30.0   50.0
100.0   30.0   33.333333333333336
100.0   60.0   33.333333333333336
50.0   60.0   33.333333333333336
100.0   60.0   50.0
50.0   30.0   50.0
50.0   60.0   50.0
100.0   60.0   50.0
50.0   60.0   33.333333333333336
50.0   30.0   50.0
100.0   60.0   50.0
100.0   30.0   50.0
100.0   30.0   33.333333333333336
50.0   30.0   50.0
100.0   60.0   50.0
100.0   30.0   33.333333333333336
50.0   60.0   33.333333333333336
50.0   60.0   0.0
100.0   60.0   0.0
50.0   90.0   0.0
50.0   60.0   16.666666666666668
100.0   60.0   0.0
100.0   90.0   0.0
50.0   90.0   0.0
100.0   90.0   16.666666666666668
50.0   60.0   16.666666666666668
50.0   90.0   16.666666666666668
100.0   90.0   16.666666666666668
50.0   90.0   0.0
50.0   60.0   16.666666666666668
100.0   90.0   16.666666666666668
100.0   60.0   16.666666666666668
100.0   60.0   0.0
50.0   60.0   16.666666666666668
100.0   90.0   16.666666666666668
100.0   60.0   0.0
50.0   90.0   0.0
50.0   60.0   16.666666666666668
100.0   60.0   16.666666666666668
50.0   90.0   16.666666666666668
50.0   60.0   33.333333333333336
100.0   60.0   16.666666666666668
100.0   90.0   16.666666666666668
50.0   90.0   16.666666666666668
100.0   90.0   33.333333333333336
50.0   60.0   33.333333333333336
50.0   90.0   33.333333333333336
100.0   90.0   33.333333333333336
50.0   90.0   16.666666666666668
50.0   60.0   33.333333333333336
100.0   90.0   33.333333333333336
100.0   60.0   33.333333333333336
100.0   60.0   16.666666666666668
50.0   60.0   33.333333333333336
100.0   90.0   33.333333333333336
100.0   60.0   16.666666666666668
50.0   90.0   16.666666666666668
50.0   60.0   33.333333333333336
100.0   60.0   33.333333333333336
50.0   90.0   33.333333333333336
50.0   60.0   50.0
100.0   60.0   33.333333333333336
100.0   90.0   33.333333333333336
50.0   90.0   33.333333333333336
100.0   90.0   50.0
50.0   60.0   50.0
50.0   90.0   50.0
100.0   90.0   50.0
50.0   90.0   33.333333333333336
50.0   60.0   50.0
100.0   90.0   50.0
100.0   60.0   50.0
100.0   60.0   33.333333333333336
50.0   60.0   50.0
100.0   90.0   50.0
100.0   60.0   33.333333333333336
50.0   90.0   33.333333333333336
50.0   90.0   0.0
100.0   90.0   0.0
50.0   120.0   0.0
50.0   90.0   16.666666666666668
100.0   90.0   0.0
100.0   120.0   0.0
50.0   120.0   0.0
100.0   120.0   16.666666666666668
50.0   90.0   16.666666666666668
50.0   120.0   16.666666666666668
100.0   120.0   16.666666666666668
50.0   120.0   0.0
50.0   90.0   16.666666666666668
100.0   120.0   16.666666666666668
100.0   90.0   16.666666666666668
100.0   90.0   0.0
50.0   90.0   16.666666666666668
100.0   120.0   16.666666666666668
100.0   90.0   0.0
50.0   120.0   0.0
50.0   90.0   16.666666666666668
100.0   90.0   16.666666666666668
50.0   120.0   16.666666666666668
50.0   90.0   33.333333333333336
100.0   90.0   16.666666666666668
100.0   120.0   16.666666666666668
50.0   120.0   16.666666666666668
100.0   120.0   33.333333333333336
50.0   90.0   33.333333333333336
50.0   120.0   33.333333333333336
100.0   120.0   33.333333333333336
50.0   120.0   16.666666666666668
50.0   90.0   33.333333333333336
100.0   120.0   33.333333333333336
100.0   90.0   33.333333333333336
100.0   90.0   16.666666666666668
50.0   90.0   33.333333333333336
100.0   120.0   33.333333333333336
100.0   90.0   16.666666666666668
50.0   120.0   16.666666666666668
50.0   90.0   33.333333333333336
100.0   90.0   33.333333333333336
50.0   120.0   33.333333333333336
50.0   90.0   50.0
100.0   90.0   33.333333333333336
100.0   120.0   33.333333333333336
50.0   120.0   33.333333333333336
100.0   120.0   50.0
50.0   90.0   50.0
50.0   120.0   50.0
100.0   120.0   50.0
50.0   120.0   33.333333333333336
50.0   90.0   50.0
100.0   120.0   50.0
100.0   90.0   50.0
100.0   90.0   33.333333333333336
50.0   90.0   50.0
100.0   120.0   50.0
100.0   90.0   33.333333333333336
50.0   120.0   33.333333333333336
50.0   120.0   0.0
100.0   120.0   0.0
50.0   150.0   0.0
50.0   120.0   16.666666666666668
100.0   120.0   0.0
100.0   150.0   0.0
50.0   150.0   0.0
100.0   150.0   16.666666666666668
50.0   120.0   16.666666666666668
50.0   150.0   16.666666666666668
100.0   150.0   16.666666666666668
50.0   150.0   0.0
50.0   120.0   16.666666666666668
100.0   150.0   16.666666666666668
100.0   120.0   16.666666666666668
100.0   120.0   0.0
50.0   120.0   16.666666666666668
100.0   150.0   16.666666666666668
100.0   120.0   0.0
50.0   150.0   0.0
50.0   120.0   16.666666666666668
100.0   120.0   16.666666666666668
50.0   150.0   16.666666666666668
50.0   120.0   33.333333333333336
100.0   120.0   16.666666666666668
100.0   150.0   16.666666666666668
50.0   150.0   16.666666666666668
100.0   150.0   33.333333333333336
50.0   120.0   33.333333333333336
50.0   150.0   33.333333333333336
100.0   150.0   33.333333333333336
50.0   150.0   16.666666666666668
50.0   120.0   33.333333333333336
100.0   150.0   33.333333333333336
100.0   120.0   33.333333333333336
100.0   120.0   16.666666666666668
50.0   120.0   33.333333333333336
100.0   150.0   33.333333333333336
100.0   120.0   16.666666666666668
50.0   150.0   16.666666666666668
50.0   120.0   33.333333333333336
100.0   120.0   33.333333333333336
50.0   150.0   33.333333333333336
50.0   120.0   50.0
100.0   120.0   33.333333333333336
100.0   150.0   33.333333333333336
50.0   150.0   33.333333333333336
100.0   150.0   50.0
50.0   120.0   50.0
50.0   150.0   50.0
100.0   150.0   50.0
50.0   150.0   33.333333333333336
50.0   120.0   50.0
100.0   150.0   50.0
100.0   120.0   50.0
100.0   120.0   33.333333333333336
50.0   120.0   50.0
100.0   150.0   50.0
100.0   120.0   33.333333333333336
50.0   150.0   33.333333333333336
100.0   0.0   0.0
150.0   0.0   0.0
100.0   30.0   0.0
100.0   0.0   16.666666666666668
150.0   0.0   0.0
150.0   30.0   0.0
100.0   30.0   0.0
150.0   30.0   16.666666666666668
100.0   0.0   16.666666666666668
100.0   30.0   16.666666666666668
150.0   30.0   16.666666666666668
100.0   30.0   0.0
100.0   0.0   16.666666666666668
150.0   30.0   16.666666666666668
150.0   0.0   16.666666666666668
150.0   0.0   0.0
100.0   0.0   16.666666666666668
150.0   30.0   16.666666666666668
150.0   0.0   0.0
100.0   30.0   0.0
100.0   0.0   16.666666666666668
150.0   0.0   16.666666666666668
100.0   30.0   16.666666666666668
100.0   0.0   33.333333333333336
150.0   0.0   16.666666666666668
150.0   30.0   16.666666666666668
100.0   30.0   16.666666666666668
150.0   30.0   33.333333333333336
100.0   0.0   33.333333333333336
100.0   30.0   33.333333333333336
150.0   30.0   33.333333333333336
100.0   30.0   16.666666666666668
100.0   0.0   33.333333333333336
150.0   30.0   33.333333333333336
150.0   0.0   33.333333333333336
150.0   0.0   16.666666666666668
100.0   0.0   33.333333333333336
150.0   30.0   33.333333333333336
150.0   0.0   16.666666666666668
100.0   30.0   16.666666666666668
100.0   0.0   33.333333333333336
150.0   0.0   33.333333333333336
100.0   30.0   33.333333333333336
100.0   0.0   50.0
150.0   0.0   33.333333333333336
150.0   30.0   33.333333333333336
100.0   30.0   33.333333333333336
150.0   30.0   50.0
100.0   0.0   50.0
100.0   30.0   50.0
150.0   30.0   50.0
100.0   30.0   33.333333333333336
100.0   0.0   50.0
150.0   30.0   50.0
150.0   0.0   50.0
150.0   0.0   33.333333333333336
100.0   0.0   50.0
150.0   30.0   50.0
150.0   0.0   33.333333333333336
100.0   30.0   33.333333333333336
100.0   30.0   0.0
150.0   30.0   0.0
100.0   60.0   0.0
100.0   30.0   16.666666666666668
150.0   30.0   0.0
150.0   60.0   0.0
100.0   60.0   0.0
150.0   60.0   16.666666666666668
100.0   30.0   16.666666666666668
100.0   60.0   16.666666666666668
150.0   60.0   16.666666666666668
100.0   60.0   0.0
100.0   30.0   16.666666666666668
150.0   60.0   16.666666666666668
150.0   30.0   16.666666666666668
150.0   30.0   0.0
100.0   30.0   16.666666666666668
150.0   60.0   16.666666666666668
150.0   30.0   0.0
100.0   60.0   0.0
100.0   30.0   16.666666666666668
150.0   30.0   16.666666666666668
100.0   60.0   16.666666666666668
100.0   30.0   33.333333333333336
150.0   30.0   16.666666666666668
150.0   60.0   16.666666666666668
100.0   60.0   16.666666666666668
150.0   60.0   33.333333333333336
100.0   30.0   33.333333333333336
100.0   60.0   33.333333333333336
150.0   60.0   33.333333333333336
100.0   60.0   16.666666666666668
100.0   30.0   33.333333333333336
150.0   60.0   33.333333333333336
150.0   30.0   33.333333333333336
150.0   30.0   16.666666666666668
100.0   30.0   33.333333333333336
150.0   60.0   33.333333333333336
150.0   30.0   16.666666666666668
100.0   60.0   16.666666666666668
100.0   30.0   33.333333333333336
150.0   30.0   33.333333333333336
100.0   60.0   33.333333333333336
100.0   30.0   50.0
150.0   30.0   33.333333333333336
150.0   60.0   33.333333333333336
100.0   60.0   33.333333333333336
150.0   60.0   50.0
100.0   30.0   50.0
100.0   60.0   50.0
150.0   60.0   50.0
100.0   60.0   33.333333333333336
100.0   30.0   50.0
150.0   60.0   50.0
150.0   30.0   50.0
150.0   30.0   33.333333333333336
100.0   30.0   50.0
150.0   60.0   50.0
150.0   30.0   33.333333333333336
100.0   60.0   33.333333333333336
100.0   60.0   0.0
150.0   60.0   0.0
100.0   90.0   0.0
100.0   60.0   16.666666666666668
150.0   60.0   0.0
150.0   90.0   0.0
100.0   90.0   0.0
150.0   90.0   16.666666666666668
100.0   60.0   16.666666666666668
100.0   90.0   16.666666666666668
150.0   90.0   16.666666666666668
100.0   90.0   0.0
100.0   60.0   16.666666666666668
150.0   90.0   16.666666666666668
150.0   60.0   16.666666666666668
150.0   60.0   0.0
100.0   60.0   16.666666666666668
150.0   90.0   16.666666666666668
150.0   60.0   0.0
100.0   90.0   0.0
100.0   60.0   16.666666666666668
150.0   60.0   16.666666666666668
100.0   90.0   16.666666666666668
100.0   60.0   33.333333333333336
150.0   60.0   16.666666666666668
150.0   90.0   16.666666666666668
100.0   90.0   16.666666666666668
150.0   90.0   33.333333333333336
100.0   60.0   33.333333333333336
100.0   90.0   33.333333333333336
150.0   90.0   33.333333333333336
100.0   90.0   16.666666666666668
100.0   60.0   33.333333333333336
150.0   90.0   33.333333333333336
150.0   60.0   33.333333333333336
150.0   60.0   16.666666666666668
100.0   60.0   33.333333333333336
150.0   90.0   33.333333333333336
150.0   60.0   16.666666666666668
100.0   90.0   16.666666666666668
100.0   60.0   33.333333333333336
150.0   60.0   33.333333333333336
100.0   90.0   33.333333333333336
100.0   60.0   50.0
150.0   60.0   33.333333333333336
150.0   90.0   33.333333333333336
100.0   90.0   33.333333333333336
150.0   90.0   50.0
100.0   60.0   50.0
100.0   90.0   50.0
150.0   90.0   50.0
100.0   90.0   33.333333333333336
100.0   60.0   50.0
150.0   90.0   50.0
150.0   60.0   50.0
150.0   60.0   33.333333333333336
100.0   60.0   50.0
150.0   90.0   50.0
150.0   60.0   33.333333333333336
100.0   90.0   33.333333333333336
100.0   90.0   0.0
150.0   90.0   0.0
100.0   120.0   0.0
100.0   90.0   16.666666666666668
150.0   90.0   0.0
150.0   120.0   0.0
100.0   120.0   0.0
150.0   120.0   16.666666666666668
100.0   90.0   16.666666666666668
100.0   120.0   16.666666666666668
150.0   120.0   16.666666666666668
100.0   120.0   0.0
100.0   90.0   16.666666666666668
150.0   120.0   16.666666666666668
150.0   90.0   16.666666666666668
150.0   90.0   0.0
100.0   90.0   16.666666666666668
150.0   120.0   16.666666666666668
150.0   90.0   0.0
100.0   120.0   0.0
100.0   90.0   16.666666666666668
150.0   90.0   16.666666666666668
100.0   120.0   16.666666666666668
100.0   90.0   33.333333333333336
150.0   90.0   16.666666666666668
150.0   120.0   16.666666666666668
100.0   120.0   16.666666666666668
150.0   120.0   33.333333333333336
100.0   90.0   33.333333333333336
100.0   120.0   33.333333333333336
150.0   120.0   33.333333333333336
100.0   120.0   16.666666666666668
100.0   90.0   33.333333333333336
150.0   120.0   33.333333333333336
150.0   90.0   33.333333333333336
150.0   90.0   16.666666666666668
100.0   90.0   33.333333333333336
150.0   120.0   33.333333333333336
150.0   90.0   16.666666666666668
100.0   120.0   16.666666666666668
100.0   90.0   33.333333333333336
150.0   90.0   33.333333333333336
100.0   120.0   33.333333333333336
100.0   90.0   50.0
150.0   90.0   33.333333333333336
150.0   120.0   33.333333333333336
100.0   120.0   33.333333333333336
150.0   120.0   50.0
100.0   90.0   50.0
100.0   120.0   50.0
150.0   120.0   50.0
100.0   120.0   33.333333333333336
100.0   90.0   50.0
150.0   120.0   50.0
150.0   90.0   50.0
150.0   90.0   33.333333333333336
100.0   90.0   50.0
150.0   120.0   50.0
150.0   90.0   33.333333333333336
100.0   120.0   33.333333333333336
100.0   120.0   0.0
150.0   120.0   0.0
100.0   150.0   0.0
100.0   120.0   16.666666666666668
150.0   120.0   0.0
150.0   150.0   0.0
100.0   150.0   0.0
150.0   150.0   16.666666666666668
100.0   120.0   16.666666666666668
100.0   150.0   16.666666666666668
150.0   150.0   16.666666666666668
100.0   150.0   0.0
100.0   120.0   16.666666666666668
150.0   150.0   16.666666666666668
150.0   120.0   16.666666666666668
150.0   120.0   0.0
100.0   120.0   16.666666666666668
150.0   150.0   16.666666666666668
150.0   120.0   0.0
100.0   150.0   0.0
100.0   120.0   16.666666666666668
150.0   120.0   16.666666666666668
100.0   150.0   16.666666666666668
100.0   120.0   33.333333333333336
150.0   120.0   16.666666666666668
150.0   150.0   16.666666666666668
100.0   150.0   16.666666666666668
150.0   150.0   33.333333333333336
100.0   120.0   33.333333333333336
100.0   150.0   33.333333333333336
150.0   150.0   33.333333333333336
100.0   150.0   16.666666666666668
100.0   120.0   33.333333333333336
150.0   150.0   33.333333333333336
150.0   120.0   33.333333333333336
150.0   120.0   16.666666666666668
100.0   120.0   33.333333333333336
150.0   150.0   33.333333333333336
150.0   120.0   16.666666666666668
100.0   150.0   16.666666666666668
100.0   120.0   33.333333333333336
150.0   120.0   33.333333333333336
100.0   150.0   33.333333333333336
100.0   120.0   50.0
150.0   120.0   33.333333333333336
150.0   150.0   33.333333333333336
100.0   150.0   33.333333333333336
150.0   150.0   50.0
100.0   120.0   50.0
100.0   150.0   50.0
150.0   150.0   50.0
100.0   150.0   33.333333333333336
100.0   120.0   50.0
150.0   150.0   50.0
150.0   120.0   50.0
150.0   120.0   33.333333333333336
100.0   120.0   50.0
150.0   150.0   50.0
150.0   120.0   33.333333333333336
100.0   150.0   33.333333333333336
150.0   0.0   0.0
200.0   0.0   0.0
150.0   30.0   0.0
150.0   0.0   16.666666666666668
200.0   0.0   0.0
200.0   30.0   0.0
150.0   30.0   0.0
200.0   30.0   16.666666666666668
150.0   0.0   16.666666666666668
150.0   30.0   16.666666666666668
200.0   30.0   16.666666666666668
150.0   30.0   0.0
150.0   0.0   16.666666666666668
200.0   30.0   16.666666666666668
200.0   0.0   16.666666666666668
200.0   0.0   0.0
150.0   0.0   16.666666666666668
200.0   30.0   16.666666666666668
200.0   0.0   0.0
150.0   30.0   0.0
150.0   0.0   16.666666666666668
200.0   0.0   16.666666666666668
150.0   30.0   16.666666666666668
150.0   0.0   33.333333333333336
200.0   0.0   16.666666666666668
200.0   30.0   16.666666666666668
150.0   30.0   16.666666666666668
200.0   30.0   33.333333333333336
150.0   0.0   33.333333333333336
150.0   30.0   33.333333333333336
200.0   30.0   33.333333333333336
150.0   30.0   16.666666666666668
150.0   0.0   33.333333333333336
200.0   30.0   33.333333333333336
200.0   0.0   33.333333333333336
200.0   0.0   16.666666666666668
150.0   0.0   33.333333333333336
200.0   30.0   33.333333333333336
200.0   0.0   16.666666666666668
150.0   30.0   16.666666666666668
150.0   0.0   33.333333333333336
200.0   0.0   33.333333333333336
150.0   30.0   33.333333333333336
150.0   0.0   50.0
200.0   0.0   33.333333333333336
200.0   30.0   33.333333333333336
150.0   30.0   33.333333333333336
200.0   30.0   50.0
150.0   0.0   50.0
150.0   30.0   50.0
200.0   30.0   50.0
150.0   30.0   33.333333333333336
150.0   0.0   50.0
200.0   30.0   50.0
200.0   0.0   50.0
200.0   0.0   33.333333333333336
150.0   0.0   50.0
200.0   30.0   50.0
200.0   0.0   33.333333333333336
150.0   30.0   33.333333333333336
150.0   30.0   0.0
200.0   30.0   0.0
150.0   60.0   0.0
150.0   30.0   16.666666666666668
200.0   30.0   0.0
200.0   60.0   0.0
150.0   60.0   0.0
200.0   60.0   16.666666666666668
150.0   30.0   16.666666666666668
150.0   60.0   16.666666666666668
200.0   60.0   16.666666666666668
150.0   60.0   0.0
150.0   30.0   16.666666666666668
200.0   60.0   16.666666666666668
200.0   30.0   16.666666666666668
200.0   30.0   0.0
150.0   30.0   16.666666666666668
200.0   60.0   16.666666666666668
200.0   30.0   0.0
150.0   60.0   0.0
150.0   30.0   16.666666666666668
200.0   30.0   16.666666666666668
150.0   60.0   16.666666666666668
150.0   30.0   33.333333333333336
200.0   30.0   16.666666666666668
200.0   60.0   16.666666666666668
150.0   60.0   16.666666666666668
200.0   60.0   33.333333333333336
150.0   30.0   33.333333333333336
150.0   60.0   33.333333333333336
200.0   60.0   33.333333333333336
150.0   60.0   16.666666666666668
150.0   30.0   33.333333333333336
200.0   60.0   33.333333333333336
200.0   30.0   33.333333333333336
200.0   30.0   16.666666666666668
150.0   30.0   33.333333333333336
200.0   60.0   33.333333333333336
200.0   30.0   16.666666666666668
150.0   60.0   16.666666666666668
150.0   30.0   33.333333333333336
200.0   30.0   33.333333333333336
150.0   60.0   33.333333333333336
150.0   30.0   50.0
200.0   30.0   33.333333333333336
200.0   60.0   33.333333333333336
150.0   60.0   33.333333333333336
200.0   60.0   50.0
150.0   30.0   50.0
150.0   60.0   50.0
200.0   60.0   50.0
150.0   60.0   33.333333333333336
150.0   30.0   50.0
200.0   60.0   50.0
200.0   30.0   50.0
200.0   30.0   33.333333333333336
150.0   30.0   50.0
200.0   60.0   50.0
200.0   30.0   33.333333333333336
150.0   60.0   33.333333333333336
150.0   60.0   0.0
200.0   60.0   0.0
150.0   90.0   0.0
150.0   60.0   16.666666666666668
200.0   60.0   0.0
200.0   90.0   0.0
150.0   90.0   0.0
200.0   90.0   16.666666666666668
150.0   60.0   16.666666666666668
150.0   90.0   16.666666666666668
200.0   90.0   16.666666666666668
150.0   90.0   0.0
150.0   60.0   16.666666666666668
200.0   90.0   16.666666666666668
200.0   60.0   16.666666666666668
200.0   60.0   0.0
150.0   60.0   16.666666666666668
200.0   90.0   16.666666666666668
200.0   60.0   0.0
150.0   90.0   0.0
150.0   60.0   16.666666666666668
200.0   60.0   16.666666666666668
150.0   90.0   16.666666666666668
150.0   60.0   33.333333333333336
200.0   60.0   16.666666666666668
200.0   90.0   16.666666666666668
150.0   90.0   16.666666666666668
200.0   90.0   33.333333333333336
150.0   60.0   33.333333333333336
150.0   90.0   33.333333333333336
200.0   90.0   33.333333333333336
150.0   90.0   16.666666666666668
150.0   60.0   33.333333333333336
200.0   90.0   33.333333333333336
200.0   60.0   33.333333333333336
200.0   60.0   16.666666666666668
150.0   60.0   33.333333333333336
200.0   90.0   33.333333333333336
200.0   60.0   16.666666666666668
150.0   90.0   16.666666666666668
150.0   60.0   33.333333333333336
200.0   60.0   33.333333333333336
150.0   90.0   33.333333333333336
150.0   60.0   50.0
200.0   60.0   33.333333333333336
200.0   90.0   33.333333333333336
150.0   90.0   33.333333333333336
200.0   90.0   50.0
150.0   60.0   50.0
150.0   90.0   50.0
200.0   90.0   50.0
150.0   90.0   33.333333333333336
150.0   60.0   50.0
200.0   90.0   50.0
200.0   60.0   50.0
200.0   60.0   33.333333333333336
150.0   60.0   50.0
200.0   90.0   50.0
200.0   60.0   33.333333333333336
150.0   90.0   33.333333333333336
150.0   90.0   0.0
200.0   90.0   0.0
150.0   120.0   0.0
150.0   90.0   16.666666666666668
200.0   90.0   0.0
200.0   120.0   0.0
150.0   120.0   0.0
200.0   120.0   16.666666666666668
150.0   90.0   16.666666666666668
150.0   120.0   16.666666666666668
200.0   120.0   16.666666666666668
150.0   120.0   0.0
150.0   90.0   16.666666666666668
200.0   120.0   16.666666666666668
200.0   90.0   16.666666666666668
200.0   90.0   0.0
150.0   90.0   16.666666666666668
200.0   120.0   16.666666666666668
200.0   90.0   0.0
150.0   120.0   0.0
150.0   90.0   16.666666666666668
200.0   90.0   16.666666666666668
150.0   120.0   16.666666666666668
150.0   90.0   33.333333333333336
200.0   90.0   16.666666666666668
200.0   120.0   16.666666666666668
150.0   120.0   16.666666666666668
200.0   120.0   33.333333333333336
150.0   90.0   33.333333333333336
150.0   120.0   33.333333333333336
200.0   120.0   33.333333333333336
150.0   120.0   16.666666666666668
150.0   90.0   33.333333333333336
200.0   120.0   33.333333333333336
200.0   90.0   33.333333333333336
200.0   90.0   16.666666666666668
150.0   90.0   33.333333333333336
200.0   120.0   33.333333333333336
200.0   90.0   16.666666666666668
150.0   120.0   16.666666666666668
150.0   90.0   33.333333333333336
200.0   90.0   33.333333333333336
150.0   120.0   33.333333333333336
150.0   90.0   50.0
200.0   90.0   33.333333333333336
200.0   120.0   33.333333333333336
150.0   120.0   33.333333333333336
200.0   120.0   50.0
150.0   90.0   50.0
150.0   120.0   50.0
200.0   120.0   50.0
150.0   120.0   33.333333333333336
150.0   90.0   50.0
200.0   120.0   50.0
200.0   90.0   50.0
200.0   90.0   33.333333333333336
150.0   90.0   50.0
200.0   120.0   50.0
200.0   90.0   33.333333333333336
150.0   120.0   33.333333333333336
150.0   120.0   0.0
200.0   120.0   0.0
150.0   150.0   0.0
150.0   120.0   16.666666666666668
200.0   120.0   0.0
200.0   150.0   0.0
150.0   150.0   0.0
200.0   150.0   16.666666666666668
150.0   120.0   16.666666666666668
150.0   150.0   16.666666666666668
200.0   150.0   16.666666666666668
150.0   150.0   0.0
150.0   120.0   16.666666666666668
200.0   150.0   16.666666666666668
200.0   120.0   16.666666666666668
200.0   120.0   0.0
150.0   120.0   16.666666666666668
200.0   150.0   16.666666666666668
200.0   120.0   0.0
150.0   150.0   0.0
150.0   120.0   16.666666666666668
200.0   120.0   16.666666666666668
150.0   150.0   16.666666666666668
150.0   120.0   33.333333333333336
200.0   120.0   16.666666666666668
200.0   150.0   16.666666666666668
150.0   150.0   16.666666666666668
200.0   150.0   33.333333333333336
150.0   120.0   33.333333333333336
150.0   150.0   33.333333333333336
200.0   150.0   33.333333333333336
150.0   150.0   16.666666666666668
150.0   120.0   33.333333333333336
200.0   150.0   33.333333333333336
200.0   120.0   33.333333333333336
200.0   120.0   16.666666666666668
150.0   120.0   33.333333333333336
200.0   150.0   33.333333333333336
200.0   120.0   16.666666666666668
150.0   150.0   16.666666666666668
150.0   120.0   33.333333333333336
200.0   120.0   33.333333333333336
150.0   150.0   33.333333333333336
150.0   120.0   50.0
200.0   120.0   33.333333333333336
200.0   150.0   33.333333333333336
150.0   150.0   33.333333333333336
200.0   150.0   50.0
150.0   120.0   50.0
150.0   150.0   50.0
200.0   150.0   50.0
150.0   150.0   33.333333333333336
150.0   120.0   50.0
200.0   150.0   50.0
200.0   120.0   50.0
200.0   120.0   33.333333333333336
150.0   120.0   50.0
200.0   150.0   50.0
200.0   120.0   33.333333333333336
150.0   150.0   33.333333333333336
200.0   0.0   0.0
250.0   0.0   0.0
200.0   30.0   0.0
200.0   0.0   16.666666666666668
250.0   0.0   0.0
250.0   30.0   0.0
200.0   30.0   0.0
250.0   30.0   16.666666666666668
200.0   0.0   16.666666666666668
200.0   30.0   16.666666666666668
250.0   30.0   16.666666666666668
200.0   30.0   0.0
200.0   0.0   16.666666666666668
250.0   30.0   16.666666666666668
250.0   0.0   16.666666666666668
250.0   0.0   0.0
200.0   0.0   16.666666666666668
250.0   30.0   16.666666666666668
250.0   0.0   0.0
200.0   30.0   0.0
200.0   0.0   16.666666666666668
250.0   0.0   16.666666666666668
200.0   30.0   16.666666666666668
200.0   0.0   33.333333333333336
250.0   0.0   16.666666666666668
250.0   30.0   16.666666666666668
200.0   30.0   16.666666666666668
250.0   30.0   33.333333333333336
200.0   0.0   33.333333333333336
200.0   30.0   33.333333333333336
250.0   30.0   33.333333333333336
200.0   30.0   16.666666666666668
200.0   0.0   33.333333333333336
250.0   30.0   33.333333333333336
250.0   0.0   33.333333333333336
250.0   0.0   16.666666666666668
200.0   0.0   33.333333333333336
250.0   30.0   33.333333333333336
250.0   0.0   16.666666666666668
200.0   30.0   16.666666666666668
200.0   0.0   33.333333333333336
250.0   0.0   33.333333333333336
200.0   30.0   33.333333333333336
200.0   0.0   50.0
250.0   0.0   33.333333333333336
250.0   30.0   33.333333333333336
200.0   30.0   33.333333333333336
250.0   30.0   50.0
200.0   0.0   50.0
200.0   30.0   50.0
250.0   30.0   50.0
200.0   30.0   33.333333333333336
200.0   0.0   50.0
250.0   30.0   50.0
250.0   0.0   50.0
250.0   0.0   33.333333333333336
200.0   0.0   50.0
250.0   30.0   50.0
250.0   0.0   33.333333333333336
200.0   30.0   33.333333333333336
200.0   30.0   0.0
250.0   30.0   0.0
200.0   60.0   0.0
200.0   30.0   16.666666666666668
250.0   30.0   0.0
250.0   60.0   0.0
200.0   60.0   0.0
250.0   60.0   16.666666666666668
200.0   30.0   16.666666666666668
200.0   60.0   16.666666666666668
250.0   60.0   16.666666666666668
200.0   60.0   0.0
200.0   30.0   16.666666666666668
250.0   60.0   16.666666666666668
250.0   30.0   16.666666666666668
250.0   30.0   0.0
200.0   30.0   16.666666666666668
250.0   60.0   16.666666666666668
250.0   30.0   0.0
200.0   60.0   0.0
200.0   30.0   16.666666666666668
250.0   30.0   16.666666666666668
200.0   60.0   16.666666666666668
200.0   30.0   33.333333333333336
250.0   30.0   16.666666666666668
250.0   60.0   16.666666666666668
200.0   60.0   16.666666666666668
250.0   60.0   33.333333333333336
200.0   30.0   33.333333333333336
200.0   60.0   33.333333333333336
250.0   60.0   33.333333333333336
200.0   60.0   16.666666666666668
200.0   30.0   33.333333333333336
250.0   60.0   33.333333333333336
250.0   30.0   33.333333333333336
250.0   30.0   16.666666666666668
200.0   30.0   33.333333333333336
250.0   60.0   33.333333333333336
250.0   30.0   16.666666666666668
200.0   60.0   16.666666666666668
200.0   30.0   33.333333333333336
250.0   30.0   33.333333333333336
200.0   60.0   33.333333333333336
200.0   30.0   50.0
250.0   30.0   33.333333333333336
250.0   60.0   33.333333333333336
200.0   60.0   33.333333333333336
250.0   60.0   50.0
200.0   30.0   50.0
200.0   60.0   50.0
250.0   60.0   50.0
200.0   60.0   33.333333333333336
200.0   30.0   50.0
250.0   60.0   50.0
250.0   30.0   50.0
250.0   30.0   33.333333333333336
200.0   30.0   50.0
250.0   60.0   50.0
250.0   30.0   33.333333333333336
200.0   60.0   33.333333333333336
200.0   60.0   0.0
250.0   60.0   0.0
200.0   90.0   0.0
200.0   60.0   16.666666666666668
250.0   60.0   0.0
250.0   90.0   0.0
200.0   90.0   0.0
250.0   90.0   16.666666666666668
200.0   60.0   16.666666666666668
200.0   90.0   16.666666666666668
250.0   90.0   16.666666666666668
200.0   90.0   0.0
200.0   60.0   16.666666666666668
250.0   90.0   16.666666666666668
250.0   60.0   16.666666666666668
250.0   60.0   0.0
200.0   60.0   16.666666666666668
250.0   90.0   16.666666666666668
250.0   60.0   0.0
200.0   90.0   0.0
200.0   60.0   16.666666666666668
250.0   60.0   16.666666666666668
200.0   90.0   16.666666666666668
200.0   60.0   33.333333333333336
250.0   60.0   16.666666666666668
250.0   90.0   16.666666666666668
200.0   90.0   16.666666666666668
250.0   90.0   33.333333333333336
200.0   60.0   33.333333333333336
200.0   90.0   33.333333333333336
250.0   90.0   33.333333333333336
200.0   90.0   16.666666666666668
200.0   60.0   33.333333333333336
250.0   90.0   33.333333333333336
250.0   60.0   33.333333333333336
250.0   60.0   16.666666666666668
200.0   60.0   33.333333333333336
250.0   90.0   33.333333333333336
250.0   60.0   16.666666666666668
200.0   90.0   16.666666666666668
200.0   60.0   33.333333333333336
250.0   60.0   33.333333333333336
200.0   90.0   33.333333333333336
200.0   60.0   50.0
250.0   60.0   33.333333333333336
250.0   90.0   33.333333333333336
200.0   90.0   33.333333333333336
250.0   90.0   50.0
200.0   60.0   50.0
200.0   90.0   50.0
250.0   90.0   50.0
200.0   90.0   33.333333333333336
200.0   60.0   50.0
250.0   90.0   50.0
250.0   60.0   50.0
250.0   60.0   33.333333333333336
200.0   60.0   50.0
250.0   90.0   50.0
250.0   60.0   33.333333333333336
200.0   90.0   33.333333333333336
200.0   90.0   0.0
250.0   90.0   0.0
200.0   120.0   0.0
200.0   90.0   16.666666666666668
250.0   90.0   0.0
250.0   120.0   0.0
200.0   120.0   0.0
250.0   120.0   16.666666666666668
200.0   90.0   16.666666666666668
200.0   120.0   16.666666666666668
250.0   120.0   16.666666666666668
200.0   120.0   0.0
200.0   90.0   16.666666666666668
250.0   120.0   16.666666666666668
250.0   90.0   16.666666666666668
250.0   90.0   0.0
200.0   90.0   16.666666666666668
250.0   120.0   16.666666666666668
250.0   90.0   0.0
200.0   120.0   0.0
200.0   90.0   16.666666666666668
250.0   90.0   16.666666666666668
200.0   120.0   16.666666666666668
200.0   90.0   33.333333333333336
250.0   90.0   16.666666666666668
250.0   120.0   16.666666666666668
200.0   120.0   16.666666666666668
250.0   120.0   33.333333333333336
200.0   90.0   33.333333333333336
200.0   120.0   33.333333333333336
250.0   120.0   33.333333333333336
200.0   120.0   16.666666666666668
200.0   90.0   33.333333333333336
250.0   120.0   33.333333333333336
250.0   90.0   33.333333333333336
250.0   90.0   16.666666666666668
200.0   90.0   33.333333333333336
250.0   120.0   33.333333333333336
250.0   90.0   16.666666666666668
200.0   120.0   16.666666666666668
200.0   90.0   33.333333333333336
250.0   90.0   33.333333333333336
200.0   120.0   33.333333333333336
200.0   90.0   50.0
250.0   90.0   33.333333333333336
250.0   120.0   33.333333333333336
200.0   120.0   33.333333333333336
250.0   120.0   50.0
200.0   90.0   50.0
200.0   120.0   50.0
250.0   120.0   50.0
200.0   120.0   33.333333333333336
200.0   90.0   50.0
250.0   120.0   50.0
250.0   90.0   50.0
250.0   90.0   33.333333333333336
200.0   90.0   50.0
250.0   120.0   50.0
250.0   90.0   33.333333333333336
200.0   120.0   33.333333333333336
200.0   120.0   0.0
250.0   120.0   0.0
200.0   150.0   0.0
200.0   120.0   16.666666666666668
250.0   120.0   0.0
250.0   150.0   0.0
200.0   150.0   0.0
250.0   150.0   16.666666666666668
200.0   120.0   16.666666666666668
200.0   150.0   16.666666666666668
250.0   150.0   16.666666666666668
200.0   150.0   0.0
200.0   120.0   16.666666666666668
250.0   150.0   16.666666666666668
250.0   120.0   16.666666666666668
250.0   120.0   0.0
200.0   120.0   16.666666666666668
250.0   150.0   16.666666666666668
250.0   120.0   0.0
200.0   150.0   0.0
200.0   120.0   16.666666666666668
250.0   120.0   16.666666666666668
200.0   150.0   16.666666666666668
200.0   120.0   33.333333333333336
250.0   120.0   16.666666666666668
250.0   150.0   16.666666666666668
200.0   150.0   16.666666666666668
250.0   150.0   33.333333333333336
200.0   120.0   33.333333333333336
200.0   150.0   33.333333333333336
250.0   150.0   33.333333333333336
200.0   150.0   16.666666666666668
200.0   120.0   33.333333333333336
250.0   150.0   33.333333333333336
250.0   120.0   33.333333333333336
250.0   120.0   16.666666666666668
200.0   120.0   33.333333333333336
250.0   150.0   33.333333333333336
250.0   120.0   16.666666666666668
200.0   150.0   16.666666666666668
200.0   120.0   33.333333333333336
250.0   120.0   33.333333333333336
200.0   150.0   33.333333333333336
200.0   120.0   50.0
250.0   120.0   33.333333333333336
250.0   150.0   33.333333333333336
200.0   150.0   33.333333333333336
250.0   150.0   50.0
200.0   120.0   50.0
200.0   150.0   50.0
250.0   150.0   50.0
200.0   150.0   33.333333333333336
200.0   120.0   50.0
250.0   150.0   50.0
250.0   120.0   50.0
250.0   120.0   33.333333333333336
200.0   120.0   50.0
250.0   150.0   50.0
250.0   120.0   33.333333333333336
200.0   150.0   33.333333333333336
250.0   0.0   0.0
300.0   0.0   0.0
250.0   30.0   0.0
250.0   0.0   16.666666666666668
300.0   0.0   0.0
300.0   30.0   0.0
250.0   30.0   0.0
300.0   30.0   16.666666666666668
250.0   0.0   16.666666666666668
250.0   30.0   16.666666666666668
300.0   30.0   16.666666666666668
250.0   30.0   0.0
250.0   0.0   16.666666666666668
300.0   30.0   16.666666666666668
300.0   0.0   16.666666666666668
300.0   0.0   0.0
250.0   0.0   16.666666666666668
300.0   30.0   16.666666666666668
300.0   0.0   0.0
250.0   30.0   0.0
250.0   0.0   16.666666666666668
300.0   0.0   16.666666666666668
250.0   30.0   16.666666666666668
250.0   0.0   33.333333333333336
300.0   0.0   16.666666666666668
300.0   30.0   16.666666666666668
250.0   30.0   16.666666666666668
300.0   30.0   33.333333333333336
250.0   0.0   33.333333333333336
250.0   30.0   33.333333333333336
300.0   30.0   33.333333333333336
250.0   30.0   16.666666666666668
250.0   0.0   33.333333333333336
300.0   30.0   33.333333333333336
300.0   0.0   33.333333333333336
300.0   0.0   16.666666666666668
250.0   0.0   33.333333333333336
300.0   30.0   33.333333333333336
300.0   0.0   16.666666666666668
250.0   30.0   16.666666666666668
250.0   0.0   33.333333333333336
300.0   0.0   33.333333333333336
250.0   30.0   33.333333333333336
250.0   0.0   50.0
300.0   0.0   33.333333333333336
300.0   30.0   33.333333333333336
250.0   30.0   33.333333333333336
300.0   30.0   50.0
250.0   0.0   50.0
250.0   30.0   50.0
300.0   30.0   50.0
250.0   30.0   33.333333333333336
250.0   0.0   50.0
300.0   30.0   50.0
300.0   0.0   50.0
300.0   0.0   33.333333333333336
250.0   0.0   50.0
300.0   30.0   50.0
300.0   0.0   33.333333333333336
250.0   30.0   33.333333333333336
250.0   30.0   0.0
300.0   30.0   0.0
250.0   60.0   0.0
250.0   30.0   16.666666666666668
300.0   30.0   0.0
300.0   60.0   0.0
250.0   60.0   0.0
300.0   60.0   16.666666666666668
250.0   30.0   16.666666666666668
250.0   60.0   16.666666666666668
300.0   60.0   16.666666666666668
250.0   60.0   0.0
250.0   30.0   16.666666666666668
300.0   60.0   16.666666666666668
300.0   30.0   16.666666666666668
300.0   30.0   0.0
250.0   30.0   16.666666666666668
300.0   60.0   16.666666666666668
300.0   30.0   0.0
250.0   60.0   0.0
250.0   30.0   16.666666666666668
300.0   30.0   16.666666666666668
250.0   60.0   16.666666666666668
250.0   30.0   33.333333333333336
300.0   30.0   16.666666666666668
300.0   60.0   16.666666666666668
250.0   60.0   16.666666666666668
300.0   60.0   33.333333333333336
250.0   30.0   33.333333333333336
250.0   60.0   33.333333333333336
300.0   60.0   33.333333333333336
250.0   60.0   16.666666666666668
250.0   30.0   33.333333333333336
300.0   60.0   33.333333333333336
300.0   30.0   33.333333333333336
300.0   30.0   16.666666666666668
250.0   30.0   33.333333333333336
300.0   60.0   33.333333333333336
300.0   30.0   16.666666666666668
250.0   60.0   16.666666666666668
250.0   30.0   33.333333333333336
300.0   30.0   33.333333333333336
250.0   60.0   33.333333333333336
250.0   30.0   50.0
300.0   30.0   33.333333333333336
300.0   60.0   33.333333333333336
250.0   60.0   33.333333333333336
300.0   60.0   50.0
250.0   30.0   50.0
250.0   60.0   50.0
300.0   60.0   50.0
250.0   60.0   33.333333333333336
250.0   30.0   50.0
300.0   60.0   50.0
300.0   30.0   50.0
300.0   30.0   33.333333333333336
250.0   30.0   50.0
300.0   60.0   50.0
300.0   30.0   33.333333333333336
250.0   60.0   33.333333333333336
250.0   60.0   0.0
300.0   60.0   0.0
250.0   90.0   0.0
250.0   60.0   16.666666666666668
300.0   60.0   0.0
300.0   90.0   0.0
250.0   90.0   0.0
300.0   90.0   16.666666666666668
250.0   60.0   16.666666666666668
250.0   90.0   16.666666666666668
300.0   90.0   16.666666666666668
250.0   90.0   0.0
250.0   60.0   16.666666666666668
300.0   90.0   16.666666666666668
300.0   60.0   16.666666666666668
300.0   60.0   0.0
250.0   60.0   16.666666666666668
300.0   90.0   16.666666666666668
300.0   60.0   0.0
250.0   90.0   0.0
250.0   60.0   16.666666666666668
300.0   60.0   16.666666666666668
250.0   90.0   16.666666666666668
250.0   60.0   33.333333333333336
300.0   60.0   16.666666666666668
300.0   90.0   16.666666666666668
250.0   90.0   16.666666666666668
300.0   90.0   33.333333333333336
250.0   60.0   33.333333333333336
250.0   90.0   33.333333333333336
300.0   90.0   33.333333333333336
250.0   90.0   16.666666666666668
250.0   60.0   33.333333333333336
300.0   90.0   33.333333333333336
300.0   60.0   33.333333333333336
300.0   60.0   16.666666666666668
250.0   60.0   33.333333333333336
300.0   90.0   33.333333333333336
300.0   60.0   16.666666666666668
250.0   90.0   16.666666666666668
250.0   60.0   33.333333333333336
300.0   60.0   33.333333333333336
250.0   90.0   33.333333333333336
250.0   60.0   50.0
300.0   60.0   33.333333333333336
300.0   90.0   33.333333333333336
250.0   90.0   33.333333333333336
300.0   90.0   50.0
250.0   60.0   50.0
250.0   90.0   50.0
300.0   90.0   50.0
250.0   90.0   33.333333333333336
250.0   60.0   50.0
300.0   90.0   50.0
300.0   60.0   50.0
300.0   60.0   33.333333333333336
250.0   60.0   50.0
300.0   90.0   50.0
300.0   60.0   33.333333333333336
250.0   90.0   33.333333333333336
250.0   90.0   0.0
300.0   90.0   0.0
250.0   120.0   0.0
250.0   90.0   16.666666666666668
300.0   90.0   0.0
300.0   120.0   0.0
250.0   120.0   0.0
300.0   120.0   16.666666666666668
250.0   90.0   16.666666666666668
250.0   120.0   16.666666666666668
300.0   120.0   16.666666666666668
250.0   120.0   0.0
250.0   90.0   16.666666666666668
300.0   120.0   16.666666666666668
300.0   90.0   16.666666666666668
300.0   90.0   0.0
250.0   90.0   16.666666666666668
300.0   120.0   16.666666666666668
300.0   90.0   0.0
250.0   120.0   0.0
250.0   90.0   16.666666666666668
300.0   90.0   16.666666666666668
250.0   120.0   16.666666666666668
250.0   90.0   33.333333333333336
300.0   90.0   16.666666666666668
300.0   120.0   16.666666666666668
250.0   120.0   16.666666666666668
300.0   120.0   33.333333333333336
250.0   90.0   33.333333333333336
250.0   120.0   33.333333333333336
300.0   120.0   33.333333333333336
250.0   120.0   16.666666666666668
250.0   90.0   33.333333333333336
300.0   120.0   33.333333333333336
300.0   90.0   33.333333333333336
300.0   90.0   16.666666666666668
250.0   90.0   33.333333333333336
300.0   120.0   33.333333333333336
300.0   90.0   16.666666666666668
250.0   120.0   16.666666666666668
250.0   90.0   33.333333333333336
300.0   90.0   33.333333333333336
250.0   120.0   33.333333333333336
250.0   90.0   50.0
300.0   90.0   33.333333333333336
300.0   120.0   33.333333333333336
250.0   120.0   33.333333333333336
300.0   120.0   50.0
250.0   90.0   50.0
250.0   120.0   50.0
300.0   120.0   50.0
250.0   120.0   33.333333333333336
250.0   90.0   50.0
300.0   120.0   50.0
300.0   90.0   50.0
300.0   90.0   33.333333333333336
250.0   90.0   50.0
300.0   120.0   50.0
300.0   90.0   33.333333333333336
250.0   120.0   33.333333333333336
250.0   120.0   0.0
300.0   120.0   0.0
250.0   150.0   0.0
250.0   120.0   16.666666666666668
300.0   120.0   0.0
300.0   150.0   0.0
250.0   150.0   0.0
300.0   150.0   16.666666666666668
250.0   120.0   16.666666666666668
250.0   150.0   16.666666666666668
300.0   150.0   16.666666666666668
250.0   150.0   0.0
250.0   120.0   16.666666666666668
300.0   150.0   16.666666666666668
300.0   120.0   16.666666666666668
300.0   120.0   0.0
250.0   120.0   16.666666666666668
300.0   150.0   16.666666666666668
300.0   120.0   0.0
250.0   150.0   0.0
250.0   120.0   16.666666666666668
300.0   120.0   16.666666666666668
250.0   150.0   16.666666666666668
250.0   120.0   33.333333333333336
300.0   120.0   16.666666666666668
300.0   150.0   16.666666666666668
250.0   150.0   16.666666666666668
300.0   150.0   33.333333333333336
250.0   120.0   33.333333333333336
250.0   150.0   33.333333333333336
300.0   150.0   33.333333333333336
250.0   150.0   16.666666666666668
250.0   120.0   33.333333333333336
300.0   150.0   33.333333333333336
300.0   120.0   33.333333333333336
300.0   120.0   16.666666666666668
250.0   120.0   33.333333333333336
300.0   150.0   33.333333333333336
300.0   120.0   16.666666666666668
250.0   150.0   16.666666666666668
250.0   120.0   33.333333333333336
300.0   120.0   33.333333333333336
250.0   150.0   33.333333333333336
250.0   120.0   50.0
300.0   120.0   33.333333333333336
300.0   150.0   33.333333333333336
250.0   150.0   33.333333333333336
300.0   150.0   50.0
250.0   120.0   50.0
250.0   150.0   50.0
300.0   150.0   50.0
250.0   150.0   33.333333333333336
250.0   120.0   50.0
300.0   150.0   50.0
300.0   120.0   50.0
300.0   120.0   33.333333333333336
250.0   120.0   50.0
300.0   150.0   50.0
300.0   120.0   33.333333333333336
250.0   150.0   33.333333333333336
300.0   0.0   0.0
350.0   0.0   0.0
300.0   30.0   0.0
300.0   0.0   16.666666666666668
350.0   0.0   0.0
350.0   30.0   0.0
300.0   30.0   0.0
350.0   30.0   16.666666666666668
300.0   0.0   16.666666666666668
300.0   30.0   16.666666666666668
350.0   30.0   16.666666666666668
300.0   30.0   0.0
300.0   0.0   16.666666666666668
350.0   30.0   16.666666666666668
350.0   0.0   16.666666666666668
350.0   0.0   0.0
300.0   0.0   16.666666666666668
350.0   30.0   16.666666666666668
350.0   0.0   0.0
300.0   30.0   0.0
300.0   0.0   16.666666666666668
350.0   0.0   16.666666666666668
300.0   30.0   16.666666666666668
300.0   0.0   33.333333333333336
350.0   0.0   16.666666666666668
350.0   30.0   16.666666666666668
300.0   30.0   16.666666666666668
350.0   30.0   33.333333333333336
300.0   0.0   33.333333333333336
300.0   30.0   33.333333333333336
350.0   30.0   33.333333333333336
300.0   30.0   16.666666666666668
300.0   0.0   33.333333333333336
350.0   30.0   33.333333333333336
350.0   0.0   33.333333333333336
350.0   0.0   16.666666666666668
300.0   0.0   33.333333333333336
350.0   30.0   33.333333333333336
350.0   0.0   16.666666666666668
300.0   30.0   16.666666666666668
300.0   0.0   33.333333333333336
350.0   0.0   33.333333333333336
300.0   30.0   33.333333333333336
300.0   0.0   50.0
350.0   0.0   33.333333333333336
350.0   30.0   33.333333333333336
300.0   30.0   33.333333333333336
350.0   30.0   50.0
300.0   0.0   50.0
300.0   30.0   50.0
350.0   30.0   50.0
300.0   30.0   33.333333333333336
300.0   0.0   50.0
350.0   30.0   50.0
350.0   0.0   50.0
350.0   0.0   33.333333333333336
300.0   0.0   50.0
350.0   30.0   50.0
350.0   0.0   33.333333333333336
300.0   30.0   33.333333333333336
300.0   30.0   0.0
350.0   30.0   0.0
300.0   60.0   0.0
300.0   30.0   16.666666666666668
350.0   30.0   0.0
350.0   60.0   0.0
300.0   60.0   0.0
350.0   60.0   16.666666666666668
300.0   30.0   16.666666666666668
300.0   60.0   16.666666666666668
350.0   60.0   16.666666666666668
300.0   60.0   0.0
300.0   30.0   16.666666666666668
350.0   60.0   16.666666666666668
350.0   30.0   16.666666666666668
350.0   30.0   0.0
300.0   30.0   16.666666666666668
350.0   60.0   16.666666666666668
350.0   30.0   0.0
300.0   60.0   0.0
300.0   30.0   16.666666666666668
350.0   30.0   16.666666666666668
300.0   60.0   16.666666666666668
300.0   30.0   33.333333333333336
350.0   30.0   16.666666666666668
350.0   60.0   16.666666666666668
300.0   60.0   16.666666666666668
350.0   60.0   33.333333333333336
300.0   30.0   33.333333333333336
300.0   60.0   33.333333333333336
350.0   60.0   33.333333333333336
300.0   60.0   16.666666666666668
300.0   30.0   33.333333333333336
350.0   60.0   33.333333333333336
350.0   30.0   33.333333333333336
350.0   30.0   16.666666666666668
300.0   30.0   33.333333333333336
350.0   60.0   33.333333333333336
350.0   30.0   16.666666666666668
300.0   60.0   16.666666666666668
300.0   30.0   33.333333333333336
350.0   30.0   33.333333333333336
300.0   60.0   33.333333333333336
300.0   30.0   50.0
350.0   30.0   33.333333333333336
350.0   60.0   33.333333333333336
300.0   60.0   33.333333333333336
350.0   60.0   50.0
300.0   30.0   50.0
300.0   60.0   50.0
350.0   60.0   50.0
300.0   60.0   33.333333333333336
300.0   30.0   50.0
350.0   60.0   50.0
350.0   30.0   50.0
350.0   30.0   33.333333333333336
300.0   30.0   50.0
350.0   60.0   50.0
350.0   30.0   33.333333333333336
300.0   60.0   33.333333333333336
300.0   60.0   0.0
350.0   60.0   0.0
300.0   90.0   0.0
300.0   60.0   16.666666666666668
350.0   60.0   0.0
350.0   90.0   0.0
300.0   90.0   0.0
350.0   90.0   16.666666666666668
300.0   60.0   16.666666666666668
300.0   90.0   16.666666666666668
350.0   90.0   16.666666666666668
300.0   90.0   0.0
300.0   60.0   16.666666666666668
350.0   90.0   16.666666666666668
350.0   60.0   16.666666666666668
350.0   60.0   0.0
300.0   60.0   16.666666666666668
350.0   90.0   16.666666666666668
350.0   60.0   0.0
300.0   90.0   0.0
300.0   60.0   16.666666666666668
350.0   60.0   16.666666666666668
300.0   90.0   16.666666666666668
300.0   60.0   33.333333333333336
350.0   60.0   16.666666666666668
350.0   90.0   16.666666666666668
300.0   90.0   16.666666666666668
350.0   90.0   33.333333333333336
300.0   60.0   33.333333333333336
300.0   90.0   33.333333333333336
350.0   90.0   33.333333333333336
300.0   90.0   16.666666666666668
300.0   60.0   33.333333333333336
350.0   90.0   33.333333333333336
350.0   60.0   33.333333333333336
350.0   60.0   16.666666666666668
300.0   60.0   33.333333333333336
350.0   90.0   33.333333333333336
350.0   60.0   16.666666666666668
300.0   90.0   16.666666666666668
300.0   60.0   33.333333333333336
350.0   60.0   33.333333333333336
300.0   90.0   33.333333333333336
300.0   60.0   50.0
350.0   60.0   33.333333333333336
350.0   90.0   33.333333333333336
300.0   90.0   33.333333333333336
350.0   90.0   50.0
300.0   60.0   50.0
300.0   90.0   50.0
350.0   90.0   50.0
300.0   90.0   33.333333333333336
300.0   60.0   50.0
350.0   90.0   50.0
350.0   60.0   50.0
350.0   60.0   33.333333333333336
300.0   60.0   50.0
350.0   90.0   50.0
350.0   60.0   33.333333333333336
300.0   90.0   33.333333333333336
300.0   90.0   0.0
350.0   90.0   0.0
300.0   120.0   0.0
300.0   90.0   16.666666666666668
350.0   90.0   0.0
350.0   120.0   0.0
300.0   120.0   0.0
350.0   120.0   16.666666666666668
300.0   90.0   16.666666666666668
300.0   120.0   16.666666666666668
350.0   120.0   16.666666666666668
300.0   120.0   0.0
300.0   90.0   16.666666666666668
350.0   120.0   16.666666666666668
350.0   90.0   16.666666666666668
350.0   90.0   0.0
300.0   90.0   16.666666666666668
350.0   120.0   16.666666666666668
350.0   90.0   0.0
300.0   120.0   0.0
300.0   90.0   16.666666666666668
350.0   90.0   16.666666666666668
300.0   120.0   16.666666666666668
300.0   90.0   33.333333333333336
350.0   90.0   16.666666666666668
350.0   120.0   16.666666666666668
300.0   120.0   16.666666666666668
350.0   120.0   33.333333333333336
300.0   90.0   33.333333333333336
300.0   120.0   33.333333333333336
350.0   120.0   33.333333333333336
300.0   120.0   16.666666666666668
300.0   90.0   33.333333333333336
350.0   120.0   33.333333333333336
350.0   90.0   33.333333333333336
350.0   90.0   16.666666666666668
300.0   90.0   33.333333333333336
350.0   120.0   33.333333333333336
350.0   90.0   16.666666666666668
300.0   120.0   16.666666666666668
300.0   90.0   33.333333333333336
350.0   90.0   33.333333333333336
300.0   120.0   33.333333333333336
300.0   90.0   50.0
350.0   90.0   33.333333333333336
350.0   120.0   33.333333333333336
300.0   120.0   33.333333333333336
350.0   120.0   50.0
300.0   90.0   50.0
300.0   120.0   50.0
350.0   120.0   50.0
300.0   120.0   33.333333333333336
300.0   90.0   50.0
350.0   120.0   50.0
350.0   90.0   50.0
350.0   90.0   33.333333333333336
300.0   90.0   50.0
350.0   120.0   50.0
350.0   90.0   33.333333333333336
300.0   120.0   33.333333333333336
300.0   120.0   0.0
350.0   120.0   0.0
300.0   150.0   0.0
300.0   120.0   16.666666666666668
350.0   120.0   0.0
350.0   150.0   0.0
300.0   150.0   0.0
350.0   150.0   16.666666666666668
300.0   120.0   16.666666666666668
300.0   150.0   16.666666666666668
350.0   150.0   16.666666666666668
300.0   150.0   0.0
300.0   120.0   16.666666666666668
350.0   150.0   16.666666666666668
350.0   120.0   16.666666666666668
350.0   120.0   0.0
300.0   120.0   16.666666666666668
350.0   150.0   16.666666666666668
350.0   120.0   0.0
300.0   150.0   0.0
300.0   120.0   16.666666666666668
350.0   120.0   16.666666666666668
300.0   150.0   16.666666666666668
300.0   120.0   33.333333333333336
350.0   120.0   16.666666666666668
350.0   150.0   16.666666666666668
300.0   150.0   16.666666666666668
350.0   150.0   33.333333333333336
300.0   120.0   33.333333333333336
300.0   150.0   33.333333333333336
350.0   150.0   33.333333333333336
300.0   150.0   16.666666666666668
300.0   120.0   33.333333333333336
350.0   150.0   33.333333333333336
350.0   120.0   33.333333333333336
350.0   120.0   16.666666666666668
300.0   120.0   33.333333333333336
350.0   150.0   33.333333333333336
350.0   120.0   16.666666666666668
300.0   150.0   16.666666666666668
300.0   120.0   33.333333333333336
350.0   120.0   33.333333333333336
300.0   150.0   33.333333333333336
300.0   120.0   50.0
350.0   120.0   33.333333333333336
350.0   150.0   33.333333333333336
300.0   150.0   33.333333333333336
350.0   150.0   50.0
300.0   120.0   50.0
300.0   150.0   50.0
350.0   150.0   50.0
300.0   150.0   33.333333333333336
300.0   120.0   50.0
350.0   150.0   50.0
350.0   120.0   50.0
350.0   120.0   33.333333333333336
300.0   120.0   50.0
350.0   150.0   50.0
350.0   120.0   33.333333333333336
300.0   150.0   33.333333333333336
350.0   0.0   0.0
400.0   0.0   0.0
350.0   30.0   0.0
350.0   0.0   16.666666666666668
400.0   0.0   0.0
400.0   30.0   0.0
350.0   30.0   0.0
400.0   30.0   16.666666666666668
350.0   0.0   16.666666666666668
350.0   30.0   16.666666666666668
400.0   30.0   16.666666666666668
350.0   30.0   0.0
350.0   0.0   16.666666666666668
400.0   30.0   16.666666666666668
400.0   0.0   16.666666666666668
400.0   0.0   0.0
350.0   0.0   16.666666666666668
400.0   30.0   16.666666666666668
400.0   0.0   0.0
350.0   30.0   0.0
350.0   0.0   16.666666666666668
400.0   0.0   16.666666666666668
350.0   30.0   16.666666666666668
350.0   0.0   33.333333333333336
400.0   0.0   16.666666666666668
400.0   30.0   16.666666666666668
350.0   30.0   16.666666666666668
400.0   30.0   33.333333333333336
350.0   0.0   33.333333333333336
350.0   30.0   33.333333333333336
400.0   30.0   33.333333333333336
350.0   30.0   16.666666666666668
350.0   0.0   33.333333333333336
400.0   30.0   33.333333333333336
400.0   0.0   33.333333333333336
400.0   0.0   16.666666666666668
350.0   0.0   33.333333333333336
400.0   30.0   33.333333333333336
400.0   0.0   16.666666666666668
350.0   30.0   16.666666666666668
350.0   0.0   33.333333333333336
400.0   0.0   33.333333333333336
350.0   30.0   33.333333333333336
350.0   0.0   50.0
400.0   0.0   33.333333333333336
400.0   30.0   33.333333333333336
350.0   30.0   33.333333333333336
400.0   30.0   50.0
350.0   0.0   50.0
350.0   30.0   50.0
400.0   30.0   50.0
350.0   30.0   33.333333333333336
350.0   0.0   50.0
400.0   30.0   50.0
400.0   0.0   50.0
400.0   0.0   33.333333333333336
350.0   0.0   50.0
400.0   30.0   50.0
400.0   0.0   33.333333333333336
350.0   30.0   33.333333333333336
350.0   30.0   0.0
400.0   30.0   0.0
350.0   60.0   0.0
350.0   30.0   16.666666666666668
400.0   30.0   0.0
400.0   60.0   0.0
350.0   60.0   0.0
400.0   60.0   16.666666666666668
350.0   30.0   16.666666666666668
350.0   60.0   16.666666666666668
400.0   60.0   16.666666666666668
350.0   60.0   0.0
350.0   30.0   16.666666666666668
400.0   60.0   16.666666666666668
400.0   30.0   16.666666666666668
400.0   30.0   0.0
350.0   30.0   16.666666666666668
400.0   60.0   16.666666666666668
400.0   30.0   0.0
350.0   60.0   0.0
350.0   30.0   16.666666666666668
400.0   30.0   16.666666666666668
350.0   60.0   16.666666666666668
350.0   30.0   33.333333333333336
400.0   30.0   16.666666666666668
400.0   60.0   16.666666666666668
350.0   60.0   16.666666666666668
400.0   60.0   33.333333333333336
350.0   30.0   33.333333333333336
350.0   60.0   33.333333333333336
400.0   60.0   33.333333333333336
350.0   60.0   16.666666666666668
350.0   30.0   33.333333333333336
400.0   60.0   33.333333333333336
400.0   30.0   33.333333333333336
400.0   30.0   16.666666666666668
350.0   30.0   33.333333333333336
400.0   60.0   33.333333333333336
400.0   30.0   16.666666666666668
350.0   60.0   16.666666666666668
350.0   30.0   33.333333333333336
400.0   30.0   33.333333333333336
350.0   60.0   33.333333333333336
350.0   30.0   50.0
400.0   30.0   33.333333333333336
400.0   60.0   33.333333333333336
350.0   60.0   33.333333333333336
400.0   60.0   50.0
350.0   30.0   50.0
350.0   60.0   50.0
400.0   60.0   50.0
350.0   60.0   33.333333333333336
350.0   30.0   50.0
400.0   60.0   50.0
400.0   30.0   50.0
400.0   30.0   33.333333333333336
350.0   30.0   50.0
400.0   60.0   50.0
400.0   30.0   33.333333333333336
350.0   60.0   33.333333333333336
350.0   60.0   0.0
400.0   60.0   0.0
350.0   90.0   0.0
350.0   60.0   16.666666666666668
400.0   60.0   0.0
400.0   90.0   0.0
350.0   90.0   0.0
400.0   90.0   16.666666666666668
350.0   60.0   16.666666666666668
350.0   90.0   16.666666666666668
400.0   90.0   16.666666666666668
350.0   90.0   0.0
350.0   60.0   16.666666666666668
400.0   90.0   16.666666666666668
400.0   60.0   16.666666666666668
400.0   60.0   0.0
350.0   60.0   16.666666666666668
400.0   90.0   16.666666666666668
400.0   60.0   0.0
350.0   90.0   0.0
350.0   60.0   16.666666666666668
400.0   60.0   16.666666666666668
350.0   90.0   16.666666666666668
350.0   60.0   33.333333333333336
400.0   60.0   16.666666666666668
400.0   90.0   16.666666666666668
350.0   90.0   16.666666666666668
400.0   90.0   33.333333333333336
350.0   60.0   33.333333333333336
350.0   90.0   33.333333333333336
400.0   90.0   33.333333333333336
350.0   90.0   16.666666666666668
350.0   60.0   33.333333333333336
400.0   90.0   33.333333333333336
400.0   60.0   33.333333333333336
400.0   60.0   16.666666666666668
350.0   60.0   33.333333333333336
400.0   90.0   33.333333333333336
400.0   60.0   16.666666666666668
350.0   90.0   16.666666666666668
350.0   60.0   33.333333333333336
400.0   60.0   33.333333333333336
350.0   90.0   33.333333333333336
350.0   60.0   50.0
400.0   60.0   33.333333333333336
400.0   90.0   33.333333333333336
350.0   90.0   33.333333333333336
400.0   90.0   50.0
350.0   60.0   50.0
350.0   90.0   50.0
400.0   90.0   50.0
350.0   90.0   33.333333333333336
350.0   60.0   50.0
400.0   90.0   50.0
400.0   60.0   50.0
400.0   60.0   33.333333333333336
350.0   60.0   50.0
400.0   90.0   50.0
400.0   60.0   33.333333333333336
350.0   90.0   33.333333333333336
350.0   90.0   0.0
400.0   90.0   0.0
350.0   120.0   0.0
350.0   90.0   16.666666666666668
400.0   90.0   0.0
400.0   120.0   0.0
350.0   120.0   0.0
400.0   120.0   16.666666666666668
350.0   90.0   16.666666666666668
350.0   120.0   16.666666666666668
400.0   120.0   16.666666666666668
350.0   120.0   0.0
350.0   90.0   16.666666666666668
400.0   120.0   16.666666666666668
400.0   90.0   16.666666666666668
400.0   90.0   0.0
350.0   90.0   16.666666666666668
400.0   120.0   16.666666666666668
400.0   90.0   0.0
350.0   120.0   0.0
350.0   90.0   16.666666666666668
400.0   90.0   16.666666666666668
350.0   120.0   16.666666666666668
350.0   90.0   33.333333333333336
400.0   90.0   16.666666666666668
400.0   120.0   16.666666666666668
350.0   120.0   16.666666666666668
400.0   120.0   33.333333333333336
350.0   90.0   33.333333333333336
350.0   120.0   33.333333333333336
400.0   120.0   33.333333333333336
350.0   120.0   16.666666666666668
350.0   90.0   33.333333333333336
400.0   120.0   33.333333333333336
400.0   90.0   33.333333333333336
400.0   90.0   16.666666666666668
350.0   90.0   33.333333333333336
400.0   120.0   33.333333333333336
400.0   90.0   16.666666666666668
350.0   120.0   16.666666666666668
350.0   90.0   33.333333333333336
400.0   90.0   33.333333333333336
350.0   120.0   33.333333333333336
350.0   90.0   50.0
400.0   90.0   33.333333333333336
400.0   120.0   33.333333333333336
350.0   120.0   33.333333333333336
400.0   120.0   50.0
350.0   90.0   50.0
350.0   120.0   50.0
400.0   120.0   50.0
350.0   120.0   33.333333333333336
350.0   90.0   50.0
400.0   120.0   50.0
400.0   90.0   50.0
400.0   90.0   33.333333333333336
350.0   90.0   50.0
400.0   120.0   50.0
400.0   90.0   33.333333333333336
350.0   120.0   33.333333333333336
350.0   120.0   0.0
400.0   120.0   0.0
350.0   150.0   0.0
350.0   120.0   16.666666666666668
400.0   120.0   0.0
400.0   150.0   0.0
350.0   150.0   0.0
400.0   150.0   16.666666666666668
350.0   120.0   16.666666666666668
350.0   150.0   16.666666666666668
400.0   150.0   16.666666666666668
350.0   150.0   0.0
350.0   120.0   16.666666666666668
400.0   150.0   16.666666666666668
400.0   120.0   16.666666666666668
400.0   120.0   0.0
350.0   120.0   16.666666666666668
400.0   150.0   16.666666666666668
400.0   120.0   0.0
350.0   150.0   0.0
350.0   120.0   16.666666666666668
400.0   120.0   16.666666666666668
350.0   150.0   16.666666666666668
350.0   120.0   33.333333333333336
400.0   120.0   16.666666666666668
400.0   150.0   16.666666666666668
350.0   150.0   16.666666666666668
400.0   150.0   33.333333333333336
350.0   120.0   33.333333333333336
350.0   150.0   33.333333333333336
400.0   150.0   33.333333333333336
350.0   150.0   16.666666666666668
350.0   120.0   33.333333333333336
400.0   150.0   33.333333333333336
400.0   120.0   33.333333333333336
400.0   120.0   16.666666666666668
350.0   120.0   33.333333333333336
400.0   150.0   33.333333333333336
400.0   120.0   16.666666666666668
350.0   150.0   16.666666666666668
350.0   120.0   33.333333333333336
400.0   120.0   33.333333333333336
350.0   150.0   33.333333333333336
350.0   120.0   50.0
400.0   120.0   33.333333333333336
400.0   150.0   33.333333333333336
350.0   150.0   33.333333333333336
400.0   150.0   50.0
350.0   120.0   50.0
350.0   150.0   50.0
400.0   150.0   50.0
350.0   150.0   33.333333333333336
350.0   120.0   50.0
400.0   150.0   50.0
400.0   120.0   50.0
400.0   120.0   33.333333333333336
350.0   120.0   50.0
400.0   150.0   50.0
400.0   120.0   33.333333333333336
350.0   150.0   33.333333333333336
400.0   0.0   0.0
450.0   0.0   0.0
400.0   30.0   0.0
400.0   0.0   16.666666666666668
450.0   0.0   0.0
450.0   30.0   0.0
400.0   30.0   0.0
450.0   30.0   16.666666666666668
400.0   0.0   16.666666666666668
400.0   30.0   16.666666666666668
450.0   30.0   16.666666666666668
400.0   30.0   0.0
400.0   0.0   16.666666666666668
450.0   30.0   16.666666666666668
450.0   0.0   16.666666666666668
450.0   0.0   0.0
400.0   0.0   16.666666666666668
450.0   30.0   16.666666666666668
450.0   0.0   0.0
400.0   30.0   0.0
400.0   0.0   16.666666666666668
450.0   0.0   16.666666666666668
400.0   30.0   16.666666666666668
400.0   0.0   33.333333333333336
450.0   0.0   16.666666666666668
450.0   30.0   16.666666666666668
400.0   30.0   16.666666666666668
450.0   30.0   33.333333333333336
400.0   0.0   33.333333333333336
400.0   30.0   33.333333333333336
450.0   30.0   33.333333333333336
400.0   30.0   16.666666666666668
400.0   0.0   33.333333333333336
450.0   30.0   33.333333333333336
450.0   0.0   33.333333333333336
450.0   0.0   16.666666666666668
400.0   0.0   33.333333333333336
450.0   30.0   33.333333333333336
450.0   0.0   16.666666666666668
400.0   30.0   16.666666666666668
400.0   0.0   33.333333333333336
450.0   0.0   33.333333333333336
400.0   30.0   33.333333333333336
400.0   0.0   50.0
450.0   0.0   33.333333333333336
450.0   30.0   33.333333333333336
400.0   30.0   33.333333333333336
450.0   30.0   50.0
400.0   0.0   50.0
400.0   30.0   50.0
450.0   30.0   50.0
400.0   30.0   33.333333333333336
400.0   0.0   50.0
450.0   30.0   50.0
450.0   0.0   50.0
450.0   0.0   33.333333333333336
400.0   0.0   50.0
450.0   30.0   50.0
450.0   0.0   33.333333333333336
400.0   30.0   33.333333333333336
400.0   30.0   0.0
450.0   30.0   0.0
400.0   60.0   0.0
400.0   30.0   16.666666666666668
450.0   30.0   0.0
450.0   60.0   0.0
400.0   60.0   0.0
450.0   60.0   16.666666666666668
400.0   30.0   16.666666666666668
400.0   60.0   16.666666666666668
450.0   60.0   16.666666666666668
400.0   60.0   0.0
400.0   30.0   16.666666666666668
450.0   60.0   16.666666666666668
450.0   30.0   16.666666666666668
450.0   30.0   0.0
400.0   30.0   16.666666666666668
450.0   60.0   16.666666666666668
450.0   30.0   0.0
400.0   60.0   0.0
400.0   30.0   16.666666666666668
450.0   30.0   16.666666666666668
400.0   60.0   16.666666666666668
400.0   30.0   33.333333333333336
450.0   30.0   16.666666666666668
450.0   60.0   16.666666666666668
400.0   60.0   16.666666666666668
450.0   60.0   33.333333333333336
400.0   30.0   33.333333333333336
400.0   60.0   33.333333333333336
450.0   60.0   33.333333333333336
400.0   60.0   16.666666666666668
400.0   30.0   33.333333333333336
450.0   60.0   33.333333333333336
450.0   30.0   33.333333333333336
450.0   30.0   16.666666666666668
400.0   30.0   33.333333333333336
450.0   60.0   33.333333333333336
450.0   30.0   16.666666666666668
400.0   60.0   16.666666666666668
400.0   30.0   33.333333333333336
450.0   30.0   33.333333333333336
400.0   60.0   33.333333333333336
400.0   30.0   50.0
450.0   30.0   33.333333333333336
450.0   60.0   33.333333333333336
400.0   60.0   33.333333333333336
450.0   60.0   50.0
400.0   30.0   50.0
400.0   60.0   50.0
450.0   60.0   50.0
400.0   60.0   33.333333333333336
400.0   30.0   50.0
450.0   60.0   50.0
450.0   30.0   50.0
450.0   30.0   33.333333333333336
400.0   30.0   50.0
450.0   60.0   50.0
450.0   30.0   33.333333333333336
400.0   60.0   33.333333333333336
400.0   60.0   0.0
450.0   60.0   0.0
400.0   90.0   0.0
400.0   60.0   16.666666666666668
450.0   60.0   0.0
450.0   90.0   0.0
400.0   90.0   0.0
450.0   90.0   16.666666666666668
400.0   60.0   16.666666666666668
400.0   90.0   16.666666666666668
450.0   90.0   16.666666666666668
400.0   90.0   0.0
400.0   60.0   16.666666666666668
450.0   90.0   16.666666666666668
450.0   60.0   16.666666666666668
450.0   60.0   0.0
400.0   60.0   16.666666666666668
450.0   90.0   16.666666666666668
450.0   60.0   0.0
400.0   90.0   0.0
400.0   60.0   16.666666666666668
450.0   60.0   16.666666666666668
400.0   90.0   16.666666666666668
400.0   60.0   33.333333333333336
450.0   60.0   16.666666666666668
450.0   90.0   16.666666666666668
400.0   90.0   16.666666666666668
450.0   90.0   33.333333333333336
400.0   60.0   33.333333333333336
400.0   90.0   33.333333333333336
450.0   90.0   33.333333333333336
400.0   90.0   16.666666666666668
400.0   60.0   33.333333333333336
450.0   90.0   33.333333333333336
450.0   60.0   33.333333333333336
450.0   60.0   16.666666666666668
400.0   60.0   33.333333333333336
450.0   90.0   33.333333333333336
450.0   60.0   16.666666666666668
400.0   90.0   16.666666666666668
400.0   60.0   33.333333333333336
450.0   60.0   33.333333333333336
400.0   90.0   33.333333333333336
400.0   60.0   50.0
450.0   60.0   33.333333333333336
450.0   90.0   33.333333333333336
400.0   90.0   33.333333333333336
450.0   90.0   50.0
400.0   60.0   50.0
400.0   90.0   50.0
450.0   90.0   50.0
400.0   90.0   33.333333333333336
400.0   60.0   50.0
450.0   90.0   50.0
450.0   60.0   50.0
450.0   60.0   33.333333333333336
400.0   60.0   50.0
450.0   90.0   50.0
450.0   60.0   33.333333333333336
400.0   90.0   33.333333333333336
400.0   90.0   0.0
450.0   90.0   0.0
400.0   120.0   0.0
400.0   90.0   16.666666666666668
450.0   90.0   0.0
450.0   120.0   0.0
400.0   120.0   0.0
450.0   120.0   16.666666666666668
400.0   90.0   16.666666666666668
400.0   120.0   16.666666666666668
450.0   120.0   16.666666666666668
400.0   120.0   0.0
400.0   90.0   16.666666666666668
450.0   120.0   16.666666666666668
450.0   90.0   16.666666666666668
450.0   90.0   0.0
400.0   90.0   16.666666666666668
450.0   120.0   16.666666666666668
450.0   90.0   0.0
400.0   120.0   0.0
400.0   90.0   16.666666666666668
450.0   90.0   16.666666666666668
400.0   120.0   16.666666666666668
400.0   90.0   33.333333333333336
450.0   90.0   16.666666666666668
450.0   120.0   16.666666666666668
400.0   120.0   16.666666666666668
450.0   120.0   33.333333333333336
400.0   90.0   33.333333333333336
400.0   120.0   33.333333333333336
450.0   120.0   33.333333333333336
400.0   120.0   16.666666666666668
400.0   90.0   33.333333333333336
450.0   120.0   33.333333333333336
450.0   90.0   33.333333333333336
450.0   90.0   16.666666666666668
400.0   90.0   33.333333333333336
450.0   120.0   33.333333333333336
450.0   90.0   16.666666666666668
400.0   120.0   16.666666666666668
400.0   90.0   33.333333333333336
450.0   90.0   33.333333333333336
400.0   120.0   33.333333333333336
400.0   90.0   50.0
450.0   90.0   33.333333333333336
450.0   120.0   33.333333333333336
400.0   120.0   33.333333333333336
450.0   120.0   50.0
400.0   90.0   50.0
400.0   120.0   50.0
450.0   120.0   50.0
400.0   120.0   33.333333333333336
400.0   90.0   50.0
450.0   120.0   50.0
450.0   90.0   50.0
450.0   90.0   33.333333333333336
400.0   90.0   50.0
450.0   120.0   50.0
450.0   90.0   33.333333333333336
400.0   120.0   33.333333333333336
400.0   120.0   0.0
450.0   120.0   0.0
400.0   150.0   0.0
400.0   120.0   16.666666666666668
450.0   120.0   0.0
450.0   150.0   0.0
400.0   150.0   0.0
450.0   150.0   16.666666666666668
400.0   120.0   16.666666666666668
400.0   150.0   16.666666666666668
450.0   150.0   16.666666666666668
400.0   150.0   0.0
400.0   120.0   16.666666666666668
450.0   150.0   16.666666666666668
450.0   120.0   16.666666666666668
450.0   120.0   0.0
400.0   120.0   16.666666666666668
450.0   150.0   16.666666666666668
450.0   120.0   0.0
400.0   150.0   0.0
400.0   120.0   16.666666666666668
450.0   120.0   16.666666666666668
400.0   150.0   16.666666666666668
400.0   120.0   33.333333333333336
450.0   120.0   16.666666666666668
450.0   150.0   16.666666666666668
400.0   150.0   16.666666666666668
450.0   150.0   33.333333333333336
400.0   120.0   33.333333333333336
400.0   150.0   33.333333333333336
450.0   150.0   33.333333333333336
400.0   150.0   16.666666666666668
400.0   120.0   33.333333333333336
450.0   150.0   33.333333333333336
450.0   120.0   33.333333333333336
450.0   120.0   16.666666666666668
400.0   120.0   33.333333333333336
450.0   150.0   33.333333333333336
450.0   120.0   16.666666666666668
400.0   150.0   16.666666666666668
400.0   120.0   33.333333333333336
450.0   120.0   33.333333333333336
400.0   150.0   33.333333333333336
400.0   120.0   50.0
450.0   120.0   33.333333333333336
450.0   150.0   33.333333333333336
400.0   150.0   33.333333333333336
450.0   150.0   50.0
400.0   120.0   50.0
400.0   150.0   50.0
450.0   150.0   50.0
400.0   150.0   33.333333333333336
400.0   120.0   50.0
450.0   150.0   50.0
450.0   120.0   50.0
450.0   120.0   33.333333333333336
400.0   120.0   50.0
450.0   150.0   50.0
450.0   120.0   33.333333333333336
400.0   150.0   33.333333333333336
450.0   0.0   0.0
500.0   0.0   0.0
450.0   30.0   0.0
450.0   0.0   16.666666666666668
500.0   0.0   0.0
500.0   30.0   0.0
450.0   30.0   0.0
500.0   30.0   16.666666666666668
450.0   0.0   16.666666666666668
450.0   30.0   16.666666666666668
500.0   30.0   16.666666666666668
450.0   30.0   0.0
450.0   0.0   16.666666666666668
500.0   30.0   16.666666666666668
500.0   0.0   16.666666666666668
500.0   0.0   0.0
450.0   0.0   16.666666666666668
500.0   30.0   16.666666666666668
500.0   0.0   0.0
450.0   30.0   0.0
450.0   0.0   16.666666666666668
500.0   0.0   16.666666666666668
450.0   30.0   16.666666666666668
450.0   0.0   33.333333333333336
500.0   0.0   16.666666666666668
500.0   30.0   16.666666666666668
450.0   30.0   16.666666666666668
500.0   30.0   33.333333333333336
450.0   0.0   33.333333333333336
450.0   30.0   33.333333333333336
500.0   30.0   33.333333333333336
450.0   30.0   16.666666666666668
450.0   0.0   33.333333333333336
500.0   30.0   33.333333333333336
500.0   0.0   33.333333333333336
500.0   0.0   16.666666666666668
450.0   0.0   33.333333333333336
500.0   30.0   33.333333333333336
500.0   0.0   16.666666666666668
450.0   30.0   16.666666666666668
450.0   0.0   33.333333333333336
500.0   0.0   33.333333333333336
450.0   30.0   33.333333333333336
450.0   0.0   50.0
500.0   0.0   33.333333333333336
500.0   30.0   33.333333333333336
450.0   30.0   33.333333333333336
500.0   30.0   50.0
450.0   0.0   50.0
450.0   30.0   50.0
500.0   30.0   50.0
450.0   30.0   33.333333333333336
450.0   0.0   50.0
500.0   30.0   50.0
500.0   0.0   50.0
500.0   0.0   33.333333333333336
450.0   0.0   50.0
500.0   30.0   50.0
500.0   0.0   33.333333333333336
450.0   30.0   33.333333333333336
450.0   30.0   0.0
500.0   30.0   0.0
450.0   60.0   0.0
450.0   30.0   16.666666666666668
500.0   30.0   0.0
500.0   60.0   0.0
450.0   60.0   0.0
500.0   60.0   16.666666666666668
450.0   30.0   16.666666666666668
450.0   60.0   16.666666666666668
500.0   60.0   16.666666666666668
450.0   60.0   0.0
450.0   30.0   16.666666666666668
500.0   60.0   16.666666666666668
500.0   30.0   16.666666666666668
500.0   30.0   0.0
450.0   30.0   16.666666666666668
500.0   60.0   16.666666666666668
500.0   30.0   0.0
450.0   60.0   0.0
450.0   30.0   16.666666666666668
500.0   30.0   16.666666666666668
450.0   60.0   16.666666666666668
450.0   30.0   33.333333333333336
500.0   30.0   16.666666666666668
500.0   60.0   16.666666666666668
450.0   60.0   16.666666666666668
500.0   60.0   33.333333333333336
450.0   30.0   33.333333333333336
450.0   60.0   33.333333333333336
500.0   60.0   33.333333333333336
450.0   60.0   16.666666666666668
450.0   30.0   33.333333333333336
500.0   60.0   33.333333333333336
500.0   30.0   33.333333333333336
500.0   30.0   16.666666666666668
450.0   30.0   33.333333333333336
500.0   60.0   33.333333333333336
500.0   30.0   16.666666666666668
450.0   60.0   16.666666666666668
450.0   30.0   33.333333333333336
500.0   30.0   33.333333333333336
450.0   60.0   33.333333333333336
450.0   30.0   50.0
500.0   30.0   33.333333333333336
500.0   60.0   33.333333333333336
450.0   60.0   33.333333333333336
500.0   60.0   50.0
450.0   30.0   50.0
450.0   60.0   50.0
500.0   60.0   50.0
450.0   60.0   33.333333333333336
450.0   30.0   50.0
500.0   60.0   50.0
500.0   30.0   50.0
500.0   30.0   33.333333333333336
450.0   30.0   50.0
500.0   60.0   50.0
500.0   30.0   33.333333333333336
450.0   60.0   33.333333333333336
450.0   60.0   0.0
500.0   60.0   0.0
450.0   90.0   0.0
450.0   60.0   16.666666666666668
500.0   60.0   0.0
500.0   90.0   0.0
450.0   90.0   0.0
500.0   90.0   16.666666666666668
450.0   60.0   16.666666666666668
450.0   90.0   16.666666666666668
500.0   90.0   16.666666666666668
450.0   90.0   0.0
450.0   60.0   16.666666666666668
500.0   90.0   16.666666666666668
500.0   60.0   16.666666666666668
500.0   60.0   0.0
450.0   60.0   16.666666666666668
500.0   90.0   16.666666666666668
500.0   60.0   0.0
450.0   90.0   0.0
450.0   60.0   16.666666666666668
500.0   60.0   16.666666666666668
450.0   90.0   16.666666666666668
450.0   60.0   33.333333333333336
500.0   60.0   16.666666666666668
500.0   90.0   16.666666666666668
450.0   90.0   16.666666666666668
500.0   90.0   33.333333333333336
450.0   60.0   33.333333333333336
450.0   90.0   33.333333333333336
500.0   90.0   33.333333333333336
450.0   90.0   16.666666666666668
450.0   60.0   33.333333333333336
500.0   90.0   33.333333333333336
500.0   60.0   33.333333333333336
500.0   60.0   16.666666666666668
450.0   60.0   33.333333333333336
500.0   90.0   33.333333333333336
500.0   60.0   16.666666666666668
450.0   90.0   16.666666666666668
450.0   60.0   33.333333333333336
500.0   60.0   33.333333333333336
450.0   90.0   33.333333333333336
450.0   60.0   50.0
500.0   60.0   33.333333333333336
500.0   90.0   33.333333333333336
450.0   90.0   33.333333333333336
500.0   90.0   50.0
450.0   60.0   50.0
450.0   90.0   50.0
500.0   90.0   50.0
450.0   90.0   33.333333333333336
450.0   60.0   50.0
500.0   90.0   50.0
500.0   60.0   50.0
500.0   60.0   33.333333333333336
450.0   60.0   50.0
500.0   90.0   50.0
500.0   60.0   33.333333333333336
450.0   90.0   33.333333333333336
450.0   90.0   0.0
500.0   90.0   0.0
450.0   120.0   0.0
450.0   90.0   16.666666666666668
500.0   90.0   0.0
500.0   120.0   0.0
450.0   120.0   0.0
500.0   120.0   16.666666666666668
450.0   90.0   16.666666666666668
450.0   120.0   16.666666666666668
500.0   120.0   16.666666666666668
450.0   120.0   0.0
450.0   90.0   16.666666666666668
500.0   120.0   16.666666666666668
500.0   90.0   16.666666666666668
500.0   90.0   0.0
450.0   90.0   16.666666666666668
500.0   120.0   16.666666666666668
500.0   90.0   0.0
450.0   120.0   0.0
450.0   90.0   16.666666666666668
500.0   90.0   16.666666666666668
450.0   120.0   16.666666666666668
450.0   90.0   33.333333333333336
500.0   90.0   16.666666666666668
500.0   120.0   16.666666666666668
450.0   120.0   16.666666666666668
500.0   120.0   33.333333333333336
450.0   90.0   33.333333333333336
450.0   120.0   33.333333333333336
500.0   120.0   33.333333333333336
450.0   120.0   16.666666666666668
450.0   90.0   33.333333333333336
500.0   120.0   33.333333333333336
500.0   90.0   33.333333333333336
500.0   90.0   16.666666666666668
450.0   90.0   33.333333333333336
500.0   120.0   33.333333333333336
500.0   90.0   16.666666666666668
450.0   120.0   16.666666666666668
450.0   90.0   33.333333333333336
500.0   90.0   33.333333333333336
450.0   120.0   33.333333333333336
450.0   90.0   50.0
500.0   90.0   33.333333333333336
500.0   120.0   33.333333333333336
450.0   120.0   33.333333333333336
500.0   120.0   50.0
450.0   90.0   50.0
450.0   120.0   50.0
500.0   120.0   50.0
450.0   120.0   33.333333333333336
450.0   90.0   50.0
500.0   120.0   50.0
500.0   90.0   50.0
500.0   90.0   33.333333333333336
450.0   90.0   50.0
500.0   120.0   50.0
500.0   90.0   33.333333333333336
450.0   120.0   33.333333333333336
450.0   120.0   0.0
500.0   120.0   0.0
450.0   150.0   0.0
450.0   120.0   16.666666666666668
500.0   120.0   0.0
500.0   150.0   0.0
450.0   150.0   0.0
500.0   150.0   16.666666666666668
450.0   120.0   16.666666666666668
450.0   150.0   16.666666666666668
500.0   150.0   16.666666666666668
450.0   150.0   0.0
450.0   120.0   16.666666666666668
500.0   150.0   16.666666666666668
500.0   120.0   16.666666666666668
500.0   120.0   0.0
450.0   120.0   16.666666666666668
500.0   150.0   16.666666666666668
500.0   120.0   0.0
450.0   150.0   0.0
450.0   120.0   16.666666666666668
500.0   120.0   16.666666666666668
450.0   150.0   16.666666666666668
450.0   120.0   33.333333333333336
500.0   120.0   16.666666666666668
500.0   150.0   16.666666666666668
450.0   150.0   16.666666666666668
500.0   150.0   33.333333333333336
450.0   120.0   33.333333333333336
450.0   150.0   33.333333333333336
500.0   150.0   33.333333333333336
450.0   150.0   16.666666666666668
450.0   120.0   33.333333333333336
500.0   150.0   33.333333333333336
500.0   120.0   33.333333333333336
500.0   120.0   16.666666666666668
450.0   120.0   33.333333333333336
500.0   150.0   33.333333333333336
500.0   120.0   16.666666666666668
450.0   150.0   16.666666666666668
450.0   120.0   33.333333333333336
500.0   120.0   33.333333333333336
450.0   150.0   33.333333333333336
450.0   120.0   50.0
500.0   120.0   33.333333333333336
500.0   150.0   33.333333333333336
450.0   150.0   33.333333333333336
500.0   150.0   50.0
450.0   120.0   50.0
450.0   150.0   50.0
500.0   150.0   50.0
450.0   150.0   33.333333333333336
450.0   120.0   50.0
500.0   150.0   50.0
500.0   120.0   50.0
500.0   120.0   33.333333333333336
450.0   120.0   50.0
500.0   150.0   50.0
500.0   120.0   33.333333333333336
450.0   150.0   33.333333333333336
             </DataArray>   
          </Points>  
          <Cells>  
             <DataArray type="Int32" Name="connectivity" format="ascii">   
0   1   2   3
4   5   6   7
8   9   10   11
12   13   14   15
16   17   18   19
20   21   22   23
24   25   26   27
28   29   30   31
32   33   34   35
36   37   38   39
40   41   42   43
44   45   46   47
48   49   50   51
52   53   54   55
56   57   58   59
60   61   62   63
64   65   66   67
68   69   70   71
72   73   74   75
76   77   78   79
80   81   82   83
84   85   86   87
88   89   90   91
92   93   94   95
96   97   98   99
100   101   102   103
104   105   106   107
108   109   110   111
112   113   114   115
116   117   118   119
120   121   122   123
124   125   126   127
128   129   130   131
132   133   134   135
136   137   138   139
140   141   142   143
144   145   146   147
148   149   150   151
152   153   154   155
156   157   158   159
160   161   162   163
164   165   166   167
168   169   170   171
172   173   174   175
176   177   178   179
180   181   182   183
184   185   186   187
188   189   190   191
192   193   194   195
196   197   198   199
200   201   202   203
204   205   206   207
208   209   210   211
212   213   214   215
216   217   218   219
220   221   222   223
224   225   226   227
228   229   230   231
232   233   234   235
236   237   238   239
240   241   242   243
244   245   246   247
248   249   250   251
252   253   254   255
256   257   258   259
260   261   262   263
264   265   266   267
268   269   270   271
272   273   274   275
276   277   278   279
280   281   282   283
284   285   286   287
288   289   290   291
292   293   294   295
296   297   298   299
300   301   302   303
304   305   306   307
308   309   310   311
312   313   314   315
316   317   318   319
320   321   322   323
324   325   326   327
328   329   330   331
332   333   334   335
336   337   338   339
340   341   342   343
344   345   346   347
348   349   350   351
352   353   354   355
356   357   358   359
360   361   362   363
364   365   366   367
368   369   370   371
372   373   374   375
376   377   378   379
380   381   382   383
384   385   386   387
388   389   390   391
392   393   394   395
396   397   398   399
400   401   402   403
404   405   406   407
408   409   410   411
412   413   414   415
416   417   418   419
420   421   422   423
424   425   426   427
428   429   430   431
432   433   434   435
436   437   438   439
440   441   442   443
444   445   446   447
448   449   450   451
452   453   454   455
456   457   458   459
460   461   462   463
464   465   466   467
468   469   470   471
472   473   474   475
476   477   478   479
480   481   482   483
484   485   486   487
488   489   490   491
492   493   494   495
496   497   498   499
500   501   502   503
504   505   506   507
508   509   510   511
512   513   514   515
516   517   518   519
520   521   522   523
524   525   526   527
528   529   530   531
532   533   534   535
536   537   538   539
540   541   542   543
544   545   546   547
548   549   550   551
552   553   554   555
556   557   558   559
560   561   562   563
564   565   566   567
568   569   570   571
572   573   574   575
576   577   578   579
580   581   582   583
584   585   586   587
588   589   590   591
592   593   594   595
596   597   598   599
600   601   602   603
604   605   606   607
608   609   610   611
612   613   614   615
616   617   618   619
620   621   622   623
624   625   626   627
628   629   630   631
632   633   634   635
636   637   638   639
640   641   642   643
644   645   646   647
648   649   650   651
652   653   654   655
656   657   658   659
660   661   662   663
664   665   666   667
668   669   670   671
672   673   674   675
676   677   678   679
680   681   682   683
684   685   686   687
688   689   690   691
692   693   694   695
696   697   698   699
700   701   702   703
704   705   706   707
708   709   710   711
712   713   714   715
716   717   718   719
720   721   722   723
724   725   726   727
728   729   730   731
732   733   734   735
736   737   738   739
740   741   742   743
744   745   746   747
748   749   750   751
752   753   754   755
756   757   758   759
760   761   762   763
764   765   766   767
768   769   770   771
772   773   774   775
776   777   778   779
780   781   782   783
784   785   786   787
788   789   790   791
792   793   794   795
796   797   798   799
800   801   802   803
804   805   806   807
808   809   810   811
812   813   814   815
816   817   818   819
820   821   822   823
824   825   826   827
828   829   830   831
832   833   834   835
836   837   838   839
840   841   842   843
844   845   846   847
848   849   850   851
852   853   854   855
856   857   858   859
860   861   862   863
864   865   866   867
868   869   870   871
872   873   874   875
876   877   878   879
880   881   882   883
884   885   886   887
888   889   890   891
892   893   894   895
896   897   898   899
900   901   902   903
904   905   906   907
908   909   910   911
912   913   914   915
916   917   918   919
920   921   922   923
924   925   926   927
928   929   930   931
932   933   934   935
936   937   938   939
940   941   942   943
944   945   946   947
948   949   950   951
952   953   954   955
956   957   958   959
960   961   962   963
964   965   966   967
968   969   970   971
972   973   974   975
976   977   978   979
980   981   982   983
984   985   986   987
988   989   990   991
992   993   994   995
996   997   998   999
1000   1001   1002   1003
1004   1005   1006   1007
1008   1009   1010   1011
1012   1013   1014   1015
1016   1017   1018   1019
1020   1021   1022   1023
1024   1025   1026   1027
1028   1029   1030   1031
1032   1033   1034   1035
1036   1037   1038   1039
1040   1041   1042   1043
1044   1045   1046   1047
1048   1049   1050   1051
1052   1053   1054   1055
1056   1057   1058   1059
1060   1061   1062   1063
1064   1065   1066   1067
1068   1069   1070   1071
1072   1073   1074   1075
1076   1077   1078   1079
1080   1081   1082   1083
1084   1085   1086   1087
1088   1089   1090   1091
1092   1093   1094   1095
1096   1097   1098   1099
1100   1101   1102   1103
1104   1105   1106   1107
1108   1109   1110   1111
1112   1113   1114   1115
1116   1117   1118   1119
1120   1121   1122   1123
1124   1125   1126   1127
1128   1129   1130   1131
1132   1133   1134   1135
1136   1137   1138   1139
1140   1141   1142   1143
1144   1145   1146   1147
1148   1149   1150   1151
1152   1153   1154   1155
1156   1157   1158   1159
1160   1161   1162   1163
1164   1165   1166   1167
1168   1169   1170   1171
1172   1173   1174   1175
1176   1177   1178   1179
1180   1181   1182   1183
1184   1185   1186   1187
1188   1189   1190   1191
1192   1193   1194   1195
1196   1197   1198   1199
1200   1201   1202   1203
1204   1205   1206   1207
1208   1209   1210   1211
1212   1213   1214   1215
1216   1217   1218   1219
1220   1221   1222   1223
1224   1225   1226   1227
1228   1229   1230   1231
1232   1233   1234   1235
1236   1237   1238   1239
1240   1241   1242   1243
1244   1245   1246   1247
1248   1249   1250   1251
1252   1253   1254   1255
1256   1257   1258   1259
1260   1261   1262   1263
1264   1265   1266   1267
1268   1269   1270   1271
1272   1273   1274   1275
1276   1277   1278   1279
1280   1281   1282   1283
1284   1285   1286   1287
1288   1289   1290   1291
1292   1293   1294   1295
1296   1297   1298   1299
1300   1301   1302   1303
1304   1305   1306   1307
1308   1309   1310   1311
1312   1313   1314   1315
1316   1317   1318   1319
1320   1321   1322   1323
1324   1325   1326   1327
1328   1329   1330   1331
1332   1333   1334   1335
1336   1337   1338   1339
1340   1341   1342   1343
1344   1345   1346   1347
1348   1349   1350   1351
1352   1353   1354   1355
1356   1357   1358   1359
1360   1361   1362   1363
1364   1365   1366   1367
1368   1369   1370   1371
1372   1373   1374   1375
1376   1377   1378   1379
1380   1381   1382   1383
1384   1385   1386   1387
1388   1389   1390   1391
1392   1393   1394   1395
1396   1397   1398   1399
1400   1401   1402   1403
1404   1405   1406   1407
1408   1409   1410   1411
1412   1413   1414   1415
1416   1417   1418   1419
1420   1421   1422   1423
1424   1425   1426   1427
1428   1429   1430   1431
1432   1433   1434   1435
1436   1437   1438   1439
1440   1441   1442   1443
1444   1445   1446   1447
1448   1449   1450   1451
1452   1453   1454   1455
1456   1457   1458   1459
1460   1461   1462   1463
1464   1465   1466   1467
1468   1469   1470   1471
1472   1473   1474   1475
1476   1477   1478   1479
1480   1481   1482   1483
1484   1485   1486   1487
1488   1489   1490   1491
1492   1493   1494   1495
1496   1497   1498   1499
1500   1501   1502   1503
1504   1505   1506   1507
1508   1509   1510   1511
1512   1513   1514   1515
1516   1517   1518   1519
1520   1521   1522   1523
1524   1525   1526   1527
1528   1529   1530   1531
1532   1533   1534   1535
1536   1537   1538   1539
1540   1541   1542   1543
1544   1545   1546   1547
1548   1549   1550   1551
1552   1553   1554   1555
1556   1557   1558   1559
1560   1561   1562   1563
1564   1565   1566   1567
1568   1569   1570   1571
1572   1573   1574   1575
1576   1577   1578   1579
1580   1581   1582   1583
1584   1585   1586   1587
1588   1589   1590   1591
1592   1593   1594   1595
1596   1597   1598   1599
1600   1601   1602   1603
1604   1605   1606   1607
1608   1609   1610   1611
1612   1613   1614   1615
1616   1617   1618   1619
1620   1621   1622   1623
1624   1625   1626   1627
1628   1629   1630   1631
1632   1633   1634   1635
1636   1637   1638   1639
1640   1641   1642   1643
1644   1645   1646   1647
1648   1649   1650   1651
1652   1653   1654   1655
1656   1657   1658   1659
1660   1661   1662   1663
1664   1665   1666   1667
1668   1669   1670   1671
1672   1673   1674   1675
1676   1677   1678   1679
1680   1681   1682   1683
1684   1685   1686   1687
1688   1689   1690   1691
1692   1693   1694   1695
1696   1697   1698   1699
1700   1701   1702   1703
1704   1705   1706   1707
1708   1709   1710   1711
1712   1713   1714   1715
1716   1717   1718   1719
1720   1721   1722   1723
1724   1725   1726   1727
1728   1729   1730   1731
1732   1733   1734   1735
1736   1737   1738   1739
1740   1741   1742   1743
1744   1745   1746   1747
1748   1749   1750   1751
1752   1753   1754   1755
1756   1757   1758   1759
1760   1761   1762   1763
1764   1765   1766   1767
1768   1769   1770   1771
1772   1773   1774   1775
1776   1777   1778   1779
1780   1781   1782   1783
1784   1785   1786   1787
1788   1789   1790   1791
1792   1793   1794   1795
1796   1797   1798   1799
1800   1801   1802   1803
1804   1805   1806   1807
1808   1809   1810   1811
1812   1813   1814   1815
1816   1817   1818   1819
1820   1821   1822   1823
1824   1825   1826   1827
1828   1829   1830   1831
1832   1833   1834   1835
1836   1837   1838   1839
1840   1841   1842   1843
1844   1845   1846   1847
1848   1849   1850   1851
1852   1853   1854   1855
1856   1857   1858   1859
1860   1861   1862   1863
1864   1865   1866   1867
1868   1869   1870   1871
1872   1873   1874   1875
1876   1877   1878   1879
1880   1881   1882   1883
1884   1885   1886   1887
1888   1889   1890   1891
1892   1893   1894   1895
1896   1897   1898   1899
1900   1901   1902   1903
1904   1905   1906   1907
1908   1909   1910   1911
1912   1913   1914   1915
1916   1917   1918   1919
1920   1921   1922   1923
1924   1925   1926   1927
1928   1929   1930   1931
1932   1933   1934   1935
1936   1937   1938   1939
1940   1941   1942   1943
1944   1945   1946   1947
1948   1949   1950   1951
1952   1953   1954   1955
1956   1957   1958   1959
1960   1961   1962   1963
1964   1965   1966   1967
1968   1969   1970   1971
1972   1973   1974   1975
1976   1977   1978   1979
1980   1981   1982   1983
1984   1985   1986   1987
1988   1989   1990   1991
1992   1993   1994   1995
1996   1997   1998   1999
2000   2001   2002   2003
2004   2005   2006   2007
2008   2009   2010   2011
2012   2013   2014   2015
2016   2017   2018   2019
2020   2021   2022   2023
2024   2025   2026   2027
2028   2029   2030   2031
2032   2033   2034   2035
2036   2037   2038   2039
2040   2041   2042   2043
2044   2045   2046   2047
2048   2049   2050   2051
2052   2053   2054   2055
2056   2057   2058   2059
2060   2061   2062   2063
2064   2065   2066   2067
2068   2069   2070   2071
2072   2073   2074   2075
2076   2077   2078   2079
2080   2081   2082   2083
2084   2085   2086   2087
2088   2089   2090   2091
2092   2093   2094   2095
2096   2097   2098   2099
2100   2101   2102   2103
2104   2105   2106   2107
2108   2109   2110   2111
2112   2113   2114   2115
2116   2117   2118   2119
2120   2121   2122   2123
2124   2125   2126   2127
2128   2129   2130   2131
2132   2133   2134   2135
2136   2137   2138   2139
2140   2141   2142   2143
2144   2145   2146   2147
2148   2149   2150   2151
2152   2153   2154   2155
2156   2157   2158   2159
2160   2161   2162   2163
2164   2165   2166   2167
2168   2169   2170   2171
2172   2173   2174   2175
2176   2177   2178   2179
2180   2181   2182   2183
2184   2185   2186   2187
2188   2189   2190   2191
2192   2193   2194   2195
2196   2197   2198   2199
2200   2201   2202   2203
2204   2205   2206   2207
2208   2209   2210   2211
2212   2213   2214   2215
2216   2217   2218   2219
2220   2221   2222   2223
2224   2225   2226   2227
2228   2229   2230   2231
2232   2233   2234   2235
2236   2237   2238   2239
2240   2241   2242   2243
2244   2245   2246   2247
2248   2249   2250   2251
2252   2253   2254   2255
2256   2257   2258   2259
2260   2261   2262   2263
2264   2265   2266   2267
2268   2269   2270   2271
2272   2273   2274   2275
2276   2277   2278   2279
2280   2281   2282   2283
2284   2285   2286   2287
2288   2289   2290   2291
2292   2293   2294   2295
2296   2297   2298   2299
2300   2301   2302   2303
2304   2305   2306   2307
2308   2309   2310   2311
2312   2313   2314   2315
2316   2317   2318   2319
2320   2321   2322   2323
2324   2325   2326   2327
2328   2329   2330   2331
2332   2333   2334   2335
2336   2337   2338   2339
2340   2341   2342   2343
2344   2345   2346   2347
2348   2349   2350   2351
2352   2353   2354   2355
2356   2357   2358   2359
2360   2361   2362   2363
2364   2365   2366   2367
2368   2369   2370   2371
2372   2373   2374   2375
2376   2377   2378   2379
2380   2381   2382   2383
2384   2385   2386   2387
2388   2389   2390   2391
2392   2393   2394   2395
2396   2397   2398   2399
2400   2401   2402   2403
2404   2405   2406   2407
2408   2409   2410   2411
2412   2413   2414   2415
2416   2417   2418   2419
2420   2421   2422   2423
2424   2425   2426   2427
2428   2429   2430   2431
2432   2433   2434   2435
2436   2437   2438   2439
2440   2441   2442   2443
2444   2445   2446   2447
2448   2449   2450   2451
2452   2453   2454   2455
2456   2457   2458   2459
2460   2461   2462   2463
2464   2465   2466   2467
2468   2469   2470   2471
2472   2473   2474   2475
2476   2477   2478   2479
2480   2481   2482   2483
2484   2485   2486   2487
2488   2489   2490   2491
2492   2493   2494   2495
2496   2497   2498   2499
2500   2501   2502   2503
2504   2505   2506   2507
2508   2509   2510   2511
2512   2513   2514   2515
2516   2517   2518   2519
2520   2521   2522   2523
2524   2525   2526   2527
2528   2529   2530   2531
2532   2533   2534   2535
2536   2537   2538   2539
2540   2541   2542   2543
2544   2545   2546   2547
2548   2549   2550   2551
2552   2553   2554   2555
2556   2557   2558   2559
2560   2561   2562   2563
2564   2565   2566   2567
2568   2569   2570   2571
2572   2573   2574   2575
2576   2577   2578   2579
2580   2581   2582   2583
2584   2585   2586   2587
2588   2589   2590   2591
2592   2593   2594   2595
2596   2597   2598   2599
2600   2601   2602   2603
2604   2605   2606   2607
2608   2609   2610   2611
2612   2613   2614   2615
2616   2617   2618   2619
2620   2621   2622   2623
2624   2625   2626   2627
2628   2629   2630   2631
2632   2633   2634   2635
2636   2637   2638   2639
2640   2641   2642   2643
2644   2645   2646   2647
2648   2649   2650   2651
2652   2653   2654   2655
2656   2657   2658   2659
2660   2661   2662   2663
2664   2665   2666   2667
2668   2669   2670   2671
2672   2673   2674   2675
2676   2677   2678   2679
2680   2681   2682   2683
2684   2685   2686   2687
2688   2689   2690   2691
2692   2693   2694   2695
2696   2697   2698   2699
2700   2701   2702   2703
2704   2705   2706   2707
2708   2709   2710   2711
2712   2713   2714   2715
2716   2717   2718   2719
2720   2721   2722   2723
2724   2725   2726   2727
2728   2729   2730   2731
2732   2733   2734   2735
2736   2737   2738   2739
2740   2741   2742   2743
2744   2745   2746   2747
2748   2749   2750   2751
2752   2753   2754   2755
2756   2757   2758   2759
2760   2761   2762   2763
2764   2765   2766   2767
2768   2769   2770   2771
2772   2773   2774   2775
2776   2777   2778   2779
2780   2781   2782   2783
2784   2785   2786   2787
2788   2789   2790   2791
2792   2793   2794   2795
2796   2797   2798   2799
2800   2801   2802   2803
2804   2805   2806   2807
2808   2809   2810   2811
2812   2813   2814   2815
2816   2817   2818   2819
2820   2821   2822   2823
2824   2825   2826   2827
2828   2829   2830   2831
2832   2833   2834   2835
2836   2837   2838   2839
2840   2841   2842   2843
2844   2845   2846   2847
2848   2849   2850   2851
2852   2853   2854   2855
2856   2857   2858   2859
2860   2861   2862   2863
2864   2865   2866   2867
2868   2869   2870   2871
2872   2873   2874   2875
2876   2877   2878   2879
2880   2881   2882   2883
2884   2885   2886   2887
2888   2889   2890   2891
2892   2893   2894   2895
2896   2897   2898   2899
2900   2901   2902   2903
2904   2905   2906   2907
2908   2909   2910   2911
2912   2913   2914   2915
2916   2917   2918   2919
2920   2921   2922   2923
2924   2925   2926   2927
2928   2929   2930   2931
2932   2933   2934   2935
2936   2937   2938   2939
2940   2941   2942   2943
2944   2945   2946   2947
2948   2949   2950   2951
2952   2953   2954   2955
2956   2957   2958   2959
2960   2961   2962   2963
2964   2965   2966   2967
2968   2969   2970   2971
2972   2973   2974   2975
2976   2977   2978   2979
2980   2981   2982   2983
2984   2985   2986   2987
2988   2989   2990   2991
2992   2993   2994   2995
2996   2997   2998   2999
3000   3001   3002   3003
3004   3005   3006   3007
3008   3009   3010   3011
3012   3013   3014   3015
3016   3017   3018   3019
3020   3021   3022   3023
3024   3025   3026   3027
3028   3029   3030   3031
3032   3033   3034   3035
3036   3037   3038   3039
3040   3041   3042   3043
3044   3045   3046   3047
3048   3049   3050   3051
3052   3053   3054   3055
3056   3057   3058   3059
3060   3061   3062   3063
3064   3065   3066   3067
3068   3069   3070   3071
3072   3073   3074   3075
3076   3077   3078   3079
3080   3081   3082   3083
3084   3085   3086   3087
3088   3089   3090   3091
3092   3093   3094   3095
3096   3097   3098   3099
3100   3101   3102   3103
3104   3105   3106   3107
3108   3109   3110   3111
3112   3113   3114   3115
3116   3117   3118   3119
3120   3121   3122   3123
3124   3125   3126   3127
3128   3129   3130   3131
3132   3133   3134   3135
3136   3137   3138   3139
3140   3141   3142   3143
3144   3145   3146   3147
3148   3149   3150   3151
3152   3153   3154   3155
3156   3157   3158   3159
3160   3161   3162   3163
3164   3165   3166   3167
3168   3169   3170   3171
3172   3173   3174   3175
3176   3177   3178   3179
3180   3181   3182   3183
3184   3185   3186   3187
3188   3189   3190   3191
3192   3193   3194   3195
3196   3197   3198   3199
3200   3201   3202   3203
3204   3205   3206   3207
3208   3209   3210   3211
3212   3213   3214   3215
3216   3217   3218   3219
3220   3221   3222   3223
3224   3225   3226   3227
3228   3229   3230   3231
3232   3233   3234   3235
3236   3237   3238   3239
3240   3241   3242   3243
3244   3245   3246   3247
3248   3249   3250   3251
3252   3253   3254   3255
3256   3257   3258   3259
3260   3261   3262   3263
3264   3265   3266   3267
3268   3269   3270   3271
3272   3273   3274   3275
3276   3277   3278   3279
3280   3281   3282   3283
3284   3285   3286   3287
3288   3289   3290   3291
3292   3293   3294   3295
3296   3297   3298   3299
3300   3301   3302   3303
3304   3305   3306   3307
3308   3309   3310   3311
3312   3313   3314   3315
3316   3317   3318   3319
3320   3321   3322   3323
3324   3325   3326   3327
3328   3329   3330   3331
3332   3333   3334   3335
3336   3337   3338   3339
3340   3341   3342   3343
3344   3345   3346   3347
3348   3349   3350   3351
3352   3353   3354   3355
3356   3357   3358   3359
3360   3361   3362   3363
3364   3365   3366   3367
3368   3369   3370   3371
3372   3373   3374   3375
3376   3377   3378   3379
3380   3381   3382   3383
3384   3385   3386   3387
3388   3389   3390   3391
3392   3393   3394   3395
3396   3397   3398   3399
3400   3401   3402   3403
3404   3405   3406   3407
3408   3409   3410   3411
3412   3413   3414   3415
3416   3417   3418   3419
3420   3421   3422   3423
3424   3425   3426   3427
3428   3429   3430   3431
3432   3433   3434   3435
3436   3437   3438   3439
3440   3441   3442   3443
3444   3445   3446   3447
3448   3449   3450   3451
3452   3453   3454   3455
3456   3457   3458   3459
3460   3461   3462   3463
3464   3465   3466   3467
3468   3469   3470   3471
3472   3473   3474   3475
3476   3477   3478   3479
3480   3481   3482   3483
3484   3485   3486   3487
3488   3489   3490   3491
3492   3493   3494   3495
3496   3497   3498   3499
3500   3501   3502   3503
3504   3505   3506   3507
3508   3509   3510   3511
3512   3513   3514   3515
3516   3517   3518   3519
3520   3521   3522   3523
3524   3525   3526   3527
3528   3529   3530   3531
3532   3533   3534   3535
3536   3537   3538   3539
3540   3541   3542   3543
3544   3545   3546   3547
3548   3549   3550   3551
3552   3553   3554   3555
3556   3557   3558   3559
3560   3561   3562   3563
3564   3565   3566   3567
3568   3569   3570   3571
3572   3573   3574   3575
3576   3577   3578   3579
3580   3581   3582   3583
3584   3585   3586   3587
3588   3589   3590   3591
3592   3593   3594   3595
3596   3597   3598   3599
3600   3601   3602   3603
3604   3605   3606   3607
3608   3609   3610   3611
3612   3613   3614   3615
3616   3617   3618   3619
3620   3621   3622   3623
3624   3625   3626   3627
3628   3629   3630   3631
3632   3633   3634   3635
3636   3637   3638   3639
3640   3641   3642   3643
3644   3645   3646   3647
3648   3649   3650   3651
3652   3653   3654   3655
3656   3657   3658   3659
3660   3661   3662   3663
3664   3665   3666   3667
3668   3669   3670   3671
3672   3673   3674   3675
3676   3677   3678   3679
3680   3681   3682   3683
3684   3685   3686   3687
3688   3689   3690   3691
3692   3693   3694   3695
3696   3697   3698   3699
3700   3701   3702   3703
3704   3705   3706   3707
3708   3709   3710   3711
3712   3713   3714   3715
3716   3717   3718   3719
3720   3721   3722   3723
3724   3725   3726   3727
3728   3729   3730   3731
3732   3733   3734   3735
3736   3737   3738   3739
3740   3741   3742   3743
3744   3745   3746   3747
3748   3749   3750   3751
3752   3753   3754   3755
3756   3757   3758   3759
3760   3761   3762   3763
3764   3765   3766   3767
3768   3769   3770   3771
3772   3773   3774   3775
3776   3777   3778   3779
3780   3781   3782   3783
3784   3785   3786   3787
3788   3789   3790   3791
3792   3793   3794   3795
3796   3797   3798   3799
3800   3801   3802   3803
3804   3805   3806   3807
3808   3809   3810   3811
3812   3813   3814   3815
3816   3817   3818   3819
3820   3821   3822   3823
3824   3825   3826   3827
3828   3829   3830   3831
3832   3833   3834   3835
3836   3837   3838   3839
3840   3841   3842   3843
3844   3845   3846   3847
3848   3849   3850   3851
3852   3853   3854   3855
3856   3857   3858   3859
3860   3861   3862   3863
3864   3865   3866   3867
3868   3869   3870   3871
3872   3873   3874   3875
3876   3877   3878   3879
3880   3881   3882   3883
3884   3885   3886   3887
3888   3889   3890   3891
3892   3893   3894   3895
3896   3897   3898   3899
3900   3901   3902   3903
3904   3905   3906   3907
3908   3909   3910   3911
3912   3913   3914   3915
3916   3917   3918   3919
3920   3921   3922   3923
3924   3925   3926   3927
3928   3929   3930   3931
3932   3933   3934   3935
3936   3937   3938   3939
3940   3941   3942   3943
3944   3945   3946   3947
3948   3949   3950   3951
3952   3953   3954   3955
3956   3957   3958   3959
3960   3961   3962   3963
3964   3965   3966   3967
3968   3969   3970   3971
3972   3973   3974   3975
3976   3977   3978   3979
3980   3981   3982   3983
3984   3985   3986   3987
3988   3989   3990   3991
3992   3993   3994   3995
3996   3997   3998   3999
4000   4001   4002   4003
4004   4005   4006   4007
4008   4009   4010   4011
4012   4013   4014   4015
4016   4017   4018   4019
4020   4021   4022   4023
4024   4025   4026   4027
4028   4029   4030   4031
4032   4033   4034   4035
4036   4037   4038   4039
4040   4041   4042   4043
4044   4045   4046   4047
4048   4049   4050   4051
4052   4053   4054   4055
4056   4057   4058   4059
4060   4061   4062   4063
4064   4065   4066   4067
4068   4069   4070   4071
4072   4073   4074   4075
4076   4077   4078   4079
4080   4081   4082   4083
4084   4085   4086   4087
4088   4089   4090   4091
4092   4093   4094   4095
4096   4097   4098   4099
4100   4101   4102   4103
4104   4105   4106   4107
4108   4109   4110   4111
4112   4113   4114   4115
4116   4117   4118   4119
4120   4121   4122   4123
4124   4125   4126   4127
4128   4129   4130   4131
4132   4133   4134   4135
4136   4137   4138   4139
4140   4141   4142   4143
4144   4145   4146   4147
4148   4149   4150   4151
4152   4153   4154   4155
4156   4157   4158   4159
4160   4161   4162   4163
4164   4165   4166   4167
4168   4169   4170   4171
4172   4173   4174   4175
4176   4177   4178   4179
4180   4181   4182   4183
4184   4185   4186   4187
4188   4189   4190   4191
4192   4193   4194   4195
4196   4197   4198   4199
4200   4201   4202   4203
4204   4205   4206   4207
4208   4209   4210   4211
4212   4213   4214   4215
4216   4217   4218   4219
4220   4221   4222   4223
4224   4225   4226   4227
4228   4229   4230   4231
4232   4233   4234   4235
4236   4237   4238   4239
4240   4241   4242   4243
4244   4245   4246   4247
4248   4249   4250   4251
4252   4253   4254   4255
4256   4257   4258   4259
4260   4261   4262   4263
4264   4265   4266   4267
4268   4269   4270   4271
4272   4273   4274   4275
4276   4277   4278   4279
4280   4281   4282   4283
4284   4285   4286   4287
4288   4289   4290   4291
4292   4293   4294   4295
4296   4297   4298   4299
4300   4301   4302   4303
4304   4305   4306   4307
4308   4309   4310   4311
4312   4313   4314   4315
4316   4317   4318   4319
4320   4321   4322   4323
4324   4325   4326   4327
4328   4329   4330   4331
4332   4333   4334   4335
4336   4337   4338   4339
4340   4341   4342   4343
4344   4345   4346   4347
4348   4349   4350   4351
4352   4353   4354   4355
4356   4357   4358   4359
4360   4361   4362   4363
4364   4365   4366   4367
4368   4369   4370   4371
4372   4373   4374   4375
4376   4377   4378   4379
4380   4381   4382   4383
4384   4385   4386   4387
4388   4389   4390   4391
4392   4393   4394   4395
4396   4397   4398   4399
4400   4401   4402   4403
4404   4405   4406   4407
4408   4409   4410   4411
4412   4413   4414   4415
4416   4417   4418   4419
4420   4421   4422   4423
4424   4425   4426   4427
4428   4429   4430   4431
4432   4433   4434   4435
4436   4437   4438   4439
4440   4441   4442   4443
4444   4445   4446   4447
4448   4449   4450   4451
4452   4453   4454   4455
4456   4457   4458   4459
4460   4461   4462   4463
4464   4465   4466   4467
4468   4469   4470   4471
4472   4473   4474   4475
4476   4477   4478   4479
4480   4481   4482   4483
4484   4485   4486   4487
4488   4489   4490   4491
4492   4493   4494   4495
4496   4497   4498   4499
4500   4501   4502   4503
4504   4505   4506   4507
4508   4509   4510   4511
4512   4513   4514   4515
4516   4517   4518   4519
4520   4521   4522   4523
4524   4525   4526   4527
4528   4529   4530   4531
4532   4533   4534   4535
4536   4537   4538   4539
4540   4541   4542   4543
4544   4545   4546   4547
4548   4549   4550   4551
4552   4553   4554   4555
4556   4557   4558   4559
4560   4561   4562   4563
4564   4565   4566   4567
4568   4569   4570   4571
4572   4573   4574   4575
4576   4577   4578   4579
4580   4581   4582   4583
4584   4585   4586   4587
4588   4589   4590   4591
4592   4593   4594   4595
4596   4597   4598   4599
4600   4601   4602   4603
4604   4605   4606   4607
4608   4609   4610   4611
4612   4613   4614   4615
4616   4617   4618   4619
4620   4621   4622   4623
4624   4625   4626   4627
4628   4629   4630   4631
4632   4633   4634   4635
4636   4637   4638   4639
4640   4641   4642   4643
4644   4645   4646   4647
4648   4649   4650   4651
4652   4653   4654   4655
4656   4657   4658   4659
4660   4661   4662   4663
4664   4665   4666   4667
4668   4669   4670   4671
4672   4673   4674   4675
4676   4677   4678   4679
4680   4681   4682   4683
4684   4685   4686   4687
4688   4689   4690   4691
4692   4693   4694   4695
4696   4697   4698   4699
4700   4701   4702   4703
4704   4705   4706   4707
4708   4709   4710   4711
4712   4713   4714   4715
4716   4717   4718   4719
4720   4721   4722   4723
4724   4725   4726   4727
4728   4729   4730   4731
4732   4733   4734   4735
4736   4737   4738   4739
4740   4741   4742   4743
4744   4745   4746   4747
4748   4749   4750   4751
4752   4753   4754   4755
4756   4757   4758   4759
4760   4761   4762   4763
4764   4765   4766   4767
4768   4769   4770   4771
4772   4773   4774   4775
4776   4777   4778   4779
4780   4781   4782   4783
4784   4785   4786   4787
4788   4789   4790   4791
4792   4793   4794   4795
4796   4797   4798   4799
4800   4801   4802   4803
4804   4805   4806   4807
4808   4809   4810   4811
4812   4813   4814   4815
4816   4817   4818   4819
4820   4821   4822   4823
4824   4825   4826   4827
4828   4829   4830   4831
4832   4833   4834   4835
4836   4837   4838   4839
4840   4841   4842   4843
4844   4845   4846   4847
4848   4849   4850   4851
4852   4853   4854   4855
4856   4857   4858   4859
4860   4861   4862   4863
4864   4865   4866   4867
4868   4869   4870   4871
4872   4873   4874   4875
4876   4877   4878   4879
4880   4881   4882   4883
4884   4885   4886   4887
4888   4889   4890   4891
4892   4893   4894   4895
4896   4897   4898   4899
4900   4901   4902   4903
4904   4905   4906   4907
4908   4909   4910   4911
4912   4913   4914   4915
4916   4917   4918   4919
4920   4921   4922   4923
4924   4925   4926   4927
4928   4929   4930   4931
4932   4933   4934   4935
4936   4937   4938   4939
4940   4941   4942   4943
4944   4945   4946   4947
4948   4949   4950   4951
4952   4953   4954   4955
4956   4957   4958   4959
4960   4961   4962   4963
4964   4965   4966   4967
4968   4969   4970   4971
4972   4973   4974   4975
4976   4977   4978   4979
4980   4981   4982   4983
4984   4985   4986   4987
4988   4989   4990   4991
4992   4993   4994   4995
4996   4997   4998   4999
5000   5001   5002   5003
5004   5005   5006   5007
5008   5009   5010   5011
5012   5013   5014   5015
5016   5017   5018   5019
5020   5021   5022   5023
5024   5025   5026   5027
5028   5029   5030   5031
5032   5033   5034   5035
5036   5037   5038   5039
5040   5041   5042   5043
5044   5045   5046   5047
5048   5049   5050   5051
5052   5053   5054   5055
5056   5057   5058   5059
5060   5061   5062   5063
5064   5065   5066   5067
5068   5069   5070   5071
5072   5073   5074   5075
5076   5077   5078   5079
5080   5081   5082   5083
5084   5085   5086   5087
5088   5089   5090   5091
5092   5093   5094   5095
5096   5097   5098   5099
5100   5101   5102   5103
5104   5105   5106   5107
5108   5109   5110   5111
5112   5113   5114   5115
5116   5117   5118   5119
5120   5121   5122   5123
5124   5125   5126   5127
5128   5129   5130   5131
5132   5133   5134   5135
5136   5137   5138   5139
5140   5141   5142   5143
5144   5145   5146   5147
5148   5149   5150   5151
5152   5153   5154   5155
5156   5157   5158   5159
5160   5161   5162   5163
5164   5165   5166   5167
5168   5169   5170   5171
5172   5173   5174   5175
5176   5177   5178   5179
5180   5181   5182   5183
5184   5185   5186   5187
5188   5189   5190   5191
5192   5193   5194   5195
5196   5197   5198   5199
5200   5201   5202   5203
5204   5205   5206   5207
5208   5209   5210   5211
5212   5213   5214   5215
5216   5217   5218   5219
5220   5221   5222   5223
5224   5225   5226   5227
5228   5229   5230   5231
5232   5233   5234   5235
5236   5237   5238   5239
5240   5241   5242   5243
5244   5245   5246   5247
5248   5249   5250   5251
5252   5253   5254   5255
5256   5257   5258   5259
5260   5261   5262   5263
5264   5265   5266   5267
5268   5269   5270   5271
5272   5273   5274   5275
5276   5277   5278   5279
5280   5281   5282   5283
5284   5285   5286   5287
5288   5289   5290   5291
5292   5293   5294   5295
5296   5297   5298   5299
5300   5301   5302   5303
5304   5305   5306   5307
5308   5309   5310   5311
5312   5313   5314   5315
5316   5317   5318   5319
5320   5321   5322   5323
5324   5325   5326   5327
5328   5329   5330   5331
5332   5333   5334   5335
5336   5337   5338   5339
5340   5341   5342   5343
5344   5345   5346   5347
5348   5349   5350   5351
5352   5353   5354   5355
5356   5357   5358   5359
5360   5361   5362   5363
5364   5365   5366   5367
5368   5369   5370   5371
5372   5373   5374   5375
5376   5377   5378   5379
5380   5381   5382   5383
5384   5385   5386   5387
5388   5389   5390   5391
5392   5393   5394   5395
5396   5397   5398   5399
5400   5401   5402   5403
5404   5405   5406   5407
5408   5409   5410   5411
5412   5413   5414   5415
5416   5417   5418   5419
5420   5421   5422   5423
5424   5425   5426   5427
5428   5429   5430   5431
5432   5433   5434   5435
5436   5437   5438   5439
5440   5441   5442   5443
5444   5445   5446   5447
5448   5449   5450   5451
5452   5453   5454   5455
5456   5457   5458   5459
5460   5461   5462   5463
5464   5465   5466   5467
5468   5469   5470   5471
5472   5473   5474   5475
5476   5477   5478   5479
5480   5481   5482   5483
5484   5485   5486   5487
5488   5489   5490   5491
5492   5493   5494   5495
5496   5497   5498   5499
5500   5501   5502   5503
5504   5505   5506   5507
5508   5509   5510   5511
5512   5513   5514   5515
5516   5517   5518   5519
5520   5521   5522   5523
5524   5525   5526   5527
5528   5529   5530   5531
5532   5533   5534   5535
5536   5537   5538   5539
5540   5541   5542   5543
5544   5545   5546   5547
5548   5549   5550   5551
5552   5553   5554   5555
5556   5557   5558   5559
5560   5561   5562   5563
5564   5565   5566   5567
5568   5569   5570   5571
5572   5573   5574   5575
5576   5577   5578   5579
5580   5581   5582   5583
5584   5585   5586   5587
5588   5589   5590   5591
5592   5593   5594   5595
5596   5597   5598   5599
5600   5601   5602   5603
5604   5605   5606   5607
5608   5609   5610   5611
5612   5613   5614   5615
5616   5617   5618   5619
5620   5621   5622   5623
5624   5625   5626   5627
5628   5629   5630   5631
5632   5633   5634   5635
5636   5637   5638   5639
5640   5641   5642   5643
5644   5645   5646   5647
5648   5649   5650   5651
5652   5653   5654   5655
5656   5657   5658   5659
5660   5661   5662   5663
5664   5665   5666   5667
5668   5669   5670   5671
5672   5673   5674   5675
5676   5677   5678   5679
5680   5681   5682   5683
5684   5685   5686   5687
5688   5689   5690   5691
5692   5693   5694   5695
5696   5697   5698   5699
5700   5701   5702   5703
5704   5705   5706   5707
5708   5709   5710   5711
5712   5713   5714   5715
5716   5717   5718   5719
5720   5721   5722   5723
5724   5725   5726   5727
5728   5729   5730   5731
5732   5733   5734   5735
5736   5737   5738   5739
5740   5741   5742   5743
5744   5745   5746   5747
5748   5749   5750   5751
5752   5753   5754   5755
5756   5757   5758   5759
5760   5761   5762   5763
5764   5765   5766   5767
5768   5769   5770   5771
5772   5773   5774   5775
5776   5777   5778   5779
5780   5781   5782   5783
5784   5785   5786   5787
5788   5789   5790   5791
5792   5793   5794   5795
5796   5797   5798   5799
5800   5801   5802   5803
5804   5805   5806   5807
5808   5809   5810   5811
5812   5813   5814   5815
5816   5817   5818   5819
5820   5821   5822   5823
5824   5825   5826   5827
5828   5829   5830   5831
5832   5833   5834   5835
5836   5837   5838   5839
5840   5841   5842   5843
5844   5845   5846   5847
5848   5849   5850   5851
5852   5853   5854   5855
5856   5857   5858   5859
5860   5861   5862   5863
5864   5865   5866   5867
5868   5869   5870   5871
5872   5873   5874   5875
5876   5877   5878   5879
5880   5881   5882   5883
5884   5885   5886   5887
5888   5889   5890   5891
5892   5893   5894   5895
5896   5897   5898   5899
5900   5901   5902   5903
5904   5905   5906   5907
5908   5909   5910   5911
5912   5913   5914   5915
5916   5917   5918   5919
5920   5921   5922   5923
5924   5925   5926   5927
5928   5929   5930   5931
5932   5933   5934   5935
5936   5937   5938   5939
5940   5941   5942   5943
5944   5945   5946   5947
5948   5949   5950   5951
5952   5953   5954   5955
5956   5957   5958   5959
5960   5961   5962   5963
5964   5965   5966   5967
5968   5969   5970   5971
5972   5973   5974   5975
5976   5977   5978   5979
5980   5981   5982   5983
5984   5985   5986   5987
5988   5989   5990   5991
5992   5993   5994   5995
5996   5997   5998   5999
              </DataArray>   
              <DataArray type="Int32" Name="offsets" format="ascii">   
4
8
12
16
20
24
28
32
36
40
44
48
52
56
60
64
68
72
76
80
84
88
92
96
100
104
108
112
116
120
124
128
132
136
140
144
148
152
156
160
164
168
172
176
180
184
188
192
196
200
204
208
212
216
220
224
228
232
236
240
244
248
252
256
260
264
268
272
276
280
284
288
292
296
300
304
308
312
316
320
324
328
332
336
340
344
348
352
356
360
364
368
372
376
380
384
388
392
396
400
404
408
412
416
420
424
428
432
436
440
444
448
452
456
460
464
468
472
476
480
484
488
492
496
500
504
508
512
516
520
524
528
532
536
540
544
548
552
556
560
564
568
572
576
580
584
588
592
596
600
604
608
612
616
620
624
628
632
636
640
644
648
652
656
660
664
668
672
676
680
684
688
692
696
700
704
708
712
716
720
724
728
732
736
740
744
748
752
756
760
764
768
772
776
780
784
788
792
796
800
804
808
812
816
820
824
828
832
836
840
844
848
852
856
860
864
868
872
876
880
884
888
892
896
900
904
908
912
916
920
924
928
932
936
940
944
948
952
956
960
964
968
972
976
980
984
988
992
996
1000
1004
1008
1012
1016
1020
1024
1028
1032
1036
1040
1044
1048
1052
1056
1060
1064
1068
1072
1076
1080
1084
1088
1092
1096
1100
1104
1108
1112
1116
1120
1124
1128
1132
1136
1140
1144
1148
1152
1156
1160
1164
1168
1172
1176
1180
1184
1188
1192
1196
1200
1204
1208
1212
1216
1220
1224
1228
1232
1236
1240
1244
1248
1252
1256
1260
1264
1268
1272
1276
1280
1284
1288
1292
1296
1300
1304
1308
1312
1316
1320
1324
1328
1332
1336
1340
1344
1348
1352
1356
1360
1364
1368
1372
1376
1380
1384
1388
1392
1396
1400
1404
1408
1412
1416
1420
1424
1428
1432
1436
1440
1444
1448
1452
1456
1460
1464
1468
1472
1476
1480
1484
1488
1492
1496
1500
1504
1508
1512
1516
1520
1524
1528
1532
1536
1540
1544
1548
1552
1556
1560
1564
1568
1572
1576
1580
1584
1588
1592
1596
1600
1604
1608
1612
1616
1620
1624
1628
1632
1636
1640
1644
1648
1652
1656
1660
1664
1668
1672
1676
1680
1684
1688
1692
1696
1700
1704
1708
1712
1716
1720
1724
1728
1732
1736
1740
1744
1748
1752
1756
1760
1764
1768
1772
1776
1780
1784
1788
1792
1796
1800
1804
1808
1812
1816
1820
1824
1828
1832
1836
1840
1844
1848
1852
1856
1860
1864
1868
1872
1876
1880
1884
1888
1892
1896
1900
1904
1908
1912
1916
1920
1924
1928
1932
1936
1940
1944
1948
1952
1956
1960
1964
1968
1972
1976
1980
1984
1988
1992
1996
2000
2004
2008
2012
2016
2020
2024
2028
2032
2036
2040
2044
2048
2052
2056
2060
2064
2068
2072
2076
2080
2084
2088
2092
2096
2100
2104
2108
2112
2116
2120
2124
2128
2132
2136
2140
2144
2148
2152
2156
2160
2164
2168
2172
2176
2180
2184
2188
2192
2196
2200
2204
2208
2212
2216
2220
2224
2228
2232
2236
2240
2244
2248
2252
2256
2260
2264
2268
2272
2276
2280
2284
2288
2292
2296
2300
2304
2308
2312
2316
2320
2324
2328
2332
2336
2340
2344
2348
2352
2356
2360
2364
2368
2372
2376
2380
2384
2388
2392
2396
2400
2404
2408
2412
2416
2420
2424
2428
2432
2436
2440
2444
2448
2452
2456
2460
2464
2468
2472
2476
2480
2484
2488
2492
2496
2500
2504
2508
2512
2516
2520
2524
2528
2532
2536
2540
2544
2548
2552
2556
2560
2564
2568
2572
2576
2580
2584
2588
2592
2596
2600
2604
2608
2612
2616
2620
2624
2628
2632
2636
2640
2644
2648
2652
2656
2660
2664
2668
2672
2676
2680
2684
2688
2692
2696
2700
2704
2708
2712
2716
2720
2724
2728
2732
2736
2740
2744
2748
2752
2756
2760
2764
2768
2772
2776
2780
2784
2788
2792
2796
2800
2804
2808
2812
2816
2820
2824
2828
2832
2836
2840
2844
2848
2852
2856
2860
2864
2868
2872
2876
2880
2884
2888
2892
2896
2900
2904
2908
2912
2916
2920
2924
2928
2932
2936
2940
2944
2948
2952
2956
2960
2964
2968
2972
2976
2980
2984
2988
2992
2996
3000
3004
3008
3012
3016
3020
3024
3028
3032
3036
3040
3044
3048
3052
3056
3060
3064
3068
3072
3076
3080
3084
3088
3092
3096
3100
3104
3108
3112
3116
3120
3124
3128
3132
3136
3140
3144
3148
3152
3156
3160
3164
3168
3172
3176
3180
3184
3188
3192
3196
3200
3204
3208
3212
3216
3220
3224
3228
3232
3236
3240
3244
3248
3252
3256
3260
3264
3268
3272
3276
3280
3284
3288
3292
3296
3300
3304
3308
3312
3316
3320
3324
3328
3332
3336
3340
3344
3348
3352
3356
3360
3364
3368
3372
3376
3380
3384
3388
3392
3396
3400
3404
3408
3412
3416
3420
3424
3428
3432
3436
3440
3444
3448
3452
3456
3460
3464
3468
3472
3476
3480
3484
3488
3492
3496
3500
3504
3508
3512
3516
3520
3524
3528
3532
3536
3540
3544
3548
3552
3556
3560
3564
3568
3572
3576
3580
3584
3588
3592
3596
3600
3604
3608
3612
3616
3620
3624
3628
3632
3636
3640
3644
3648
3652
3656
3660
3664
3668
3672
3676
3680
3684
3688
3692
3696
3700
3704
3708
3712
3716
3720
3724
3728
3732
3736
3740
3744
3748
3752
3756
3760
3764
3768
3772
3776
3780
3784
3788
3792
3796
3800
3804
3808
3812
3816
3820
3824
3828
3832
3836
3840
3844
3848
3852
3856
3860
3864
3868
3872
3876
3880
3884
3888
3892
3896
3900
3904
3908
3912
3916
3920
3924
3928
3932
3936
3940
3944
3948
3952
3956
3960
3964
3968
3972
3976
3980
3984
3988
3992
3996
4000
4004
4008
4012
4016
4020
4024
4028
4032
4036
4040
4044
4048
4052
4056
4060
4064
4068
4072
4076
4080
4084
4088
4092
4096
4100
4104
4108
4112
4116
4120
4124
4128
4132
4136
4140
4144
4148
4152
4156
4160
4164
4168
4172
4176
4180
4184
4188
4192
4196
4200
4204
4208
4212
4216
4220
4224
4228
4232
4236
4240
4244
4248
4252
4256
4260
4264
4268
4272
4276
4280
4284
4288
4292
4296
4300
4304
4308
4312
4316
4320
4324
4328
4332
4336
4340
4344
4348
4352
4356
4360
4364
4368
4372
4376
4380
4384
4388
4392
4396
4400
4404
4408
4412
4416
4420
4424
4428
4432
4436
4440
4444
4448
4452
4456
4460
4464
4468
4472
4476
4480
4484
4488
4492
4496
4500
4504
4508
4512
4516
4520
4524
4528
4532
4536
4540
4544
4548
4552
4556
4560
4564
4568
4572
4576
4580
4584
4588
4592
4596
4600
4604
4608
4612
4616
4620
4624
4628
4632
4636
4640
4644
4648
4652
4656
4660
4664
4668
4672
4676
4680
4684
4688
4692
4696
4700
4704
4708
4712
4716
4720
4724
4728
4732
4736
4740
4744
4748
4752
4756
4760
4764
4768
4772
4776
4780
4784
4788
4792
4796
4800
4804
4808
4812
4816
4820
4824
4828
4832
4836
4840
4844
4848
4852
4856
4860
4864
4868
4872
4876
4880
4884
4888
4892
4896
4900
4904
4908
4912
4916
4920
4924
4928
4932
4936
4940
4944
4948
4952
4956
4960
4964
4968
4972
4976
4980
4984
4988
4992
4996
5000
5004
5008
5012
5016
5020
5024
5028
5032
5036
5040
5044
5048
5052
5056
5060
5064
5068
5072
5076
5080
5084
5088
5092
5096
5100
5104
5108
5112
5116
5120
5124
5128
5132
5136
5140
5144
5148
5152
5156
5160
5164
5168
5172
5176
5180
5184
5188
5192
5196
5200
5204
5208
5212
5216
5220
5224
5228
5232
5236
5240
5244
5248
5252
5256
5260
5264
5268
5272
5276
5280
5284
5288
5292
5296
5300
5304
5308
5312
5316
5320
5324
5328
5332
5336
5340
5344
5348
5352
5356
5360
5364
5368
5372
5376
5380
5384
5388
5392
5396
5400
5404
5408
5412
5416
5420
5424
5428
5432
5436
5440
5444
5448
5452
5456
5460
5464
5468
5472
5476
5480
5484
5488
5492
5496
5500
5504
5508
5512
5516
5520
5524
5528
5532
5536
5540
5544
5548
5552
5556
5560
5564
5568
5572
5576
5580
5584
5588
5592
5596
5600
5604
5608
5612
5616
5620
5624
5628
5632
5636
5640
5644
5648
5652
5656
5660
5664
5668
5672
5676
5680
5684
5688
5692
5696
5700
5704
5708
5712
5716
5720
5724
5728
5732
5736
5740
5744
5748
5752
5756
5760
5764
5768
5772
5776
5780
5784
5788
5792
5796
5800
5804
5808
5812
5816
5820
5824
5828
5832
5836
5840
5844
5848
5852
5856
5860
5864
5868
5872
5876
5880
5884
5888
5892
5896
5900
5904
5908
5912
5916
5920
5924
5928
5932
5936
5940
5944
5948
5952
5956
5960
5964
5968
5972
5976
5980
5984
5988
5992
5996
6000
              </DataArray>   
              <DataArray type="UInt8" Name="types" format="ascii">   
10
10
10
10
10
10
10
10
10
10
10
10
10
10
10
10
10
10
10
10
10
10
10
10
10
10
10
10
10
10
10
10
10
10
10
10
10
10
10
10
10
10
10
10
10
10
10
10
10
10
10
10
10
10
10
10
10
10
10
10
10
10
10
10
10
10
10
10
10
10
10
10
10
10
10
10
10
10
10
10
10
10
10
10
10
10
10
10
10
10
10
10
10
10
10
10
10
10
10
10
10
10
10
10
10
10
10
10
10
10
10
10
10
10
10
10
10
10
10
10
10
10
10
10
10
10
10
10
10
10
10
10
10
10
10
10
10
10
10
10
10
10
10
10
10
10
10
10
10
10
10
10
10
10
10
10
10
10
10
10
10
10
10
10
10
10
10
10
10
10
10
10
10
10
10
10
10
10
10
10
10
10
10
10
10
10
10
10
10
10
10
10
10
10
10
10
10
10
10
10
10
10
10
10
10
10
10
10
10
10
10
10
10
10
10
10
10
10
10
10
10
10
10
10
10
10
10
10
10
10
10
10
10
10
10
10
10
10
10
10
10
10
10
10
10
10
10
10
10
10
10
10
10
10
10
10
10
10
10
10
10
10
10
10
10
10
10
10
10
10
10
10
10
10
10
10
10
10
10
10
10
10
10
10
10
10
10
10
10
10
10
10
10
10
10
10
10
10
10
10
10
10
10
10
10
10
10
10
10
10
10
10
10
10
10
10
10
10
10
10
10
10
10
10
10
10
10
10
10
10
10
10
10
10
10
10
10
10
10
10
10
10
10
10
10
10
10
10
10
10
10
10
10
10
10
10
10
10
10
10
10
10
10
10
10
10
10
10
10
10
10
10
10
10
10
10
10
10
10
10
10
10
10
10
10
10
10
10
10
10
10
10
10
10
10
10
10
10
10
10
10
10
10
10
10
10
10
10
10
10
10
10
10
10
10
10
10
10
10
10
10
10
10
10
10
10
10
10
10
10
10
10
10
10
10
10
10
10
10
10
10
10
10
10
10
10
10
10
10
10
10
10
10
10
10
10
10
10
10
10
10
10
10
10
10
10
10
10
10
10
10
10
10
10
10
10
10
10
10
10
10
10
10
10
10
10
10
10
10
10
10
10
10
10
10
10
10
10
10
10
10
10
10
10
10
10
10
10
10
10
10
10
10
10
10
10
10
10
10
10
10
10
10
10
10
10
10
10
10
10
10
10
10
10
10
10
10
10
10
10
10
10
10
10
10
10
10
10
10
10
10
10
10
10
10
10
10
10
10
10
10
10
10
10
10
10
10
10
10
10
10
10
10
10
10
10
10
10
10
10
10
10
10
10
10
10
10
10
10
10
10
10
10
10
10
10
10
10
10
10
10
10
10
10
10
10
10
10
10
10
10
10
10
10
10
10
10
10
10
10
10
10
10
10
10
10
10
10
10
10
10
10
10
10
10
10
10
10
10
10
10
10
10
10
10
10
10
10
10
10
10
10
10
10
10
10
10
10
10
10
10
10
10
10
10
10
10
10
10
10
10
10
10
10
10
10
10
10
10
10
10
10
10
10
10
10
10
10
10
10
10
10
10
10
10
10
10
10
10
10
10
10
10
10
10
10
10
10
10
10
10
10
10
10
10
10
10
10
10
10
10
10
10
10
10
10
10
10
10
10
10
10
10
10
10
10
10
10
10
10
10
10
10
10
10
10
10
10
10
10
10
10
10
10
10
10
10
10
10
10
10
10
10
10
10
10
10
10
10
10
10
10
10
10
10
10
10
10
10
10
10
10
10
10
10
10
10
10
10
10
10
10
10
10
10
10
10
10
10
10
10
10
10
10
10
10
10
10
10
10
10
10
10
10
10
10
10
10
10
10
10
10
10
10
10
10
10
10
10
10
10
10
10
10
10
10
10
10
10
10
10
10
10
10
10
10
10
10
10
10
10
10
10
10
10
10
10
10
10
10
10
10
10
10
10
10
10
10
10
10
10
10
10
10
10
10
10
10
10
10
10
10
10
10
10
10
10
10
10
10
10
10
10
10
10
10
10
10
10
10
10
10
10
10
10
10
10
10
10
10
10
10
10
10
10
10
10
10
10
10
10
10
10
10
10
10
10
10
10
10
10
10
10
10
10
10
10
10
10
10
10
10
10
10
10
10
10
10
10
10
10
10
10
10
10
10
10
10
10
10
10
10
10
10
10
10
10
10
10
10
10
10
10
10
10
10
10
10
10
10
10
10
10
10
10
10
10
10
10
10
10
10
10
10
10
10
10
10
10
10
10
10
10
10
10
10
10
10
10
10
10
10
10
10
10
10
10
10
10
10
10
10
10
10
10
10
10
10
10
10
10
10
10
10
10
10
10
10
10
10
10
10
10
10
10
10
10
10
10
10
10
10
10
10
10
10
10
10
10
10
10
10
10
10
10
10
10
10
10
10
10
10
10
10
10
10
10
10
10
10
10
10
10
10
10
10
10
10
10
10
10
10
10
10
10
10
10
10
10
10
10
10
10
10
10
10
10
10
10
10
10
10
10
10
10
10
10
10
10
10
10
10
10
10
10
10
10
10
10
10
10
10
10
10
10
10
10
10
10
10
10
10
10
10
10
10
10
10
10
10
10
10
10
10
10
10
10
10
10
10
10
10
10
10
10
10
10
10
10
10
10
10
10
10
10
10
10
10
10
10
10
10
10
10
10
10
10
10
10
10
10
10
10
10
10
10
10
10
10
10
10
10
10
10
10
10
10
10
10
10
10
10
10
10
10
10
10
10
10
10
10
10
10
10
10
10
10
10
10
10
10
10
10
10
10
10
10
10
10
10
10
10
10
10
10
10
10
10
10
10
10
10
10
10
10
10
10
10
10
10
10
10
10
10
10
10
10
10
10
10
10
10
10
10
10
10
10
10
10
10
10
10
10
10
10
10
10
10
10
10
10
10
10
10
10
10
10
10
10
10
10
10
10
10
10
10
10
10
10
10
10
10
10
10
10
10
10
10
10
10
10
10
10
10
10
10
10
10
10
10
10
10
10
10
10
10
10
10
10
10
10
10
10
10
10
10
10
10
10
10
10
10
10
10
10
10
10
10
10
10
10
10
10
10
10
10
10
10
10
10
10
10
10
10
10
10
10
10
10
10
10
10
10
10
10
10
10
10
10
10
10
10
10
10
10
10
10
10
10
10
10
10
10
10
10
10
10
10
10
10
10
10
10
10
10
10
10
10
10
10
10
10
10
10
10
10
10
10
10
10
10
10
10
10
10
10
10
10
10
10
10
10
10
10
10
10
10
10
10
10
10
10
10
10
10
10
10
10
10
10
10
10
10
10
10
10
10
10
10
10
10
10
10
10
10
10
10
10
10
10
10
10
10
10
10
10
10
10
10
10
10
10
10
10
10
10
10
10
10
10
              </DataArray>   
          </Cells>  
          <PointData>  
             <DataArray type="Float64" NumberOfComponents="3" Name="Strains" format="ascii">   
-6.308032811912548e-05   0.0   -4.14868802866513e-05
-6.308032811912548e-05   0.0   -4.14868802866513e-05
-6.308032811912548e-05   0.0   -4.14868802866513e-05
-6.308032811912548e-05   0.0   -4.14868802866513e-05
-4.0130614229647664e-05   6.976526895806291e-06   9.485589999620877e-07
-4.0130614229647664e-05   6.976526895806291e-06   9.485589999620877e-07
-4.0130614229647664e-05   6.976526895806291e-06   9.485589999620877e-07
-4.0130614229647664e-05   6.976526895806291e-06   9.485589999620877e-07
-3.933111155235585e-05   0.0   -3.916690832647983e-05
-3.933111155235585e-05   0.0   -3.916690832647983e-05
-3.933111155235585e-05   0.0   -3.916690832647983e-05
-3.933111155235585e-05   0.0   -3.916690832647983e-05
-6.600931584814816e-05   8.377704899691587e-06   2.7014256002590013e-07
-6.600931584814816e-05   8.377704899691587e-06   2.7014256002590013e-07
-6.600931584814816e-05   8.377704899691587e-06   2.7014256002590013e-07
-6.600931584814816e-05   8.377704899691587e-06   2.7014256002590013e-07
-5.120571983574057e-05   1.933309966809554e-06   -2.053588050092415e-05
-5.120571983574057e-05   1.933309966809554e-06   -2.053588050092415e-05
-5.120571983574057e-05   1.933309966809554e-06   -2.053588050092415e-05
-5.120571983574057e-05   1.933309966809554e-06   -2.053588050092415e-05
-6.600931584814827e-05   0.0   -4.419353126629479e-05
-6.600931584814827e-05   0.0   -4.419353126629479e-05
-6.600931584814827e-05   0.0   -4.419353126629479e-05
-6.600931584814827e-05   0.0   -4.419353126629479e-05
-3.933111155235585e-05   8.3777048996916e-06   5.296765499840841e-06
-3.933111155235585e-05   8.3777048996916e-06   5.296765499840841e-06
-3.933111155235585e-05   8.3777048996916e-06   5.296765499840841e-06
-3.933111155235585e-05   8.3777048996916e-06   5.296765499840841e-06
-3.943570756197155e-05   0.0   -4.012387426150019e-05
-3.943570756197155e-05   0.0   -4.012387426150019e-05
-3.943570756197155e-05   0.0   -4.012387426150019e-05
-3.943570756197155e-05   0.0   -4.012387426150019e-05
-6.806341169408719e-05   8.97695060833275e-06   2.2027955936930617e-06
-6.806341169408719e-05   8.97695060833275e-06   2.2027955936930617e-06
-6.806341169408719e-05   8.97695060833275e-06   2.2027955936930617e-06
-6.806341169408719e-05   8.97695060833275e-06   2.2027955936930617e-06
-5.272251170505982e-05   3.391380837328831e-06   -2.0014029192083513e-05
-5.272251170505982e-05   3.391380837328831e-06   -2.0014029192083513e-05
-5.272251170505982e-05   3.391380837328831e-06   -2.0014029192083513e-05
-5.272251170505982e-05   3.391380837328831e-06   -2.0014029192083513e-05
-6.806341169408731e-05   0.0   -4.551004462649985e-05
-6.806341169408731e-05   0.0   -4.551004462649985e-05
-6.806341169408731e-05   0.0   -4.551004462649985e-05
-6.806341169408731e-05   0.0   -4.551004462649985e-05
-3.943570756197148e-05   8.97695060833275e-06   7.588965958692709e-06
-3.943570756197148e-05   8.97695060833275e-06   7.588965958692709e-06
-3.943570756197148e-05   8.97695060833275e-06   7.588965958692709e-06
-3.943570756197148e-05   8.97695060833275e-06   7.588965958692709e-06
-3.9407849596833136e-05   0.0   -4.0370773676895486e-05
-3.9407849596833136e-05   0.0   -4.0370773676895486e-05
-3.9407849596833136e-05   0.0   -4.0370773676895486e-05
-3.9407849596833136e-05   0.0   -4.0370773676895486e-05
-7.249477659330358e-05   1.0231278383703545e-05   8.635337620333317e-06
-7.249477659330358e-05   1.0231278383703545e-05   8.635337620333317e-06
-7.249477659330358e-05   1.0231278383703545e-05   8.635337620333317e-06
-7.249477659330358e-05   1.0231278383703545e-05   8.635337620333317e-06
-5.373563064546013e-05   4.282725791336974e-06   -1.906077407065247e-05
-5.373563064546013e-05   4.282725791336974e-06   -1.906077407065247e-05
-5.373563064546013e-05   4.282725791336974e-06   -1.906077407065247e-05
-5.373563064546013e-05   4.282725791336974e-06   -1.906077407065247e-05
-4.013061422964773e-05   0.0   -3.7300964149167526e-05
-4.013061422964773e-05   0.0   -3.7300964149167526e-05
-4.013061422964773e-05   0.0   -3.7300964149167526e-05
-4.013061422964773e-05   0.0   -3.7300964149167526e-05
-1.828301276676804e-05   2.5564845813159516e-06   6.455957044214987e-07
-1.828301276676804e-05   2.5564845813159516e-06   6.455957044214987e-07
-1.828301276676804e-05   2.5564845813159516e-06   6.455957044214987e-07
-1.828301276676804e-05   2.5564845813159516e-06   6.455957044214987e-07
-1.7578178744415218e-05   0.0   -3.6980837393195464e-05
-1.7578178744415218e-05   0.0   -3.6980837393195464e-05
-1.7578178744415218e-05   0.0   -3.6980837393195464e-05
-1.7578178744415218e-05   0.0   -3.6980837393195464e-05
-3.933111155235585e-05   3.643451555473845e-06   -2.9120203132454995e-06
-3.933111155235585e-05   3.643451555473845e-06   -2.9120203132454995e-06
-3.933111155235585e-05   3.643451555473845e-06   -2.9120203132454995e-06
-3.933111155235585e-05   3.643451555473845e-06   -2.9120203132454995e-06
-2.885439648703144e-05   2.6677229664333086e-07   -1.8347204533487748e-05
-2.885439648703144e-05   2.6677229664333086e-07   -1.8347204533487748e-05
-2.885439648703144e-05   2.6677229664333086e-07   -1.8347204533487748e-05
-2.885439648703144e-05   2.6677229664333086e-07   -1.8347204533487748e-05
-3.933111155235581e-05   0.0   -3.91669083264798e-05
-3.933111155235581e-05   0.0   -3.91669083264798e-05
-3.933111155235581e-05   0.0   -3.91669083264798e-05
-3.933111155235581e-05   0.0   -3.91669083264798e-05
-1.7578178744415218e-05   3.6434515554738316e-06   -7.259493799612094e-07
-1.7578178744415218e-05   3.6434515554738316e-06   -7.259493799612094e-07
-1.7578178744415218e-05   3.6434515554738316e-06   -7.259493799612094e-07
-1.7578178744415218e-05   3.6434515554738316e-06   -7.259493799612094e-07
-1.717973688379137e-05   0.0   -3.744373871674486e-05
-1.717973688379137e-05   0.0   -3.744373871674486e-05
-1.717973688379137e-05   0.0   -3.744373871674486e-05
-1.717973688379137e-05   0.0   -3.744373871674486e-05
-3.943570756197155e-05   4.466892574592112e-06   -3.0305897978666227e-06
-3.943570756197155e-05   4.466892574592112e-06   -3.0305897978666227e-06
-3.943570756197155e-05   4.466892574592112e-06   -3.0305897978666227e-06
-3.943570756197155e-05   4.466892574592112e-06   -3.0305897978666227e-06
-2.8255424218073568e-05   1.4359746747790938e-06   -1.9845844631141948e-05
-2.8255424218073568e-05   1.4359746747790938e-06   -1.9845844631141948e-05
-2.8255424218073568e-05   1.4359746747790938e-06   -1.9845844631141948e-05
-2.8255424218073568e-05   1.4359746747790938e-06   -1.9845844631141948e-05
-3.943570756197155e-05   0.0   -4.012387426150019e-05
-3.943570756197155e-05   0.0   -4.012387426150019e-05
-3.943570756197155e-05   0.0   -4.012387426150019e-05
-3.943570756197155e-05   0.0   -4.012387426150019e-05
-1.71797368837914e-05   4.466892574592112e-06   -3.5045425311134443e-07
-1.71797368837914e-05   4.466892574592112e-06   -3.5045425311134443e-07
-1.71797368837914e-05   4.466892574592112e-06   -3.5045425311134443e-07
-1.71797368837914e-05   4.466892574592112e-06   -3.5045425311134443e-07
-1.6815879558097014e-05   0.0   -3.7251223046290374e-05
-1.6815879558097014e-05   0.0   -3.7251223046290374e-05
-1.6815879558097014e-05   0.0   -3.7251223046290374e-05
-1.6815879558097014e-05   0.0   -3.7251223046290374e-05
-3.94078495968331e-05   5.199251051008475e-06   -2.7174902790019615e-06
-3.94078495968331e-05   5.199251051008475e-06   -2.7174902790019615e-06
-3.94078495968331e-05   5.199251051008475e-06   -2.7174902790019615e-06
-3.94078495968331e-05   5.199251051008475e-06   -2.7174902790019615e-06
-2.8125793560034273e-05   2.3938760126748234e-06   -1.9837691983999835e-05
-2.8125793560034273e-05   2.3938760126748234e-06   -1.9837691983999835e-05
-2.8125793560034273e-05   2.3938760126748234e-06   -1.9837691983999835e-05
-2.8125793560034273e-05   2.3938760126748234e-06   -1.9837691983999835e-05
-1.8283012766768075e-05   0.0   -3.576707340037795e-05
-1.8283012766768075e-05   0.0   -3.576707340037795e-05
-1.8283012766768075e-05   0.0   -3.576707340037795e-05
-1.8283012766768075e-05   0.0   -3.576707340037795e-05
2.3534611341189834e-06   -3.2920251855939346e-07   -1.5704717433684603e-06
2.3534611341189834e-06   -3.2920251855939346e-07   -1.5704717433684603e-06
2.3534611341189834e-06   -3.2920251855939346e-07   -1.5704717433684603e-06
2.3534611341189834e-06   -3.2920251855939346e-07   -1.5704717433684603e-06
2.806287373369737e-06   0.0   -3.659283592382644e-05
2.806287373369737e-06   0.0   -3.659283592382644e-05
2.806287373369737e-06   0.0   -3.659283592382644e-05
2.806287373369737e-06   0.0   -3.659283592382644e-05
-1.7578178744415218e-05   6.466691156149459e-07   -3.0067271968871945e-06
-1.7578178744415218e-05   6.466691156149459e-07   -3.0067271968871945e-06
-1.7578178744415218e-05   6.466691156149459e-07   -3.0067271968871945e-06
-1.7578178744415218e-05   6.466691156149459e-07   -3.0067271968871945e-06
-7.738362696699149e-06   -6.881354362071754e-07   -1.860553787865403e-05
-7.738362696699149e-06   -6.881354362071754e-07   -1.860553787865403e-05
-7.738362696699149e-06   -6.881354362071754e-07   -1.860553787865403e-05
-7.738362696699149e-06   -6.881354362071754e-07   -1.860553787865403e-05
-1.7578178744415248e-05   0.0   -3.698083739319553e-05
-1.7578178744415248e-05   0.0   -3.698083739319553e-05
-1.7578178744415248e-05   0.0   -3.698083739319553e-05
-1.7578178744415248e-05   0.0   -3.698083739319553e-05
2.806287373369742e-06   6.466691156149459e-07   -2.618725727518234e-06
2.806287373369742e-06   6.466691156149459e-07   -2.618725727518234e-06
2.806287373369742e-06   6.466691156149459e-07   -2.618725727518234e-06
2.806287373369742e-06   6.466691156149459e-07   -2.618725727518234e-06
3.164522506273393e-06   0.0   -3.6539998659224676e-05
3.164522506273393e-06   0.0   -3.6539998659224676e-05
3.164522506273393e-06   0.0   -3.6539998659224676e-05
3.164522506273393e-06   0.0   -3.6539998659224676e-05
-1.7179736883791344e-05   1.5062334292003014e-06   -3.5366397333035844e-06
-1.7179736883791344e-05   1.5062334292003014e-06   -3.5366397333035844e-06
-1.7179736883791344e-05   1.5062334292003014e-06   -3.5366397333035844e-06
-1.7179736883791344e-05   1.5062334292003014e-06   -3.5366397333035844e-06
-7.206828119070912e-06   3.6736561164232197e-07   -1.9474833650636214e-05
-7.206828119070912e-06   3.6736561164232197e-07   -1.9474833650636214e-05
-7.206828119070912e-06   3.6736561164232197e-07   -1.9474833650636214e-05
-7.206828119070912e-06   3.6736561164232197e-07   -1.9474833650636214e-05
-1.71797368837914e-05   0.0   -3.744373871674492e-05
-1.71797368837914e-05   0.0   -3.744373871674492e-05
-1.71797368837914e-05   0.0   -3.744373871674492e-05
-1.71797368837914e-05   0.0   -3.744373871674492e-05
3.1645225062733986e-06   1.5062334292003082e-06   -2.6328996757834144e-06
3.1645225062733986e-06   1.5062334292003082e-06   -2.6328996757834144e-06
3.1645225062733986e-06   1.5062334292003082e-06   -2.6328996757834144e-06
3.1645225062733986e-06   1.5062334292003082e-06   -2.6328996757834144e-06
3.644430071416126e-06   0.0   -3.575035188804093e-05
3.644430071416126e-06   0.0   -3.575035188804093e-05
3.644430071416126e-06   0.0   -3.575035188804093e-05
3.644430071416126e-06   0.0   -3.575035188804093e-05
-1.6815879558097e-05   2.5014519304156658e-06   -3.150706997101805e-06
-1.6815879558097e-05   2.5014519304156658e-06   -3.150706997101805e-06
-1.6815879558097e-05   2.5014519304156658e-06   -3.150706997101805e-06
-1.6815879558097e-05   2.5014519304156658e-06   -3.150706997101805e-06
-6.767653406187622e-06   1.4111556905866035e-06   -1.9243572839719966e-05
-6.767653406187622e-06   1.4111556905866035e-06   -1.9243572839719966e-05
-6.767653406187622e-06   1.4111556905866035e-06   -1.9243572839719966e-05
-6.767653406187622e-06   1.4111556905866035e-06   -1.9243572839719966e-05
2.3534611341189876e-06   0.0   -3.596459491151359e-05
2.3534611341189876e-06   0.0   -3.596459491151359e-05
2.3534611341189876e-06   0.0   -3.596459491151359e-05
2.3534611341189876e-06   0.0   -3.596459491151359e-05
2.4759422192732646e-05   -2.9040606531766184e-06   -3.6376287239676697e-07
2.4759422192732646e-05   -2.9040606531766184e-06   -3.6376287239676697e-07
2.4759422192732646e-05   -2.9040606531766184e-06   -3.6376287239676697e-07
2.4759422192732646e-05   -2.9040606531766184e-06   -3.6376287239676697e-07
2.4811015237053772e-05   0.0   -3.79053327357456e-05
2.4811015237053772e-05   0.0   -3.79053327357456e-05
2.4811015237053772e-05   0.0   -3.79053327357456e-05
2.4811015237053772e-05   0.0   -3.79053327357456e-05
2.8062873733697468e-06   -2.1874946865317192e-06   8.171051564680846e-08
2.8062873733697468e-06   -2.1874946865317192e-06   8.171051564680846e-08
2.8062873733697468e-06   -2.1874946865317192e-06   8.171051564680846e-08
2.8062873733697468e-06   -2.1874946865317192e-06   8.171051564680846e-08
1.358223818558638e-05   -1.6172815201933383e-06   -1.822033540451726e-05
1.358223818558638e-05   -1.6172815201933383e-06   -1.822033540451726e-05
1.358223818558638e-05   -1.6172815201933383e-06   -1.822033540451726e-05
1.358223818558638e-05   -1.6172815201933383e-06   -1.822033540451726e-05
2.8062873733697468e-06   0.0   -3.659283592382656e-05
2.8062873733697468e-06   0.0   -3.659283592382656e-05
2.8062873733697468e-06   0.0   -3.659283592382656e-05
2.8062873733697468e-06   0.0   -3.659283592382656e-05
2.4811015237053772e-05   -2.1874946865317192e-06   -1.2307862962722266e-06
2.4811015237053772e-05   -2.1874946865317192e-06   -1.2307862962722266e-06
2.4811015237053772e-05   -2.1874946865317192e-06   -1.2307862962722266e-06
2.4811015237053772e-05   -2.1874946865317192e-06   -1.2307862962722266e-06
2.471127403164002e-05   0.0   -3.736411310441995e-05
2.471127403164002e-05   0.0   -3.736411310441995e-05
2.471127403164002e-05   0.0   -3.736411310441995e-05
2.471127403164002e-05   0.0   -3.736411310441995e-05
3.1645225062733986e-06   -1.3735240753253613e-06   -6.287461169470493e-07
3.1645225062733986e-06   -1.3735240753253613e-06   -6.287461169470493e-07
3.1645225062733986e-06   -1.3735240753253613e-06   -6.287461169470493e-07
3.1645225062733986e-06   -1.3735240753253613e-06   -6.287461169470493e-07
1.3758780702504882e-05   -6.427309838278282e-07   -1.8724318965564684e-05
1.3758780702504882e-05   -6.427309838278282e-07   -1.8724318965564684e-05
1.3758780702504882e-05   -6.427309838278282e-07   -1.8724318965564684e-05
1.3758780702504882e-05   -6.427309838278282e-07   -1.8724318965564684e-05
3.1645225062733956e-06   0.0   -3.653999865922471e-05
3.1645225062733956e-06   0.0   -3.653999865922471e-05
3.1645225062733956e-06   0.0   -3.653999865922471e-05
3.1645225062733956e-06   0.0   -3.653999865922471e-05
2.471127403164002e-05   -1.3735240753253613e-06   -1.4528605621422566e-06
2.471127403164002e-05   -1.3735240753253613e-06   -1.4528605621422566e-06
2.471127403164002e-05   -1.3735240753253613e-06   -1.4528605621422566e-06
2.471127403164002e-05   -1.3735240753253613e-06   -1.4528605621422566e-06
2.519612265091337e-05   0.0   -3.591842789839735e-05
2.519612265091337e-05   0.0   -3.591842789839735e-05
2.519612265091337e-05   0.0   -3.591842789839735e-05
2.519612265091337e-05   0.0   -3.591842789839735e-05
3.644430071416132e-06   -2.801266839272618e-07   1.6913574445439152e-07
3.644430071416132e-06   -2.801266839272618e-07   1.6913574445439152e-07
3.644430071416132e-06   -2.801266839272618e-07   1.6913574445439152e-07
3.644430071416132e-06   -2.801266839272618e-07   1.6913574445439152e-07
1.4180322578593374e-05   5.179756340228253e-07   -1.7869546491611046e-05
1.4180322578593374e-05   5.179756340228253e-07   -1.7869546491611046e-05
1.4180322578593374e-05   5.179756340228253e-07   -1.7869546491611046e-05
1.4180322578593374e-05   5.179756340228253e-07   -1.7869546491611046e-05
2.4759422192732646e-05   0.0   -3.7707031303419556e-05
2.4759422192732646e-05   0.0   -3.7707031303419556e-05
2.4759422192732646e-05   0.0   -3.7707031303419556e-05
2.4759422192732646e-05   0.0   -3.7707031303419556e-05
5.593793887633435e-05   -7.366870710387305e-06   9.837040743017867e-06
5.593793887633435e-05   -7.366870710387305e-06   9.837040743017867e-06
5.593793887633435e-05   -7.366870710387305e-06   9.837040743017867e-06
5.593793887633435e-05   -7.366870710387305e-06   9.837040743017867e-06
5.254458028625947e-05   0.0   -4.16637556631998e-05
5.254458028625947e-05   0.0   -4.16637556631998e-05
5.254458028625947e-05   0.0   -4.16637556631998e-05
5.254458028625947e-05   0.0   -4.16637556631998e-05
2.4811015237053772e-05   -6.264038212423656e-06   8.317275679597214e-06
2.4811015237053772e-05   -6.264038212423656e-06   8.317275679597214e-06
2.4811015237053772e-05   -6.264038212423656e-06   8.317275679597214e-06
2.4811015237053772e-05   -6.264038212423656e-06   8.317275679597214e-06
3.8652001239496057e-05   -3.297270299816864e-06   -1.6531095072037307e-05
3.8652001239496057e-05   -3.297270299816864e-06   -1.6531095072037307e-05
3.8652001239496057e-05   -3.297270299816864e-06   -1.6531095072037307e-05
3.8652001239496057e-05   -3.297270299816864e-06   -1.6531095072037307e-05
2.481101523705375e-05   0.0   -3.790533273574556e-05
2.481101523705375e-05   0.0   -3.790533273574556e-05
2.481101523705375e-05   0.0   -3.790533273574556e-05
2.481101523705375e-05   0.0   -3.790533273574556e-05
5.254458028625929e-05   -6.2640382124236425e-06   4.558852752143007e-06
5.254458028625929e-05   -6.2640382124236425e-06   4.558852752143007e-06
5.254458028625929e-05   -6.2640382124236425e-06   4.558852752143007e-06
5.254458028625929e-05   -6.2640382124236425e-06   4.558852752143007e-06
5.0982712326478924e-05   0.0   -4.079761486280789e-05
5.0982712326478924e-05   0.0   -4.079761486280789e-05
5.0982712326478924e-05   0.0   -4.079761486280789e-05
5.0982712326478924e-05   0.0   -4.079761486280789e-05
2.471127403164002e-05   -5.7225029306465615e-06   6.421617386978209e-06
2.471127403164002e-05   -5.7225029306465615e-06   6.421617386978209e-06
2.471127403164002e-05   -5.7225029306465615e-06   6.421617386978209e-06
2.471127403164002e-05   -5.7225029306465615e-06   6.421617386978209e-06
3.7896863781766326e-05   -2.4102351058852528e-06   -1.7541726224755747e-05
3.7896863781766326e-05   -2.4102351058852528e-06   -1.7541726224755747e-05
3.7896863781766326e-05   -2.4102351058852528e-06   -1.7541726224755747e-05
3.7896863781766326e-05   -2.4102351058852528e-06   -1.7541726224755747e-05
2.471127403164002e-05   0.0   -3.736411310441995e-05
2.471127403164002e-05   0.0   -3.736411310441995e-05
2.471127403164002e-05   0.0   -3.736411310441995e-05
2.471127403164002e-05   0.0   -3.736411310441995e-05
5.098271232647875e-05   -5.722502930646548e-06   2.988115628590259e-06
5.098271232647875e-05   -5.722502930646548e-06   2.988115628590259e-06
5.098271232647875e-05   -5.722502930646548e-06   2.988115628590259e-06
5.098271232647875e-05   -5.722502930646548e-06   2.988115628590259e-06
4.865297260384757e-05   0.0   -3.858420972337303e-05
4.865297260384757e-05   0.0   -3.858420972337303e-05
4.865297260384757e-05   0.0   -3.858420972337303e-05
4.865297260384757e-05   0.0   -3.858420972337303e-05
2.519612265091333e-05   -4.442969708292786e-06   3.1763220231596483e-06
2.519612265091333e-05   -4.442969708292786e-06   3.1763220231596483e-06
2.519612265091333e-05   -4.442969708292786e-06   3.1763220231596483e-06
2.519612265091333e-05   -4.442969708292786e-06   3.1763220231596483e-06
3.668212331774379e-05   -1.0167471824608937e-06   -1.802274593705684e-05
3.668212331774379e-05   -1.0167471824608937e-06   -1.802274593705684e-05
3.668212331774379e-05   -1.0167471824608937e-06   -1.802274593705684e-05
3.668212331774379e-05   -1.0167471824608937e-06   -1.802274593705684e-05
-5.466663259667213e-05   6.976526895806278e-06   -3.592633094148597e-05
-5.466663259667213e-05   6.976526895806278e-06   -3.592633094148597e-05
-5.466663259667213e-05   6.976526895806278e-06   -3.592633094148597e-05
-5.466663259667213e-05   6.976526895806278e-06   -3.592633094148597e-05
-3.501933337323161e-05   6.269964815418846e-06   -3.6047694839842228e-06
-3.501933337323161e-05   6.269964815418846e-06   -3.6047694839842228e-06
-3.501933337323161e-05   6.269964815418846e-06   -3.6047694839842228e-06
-3.501933337323161e-05   6.269964815418846e-06   -3.6047694839842228e-06
-3.58971451653789e-05   8.377704899691573e-06   -3.0177848306953673e-05
-3.58971451653789e-05   8.377704899691573e-06   -3.0177848306953673e-05
-3.58971451653789e-05   8.377704899691573e-06   -3.0177848306953673e-05
-3.58971451653789e-05   8.377704899691573e-06   -3.0177848306953673e-05
-5.5251515559716924e-05   7.528937406489644e-06   2.5886961795308356e-06
-5.5251515559716924e-05   7.528937406489644e-06   2.5886961795308356e-06
-5.5251515559716924e-05   7.528937406489644e-06   2.5886961795308356e-06
-5.5251515559716924e-05   7.528937406489644e-06   2.5886961795308356e-06
-4.341764367786826e-05   7.289059195533245e-06   -1.6990496696976556e-05
-4.341764367786826e-05   7.289059195533245e-06   -1.6990496696976556e-05
-4.341764367786826e-05   7.289059195533245e-06   -1.6990496696976556e-05
-4.341764367786826e-05   7.289059195533245e-06   -1.6990496696976556e-05
-5.5251515559716924e-05   8.377704899691573e-06   -2.966858781103253e-05
-5.5251515559716924e-05   8.377704899691573e-06   -2.966858781103253e-05
-5.5251515559716924e-05   8.377704899691573e-06   -2.966858781103253e-05
-5.5251515559716924e-05   8.377704899691573e-06   -2.966858781103253e-05
-3.589714516537904e-05   7.528937406489671e-06   2.079435683609773e-06
-3.589714516537904e-05   7.528937406489671e-06   2.079435683609773e-06
-3.589714516537904e-05   7.528937406489671e-06   2.079435683609773e-06
-3.589714516537904e-05   7.528937406489671e-06   2.079435683609773e-06
-3.60775710198248e-05   8.976950608332736e-06   -2.713561631960038e-05
-3.60775710198248e-05   8.976950608332736e-06   -2.713561631960038e-05
-3.60775710198248e-05   8.976950608332736e-06   -2.713561631960038e-05
-3.60775710198248e-05   8.976950608332736e-06   -2.713561631960038e-05
-5.563440972260815e-05   8.097283780828901e-06   5.986914948207482e-06
-5.563440972260815e-05   8.097283780828901e-06   5.986914948207482e-06
-5.563440972260815e-05   8.097283780828901e-06   5.986914948207482e-06
-5.563440972260815e-05   8.097283780828901e-06   5.986914948207482e-06
-4.468979337160927e-05   8.080498668645511e-06   -1.2244041236147296e-05
-4.468979337160927e-05   8.080498668645511e-06   -1.2244041236147296e-05
-4.468979337160927e-05   8.080498668645511e-06   -1.2244041236147296e-05
-4.468979337160927e-05   8.080498668645511e-06   -1.2244041236147296e-05
-5.563440972260815e-05   8.976950608332736e-06   -2.6607816223098073e-05
-5.563440972260815e-05   8.976950608332736e-06   -2.6607816223098073e-05
-5.563440972260815e-05   8.976950608332736e-06   -2.6607816223098073e-05
-5.563440972260815e-05   8.976950608332736e-06   -2.6607816223098073e-05
-3.607757101982487e-05   8.097283780828928e-06   5.459114851705135e-06
-3.607757101982487e-05   8.097283780828928e-06   5.459114851705135e-06
-3.607757101982487e-05   8.097283780828928e-06   5.459114851705135e-06
-3.607757101982487e-05   8.097283780828928e-06   5.459114851705135e-06
-3.5868776646633096e-05   1.0231278383703531e-05   -2.0062271325942398e-05
-3.5868776646633096e-05   1.0231278383703531e-05   -2.0062271325942398e-05
-3.5868776646633096e-05   1.0231278383703531e-05   -2.0062271325942398e-05
-3.5868776646633096e-05   1.0231278383703531e-05   -2.0062271325942398e-05
-5.408299002639039e-05   8.551123842485129e-06   1.1302843698383978e-05
-5.408299002639039e-05   8.551123842485129e-06   1.1302843698383978e-05
-5.408299002639039e-05   8.551123842485129e-06   1.1302843698383978e-05
-5.408299002639039e-05   8.551123842485129e-06   1.1302843698383978e-05
-4.352198175244329e-05   8.86537015426617e-06   -6.487384545263126e-06
-4.352198175244329e-05   8.86537015426617e-06   -6.487384545263126e-06
-4.352198175244329e-05   8.86537015426617e-06   -6.487384545263126e-06
-4.352198175244329e-05   8.86537015426617e-06   -6.487384545263126e-06
-3.501933337323161e-05   2.556484581315945e-06   -3.8187122234048565e-05
-3.501933337323161e-05   2.556484581315945e-06   -3.8187122234048565e-05
-3.501933337323161e-05   2.556484581315945e-06   -3.8187122234048565e-05
-3.501933337323161e-05   2.556484581315945e-06   -3.8187122234048565e-05
-1.660449844778741e-05   2.9176337840996504e-06   -7.279041169971304e-06
-1.660449844778741e-05   2.9176337840996504e-06   -7.279041169971304e-06
-1.660449844778741e-05   2.9176337840996504e-06   -7.279041169971304e-06
-1.660449844778741e-05   2.9176337840996504e-06   -7.279041169971304e-06
-1.6997707628681834e-05   3.643451555473845e-06   -3.812755071447936e-05
-1.6997707628681834e-05   3.643451555473845e-06   -3.812755071447936e-05
-1.6997707628681834e-05   3.643451555473845e-06   -3.812755071447936e-05
-1.6997707628681834e-05   3.643451555473845e-06   -3.812755071447936e-05
-3.58971451653789e-05   4.075257231408433e-06   -6.887571558878179e-06
-3.58971451653789e-05   4.075257231408433e-06   -6.887571558878179e-06
-3.58971451653789e-05   4.075257231408433e-06   -6.887571558878179e-06
-3.58971451653789e-05   4.075257231408433e-06   -6.887571558878179e-06
-2.6055854828426286e-05   3.2810952443401904e-06   -2.2813224928225093e-05
-2.6055854828426286e-05   3.2810952443401904e-06   -2.2813224928225093e-05
-2.6055854828426286e-05   3.2810952443401904e-06   -2.2813224928225093e-05
-2.6055854828426286e-05   3.2810952443401904e-06   -2.2813224928225093e-05
-3.589714516537888e-05   3.6434515554738316e-06   -3.838663412003999e-05
-3.589714516537888e-05   3.6434515554738316e-06   -3.838663412003999e-05
-3.589714516537888e-05   3.6434515554738316e-06   -3.838663412003999e-05
-3.589714516537888e-05   3.6434515554738316e-06   -3.838663412003999e-05
-1.6997707628681803e-05   4.075257231408433e-06   -6.6284881533173475e-06
-1.6997707628681803e-05   4.075257231408433e-06   -6.6284881533173475e-06
-1.6997707628681803e-05   4.075257231408433e-06   -6.6284881533173475e-06
-1.6997707628681803e-05   4.075257231408433e-06   -6.6284881533173475e-06
-1.7118801242894313e-05   4.466892574592112e-06   -3.741497461968893e-05
-1.7118801242894313e-05   4.466892574592112e-06   -3.741497461968893e-05
-1.7118801242894313e-05   4.466892574592112e-06   -3.741497461968893e-05
-1.7118801242894313e-05   4.466892574592112e-06   -3.741497461968893e-05
-3.60775710198248e-05   5.033888335376793e-06   -6.157222447942108e-06
-3.60775710198248e-05   5.033888335376793e-06   -6.157222447942108e-06
-3.60775710198248e-05   5.033888335376793e-06   -6.157222447942108e-06
-3.60775710198248e-05   5.033888335376793e-06   -6.157222447942108e-06
-2.6256454269016854e-05   4.166224606659606e-06   -2.2005152128725067e-05
-2.6256454269016854e-05   4.166224606659606e-06   -2.2005152128725067e-05
-2.6256454269016854e-05   4.166224606659606e-06   -2.2005152128725067e-05
-2.6256454269016854e-05   4.166224606659606e-06   -2.2005152128725067e-05
-3.60775710198248e-05   4.466892574592112e-06   -3.775517207615968e-05
-3.60775710198248e-05   4.466892574592112e-06   -3.775517207615968e-05
-3.60775710198248e-05   4.466892574592112e-06   -3.775517207615968e-05
-3.60775710198248e-05   4.466892574592112e-06   -3.775517207615968e-05
-1.7118801242894344e-05   5.033888335376793e-06   -5.817024991471405e-06
-1.7118801242894344e-05   5.033888335376793e-06   -5.817024991471405e-06
-1.7118801242894344e-05   5.033888335376793e-06   -5.817024991471405e-06
-1.7118801242894344e-05   5.033888335376793e-06   -5.817024991471405e-06
-1.707373512892728e-05   5.199251051008462e-06   -3.703399833852457e-05
-1.707373512892728e-05   5.199251051008462e-06   -3.703399833852457e-05
-1.707373512892728e-05   5.199251051008462e-06   -3.703399833852457e-05
-1.707373512892728e-05   5.199251051008462e-06   -3.703399833852457e-05
-3.5868776646633116e-05   6.065697579300534e-06   -6.228797059323432e-06
-3.5868776646633116e-05   6.065697579300534e-06   -6.228797059323432e-06
-3.5868776646633116e-05   6.065697579300534e-06   -6.228797059323432e-06
-3.5868776646633116e-05   6.065697579300534e-06   -6.228797059323432e-06
-2.6407653394098077e-05   4.967384148946277e-06   -2.133834775533594e-05
-2.6407653394098077e-05   4.967384148946277e-06   -2.133834775533594e-05
-2.6407653394098077e-05   4.967384148946277e-06   -2.133834775533594e-05
-2.6407653394098077e-05   4.967384148946277e-06   -2.133834775533594e-05
-1.660449844778741e-05   -3.2920251855939346e-07   -3.9988978649032646e-05
-1.660449844778741e-05   -3.2920251855939346e-07   -3.9988978649032646e-05
-1.660449844778741e-05   -3.2920251855939346e-07   -3.9988978649032646e-05
-1.660449844778741e-05   -3.2920251855939346e-07   -3.9988978649032646e-05
1.5774459694223024e-06   -8.79327752774427e-08   -9.540976107713951e-06
1.5774459694223024e-06   -8.79327752774427e-08   -9.540976107713951e-06
1.5774459694223024e-06   -8.79327752774427e-08   -9.540976107713951e-06
1.5774459694223024e-06   -8.79327752774427e-08   -9.540976107713951e-06
1.5058002393195726e-06   6.466691156149459e-07   -4.0209021440012994e-05
1.5058002393195726e-06   6.466691156149459e-07   -4.0209021440012994e-05
1.5058002393195726e-06   6.466691156149459e-07   -4.0209021440012994e-05
1.5058002393195726e-06   6.466691156149459e-07   -4.0209021440012994e-05
-1.6997707628681803e-05   9.788476012687433e-07   -9.569148751402976e-06
-1.6997707628681803e-05   9.788476012687433e-07   -9.569148751402976e-06
-1.6997707628681803e-05   9.788476012687433e-07   -9.569148751402976e-06
-1.6997707628681803e-05   9.788476012687433e-07   -9.569148751402976e-06
-7.675352995784953e-06   3.2537511590813783e-07   -2.4714322981681362e-05
-7.675352995784953e-06   3.2537511590813783e-07   -2.4714322981681362e-05
-7.675352995784953e-06   3.2537511590813783e-07   -2.4714322981681362e-05
-7.675352995784953e-06   3.2537511590813783e-07   -2.4714322981681362e-05
-1.6997707628681803e-05   6.466691156149459e-07   -4.040832853140529e-05
-1.6997707628681803e-05   6.466691156149459e-07   -4.040832853140529e-05
-1.6997707628681803e-05   6.466691156149459e-07   -4.040832853140529e-05
-1.6997707628681803e-05   6.466691156149459e-07   -4.040832853140529e-05
1.5058002393195751e-06   9.788476012687433e-07   -9.369841660010639e-06
1.5058002393195751e-06   9.788476012687433e-07   -9.369841660010639e-06
1.5058002393195751e-06   9.788476012687433e-07   -9.369841660010639e-06
1.5058002393195751e-06   9.788476012687433e-07   -9.369841660010639e-06
1.4074216188738277e-06   1.5062334292002946e-06   -4.029212291460804e-05
1.4074216188738277e-06   1.5062334292002946e-06   -4.029212291460804e-05
1.4074216188738277e-06   1.5062334292002946e-06   -4.029212291460804e-05
1.4074216188738277e-06   1.5062334292002946e-06   -4.029212291460804e-05
-1.711880124289428e-05   2.021295404655408e-06   -9.72412199693424e-06
-1.711880124289428e-05   2.021295404655408e-06   -9.72412199693424e-06
-1.711880124289428e-05   2.021295404655408e-06   -9.72412199693424e-06
-1.711880124289428e-05   2.021295404655408e-06   -9.72412199693424e-06
-7.815246368764084e-06   1.2291319637944905e-06   -2.4754748722634677e-05
-7.815246368764084e-06   1.2291319637944905e-06   -2.4754748722634677e-05
-7.815246368764084e-06   1.2291319637944905e-06   -2.4754748722634677e-05
-7.815246368764084e-06   1.2291319637944905e-06   -2.4754748722634677e-05
-1.711880124289428e-05   1.5062334292002946e-06   -4.060116009988111e-05
-1.711880124289428e-05   1.5062334292002946e-06   -4.060116009988111e-05
-1.711880124289428e-05   1.5062334292002946e-06   -4.060116009988111e-05
-1.711880124289428e-05   1.5062334292002946e-06   -4.060116009988111e-05
1.4074216188738307e-06   2.021295404655408e-06   -9.415084811661238e-06
1.4074216188738307e-06   2.021295404655408e-06   -9.415084811661238e-06
1.4074216188738307e-06   2.021295404655408e-06   -9.415084811661238e-06
1.4074216188738307e-06   2.021295404655408e-06   -9.415084811661238e-06
1.2055086085405544e-06   2.5014519304156793e-06   -4.022327023355801e-05
1.2055086085405544e-06   2.5014519304156793e-06   -4.022327023355801e-05
1.2055086085405544e-06   2.5014519304156793e-06   -4.022327023355801e-05
1.2055086085405544e-06   2.5014519304156793e-06   -4.022327023355801e-05
-1.7073735128927266e-05   3.1072776865347595e-06   -1.0121359458116491e-05
-1.7073735128927266e-05   3.1072776865347595e-06   -1.0121359458116491e-05
-1.7073735128927266e-05   3.1072776865347595e-06   -1.0121359458116491e-05
-1.7073735128927266e-05   3.1072776865347595e-06   -1.0121359458116491e-05
-7.898621197452684e-06   2.1575700136211833e-06   -2.4843391406825922e-05
-7.898621197452684e-06   2.1575700136211833e-06   -2.4843391406825922e-05
-7.898621197452684e-06   2.1575700136211833e-06   -2.4843391406825922e-05
-7.898621197452684e-06   2.1575700136211833e-06   -2.4843391406825922e-05
1.5774459694223024e-06   -2.9040606531766116e-06   -3.689507154018583e-05
1.5774459694223024e-06   -2.9040606531766116e-06   -3.689507154018583e-05
1.5774459694223024e-06   -2.9040606531766116e-06   -3.689507154018583e-05
1.5774459694223024e-06   -2.9040606531766116e-06   -3.689507154018583e-05
2.031405046875388e-05   -2.9853573450678694e-06   -5.71617538976796e-06
2.031405046875388e-05   -2.9853573450678694e-06   -5.71617538976796e-06
2.031405046875388e-05   -2.9853573450678694e-06   -5.71617538976796e-06
2.031405046875388e-05   -2.9853573450678694e-06   -5.71617538976796e-06
2.0484385814116907e-05   -2.1874946865317125e-06   -3.740529817895533e-05
2.0484385814116907e-05   -2.1874946865317125e-06   -3.740529817895533e-05
2.0484385814116907e-05   -2.1874946865317125e-06   -3.740529817895533e-05
2.0484385814116907e-05   -2.1874946865317125e-06   -3.740529817895533e-05
1.5058002393195751e-06   -2.015349656710663e-06   -5.877609238852389e-06
1.5058002393195751e-06   -2.015349656710663e-06   -5.877609238852389e-06
1.5058002393195751e-06   -2.015349656710663e-06   -5.877609238852389e-06
1.5058002393195751e-06   -2.015349656710663e-06   -5.877609238852389e-06
1.0830299294304787e-05   -2.4136982092042307e-06   -2.117943186566492e-05
1.0830299294304787e-05   -2.4136982092042307e-06   -2.117943186566492e-05
1.0830299294304787e-05   -2.4136982092042307e-06   -2.117943186566492e-05
1.0830299294304787e-05   -2.4136982092042307e-06   -2.117943186566492e-05
1.5058002393195726e-06   -2.1874946865317125e-06   -3.7508585196847944e-05
1.5058002393195726e-06   -2.1874946865317125e-06   -3.7508585196847944e-05
1.5058002393195726e-06   -2.1874946865317125e-06   -3.7508585196847944e-05
1.5058002393195726e-06   -2.1874946865317125e-06   -3.7508585196847944e-05
2.0484385814116907e-05   -2.015349656710663e-06   -5.774322220959688e-06
2.0484385814116907e-05   -2.015349656710663e-06   -5.774322220959688e-06
2.0484385814116907e-05   -2.015349656710663e-06   -5.774322220959688e-06
2.0484385814116907e-05   -2.015349656710663e-06   -5.774322220959688e-06
2.038713681713238e-05   -1.3735240753253545e-06   -3.8103237104461123e-05
2.038713681713238e-05   -1.3735240753253545e-06   -3.8103237104461123e-05
2.038713681713238e-05   -1.3735240753253545e-06   -3.8103237104461123e-05
2.038713681713238e-05   -1.3735240753253545e-06   -3.8103237104461123e-05
1.4074216188738277e-06   -1.0656369898076525e-06   -6.655110692007468e-06
1.4074216188738277e-06   -1.0656369898076525e-06   -6.655110692007468e-06
1.4074216188738277e-06   -1.0656369898076525e-06   -6.655110692007468e-06
1.4074216188738277e-06   -1.0656369898076525e-06   -6.655110692007468e-06
1.0717480359067275e-05   -1.6399743896096906e-06   -2.182727281911532e-05
1.0717480359067275e-05   -1.6399743896096906e-06   -2.182727281911532e-05
1.0717480359067275e-05   -1.6399743896096906e-06   -2.182727281911532e-05
1.0717480359067275e-05   -1.6399743896096906e-06   -2.182727281911532e-05
1.407421618873826e-06   -1.3735240753253477e-06   -3.828796935577163e-05
1.407421618873826e-06   -1.3735240753253477e-06   -3.828796935577163e-05
1.407421618873826e-06   -1.3735240753253477e-06   -3.828796935577163e-05
1.407421618873826e-06   -1.3735240753253477e-06   -3.828796935577163e-05
2.038713681713234e-05   -1.0656369898076796e-06   -6.470378440696922e-06
2.038713681713234e-05   -1.0656369898076796e-06   -6.470378440696922e-06
2.038713681713234e-05   -1.0656369898076796e-06   -6.470378440696922e-06
2.038713681713234e-05   -1.0656369898076796e-06   -6.470378440696922e-06
1.9793868926042967e-05   -2.801266839272618e-07   -3.817114122184277e-05
1.9793868926042967e-05   -2.801266839272618e-07   -3.817114122184277e-05
1.9793868926042967e-05   -2.801266839272618e-07   -3.817114122184277e-05
1.9793868926042967e-05   -2.801266839272618e-07   -3.817114122184277e-05
1.2055086085405544e-06   1.0846903008681621e-07   -7.423698121080564e-06
1.2055086085405544e-06   1.0846903008681621e-07   -7.423698121080564e-06
1.2055086085405544e-06   1.0846903008681621e-07   -7.423698121080564e-06
1.2055086085405544e-06   1.0846903008681621e-07   -7.423698121080564e-06
1.0603115799523707e-05   -7.363311765336126e-07   -2.257949664874684e-05
1.0603115799523707e-05   -7.363311765336126e-07   -2.257949664874684e-05
1.0603115799523707e-05   -7.363311765336126e-07   -2.257949664874684e-05
1.0603115799523707e-05   -7.363311765336126e-07   -2.257949664874684e-05
2.031405046875388e-05   -7.366870710387305e-06   -2.2322923513673575e-05
2.031405046875388e-05   -7.366870710387305e-06   -2.2322923513673575e-05
2.031405046875388e-05   -7.366870710387305e-06   -2.2322923513673575e-05
2.031405046875388e-05   -7.366870710387305e-06   -2.2322923513673575e-05
3.879887084289551e-05   -5.545402664324141e-06   9.577991270866965e-06
3.879887084289551e-05   -5.545402664324141e-06   9.577991270866965e-06
3.879887084289551e-05   -5.545402664324141e-06   9.577991270866965e-06
3.879887084289551e-05   -5.545402664324141e-06   9.577991270866965e-06
4.028321191091679e-05   -6.264038212423656e-06   -2.711527810366446e-05
4.028321191091679e-05   -6.264038212423656e-06   -2.711527810366446e-05
4.028321191091679e-05   -6.264038212423656e-06   -2.711527810366446e-05
4.028321191091679e-05   -6.264038212423656e-06   -2.711527810366446e-05
2.0484385814116937e-05   -5.027441380054526e-06   5.140807291580517e-06
2.0484385814116937e-05   -5.027441380054526e-06   5.140807291580517e-06
2.0484385814116937e-05   -5.027441380054526e-06   5.140807291580517e-06
2.0484385814116937e-05   -5.027441380054526e-06   5.140807291580517e-06
2.8576155372637257e-05   -6.024428238625369e-06   -7.747283190810868e-06
2.8576155372637257e-05   -6.024428238625369e-06   -7.747283190810868e-06
2.8576155372637257e-05   -6.024428238625369e-06   -7.747283190810868e-06
2.8576155372637257e-05   -6.024428238625369e-06   -7.747283190810868e-06
2.0484385814116887e-05   -6.2640382124236425e-06   -2.785723620308584e-05
2.0484385814116887e-05   -6.2640382124236425e-06   -2.785723620308584e-05
2.0484385814116887e-05   -6.2640382124236425e-06   -2.785723620308584e-05
2.0484385814116887e-05   -6.2640382124236425e-06   -2.785723620308584e-05
4.028321191091679e-05   -5.027441380054553e-06   5.882765391002038e-06
4.028321191091679e-05   -5.027441380054553e-06   5.882765391002038e-06
4.028321191091679e-05   -5.027441380054553e-06   5.882765391002038e-06
4.028321191091679e-05   -5.027441380054553e-06   5.882765391002038e-06
4.0137456747858995e-05   -5.722502930646548e-06   -2.9483855960094845e-05
4.0137456747858995e-05   -5.722502930646548e-06   -2.9483855960094845e-05
4.0137456747858995e-05   -5.722502930646548e-06   -2.9483855960094845e-05
4.0137456747858995e-05   -5.722502930646548e-06   -2.9483855960094845e-05
2.038713681713238e-05   -4.480997605236847e-06   2.6884407292037413e-06
2.038713681713238e-05   -4.480997605236847e-06   2.6884407292037413e-06
2.038713681713238e-05   -4.480997605236847e-06   2.6884407292037413e-06
2.038713681713238e-05   -4.480997605236847e-06   2.6884407292037413e-06
2.9579857903804538e-05   -5.31805543242195e-06   -1.2130526385605467e-05
2.9579857903804538e-05   -5.31805543242195e-06   -1.2130526385605467e-05
2.9579857903804538e-05   -5.31805543242195e-06   -1.2130526385605467e-05
2.9579857903804538e-05   -5.31805543242195e-06   -1.2130526385605467e-05
2.038713681713234e-05   -5.722502930646548e-06   -3.0228759155340637e-05
2.038713681713234e-05   -5.722502930646548e-06   -3.0228759155340637e-05
2.038713681713234e-05   -5.722502930646548e-06   -3.0228759155340637e-05
2.038713681713234e-05   -5.722502930646548e-06   -3.0228759155340637e-05
4.0137456747858995e-05   -4.480997605236847e-06   3.4333439244494724e-06
4.0137456747858995e-05   -4.480997605236847e-06   3.4333439244494724e-06
4.0137456747858995e-05   -4.480997605236847e-06   3.4333439244494724e-06
4.0137456747858995e-05   -4.480997605236847e-06   3.4333439244494724e-06
3.990056967010192e-05   -4.4429697082927925e-06   -3.43133224211669e-05
3.990056967010192e-05   -4.4429697082927925e-06   -3.43133224211669e-05
3.990056967010192e-05   -4.4429697082927925e-06   -3.43133224211669e-05
3.990056967010192e-05   -4.4429697082927925e-06   -3.43133224211669e-05
1.9793868926042998e-05   -3.305375522268876e-06   -1.4847110260163862e-06
1.9793868926042998e-05   -3.305375522268876e-06   -1.4847110260163862e-06
1.9793868926042998e-05   -3.305375522268876e-06   -1.4847110260163862e-06
1.9793868926042998e-05   -3.305375522268876e-06   -1.4847110260163862e-06
2.87365590726648e-05   -4.5773885661238775e-06   -1.562598677740637e-05
2.87365590726648e-05   -4.5773885661238775e-06   -1.562598677740637e-05
2.87365590726648e-05   -4.5773885661238775e-06   -1.562598677740637e-05
2.87365590726648e-05   -4.5773885661238775e-06   -1.562598677740637e-05
-4.349385453363504e-05   6.269964815418846e-06   -3.006075570715192e-05
-4.349385453363504e-05   6.269964815418846e-06   -3.006075570715192e-05
-4.349385453363504e-05   6.269964815418846e-06   -3.006075570715192e-05
-4.349385453363504e-05   6.269964815418846e-06   -3.006075570715192e-05
-2.8527012502681053e-05   4.7862750883275016e-06   -6.006232825150147e-06
-2.8527012502681053e-05   4.7862750883275016e-06   -6.006232825150147e-06
-2.8527012502681053e-05   4.7862750883275016e-06   -6.006232825150147e-06
-2.8527012502681053e-05   4.7862750883275016e-06   -6.006232825150147e-06
-2.866306971194377e-05   7.528937406489671e-06   -2.4961902610484612e-05
-2.866306971194377e-05   7.528937406489671e-06   -2.4961902610484612e-05
-2.866306971194377e-05   7.528937406489671e-06   -2.4961902610484612e-05
-2.866306971194377e-05   7.528937406489671e-06   -2.4961902610484612e-05
-4.282938355450846e-05   5.7925183126869475e-06   -3.095280832617845e-07
-4.282938355450846e-05   5.7925183126869475e-06   -3.095280832617845e-07
-4.282938355450846e-05   5.7925183126869475e-06   -3.095280832617845e-07
-4.282938355450846e-05   5.7925183126869475e-06   -3.095280832617845e-07
-3.436068133418338e-05   6.376882056493541e-06   -1.4774650030087623e-05
-3.436068133418338e-05   6.376882056493541e-06   -1.4774650030087623e-05
-3.436068133418338e-05   6.376882056493541e-06   -1.4774650030087623e-05
-3.436068133418338e-05   6.376882056493541e-06   -1.4774650030087623e-05
-4.282938355450846e-05   7.528937406489671e-06   -2.3920051154202945e-05
-4.282938355450846e-05   7.528937406489671e-06   -2.3920051154202945e-05
-4.282938355450846e-05   7.528937406489671e-06   -2.3920051154202945e-05
-4.282938355450846e-05   7.528937406489671e-06   -2.3920051154202945e-05
-2.866306971194377e-05   5.7925183126869475e-06   -1.3513795395434105e-06
-2.866306971194377e-05   5.7925183126869475e-06   -1.3513795395434105e-06
-2.866306971194377e-05   5.7925183126869475e-06   -1.3513795395434105e-06
-2.866306971194377e-05   5.7925183126869475e-06   -1.3513795395434105e-06
-2.86320607597953e-05   8.097283780828928e-06   -2.1356966106077398e-05
-2.86320607597953e-05   8.097283780828928e-06   -2.1356966106077398e-05
-2.86320607597953e-05   8.097283780828928e-06   -2.1356966106077398e-05
-2.86320607597953e-05   8.097283780828928e-06   -2.1356966106077398e-05
-4.218274700245163e-05   6.235056937897048e-06   2.344847070775654e-06
-4.218274700245163e-05   6.235056937897048e-06   2.344847070775654e-06
-4.218274700245163e-05   6.235056937897048e-06   2.344847070775654e-06
-4.218274700245163e-05   6.235056937897048e-06   2.344847070775654e-06
-3.465473808476754e-05   6.960170154918558e-06   -1.0636902388910758e-05
-3.465473808476754e-05   6.960170154918558e-06   -1.0636902388910758e-05
-3.465473808476754e-05   6.960170154918558e-06   -1.0636902388910758e-05
-3.465473808476754e-05   6.960170154918558e-06   -1.0636902388910758e-05
-4.218274700245163e-05   8.097283780828928e-06   -2.0239630000318265e-05
-4.218274700245163e-05   8.097283780828928e-06   -2.0239630000318265e-05
-4.218274700245163e-05   8.097283780828928e-06   -2.0239630000318265e-05
-4.218274700245163e-05   8.097283780828928e-06   -2.0239630000318265e-05
-2.863206075979534e-05   6.235056937897048e-06   1.227510965016548e-06
-2.863206075979534e-05   6.235056937897048e-06   1.227510965016548e-06
-2.863206075979534e-05   6.235056937897048e-06   1.227510965016548e-06
-2.863206075979534e-05   6.235056937897048e-06   1.227510965016548e-06
-2.8659786596564913e-05   8.551123842485129e-06   -1.6312444448576455e-05
-2.8659786596564913e-05   8.551123842485129e-06   -1.6312444448576455e-05
-2.8659786596564913e-05   8.551123842485129e-06   -1.6312444448576455e-05
-2.8659786596564913e-05   8.551123842485129e-06   -1.6312444448576455e-05
-4.1339850845697275e-05   6.6720883297371266e-06   5.948417274292842e-06
-4.1339850845697275e-05   6.6720883297371266e-06   5.948417274292842e-06
-4.1339850845697275e-05   6.6720883297371266e-06   5.948417274292842e-06
-4.1339850845697275e-05   6.6720883297371266e-06   5.948417274292842e-06
-3.3862968028843935e-05   7.2682507418188e-06   -6.8707515343780444e-06
-3.3862968028843935e-05   7.2682507418188e-06   -6.8707515343780444e-06
-3.3862968028843935e-05   7.2682507418188e-06   -6.8707515343780444e-06
-3.3862968028843935e-05   7.2682507418188e-06   -6.8707515343780444e-06
-2.8527012502681053e-05   2.9176337840996775e-06   -3.484193075106407e-05
-2.8527012502681053e-05   2.9176337840996775e-06   -3.484193075106407e-05
-2.8527012502681053e-05   2.9176337840996775e-06   -3.484193075106407e-05
-2.8527012502681053e-05   2.9176337840996775e-06   -3.484193075106407e-05
-1.4533156459640028e-05   2.388328766309239e-06   -1.1836420356669923e-05
-1.4533156459640028e-05   2.388328766309239e-06   -1.1836420356669923e-05
-1.4533156459640028e-05   2.388328766309239e-06   -1.1836420356669923e-05
-1.4533156459640028e-05   2.388328766309239e-06   -1.1836420356669923e-05
-1.470817902120065e-05   4.075257231408433e-06   -3.434706453782433e-05
-1.470817902120065e-05   4.075257231408433e-06   -3.434706453782433e-05
-1.470817902120065e-05   4.075257231408433e-06   -3.434706453782433e-05
-1.470817902120065e-05   4.075257231408433e-06   -3.434706453782433e-05
-2.866306971194377e-05   3.378332756655191e-06   -1.0670758701733876e-05
-2.866306971194377e-05   3.378332756655191e-06   -1.0670758701733876e-05
-2.866306971194377e-05   3.378332756655191e-06   -1.0670758701733876e-05
-2.866306971194377e-05   3.378332756655191e-06   -1.0670758701733876e-05
-2.142262878378393e-05   3.3672590794623617e-06   -2.2731516042351222e-05
-2.142262878378393e-05   3.3672590794623617e-06   -2.2731516042351222e-05
-2.142262878378393e-05   3.3672590794623617e-06   -2.2731516042351222e-05
-2.142262878378393e-05   3.3672590794623617e-06   -2.2731516042351222e-05
-2.8663069711943744e-05   4.075257231408433e-06   -3.392890985297232e-05
-2.8663069711943744e-05   4.075257231408433e-06   -3.392890985297232e-05
-2.8663069711943744e-05   4.075257231408433e-06   -3.392890985297232e-05
-2.8663069711943744e-05   4.075257231408433e-06   -3.392890985297232e-05
-1.470817902120067e-05   3.378332756655191e-06   -1.1088913386585834e-05
-1.470817902120067e-05   3.378332756655191e-06   -1.1088913386585834e-05
-1.470817902120067e-05   3.378332756655191e-06   -1.1088913386585834e-05
-1.470817902120067e-05   3.378332756655191e-06   -1.1088913386585834e-05
-1.4821162618151705e-05   5.033888335376793e-06   -3.343858144602609e-05
-1.4821162618151705e-05   5.033888335376793e-06   -3.343858144602609e-05
-1.4821162618151705e-05   5.033888335376793e-06   -3.343858144602609e-05
-1.4821162618151705e-05   5.033888335376793e-06   -3.343858144602609e-05
-2.86320607597953e-05   4.258424934874491e-06   -9.955139836318735e-06
-2.86320607597953e-05   4.258424934874491e-06   -9.955139836318735e-06
-2.86320607597953e-05   4.258424934874491e-06   -9.955139836318735e-06
-2.86320607597953e-05   4.258424934874491e-06   -9.955139836318735e-06
-2.146093110981123e-05   4.182110191302082e-06   -2.1861233740148574e-05
-2.146093110981123e-05   4.182110191302082e-06   -2.1861233740148574e-05
-2.146093110981123e-05   4.182110191302082e-06   -2.1861233740148574e-05
-2.146093110981123e-05   4.182110191302082e-06   -2.1861233740148574e-05
-2.86320607597953e-05   5.033888335376793e-06   -3.297330340572472e-05
-2.86320607597953e-05   5.033888335376793e-06   -3.297330340572472e-05
-2.86320607597953e-05   5.033888335376793e-06   -3.297330340572472e-05
-2.86320607597953e-05   5.033888335376793e-06   -3.297330340572472e-05
-1.4821162618151725e-05   4.258424934874545e-06   -1.0420417876620024e-05
-1.4821162618151725e-05   4.258424934874545e-06   -1.0420417876620024e-05
-1.4821162618151725e-05   4.258424934874545e-06   -1.0420417876620024e-05
-1.4821162618151725e-05   4.258424934874545e-06   -1.0420417876620024e-05
-1.4967916121517447e-05   6.065697579300534e-06   -3.33582838361417e-05
-1.4967916121517447e-05   6.065697579300534e-06   -3.33582838361417e-05
-1.4967916121517447e-05   6.065697579300534e-06   -3.33582838361417e-05
-1.4967916121517447e-05   6.065697579300534e-06   -3.33582838361417e-05
-2.86597865965649e-05   5.195211988318928e-06   -1.0016208356473764e-05
-2.86597865965649e-05   5.195211988318928e-06   -1.0016208356473764e-05
-2.86597865965649e-05   5.195211988318928e-06   -1.0016208356473764e-05
-2.86597865965649e-05   5.195211988318928e-06   -1.0016208356473764e-05
-2.1713852889990722e-05   4.98971051347564e-06   -2.146946364919115e-05
-2.1713852889990722e-05   4.98971051347564e-06   -2.146946364919115e-05
-2.1713852889990722e-05   4.98971051347564e-06   -2.146946364919115e-05
-2.1713852889990722e-05   4.98971051347564e-06   -2.146946364919115e-05
-1.4533156459640001e-05   -8.79327752774427e-08   -3.756621054545016e-05
-1.4533156459640001e-05   -8.79327752774427e-08   -3.756621054545016e-05
-1.4533156459640001e-05   -8.79327752774427e-08   -3.756621054545016e-05
-1.4533156459640001e-05   -8.79327752774427e-08   -3.756621054545016e-05
-6.942459957877658e-07   1.2749709454032898e-07   -1.437210185047241e-05
-6.942459957877658e-07   1.2749709454032898e-07   -1.437210185047241e-05
-6.942459957877658e-07   1.2749709454032898e-07   -1.437210185047241e-05
-6.942459957877658e-07   1.2749709454032898e-07   -1.437210185047241e-05
-8.344895708006705e-07   9.788476012687433e-07   -3.7213519949329845e-05
-8.344895708006705e-07   9.788476012687433e-07   -3.7213519949329845e-05
-8.344895708006705e-07   9.788476012687433e-07   -3.7213519949329845e-05
-8.344895708006705e-07   9.788476012687433e-07   -3.7213519949329845e-05
-1.4708179021200623e-05   1.102522912235543e-06   -1.4164909385243251e-05
-1.4708179021200623e-05   1.102522912235543e-06   -1.4164909385243251e-05
-1.4708179021200623e-05   1.102522912235543e-06   -1.4164909385243251e-05
-1.4708179021200623e-05   1.102522912235543e-06   -1.4164909385243251e-05
-7.649045181375537e-06   6.427611490825895e-07   -2.5654275393726692e-05
-7.649045181375537e-06   6.427611490825895e-07   -2.5654275393726692e-05
-7.649045181375537e-06   6.427611490825895e-07   -2.5654275393726692e-05
-7.649045181375537e-06   6.427611490825895e-07   -2.5654275393726692e-05
-1.470817902120065e-05   9.788476012687433e-07   -3.728772513590992e-05
-1.470817902120065e-05   9.788476012687433e-07   -3.728772513590992e-05
-1.470817902120065e-05   9.788476012687433e-07   -3.728772513590992e-05
-1.470817902120065e-05   9.788476012687433e-07   -3.728772513590992e-05
-8.344895708006705e-07   1.102522912235543e-06   -1.4090704198663204e-05
-8.344895708006705e-07   1.102522912235543e-06   -1.4090704198663204e-05
-8.344895708006705e-07   1.102522912235543e-06   -1.4090704198663204e-05
-8.344895708006705e-07   1.102522912235543e-06   -1.4090704198663204e-05
-9.35307838578482e-07   2.021295404655408e-06   -3.731363849840446e-05
-9.35307838578482e-07   2.021295404655408e-06   -3.731363849840446e-05
-9.35307838578482e-07   2.021295404655408e-06   -3.731363849840446e-05
-9.35307838578482e-07   2.021295404655408e-06   -3.731363849840446e-05
-1.4821162618151705e-05   2.0746953264630407e-06   -1.420258715220031e-05
-1.4821162618151705e-05   2.0746953264630407e-06   -1.420258715220031e-05
-1.4821162618151705e-05   2.0746953264630407e-06   -1.420258715220031e-05
-1.4821162618151705e-05   2.0746953264630407e-06   -1.420258715220031e-05
-7.830489296866297e-06   1.5027711091519682e-06   -2.5510554823956043e-05
-7.830489296866297e-06   1.5027711091519682e-06   -2.5510554823956043e-05
-7.830489296866297e-06   1.5027711091519682e-06   -2.5510554823956043e-05
-7.830489296866297e-06   1.5027711091519682e-06   -2.5510554823956043e-05
-1.4821162618151705e-05   2.021295404655408e-06   -3.7345678451489015e-05
-1.4821162618151705e-05   2.021295404655408e-06   -3.7345678451489015e-05
-1.4821162618151705e-05   2.021295404655408e-06   -3.7345678451489015e-05
-1.4821162618151705e-05   2.021295404655408e-06   -3.7345678451489015e-05
-9.35307838578482e-07   2.0746953264629865e-06   -1.4170547199115699e-05
-9.35307838578482e-07   2.0746953264629865e-06   -1.4170547199115699e-05
-9.35307838578482e-07   2.0746953264629865e-06   -1.4170547199115699e-05
-9.35307838578482e-07   2.0746953264629865e-06   -1.4170547199115699e-05
-1.094564736982851e-06   3.1072776865347866e-06   -3.7793434180142816e-05
-1.094564736982851e-06   3.1072776865347866e-06   -3.7793434180142816e-05
-1.094564736982851e-06   3.1072776865347866e-06   -3.7793434180142816e-05
-1.094564736982851e-06   3.1072776865347866e-06   -3.7793434180142816e-05
-1.4967916121517467e-05   3.069410972813527e-06   -1.4648461844352475e-05
-1.4967916121517467e-05   3.069410972813527e-06   -1.4648461844352475e-05
-1.4967916121517467e-05   3.069410972813527e-06   -1.4648461844352475e-05
-1.4967916121517467e-05   3.069410972813527e-06   -1.4648461844352475e-05
-8.023328119993245e-06   2.3730024451225676e-06   -2.5804930063611378e-05
-8.023328119993245e-06   2.3730024451225676e-06   -2.5804930063611378e-05
-8.023328119993245e-06   2.3730024451225676e-06   -2.5804930063611378e-05
-8.023328119993245e-06   2.3730024451225676e-06   -2.5804930063611378e-05
-6.94245995787767e-07   -2.9853573450678694e-06   -3.356337389047868e-05
-6.94245995787767e-07   -2.9853573450678694e-06   -3.356337389047868e-05
-6.94245995787767e-07   -2.9853573450678694e-06   -3.356337389047868e-05
-6.94245995787767e-07   -2.9853573450678694e-06   -3.356337389047868e-05
1.3071624864780575e-05   -1.9987512051597802e-06   -1.002829210558666e-05
1.3071624864780575e-05   -1.9987512051597802e-06   -1.002829210558666e-05
1.3071624864780575e-05   -1.9987512051597802e-06   -1.002829210558666e-05
1.3071624864780575e-05   -1.9987512051597802e-06   -1.002829210558666e-05
1.3063080063022272e-05   -2.015349656710663e-06   -3.31746482989851e-05
1.3063080063022272e-05   -2.015349656710663e-06   -3.31746482989851e-05
1.3063080063022272e-05   -2.015349656710663e-06   -3.31746482989851e-05
1.3063080063022272e-05   -2.015349656710663e-06   -3.31746482989851e-05
-8.344895708006705e-07   -1.1042842747332918e-06   -1.0558671471799944e-05
-8.344895708006705e-07   -1.1042842747332918e-06   -1.0558671471799944e-05
-8.344895708006705e-07   -1.1042842747332918e-06   -1.0558671471799944e-05
-8.344895708006705e-07   -1.1042842747332918e-06   -1.0558671471799944e-05
6.10479097388531e-06   -1.9552320087225543e-06   -2.161357040588302e-05
6.10479097388531e-06   -1.9552320087225543e-06   -2.161357040588302e-05
6.10479097388531e-06   -1.9552320087225543e-06   -2.161357040588302e-05
6.10479097388531e-06   -1.9552320087225543e-06   -2.161357040588302e-05
-8.344895708006705e-07   -2.015349656710663e-06   -3.372128752817153e-05
-8.344895708006705e-07   -2.015349656710663e-06   -3.372128752817153e-05
-8.344895708006705e-07   -2.015349656710663e-06   -3.372128752817153e-05
-8.344895708006705e-07   -2.015349656710663e-06   -3.372128752817153e-05
1.3063080063022293e-05   -1.1042842747332918e-06   -1.001203224261358e-05
1.3063080063022293e-05   -1.1042842747332918e-06   -1.001203224261358e-05
1.3063080063022293e-05   -1.1042842747332918e-06   -1.001203224261358e-05
1.3063080063022293e-05   -1.1042842747332918e-06   -1.001203224261358e-05
1.3127102020747663e-05   -1.0656369898076525e-06   -3.404987186980481e-05
1.3127102020747663e-05   -1.0656369898076525e-06   -3.404987186980481e-05
1.3127102020747663e-05   -1.0656369898076525e-06   -3.404987186980481e-05
1.3127102020747663e-05   -1.0656369898076525e-06   -3.404987186980481e-05
-9.353078385784833e-07   -2.259828082310845e-07   -1.111631461320718e-05
-9.353078385784833e-07   -2.259828082310845e-07   -1.111631461320718e-05
-9.353078385784833e-07   -2.259828082310845e-07   -1.111631461320718e-05
-9.353078385784833e-07   -2.259828082310845e-07   -1.111631461320718e-05
5.917882867545388e-06   -1.1798042817643675e-06   -2.1966006239293654e-05
5.917882867545388e-06   -1.1798042817643675e-06   -2.1966006239293654e-05
5.917882867545388e-06   -1.1798042817643675e-06   -2.1966006239293654e-05
5.917882867545388e-06   -1.1798042817643675e-06   -2.1966006239293654e-05
-9.353078385784807e-07   -1.0656369898076525e-06   -3.455366437875063e-05
-9.353078385784807e-07   -1.0656369898076525e-06   -3.455366437875063e-05
-9.353078385784807e-07   -1.0656369898076525e-06   -3.455366437875063e-05
-9.353078385784807e-07   -1.0656369898076525e-06   -3.455366437875063e-05
1.3127102020747683e-05   -2.259828082310845e-07   -1.0612522104261178e-05
1.3127102020747683e-05   -2.259828082310845e-07   -1.0612522104261178e-05
1.3127102020747683e-05   -2.259828082310845e-07   -1.0612522104261178e-05
1.3127102020747683e-05   -2.259828082310845e-07   -1.0612522104261178e-05
1.302802160045947e-05   1.0846903008681621e-07   -3.504417340506221e-05
1.302802160045947e-05   1.0846903008681621e-07   -3.504417340506221e-05
1.302802160045947e-05   1.0846903008681621e-07   -3.504417340506221e-05
1.302802160045947e-05   1.0846903008681621e-07   -3.504417340506221e-05
-1.094564736982853e-06   8.002938496138234e-07   -1.1921624401041342e-05
-1.094564736982853e-06   8.002938496138234e-07   -1.1921624401041342e-05
-1.094564736982853e-06   8.002938496138234e-07   -1.1921624401041342e-05
-1.094564736982853e-06   8.002938496138234e-07   -1.1921624401041342e-05
5.853149967627725e-06   -3.50655631473247e-07   -2.2810579220073157e-05
5.853149967627725e-06   -3.50655631473247e-07   -2.2810579220073157e-05
5.853149967627725e-06   -3.50655631473247e-07   -2.2810579220073157e-05
5.853149967627725e-06   -3.50655631473247e-07   -2.2810579220073157e-05
1.3071624864780548e-05   -5.545402664324141e-06   -1.8770124373536858e-05
1.3071624864780548e-05   -5.545402664324141e-06   -1.8770124373536858e-05
1.3071624864780548e-05   -5.545402664324141e-06   -1.8770124373536858e-05
1.3071624864780548e-05   -5.545402664324141e-06   -1.8770124373536858e-05
2.5948474883395685e-05   -3.620376705537826e-06   3.846307899426878e-06
2.5948474883395685e-05   -3.620376705537826e-06   3.846307899426878e-06
2.5948474883395685e-05   -3.620376705537826e-06   3.846307899426878e-06
2.5948474883395685e-05   -3.620376705537826e-06   3.846307899426878e-06
2.682965782459071e-05   -5.027441380054526e-06   -2.1105317286614227e-05
2.682965782459071e-05   -5.027441380054526e-06   -2.1105317286614227e-05
2.682965782459071e-05   -5.027441380054526e-06   -2.1105317286614227e-05
2.682965782459071e-05   -5.027441380054526e-06   -2.1105317286614227e-05
1.3063080063022272e-05   -3.1037722136702467e-06   6.847774828360012e-07
1.3063080063022272e-05   -3.1037722136702467e-06   6.847774828360012e-07
1.3063080063022272e-05   -3.1037722136702467e-06   6.847774828360012e-07
1.3063080063022272e-05   -3.1037722136702467e-06   6.847774828360012e-07
1.888516838881666e-05   -4.272769016784486e-06   -8.317304978286178e-06
1.888516838881666e-05   -4.272769016784486e-06   -8.317304978286178e-06
1.888516838881666e-05   -4.272769016784486e-06   -8.317304978286178e-06
1.888516838881666e-05   -4.272769016784486e-06   -8.317304978286178e-06
1.3063080063022266e-05   -5.027441380054526e-06   -2.2259518786444716e-05
1.3063080063022266e-05   -5.027441380054526e-06   -2.2259518786444716e-05
1.3063080063022266e-05   -5.027441380054526e-06   -2.2259518786444716e-05
1.3063080063022266e-05   -5.027441380054526e-06   -2.2259518786444716e-05
2.682965782459071e-05   -3.1037722136701925e-06   1.8389789826665174e-06
2.682965782459071e-05   -3.1037722136701925e-06   1.8389789826665174e-06
2.682965782459071e-05   -3.1037722136701925e-06   1.8389789826665174e-06
2.682965782459071e-05   -3.1037722136701925e-06   1.8389789826665174e-06
2.7508188754533577e-05   -4.480997605236847e-06   -2.379968434630115e-05
2.7508188754533577e-05   -4.480997605236847e-06   -2.379968434630115e-05
2.7508188754533577e-05   -4.480997605236847e-06   -2.379968434630115e-05
2.7508188754533577e-05   -4.480997605236847e-06   -2.379968434630115e-05
1.3127102020747642e-05   -2.6620503492316835e-06   -9.225748102610371e-07
1.3127102020747642e-05   -2.6620503492316835e-06   -9.225748102610371e-07
1.3127102020747642e-05   -2.6620503492316835e-06   -9.225748102610371e-07
1.3127102020747642e-05   -2.6620503492316835e-06   -9.225748102610371e-07
1.9530317948557857e-05   -3.939589514137e-06   -1.0828077857668174e-05
1.9530317948557857e-05   -3.939589514137e-06   -1.0828077857668174e-05
1.9530317948557857e-05   -3.939589514137e-06   -1.0828077857668174e-05
1.9530317948557857e-05   -3.939589514137e-06   -1.0828077857668174e-05
1.3127102020747663e-05   -4.480997605236847e-06   -2.4891052699904217e-05
1.3127102020747663e-05   -4.480997605236847e-06   -2.4891052699904217e-05
1.3127102020747663e-05   -4.480997605236847e-06   -2.4891052699904217e-05
1.3127102020747663e-05   -4.480997605236847e-06   -2.4891052699904217e-05
2.7508188754533523e-05   -2.6620503492317377e-06   1.6879354334208268e-07
2.7508188754533523e-05   -2.6620503492317377e-06   1.6879354334208268e-07
2.7508188754533523e-05   -2.6620503492317377e-06   1.6879354334208268e-07
2.7508188754533523e-05   -2.6620503492317377e-06   1.6879354334208268e-07
2.823231447863573e-05   -3.305375522268876e-06   -2.8386848577394735e-05
2.823231447863573e-05   -3.305375522268876e-06   -2.8386848577394735e-05
2.823231447863573e-05   -3.305375522268876e-06   -2.8386848577394735e-05
2.823231447863573e-05   -3.305375522268876e-06   -2.8386848577394735e-05
1.302802160045945e-05   -1.7195502539161232e-06   -3.99785560811273e-06
1.302802160045945e-05   -1.7195502539161232e-06   -3.99785560811273e-06
1.302802160045945e-05   -1.7195502539161232e-06   -3.99785560811273e-06
1.302802160045945e-05   -1.7195502539161232e-06   -3.99785560811273e-06
1.94506044854055e-05   -3.3921726719775844e-06   -1.3698586965519161e-05
1.94506044854055e-05   -3.3921726719775844e-06   -1.3698586965519161e-05
1.94506044854055e-05   -3.3921726719775844e-06   -1.3698586965519161e-05
1.94506044854055e-05   -3.3921726719775844e-06   -1.3698586965519161e-05
-3.1209206900081085e-05   4.7862750883275016e-06   -2.377379521631328e-05
-3.1209206900081085e-05   4.7862750883275016e-06   -2.377379521631328e-05
-3.1209206900081085e-05   4.7862750883275016e-06   -2.377379521631328e-05
-3.1209206900081085e-05   4.7862750883275016e-06   -2.377379521631328e-05
-2.1268370553639504e-05   3.040310235806823e-06   -8.253313550423016e-06
-2.1268370553639504e-05   3.040310235806823e-06   -8.253313550423016e-06
-2.1268370553639504e-05   3.040310235806823e-06   -8.253313550423016e-06
-2.1268370553639504e-05   3.040310235806823e-06   -8.253313550423016e-06
-2.1190595954624942e-05   5.7925183126869475e-06   -2.0197691674136054e-05
-2.1190595954624942e-05   5.7925183126869475e-06   -2.0197691674136054e-05
-2.1190595954624942e-05   5.7925183126869475e-06   -2.0197691674136054e-05
-2.1190595954624942e-05   5.7925183126869475e-06   -2.0197691674136054e-05
-3.0271421505863587e-05   3.872210534106566e-06   -3.9107977549234624e-06
-3.0271421505863587e-05   3.872210534106566e-06   -3.9107977549234624e-06
-3.0271421505863587e-05   3.872210534106566e-06   -3.9107977549234624e-06
-3.0271421505863587e-05   3.872210534106566e-06   -3.9107977549234624e-06
-2.488238473294158e-05   4.609714390067538e-06   -1.3335028023370036e-05
-2.488238473294158e-05   4.609714390067538e-06   -1.3335028023370036e-05
-2.488238473294158e-05   4.609714390067538e-06   -1.3335028023370036e-05
-2.488238473294158e-05   4.609714390067538e-06   -1.3335028023370036e-05
-3.0271421505863587e-05   5.7925183126869475e-06   -1.904550700698783e-05
-3.0271421505863587e-05   5.7925183126869475e-06   -1.904550700698783e-05
-3.0271421505863587e-05   5.7925183126869475e-06   -1.904550700698783e-05
-3.0271421505863587e-05   5.7925183126869475e-06   -1.904550700698783e-05
-2.1190595954624983e-05   3.872210534106566e-06   -5.062982422071577e-06
-2.1190595954624983e-05   3.872210534106566e-06   -5.062982422071577e-06
-2.1190595954624983e-05   3.872210534106566e-06   -5.062982422071577e-06
-2.1190595954624983e-05   3.872210534106566e-06   -5.062982422071577e-06
-2.1029650511761148e-05   6.235056937897048e-06   -1.7612631539587085e-05
-2.1029650511761148e-05   6.235056937897048e-06   -1.7612631539587085e-05
-2.1029650511761148e-05   6.235056937897048e-06   -1.7612631539587085e-05
-2.1029650511761148e-05   6.235056937897048e-06   -1.7612631539587085e-05
-2.9571168782832727e-05   4.260454961710629e-06   -2.1920065687559918e-06
-2.9571168782832727e-05   4.260454961710629e-06   -2.1920065687559918e-06
-2.9571168782832727e-05   4.260454961710629e-06   -2.1920065687559918e-06
-2.9571168782832727e-05   4.260454961710629e-06   -2.1920065687559918e-06
-2.4882365736382257e-05   5.074044202486763e-06   -1.0494831857305693e-05
-2.4882365736382257e-05   5.074044202486763e-06   -1.0494831857305693e-05
-2.4882365736382257e-05   5.074044202486763e-06   -1.0494831857305693e-05
-2.4882365736382257e-05   5.074044202486763e-06   -1.0494831857305693e-05
-2.9571168782832727e-05   6.235056937897048e-06   -1.642787035387527e-05
-2.9571168782832727e-05   6.235056937897048e-06   -1.642787035387527e-05
-2.9571168782832727e-05   6.235056937897048e-06   -1.642787035387527e-05
-2.9571168782832727e-05   6.235056937897048e-06   -1.642787035387527e-05
-2.102965051176119e-05   4.260454961710629e-06   -3.376767754467724e-06
-2.102965051176119e-05   4.260454961710629e-06   -3.376767754467724e-06
-2.102965051176119e-05   4.260454961710629e-06   -3.376767754467724e-06
-2.102965051176119e-05   4.260454961710629e-06   -3.376767754467724e-06
-2.096572447560951e-05   6.6720883297371266e-06   -1.4036627265556485e-05
-2.096572447560951e-05   6.6720883297371266e-06   -1.4036627265556485e-05
-2.096572447560951e-05   6.6720883297371266e-06   -1.4036627265556485e-05
-2.096572447560951e-05   6.6720883297371266e-06   -1.4036627265556485e-05
-2.8655837859208435e-05   4.7496501523565035e-06   -6.630871979648083e-08
-2.8655837859208435e-05   4.7496501523565035e-06   -6.630871979648083e-08
-2.8655837859208435e-05   4.7496501523565035e-06   -6.630871979648083e-08
-2.8655837859208435e-05   4.7496501523565035e-06   -6.630871979648083e-08
-2.4145458855318765e-05   5.326864724354021e-06   -7.92993580281108e-06
-2.4145458855318765e-05   5.326864724354021e-06   -7.92993580281108e-06
-2.4145458855318765e-05   5.326864724354021e-06   -7.92993580281108e-06
-2.4145458855318765e-05   5.326864724354021e-06   -7.92993580281108e-06
-2.1268370553639477e-05   2.388328766309239e-06   -3.0333978648671144e-05
-2.1268370553639477e-05   2.388328766309239e-06   -3.0333978648671144e-05
-2.1268370553639477e-05   2.388328766309239e-06   -3.0333978648671144e-05
-2.1268370553639477e-05   2.388328766309239e-06   -3.0333978648671144e-05
-1.2252283170807912e-05   1.5748375044737127e-06   -1.5795261101053288e-05
-1.2252283170807912e-05   1.5748375044737127e-06   -1.5795261101053288e-05
-1.2252283170807912e-05   1.5748375044737127e-06   -1.5795261101053288e-05
-1.2252283170807912e-05   1.5748375044737127e-06   -1.5795261101053288e-05
-1.2258409788808759e-05   3.378332756655191e-06   -3.0071947574663053e-05
-1.2258409788808759e-05   3.378332756655191e-06   -3.0071947574663053e-05
-1.2258409788808759e-05   3.378332756655191e-06   -3.0071947574663053e-05
-1.2258409788808759e-05   3.378332756655191e-06   -3.0071947574663053e-05
-2.1190595954624942e-05   2.453538192760999e-06   -1.4630093893299481e-05
-2.1190595954624942e-05   2.453538192760999e-06   -1.4630093893299481e-05
-2.1190595954624942e-05   2.453538192760999e-06   -1.4630093893299481e-05
-2.1190595954624942e-05   2.453538192760999e-06   -1.4630093893299481e-05
-1.658790586921618e-05   2.614233595355799e-06   -2.239766127720439e-05
-1.658790586921618e-05   2.614233595355799e-06   -2.239766127720439e-05
-1.658790586921618e-05   2.614233595355799e-06   -2.239766127720439e-05
-1.658790586921618e-05   2.614233595355799e-06   -2.239766127720439e-05
-2.119059595462493e-05   3.378332756655191e-06   -2.9517070836326397e-05
-2.119059595462493e-05   3.378332756655191e-06   -2.9517070836326397e-05
-2.119059595462493e-05   3.378332756655191e-06   -2.9517070836326397e-05
-2.119059595462493e-05   3.378332756655191e-06   -2.9517070836326397e-05
-1.2258409788808759e-05   2.4535381927611073e-06   -1.5184970631635947e-05
-1.2258409788808759e-05   2.4535381927611073e-06   -1.5184970631635947e-05
-1.2258409788808759e-05   2.4535381927611073e-06   -1.5184970631635947e-05
-1.2258409788808759e-05   2.4535381927611073e-06   -1.5184970631635947e-05
-1.2249593441222118e-05   4.258424934874491e-06   -2.9398095070920678e-05
-1.2249593441222118e-05   4.258424934874491e-06   -2.9398095070920678e-05
-1.2249593441222118e-05   4.258424934874491e-06   -2.9398095070920678e-05
-1.2249593441222118e-05   4.258424934874491e-06   -2.9398095070920678e-05
-2.1029650511761148e-05   3.2537370515439744e-06   -1.4161853890023985e-05
-2.1029650511761148e-05   3.2537370515439744e-06   -1.4161853890023985e-05
-2.1029650511761148e-05   3.2537370515439744e-06   -1.4161853890023985e-05
-2.1029650511761148e-05   3.2537370515439744e-06   -1.4161853890023985e-05
-1.651090591723678e-05   3.3364453705845383e-06   -2.1742719872321878e-05
-1.651090591723678e-05   3.3364453705845383e-06   -2.1742719872321878e-05
-1.651090591723678e-05   3.3364453705845383e-06   -2.1742719872321878e-05
-1.651090591723678e-05   3.3364453705845383e-06   -2.1742719872321878e-05
-2.1029650511761148e-05   4.258424934874491e-06   -2.8795282340922368e-05
-2.1029650511761148e-05   4.258424934874491e-06   -2.8795282340922368e-05
-2.1029650511761148e-05   4.258424934874491e-06   -2.8795282340922368e-05
-2.1029650511761148e-05   4.258424934874491e-06   -2.8795282340922368e-05
-1.2249593441222132e-05   3.2537370515439744e-06   -1.4764666620022227e-05
-1.2249593441222132e-05   3.2537370515439744e-06   -1.4764666620022227e-05
-1.2249593441222132e-05   3.2537370515439744e-06   -1.4764666620022227e-05
-1.2249593441222132e-05   3.2537370515439744e-06   -1.4764666620022227e-05
-1.22597591465143e-05   5.195211988318928e-06   -2.95168119848016e-05
-1.22597591465143e-05   5.195211988318928e-06   -2.95168119848016e-05
-1.22597591465143e-05   5.195211988318928e-06   -2.95168119848016e-05
-1.22597591465143e-05   5.195211988318928e-06   -2.95168119848016e-05
-2.096572447560948e-05   4.123577994773436e-06   -1.4363889373515546e-05
-2.096572447560948e-05   4.123577994773436e-06   -1.4363889373515546e-05
-2.096572447560948e-05   4.123577994773436e-06   -1.4363889373515546e-05
-2.096572447560948e-05   4.123577994773436e-06   -1.4363889373515546e-05
-1.6618083111770144e-05   4.051594543454107e-06   -2.1566768242456267e-05
-1.6618083111770144e-05   4.051594543454107e-06   -2.1566768242456267e-05
-1.6618083111770144e-05   4.051594543454107e-06   -2.1566768242456267e-05
-1.6618083111770144e-05   4.051594543454107e-06   -2.1566768242456267e-05
-1.2252283170807892e-05   1.2749709454032898e-07   -3.348701282146572e-05
-1.2252283170807892e-05   1.2749709454032898e-07   -3.348701282146572e-05
-1.2252283170807892e-05   1.2749709454032898e-07   -3.348701282146572e-05
-1.2252283170807892e-05   1.2749709454032898e-07   -3.348701282146572e-05
-3.358726232643288e-06   2.7299363088530756e-07   -1.857712000271776e-05
-3.358726232643288e-06   2.7299363088530756e-07   -1.857712000271776e-05
-3.358726232643288e-06   2.7299363088530756e-07   -1.857712000271776e-05
-3.358726232643288e-06   2.7299363088530756e-07   -1.857712000271776e-05
-3.3653982310813927e-06   1.102522912235543e-06   -3.3115178409860735e-05
-3.3653982310813927e-06   1.102522912235543e-06   -3.3115178409860735e-05
-3.3653982310813927e-06   1.102522912235543e-06   -3.3115178409860735e-05
-3.3653982310813927e-06   1.102522912235543e-06   -3.3115178409860735e-05
-1.2258409788808732e-05   1.1571315180018953e-06   -1.8326257643774886e-05
-1.2258409788808732e-05   1.1571315180018953e-06   -1.8326257643774886e-05
-1.2258409788808732e-05   1.1571315180018953e-06   -1.8326257643774886e-05
-1.2258409788808732e-05   1.1571315180018953e-06   -1.8326257643774886e-05
-7.756673373825971e-06   7.799627710625406e-07   -2.560285042058255e-05
-7.756673373825971e-06   7.799627710625406e-07   -2.560285042058255e-05
-7.756673373825971e-06   7.799627710625406e-07   -2.560285042058255e-05
-7.756673373825971e-06   7.799627710625406e-07   -2.560285042058255e-05
-1.2258409788808732e-05   1.102522912235543e-06   -3.31479435733205e-05
-1.2258409788808732e-05   1.102522912235543e-06   -3.31479435733205e-05
-1.2258409788808732e-05   1.102522912235543e-06   -3.31479435733205e-05
-1.2258409788808732e-05   1.102522912235543e-06   -3.31479435733205e-05
-3.3653982310813927e-06   1.157131518001787e-06   -1.8293492480315056e-05
-3.3653982310813927e-06   1.157131518001787e-06   -1.8293492480315056e-05
-3.3653982310813927e-06   1.157131518001787e-06   -1.8293492480315056e-05
-3.3653982310813927e-06   1.157131518001787e-06   -1.8293492480315056e-05
-3.353870097968501e-06   2.0746953264630407e-06   -3.319861769669389e-05
-3.353870097968501e-06   2.0746953264630407e-06   -3.319861769669389e-05
-3.353870097968501e-06   2.0746953264630407e-06   -3.319861769669389e-05
-3.353870097968501e-06   2.0746953264630407e-06   -3.319861769669389e-05
-1.2249593441222118e-05   2.044106409474747e-06   -1.8354058774411574e-05
-1.2249593441222118e-05   2.044106409474747e-06   -1.8354058774411574e-05
-1.2249593441222118e-05   2.044106409474747e-06   -1.8354058774411574e-05
-1.2249593441222118e-05   2.044106409474747e-06   -1.8354058774411574e-05
-7.808803145778724e-06   1.5537784676219113e-06   -2.546117916837206e-05
-7.808803145778724e-06   1.5537784676219113e-06   -2.546117916837206e-05
-7.808803145778724e-06   1.5537784676219113e-06   -2.546117916837206e-05
-7.808803145778724e-06   1.5537784676219113e-06   -2.546117916837206e-05
-1.2249593441222118e-05   2.0746953264630407e-06   -3.318026434650094e-05
-1.2249593441222118e-05   2.0746953264630407e-06   -3.318026434650094e-05
-1.2249593441222118e-05   2.0746953264630407e-06   -3.318026434650094e-05
-1.2249593441222118e-05   2.0746953264630407e-06   -3.318026434650094e-05
-3.353870097968501e-06   2.044106409474747e-06   -1.8372412124604415e-05
-3.353870097968501e-06   2.044106409474747e-06   -1.8372412124604415e-05
-3.353870097968501e-06   2.044106409474747e-06   -1.8372412124604415e-05
-3.353870097968501e-06   2.044106409474747e-06   -1.8372412124604415e-05
-3.3592329064671295e-06   3.069410972813527e-06   -3.370046742522559e-05
-3.3592329064671295e-06   3.069410972813527e-06   -3.370046742522559e-05
-3.3592329064671295e-06   3.069410972813527e-06   -3.370046742522559e-05
-3.3592329064671295e-06   3.069410972813527e-06   -3.370046742522559e-05
-1.2259759146514306e-05   2.9465887942564965e-06   -1.879256371801261e-05
-1.2259759146514306e-05   2.9465887942564965e-06   -1.879256371801261e-05
-1.2259759146514306e-05   2.9465887942564965e-06   -1.879256371801261e-05
-1.2259759146514306e-05   2.9465887942564965e-06   -1.879256371801261e-05
-7.876129313789894e-06   2.3377620838823158e-06   -2.5733317412995585e-05
-7.876129313789894e-06   2.3377620838823158e-06   -2.5733317412995585e-05
-7.876129313789894e-06   2.3377620838823158e-06   -2.5733317412995585e-05
-7.876129313789894e-06   2.3377620838823158e-06   -2.5733317412995585e-05
-3.358726232643282e-06   -1.9987512051597802e-06   -2.9647868838717764e-05
-3.358726232643282e-06   -1.9987512051597802e-06   -2.9647868838717764e-05
-3.358726232643282e-06   -1.9987512051597802e-06   -2.9647868838717764e-05
-3.358726232643282e-06   -1.9987512051597802e-06   -2.9647868838717764e-05
5.40111853639983e-06   -9.170787428280317e-07   -1.4399124079580278e-05
5.40111853639983e-06   -9.170787428280317e-07   -1.4399124079580278e-05
5.40111853639983e-06   -9.170787428280317e-07   -1.4399124079580278e-05
5.40111853639983e-06   -9.170787428280317e-07   -1.4399124079580278e-05
5.472488414334026e-06   -1.1042842747332918e-06   -2.8970755509421668e-05
5.472488414334026e-06   -1.1042842747332918e-06   -2.8970755509421668e-05
5.472488414334026e-06   -1.1042842747332918e-06   -2.8970755509421668e-05
5.472488414334026e-06   -1.1042842747332918e-06   -2.8970755509421668e-05
-3.3653982310813868e-06   -8.363398544032358e-08   -1.4853334607305103e-05
-3.3653982310813868e-06   -8.363398544032358e-08   -1.4853334607305103e-05
-3.3653982310813868e-06   -8.363398544032358e-08   -1.4853334607305103e-05
-3.3653982310813868e-06   -8.363398544032358e-08   -1.4853334607305103e-05
1.043104417740743e-06   -9.489880957979637e-07   -2.1681626555794015e-05
1.043104417740743e-06   -9.489880957979637e-07   -2.1681626555794015e-05
1.043104417740743e-06   -9.489880957979637e-07   -2.1681626555794015e-05
1.043104417740743e-06   -9.489880957979637e-07   -2.1681626555794015e-05
-3.3653982310813927e-06   -1.1042842747332918e-06   -2.958314568299745e-05
-3.3653982310813927e-06   -1.1042842747332918e-06   -2.958314568299745e-05
-3.3653982310813927e-06   -1.1042842747332918e-06   -2.958314568299745e-05
-3.3653982310813927e-06   -1.1042842747332918e-06   -2.958314568299745e-05
5.472488414334026e-06   -8.363398544032358e-08   -1.4240944433729192e-05
5.472488414334026e-06   -8.363398544032358e-08   -1.4240944433729192e-05
5.472488414334026e-06   -8.363398544032358e-08   -1.4240944433729192e-05
5.472488414334026e-06   -8.363398544032358e-08   -1.4240944433729192e-05
5.641777576702153e-06   -2.259828082310845e-07   -2.957826880480214e-05
5.641777576702153e-06   -2.259828082310845e-07   -2.957826880480214e-05
5.641777576702153e-06   -2.259828082310845e-07   -2.957826880480214e-05
5.641777576702153e-06   -2.259828082310845e-07   -2.957826880480214e-05
-3.3538700979684954e-06   7.175443684074613e-07   -1.5151638986334193e-05
-3.3538700979684954e-06   7.175443684074613e-07   -1.5151638986334193e-05
-3.3538700979684954e-06   7.175443684074613e-07   -1.5151638986334193e-05
-3.3538700979684954e-06   7.175443684074613e-07   -1.5151638986334193e-05
9.921864281338726e-07   -2.555049077734178e-07   -2.1811236964129517e-05
9.921864281338726e-07   -2.555049077734178e-07   -2.1811236964129517e-05
9.921864281338726e-07   -2.555049077734178e-07   -2.1811236964129517e-05
9.921864281338726e-07   -2.555049077734178e-07   -2.1811236964129517e-05
-3.3538700979684984e-06   -2.259828082310845e-07   -3.0144385110785182e-05
-3.3538700979684984e-06   -2.259828082310845e-07   -3.0144385110785182e-05
-3.3538700979684984e-06   -2.259828082310845e-07   -3.0144385110785182e-05
-3.3538700979684984e-06   -2.259828082310845e-07   -3.0144385110785182e-05
5.64177757670218e-06   7.175443684075697e-07   -1.4585522680350997e-05
5.64177757670218e-06   7.175443684075697e-07   -1.4585522680350997e-05
5.64177757670218e-06   7.175443684075697e-07   -1.4585522680350997e-05
5.64177757670218e-06   7.175443684075697e-07   -1.4585522680350997e-05
5.724906013488674e-06   8.002938496138776e-07   -3.0450021510675167e-05
5.724906013488674e-06   8.002938496138776e-07   -3.0450021510675167e-05
5.724906013488674e-06   8.002938496138776e-07   -3.0450021510675167e-05
5.724906013488674e-06   8.002938496138776e-07   -3.0450021510675167e-05
-3.3592329064671295e-06   1.635107921291309e-06   -1.581067842042187e-05
-3.3592329064671295e-06   1.635107921291309e-06   -1.581067842042187e-05
-3.3592329064671295e-06   1.635107921291309e-06   -1.581067842042187e-05
-3.3592329064671295e-06   1.635107921291309e-06   -1.581067842042187e-05
1.0223992835053932e-06   4.85565949268291e-07   -2.2423673553828935e-05
1.0223992835053932e-06   4.85565949268291e-07   -2.2423673553828935e-05
1.0223992835053932e-06   4.85565949268291e-07   -2.2423673553828935e-05
1.0223992835053932e-06   4.85565949268291e-07   -2.2423673553828935e-05
5.4011185363998234e-06   -3.62037670553788e-06   -1.627928093157695e-05
5.4011185363998234e-06   -3.62037670553788e-06   -1.627928093157695e-05
5.4011185363998234e-06   -3.62037670553788e-06   -1.627928093157695e-05
5.4011185363998234e-06   -3.62037670553788e-06   -1.627928093157695e-05
1.3164961548122901e-05   -1.681331153216407e-06   -2.1761152473123452e-06
1.3164961548122901e-05   -1.681331153216407e-06   -2.1761152473123452e-06
1.3164961548122901e-05   -1.681331153216407e-06   -2.1761152473123452e-06
1.3164961548122901e-05   -1.681331153216407e-06   -2.1761152473123452e-06
1.4092868929694704e-05   -3.1037722136702467e-06   -1.7081251293117115e-05
1.4092868929694704e-05   -3.1037722136702467e-06   -1.7081251293117115e-05
1.4092868929694704e-05   -3.1037722136702467e-06   -1.7081251293117115e-05
1.4092868929694704e-05   -3.1037722136702467e-06   -1.7081251293117115e-05
5.472488414334026e-06   -1.115948062245238e-06   -3.906644925037744e-06
5.472488414334026e-06   -1.115948062245238e-06   -3.906644925037744e-06
5.472488414334026e-06   -1.115948062245238e-06   -3.906644925037744e-06
5.472488414334026e-06   -1.115948062245238e-06   -3.906644925037744e-06
9.126384648654965e-06   -2.3064689709089152e-06   -9.282159437041068e-06
9.126384648654965e-06   -2.3064689709089152e-06   -9.282159437041068e-06
9.126384648654965e-06   -2.3064689709089152e-06   -9.282159437041068e-06
9.126384648654965e-06   -2.3064689709089152e-06   -9.282159437041068e-06
5.472488414334019e-06   -3.1037722136702467e-06   -1.82739457839721e-05
5.472488414334019e-06   -3.1037722136702467e-06   -1.82739457839721e-05
5.472488414334019e-06   -3.1037722136702467e-06   -1.82739457839721e-05
5.472488414334019e-06   -3.1037722136702467e-06   -1.82739457839721e-05
1.4092868929694704e-05   -1.1159480622451295e-06   -2.7139504341825815e-06
1.4092868929694704e-05   -1.1159480622451295e-06   -2.7139504341825815e-06
1.4092868929694704e-05   -1.1159480622451295e-06   -2.7139504341825815e-06
1.4092868929694704e-05   -1.1159480622451295e-06   -2.7139504341825815e-06
1.4807807146152211e-05   -2.6620503492316835e-06   -1.872693343634273e-05
1.4807807146152211e-05   -2.6620503492316835e-06   -1.872693343634273e-05
1.4807807146152211e-05   -2.6620503492316835e-06   -1.872693343634273e-05
1.4807807146152211e-05   -2.6620503492316835e-06   -1.872693343634273e-05
5.64177757670218e-06   -7.264035584663136e-07   -4.611605561718568e-06
5.64177757670218e-06   -7.264035584663136e-07   -4.611605561718568e-06
5.64177757670218e-06   -7.264035584663136e-07   -4.611605561718568e-06
5.64177757670218e-06   -7.264035584663136e-07   -4.611605561718568e-06
9.692085806131756e-06   -2.015784397006021e-06   -1.0588490774310637e-05
9.692085806131756e-06   -2.015784397006021e-06   -1.0588490774310637e-05
9.692085806131756e-06   -2.015784397006021e-06   -1.0588490774310637e-05
9.692085806131756e-06   -2.015784397006021e-06   -1.0588490774310637e-05
5.641777576702153e-06   -2.6620503492316835e-06   -1.9888321510802e-05
5.641777576702153e-06   -2.6620503492316835e-06   -1.9888321510802e-05
5.641777576702153e-06   -2.6620503492316835e-06   -1.9888321510802e-05
5.641777576702153e-06   -2.6620503492316835e-06   -1.9888321510802e-05
1.4807807146152211e-05   -7.264035584663136e-07   -3.450217487259216e-06
1.4807807146152211e-05   -7.264035584663136e-07   -3.450217487259216e-06
1.4807807146152211e-05   -7.264035584663136e-07   -3.450217487259216e-06
1.4807807146152211e-05   -7.264035584663136e-07   -3.450217487259216e-06
1.575893218785651e-05   -1.7195502539161232e-06   -2.1886872251045453e-05
1.575893218785651e-05   -1.7195502539161232e-06   -2.1886872251045453e-05
1.575893218785651e-05   -1.7195502539161232e-06   -2.1886872251045453e-05
1.575893218785651e-05   -1.7195502539161232e-06   -2.1886872251045453e-05
5.7249060134886945e-06   3.790867677947764e-08   -6.217970652183099e-06
5.7249060134886945e-06   3.790867677947764e-08   -6.217970652183099e-06
5.7249060134886945e-06   3.790867677947764e-08   -6.217970652183099e-06
5.7249060134886945e-06   3.790867677947764e-08   -6.217970652183099e-06
9.882854190188327e-06   -1.5854239959684e-06   -1.2173884676367082e-05
9.882854190188327e-06   -1.5854239959684e-06   -1.2173884676367082e-05
9.882854190188327e-06   -1.5854239959684e-06   -1.2173884676367082e-05
9.882854190188327e-06   -1.5854239959684e-06   -1.2173884676367082e-05
-1.8850028718370886e-05   3.040310235806823e-06   -1.7693503327570698e-05
-1.8850028718370886e-05   3.040310235806823e-06   -1.7693503327570698e-05
-1.8850028718370886e-05   3.040310235806823e-06   -1.7693503327570698e-05
-1.8850028718370886e-05   3.040310235806823e-06   -1.7693503327570698e-05
-1.3943821148819688e-05   1.2344863468290428e-06   -1.0599985045038726e-05
-1.3943821148819688e-05   1.2344863468290428e-06   -1.0599985045038726e-05
-1.3943821148819688e-05   1.2344863468290428e-06   -1.0599985045038726e-05
-1.3943821148819688e-05   1.2344863468290428e-06   -1.0599985045038726e-05
-1.3740143210646535e-05   3.872210534106566e-06   -1.5609031477838544e-05
-1.3740143210646535e-05   3.872210534106566e-06   -1.5609031477838544e-05
-1.3740143210646535e-05   3.872210534106566e-06   -1.5609031477838544e-05
-1.3740143210646535e-05   3.872210534106566e-06   -1.5609031477838544e-05
-1.7822644328591885e-05   1.925806377174946e-06   -7.637020453770359e-06
-1.7822644328591885e-05   1.925806377174946e-06   -7.637020453770359e-06
-1.7822644328591885e-05   1.925806377174946e-06   -7.637020453770359e-06
-1.7822644328591885e-05   1.925806377174946e-06   -7.637020453770359e-06
-1.5407574667698786e-05   2.7280111019277724e-06   -1.2143459390111288e-05
-1.5407574667698786e-05   2.7280111019277724e-06   -1.2143459390111288e-05
-1.5407574667698786e-05   2.7280111019277724e-06   -1.2143459390111288e-05
-1.5407574667698786e-05   2.7280111019277724e-06   -1.2143459390111288e-05
-1.7822644328591885e-05   3.872210534106566e-06   -1.444118898367942e-05
-1.7822644328591885e-05   3.872210534106566e-06   -1.444118898367942e-05
-1.7822644328591885e-05   3.872210534106566e-06   -1.444118898367942e-05
-1.7822644328591885e-05   3.872210534106566e-06   -1.444118898367942e-05
-1.3740143210646562e-05   1.925806377174946e-06   -8.804862947929429e-06
-1.3740143210646562e-05   1.925806377174946e-06   -8.804862947929429e-06
-1.3740143210646562e-05   1.925806377174946e-06   -8.804862947929429e-06
-1.3740143210646562e-05   1.925806377174946e-06   -8.804862947929429e-06
-1.3449014601229174e-05   4.260454961710629e-06   -1.3937425226198544e-05
-1.3449014601229174e-05   4.260454961710629e-06   -1.3937425226198544e-05
-1.3449014601229174e-05   4.260454961710629e-06   -1.3937425226198544e-05
-1.3449014601229174e-05   4.260454961710629e-06   -1.3937425226198544e-05
-1.700439964454886e-05   2.275894133954093e-06   -6.8210469906785005e-06
-1.700439964454886e-05   2.275894133954093e-06   -6.8210469906785005e-06
-1.700439964454886e-05   2.275894133954093e-06   -6.8210469906785005e-06
-1.700439964454886e-05   2.275894133954093e-06   -6.8210469906785005e-06
-1.5137312832563918e-05   3.1013674559575172e-06   -1.04281423371889e-05
-1.5137312832563918e-05   3.1013674559575172e-06   -1.04281423371889e-05
-1.5137312832563918e-05   3.1013674559575172e-06   -1.04281423371889e-05
-1.5137312832563918e-05   3.1013674559575172e-06   -1.04281423371889e-05
-1.7004399644548806e-05   4.260454961710629e-06   -1.2746688729544698e-05
-1.7004399644548806e-05   4.260454961710629e-06   -1.2746688729544698e-05
-1.7004399644548806e-05   4.260454961710629e-06   -1.2746688729544698e-05
-1.7004399644548806e-05   4.260454961710629e-06   -1.2746688729544698e-05
-1.3449014601229201e-05   2.275894133954093e-06   -8.011783487332427e-06
-1.3449014601229201e-05   2.275894133954093e-06   -8.011783487332427e-06
-1.3449014601229201e-05   2.275894133954093e-06   -8.011783487332427e-06
-1.3449014601229201e-05   2.275894133954093e-06   -8.011783487332427e-06
-1.3251807472562703e-05   4.7496501523565035e-06   -1.1794703135057857e-05
-1.3251807472562703e-05   4.7496501523565035e-06   -1.1794703135057857e-05
-1.3251807472562703e-05   4.7496501523565035e-06   -1.1794703135057857e-05
-1.3251807472562703e-05   4.7496501523565035e-06   -1.1794703135057857e-05
-1.5962790692568583e-05   2.83084159720501e-06   -6.125112635290363e-06
-1.5962790692568583e-05   2.83084159720501e-06   -6.125112635290363e-06
-1.5962790692568583e-05   2.83084159720501e-06   -6.125112635290363e-06
-1.5962790692568583e-05   2.83084159720501e-06   -6.125112635290363e-06
-1.443081822838977e-05   3.3614701908666125e-06   -8.996777231785815e-06
-1.443081822838977e-05   3.3614701908666125e-06   -8.996777231785815e-06
-1.443081822838977e-05   3.3614701908666125e-06   -8.996777231785815e-06
-1.443081822838977e-05   3.3614701908666125e-06   -8.996777231785815e-06
-1.3943821148819688e-05   1.5748375044736043e-06   -2.583085045448631e-05
-1.3943821148819688e-05   1.5748375044736043e-06   -2.583085045448631e-05
-1.3943821148819688e-05   1.5748375044736043e-06   -2.583085045448631e-05
-1.3943821148819688e-05   1.5748375044736043e-06   -2.583085045448631e-05
-9.954338311755299e-06   7.130459468217103e-07   -1.969878732730349e-05
-9.954338311755299e-06   7.130459468217103e-07   -1.969878732730349e-05
-9.954338311755299e-06   7.130459468217103e-07   -1.969878732730349e-05
-9.954338311755299e-06   7.130459468217103e-07   -1.969878732730349e-05
-9.821949825441389e-06   2.453538192760999e-06   -2.574455309575774e-05
-9.821949825441389e-06   2.453538192760999e-06   -2.574455309575774e-05
-9.821949825441389e-06   2.453538192760999e-06   -2.574455309575774e-05
-9.821949825441389e-06   2.453538192760999e-06   -2.574455309575774e-05
-1.374014321064659e-05   1.5061879482752925e-06   -1.8645820640390815e-05
-1.374014321064659e-05   1.5061879482752925e-06   -1.8645820640390815e-05
-1.374014321064659e-05   1.5061879482752925e-06   -1.8645820640390815e-05
-1.374014321064659e-05   1.5061879482752925e-06   -1.8645820640390815e-05
-1.1749351793630284e-05   1.715175387834362e-06   -2.208919879915399e-05
-1.1749351793630284e-05   1.715175387834362e-06   -2.208919879915399e-05
-1.1749351793630284e-05   1.715175387834362e-06   -2.208919879915399e-05
-1.1749351793630284e-05   1.715175387834362e-06   -2.208919879915399e-05
-1.3740143210646535e-05   2.453538192760999e-06   -2.5176142949066122e-05
-1.3740143210646535e-05   2.453538192760999e-06   -2.5176142949066122e-05
-1.3740143210646535e-05   2.453538192760999e-06   -2.5176142949066122e-05
-1.3740143210646535e-05   2.453538192760999e-06   -2.5176142949066122e-05
-9.821949825441402e-06   1.5061879482752925e-06   -1.921423078708238e-05
-9.821949825441402e-06   1.5061879482752925e-06   -1.921423078708238e-05
-9.821949825441402e-06   1.5061879482752925e-06   -1.921423078708238e-05
-9.821949825441402e-06   1.5061879482752925e-06   -1.921423078708238e-05
-9.6756058853657e-06   3.253737051544083e-06   -2.5328140185035698e-05
-9.6756058853657e-06   3.253737051544083e-06   -2.5328140185035698e-05
-9.6756058853657e-06   3.253737051544083e-06   -2.5328140185035698e-05
-9.6756058853657e-06   3.253737051544083e-06   -2.5328140185035698e-05
-1.3449014601229229e-05   2.2443556794095234e-06   -1.843349683531553e-05
-1.3449014601229229e-05   2.2443556794095234e-06   -1.843349683531553e-05
-1.3449014601229229e-05   2.2443556794095234e-06   -1.843349683531553e-05
-1.3449014601229229e-05   2.2443556794095234e-06   -1.843349683531553e-05
-1.1574750314957973e-05   2.3571837226000992e-06   -2.1624967471681742e-05
-1.1574750314957973e-05   2.3571837226000992e-06   -2.1624967471681742e-05
-1.1574750314957973e-05   2.3571837226000992e-06   -2.1624967471681742e-05
-1.1574750314957973e-05   2.3571837226000992e-06   -2.1624967471681742e-05
-1.3449014601229174e-05   3.2537370515439744e-06   -2.4722511361754778e-05
-1.3449014601229174e-05   3.2537370515439744e-06   -2.4722511361754778e-05
-1.3449014601229174e-05   3.2537370515439744e-06   -2.4722511361754778e-05
-1.3449014601229174e-05   3.2537370515439744e-06   -2.4722511361754778e-05
-9.675605885365674e-06   2.2443556794095234e-06   -1.9039125658596205e-05
-9.675605885365674e-06   2.2443556794095234e-06   -1.9039125658596205e-05
-9.675605885365674e-06   2.2443556794095234e-06   -1.9039125658596205e-05
-9.675605885365674e-06   2.2443556794095234e-06   -1.9039125658596205e-05
-9.545838609302908e-06   4.123577994773436e-06   -2.557382189072462e-05
-9.545838609302908e-06   4.123577994773436e-06   -2.557382189072462e-05
-9.545838609302908e-06   4.123577994773436e-06   -2.557382189072462e-05
-9.545838609302908e-06   4.123577994773436e-06   -2.557382189072462e-05
-1.325180747256273e-05   3.0652429808134332e-06   -1.8762206110248736e-05
-1.325180747256273e-05   3.0652429808134332e-06   -1.8762206110248736e-05
-1.325180747256273e-05   3.0652429808134332e-06   -1.8762206110248736e-05
-1.325180747256273e-05   3.0652429808134332e-06   -1.8762206110248736e-05
-1.1507850758620368e-05   3.008188063890289e-06   -2.1634567683332284e-05
-1.1507850758620368e-05   3.008188063890289e-06   -2.1634567683332284e-05
-1.1507850758620368e-05   3.008188063890289e-06   -2.1634567683332284e-05
-1.1507850758620368e-05   3.008188063890289e-06   -2.1634567683332284e-05
-9.954338311755258e-06   2.7299363088530756e-07   -2.921708221254889e-05
-9.954338311755258e-06   2.7299363088530756e-07   -2.921708221254889e-05
-9.954338311755258e-06   2.7299363088530756e-07   -2.921708221254889e-05
-9.954338311755258e-06   2.7299363088530756e-07   -2.921708221254889e-05
-6.064117574880684e-06   4.1151657130869806e-07   -2.265026722017067e-05
-6.064117574880684e-06   4.1151657130869806e-07   -2.265026722017067e-05
-6.064117574880684e-06   4.1151657130869806e-07   -2.265026722017067e-05
-6.064117574880684e-06   4.1151657130869806e-07   -2.265026722017067e-05
-5.935328439093685e-06   1.1571315180018953e-06   -2.8848059927811674e-05
-5.935328439093685e-06   1.1571315180018953e-06   -2.8848059927811674e-05
-5.935328439093685e-06   1.1571315180018953e-06   -2.8848059927811674e-05
-5.935328439093685e-06   1.1571315180018953e-06   -2.8848059927811674e-05
-9.821949825441389e-06   1.220098484810278e-06   -2.240813779731694e-05
-9.821949825441389e-06   1.220098484810278e-06   -2.240813779731694e-05
-9.821949825441389e-06   1.220098484810278e-06   -2.240813779731694e-05
-9.821949825441389e-06   1.220098484810278e-06   -2.240813779731694e-05
-7.892938738524457e-06   8.784293758908003e-07   -2.5418154810160696e-05
-7.892938738524457e-06   8.784293758908003e-07   -2.5418154810160696e-05
-7.892938738524457e-06   8.784293758908003e-07   -2.5418154810160696e-05
-7.892938738524457e-06   8.784293758908003e-07   -2.5418154810160696e-05
-9.821949825441375e-06   1.1571315180018953e-06   -2.8885840107896585e-05
-9.821949825441375e-06   1.1571315180018953e-06   -2.8885840107896585e-05
-9.821949825441375e-06   1.1571315180018953e-06   -2.8885840107896585e-05
-9.821949825441375e-06   1.1571315180018953e-06   -2.8885840107896585e-05
-5.935328439093685e-06   1.220098484810278e-06   -2.2370357617232015e-05
-5.935328439093685e-06   1.220098484810278e-06   -2.2370357617232015e-05
-5.935328439093685e-06   1.220098484810278e-06   -2.2370357617232015e-05
-5.935328439093685e-06   1.220098484810278e-06   -2.2370357617232015e-05
-5.790004530044575e-06   2.044106409474747e-06   -2.892255847370182e-05
-5.790004530044575e-06   2.044106409474747e-06   -2.892255847370182e-05
-5.790004530044575e-06   2.044106409474747e-06   -2.892255847370182e-05
-5.790004530044575e-06   2.044106409474747e-06   -2.892255847370182e-05
-9.6756058853657e-06   2.0357295190131814e-06   -2.24415300805562e-05
-9.6756058853657e-06   2.0357295190131814e-06   -2.24415300805562e-05
-9.6756058853657e-06   2.0357295190131814e-06   -2.24415300805562e-05
-9.6756058853657e-06   2.0357295190131814e-06   -2.24415300805562e-05
-7.807284487369946e-06   1.5736517411978415e-06   -2.527815241052654e-05
-7.807284487369946e-06   1.5736517411978415e-06   -2.527815241052654e-05
-7.807284487369946e-06   1.5736517411978415e-06   -2.527815241052654e-05
-7.807284487369946e-06   1.5736517411978415e-06   -2.527815241052654e-05
-9.67560588536566e-06   2.044106409474747e-06   -2.8917532339424706e-05
-9.67560588536566e-06   2.044106409474747e-06   -2.8917532339424706e-05
-9.67560588536566e-06   2.044106409474747e-06   -2.8917532339424706e-05
-9.67560588536566e-06   2.044106409474747e-06   -2.8917532339424706e-05
-5.790004530044575e-06   2.0357295190131814e-06   -2.2446556214833165e-05
-5.790004530044575e-06   2.0357295190131814e-06   -2.2446556214833165e-05
-5.790004530044575e-06   2.0357295190131814e-06   -2.2446556214833165e-05
-5.790004530044575e-06   2.0357295190131814e-06   -2.2446556214833165e-05
-5.659565000891887e-06   2.9465887942564965e-06   -2.9409243321101592e-05
-5.659565000891887e-06   2.9465887942564965e-06   -2.9409243321101592e-05
-5.659565000891887e-06   2.9465887942564965e-06   -2.9409243321101592e-05
-5.659565000891887e-06   2.9465887942564965e-06   -2.9409243321101592e-05
-9.545838609302908e-06   2.8637096575776866e-06   -2.2882393158409192e-05
-9.545838609302908e-06   2.8637096575776866e-06   -2.2882393158409192e-05
-9.545838609302908e-06   2.8637096575776866e-06   -2.2882393158409192e-05
-9.545838609302908e-06   2.8637096575776866e-06   -2.2882393158409192e-05
-7.73690013467727e-06   2.278129260324972e-06   -2.5545942377767157e-05
-7.73690013467727e-06   2.278129260324972e-06   -2.5545942377767157e-05
-7.73690013467727e-06   2.278129260324972e-06   -2.5545942377767157e-05
-7.73690013467727e-06   2.278129260324972e-06   -2.5545942377767157e-05
-6.064117574880664e-06   -9.170787428280317e-07   -2.5604976002556478e-05
-6.064117574880664e-06   -9.170787428280317e-07   -2.5604976002556478e-05
-6.064117574880664e-06   -9.170787428280317e-07   -2.5604976002556478e-05
-6.064117574880664e-06   -9.170787428280317e-07   -2.5604976002556478e-05
-2.2965752149217347e-06   1.8103900321746191e-07   -1.8666868088331064e-05
-2.2965752149217347e-06   1.8103900321746191e-07   -1.8666868088331064e-05
-2.2965752149217347e-06   1.8103900321746191e-07   -1.8666868088331064e-05
-2.2965752149217347e-06   1.8103900321746191e-07   -1.8666868088331064e-05
-2.1031227221670945e-06   -8.3633985440432e-08   -2.4778803008789223e-05
-2.1031227221670945e-06   -8.3633985440432e-08   -2.4778803008789223e-05
-2.1031227221670945e-06   -8.3633985440432e-08   -2.4778803008789223e-05
-2.1031227221670945e-06   -8.3633985440432e-08   -2.4778803008789223e-05
-5.935328439093675e-06   9.64864424580201e-07   -1.9020892526590264e-05
-5.935328439093675e-06   9.64864424580201e-07   -1.9020892526590264e-05
-5.935328439093675e-06   9.64864424580201e-07   -1.9020892526590264e-05
-5.935328439093675e-06   9.64864424580201e-07   -1.9020892526590264e-05
-4.05837588344235e-06   1.1799817211158824e-07   -2.164102703452847e-05
-4.05837588344235e-06   1.1799817211158824e-07   -2.164102703452847e-05
-4.05837588344235e-06   1.1799817211158824e-07   -2.164102703452847e-05
-4.05837588344235e-06   1.1799817211158824e-07   -2.164102703452847e-05
-5.935328439093665e-06   -8.363398544032358e-08   -2.540790205480143e-05
-5.935328439093665e-06   -8.363398544032358e-08   -2.540790205480143e-05
-5.935328439093665e-06   -8.363398544032358e-08   -2.540790205480143e-05
-5.935328439093665e-06   -8.363398544032358e-08   -2.540790205480143e-05
-2.1031227221670945e-06   9.64864424580201e-07   -1.8391793480578152e-05
-2.1031227221670945e-06   9.64864424580201e-07   -1.8391793480578152e-05
-2.1031227221670945e-06   9.64864424580201e-07   -1.8391793480578152e-05
-2.1031227221670945e-06   9.64864424580201e-07   -1.8391793480578152e-05
-1.8142383160012036e-06   7.175443684074613e-07   -2.511055587324512e-05
-1.8142383160012036e-06   7.175443684074613e-07   -2.511055587324512e-05
-1.8142383160012036e-06   7.175443684074613e-07   -2.511055587324512e-05
-1.8142383160012036e-06   7.175443684074613e-07   -2.511055587324512e-05
-5.790004530044565e-06   1.7029268053845182e-06   -1.9075508312025673e-05
-5.790004530044565e-06   1.7029268053845182e-06   -1.9075508312025673e-05
-5.790004530044565e-06   1.7029268053845182e-06   -1.9075508312025673e-05
-5.790004530044565e-06   1.7029268053845182e-06   -1.9075508312025673e-05
-3.941906107596329e-06   7.511957040274263e-07   -2.158463368862519e-05
-3.941906107596329e-06   7.511957040274263e-07   -2.158463368862519e-05
-3.941906107596329e-06   7.511957040274263e-07   -2.158463368862519e-05
-3.941906107596329e-06   7.511957040274263e-07   -2.158463368862519e-05
-5.7900045300445494e-06   7.175443684074613e-07   -2.570178533543128e-05
-5.7900045300445494e-06   7.175443684074613e-07   -2.570178533543128e-05
-5.7900045300445494e-06   7.175443684074613e-07   -2.570178533543128e-05
-5.7900045300445494e-06   7.175443684074613e-07   -2.570178533543128e-05
-1.8142383160012172e-06   1.7029268053845182e-06   -1.8484278849839467e-05
-1.8142383160012172e-06   1.7029268053845182e-06   -1.8484278849839467e-05
-1.8142383160012172e-06   1.7029268053845182e-06   -1.8484278849839467e-05
-1.8142383160012172e-06   1.7029268053845182e-06   -1.8484278849839467e-05
-1.6128218848130663e-06   1.6351079212912007e-06   -2.581268188517539e-05
-1.6128218848130663e-06   1.6351079212912007e-06   -2.581268188517539e-05
-1.6128218848130663e-06   1.6351079212912007e-06   -2.581268188517539e-05
-1.6128218848130663e-06   1.6351079212912007e-06   -2.581268188517539e-05
-5.659565000891895e-06   2.536745973293476e-06   -1.9609092856245152e-05
-5.659565000891895e-06   2.536745973293476e-06   -1.9609092856245152e-05
-5.659565000891895e-06   2.536745973293476e-06   -1.9609092856245152e-05
-5.659565000891895e-06   2.536745973293476e-06   -1.9609092856245152e-05
-3.8202862590409345e-06   1.4141152745406017e-06   -2.2000979006745063e-05
-3.8202862590409345e-06   1.4141152745406017e-06   -2.2000979006745063e-05
-3.8202862590409345e-06   1.4141152745406017e-06   -2.2000979006745063e-05
-3.8202862590409345e-06   1.4141152745406017e-06   -2.2000979006745063e-05
-2.2965752149217347e-06   -1.681331153216407e-06   -1.3886523854054111e-05
-2.2965752149217347e-06   -1.681331153216407e-06   -1.3886523854054111e-05
-2.2965752149217347e-06   -1.681331153216407e-06   -1.3886523854054111e-05
-2.2965752149217347e-06   -1.681331153216407e-06   -1.3886523854054111e-05
4.688888392809004e-07   2.5678570081465006e-07   -8.11454698463113e-06
4.688888392809004e-07   2.5678570081465006e-07   -8.11454698463113e-06
4.688888392809004e-07   2.5678570081465006e-07   -8.11454698463113e-06
4.688888392809004e-07   2.5678570081465006e-07   -8.11454698463113e-06
1.5004253093732869e-06   -1.1159480622451295e-06   -1.3248713202660713e-05
1.5004253093732869e-06   -1.1159480622451295e-06   -1.3248713202660713e-05
1.5004253093732869e-06   -1.1159480622451295e-06   -1.3248713202660713e-05
1.5004253093732869e-06   -1.1159480622451295e-06   -1.3248713202660713e-05
-2.103122722167081e-06   8.770357668164142e-07   -8.43859011419685e-06
-2.103122722167081e-06   8.770357668164142e-07   -8.43859011419685e-06
-2.103122722167081e-06   8.770357668164142e-07   -8.43859011419685e-06
-2.103122722167081e-06   8.770357668164142e-07   -8.43859011419685e-06
-5.90415285347722e-07   -3.328520299769773e-07   -1.023383649748663e-05
-5.90415285347722e-07   -3.328520299769773e-07   -1.023383649748663e-05
-5.90415285347722e-07   -3.328520299769773e-07   -1.023383649748663e-05
-5.90415285347722e-07   -3.328520299769773e-07   -1.023383649748663e-05
-2.1031227221670674e-06   -1.115948062245238e-06   -1.444450350009753e-05
-2.1031227221670674e-06   -1.115948062245238e-06   -1.444450350009753e-05
-2.1031227221670674e-06   -1.115948062245238e-06   -1.444450350009753e-05
-2.1031227221670674e-06   -1.115948062245238e-06   -1.444450350009753e-05
1.5004253093732869e-06   8.770357668164142e-07   -7.2427998167599915e-06
1.5004253093732869e-06   8.770357668164142e-07   -7.2427998167599915e-06
1.5004253093732869e-06   8.770357668164142e-07   -7.2427998167599915e-06
1.5004253093732869e-06   8.770357668164142e-07   -7.2427998167599915e-06
2.3151724899518134e-06   -7.26403558466422e-07   -1.3965501400560617e-05
2.3151724899518134e-06   -7.26403558466422e-07   -1.3965501400560617e-05
2.3151724899518134e-06   -7.26403558466422e-07   -1.3965501400560617e-05
2.3151724899518134e-06   -7.26403558466422e-07   -1.3965501400560617e-05
-1.8142383160012036e-06   1.2254920316204058e-06   -8.25428741135751e-06
-1.8142383160012036e-06   1.2254920316204058e-06   -8.25428741135751e-06
-1.8142383160012036e-06   1.2254920316204058e-06   -8.25428741135751e-06
-1.8142383160012036e-06   1.2254920316204058e-06   -8.25428741135751e-06
-6.921256317430588e-08   -3.5236707778820917e-08   -1.0406226422429493e-05
-6.921256317430588e-08   -3.5236707778820917e-08   -1.0406226422429493e-05
-6.921256317430588e-08   -3.5236707778820917e-08   -1.0406226422429493e-05
-6.921256317430588e-08   -3.5236707778820917e-08   -1.0406226422429493e-05
-1.8142383160012036e-06   -7.264035584663136e-07   -1.5136638754612583e-05
-1.8142383160012036e-06   -7.264035584663136e-07   -1.5136638754612583e-05
-1.8142383160012036e-06   -7.264035584663136e-07   -1.5136638754612583e-05
-1.8142383160012036e-06   -7.264035584663136e-07   -1.5136638754612583e-05
2.3151724899517863e-06   1.2254920316202974e-06   -7.083150057305408e-06
2.3151724899517863e-06   1.2254920316202974e-06   -7.083150057305408e-06
2.3151724899517863e-06   1.2254920316202974e-06   -7.083150057305408e-06
2.3151724899517863e-06   1.2254920316202974e-06   -7.083150057305408e-06
3.3447404993458562e-06   3.790867677958606e-08   -1.563858640230104e-05
3.3447404993458562e-06   3.790867677958606e-08   -1.563858640230104e-05
3.3447404993458562e-06   3.790867677958606e-08   -1.563858640230104e-05
3.3447404993458562e-06   3.790867677958606e-08   -1.563858640230104e-05
-1.6128218848130663e-06   1.8417022728493956e-06   -8.458258586344577e-06
-1.6128218848130663e-06   1.8417022728493956e-06   -8.458258586344577e-06
-1.6128218848130663e-06   1.8417022728493956e-06   -8.458258586344577e-06
-1.6128218848130663e-06   1.8417022728493956e-06   -8.458258586344577e-06
3.8174870204019334e-07   3.0274726839406643e-07   -1.0859169895093733e-05
3.8174870204019334e-07   3.0274726839406643e-07   -1.0859169895093733e-05
3.8174870204019334e-07   3.0274726839406643e-07   -1.0859169895093733e-05
3.8174870204019334e-07   3.0274726839406643e-07   -1.0859169895093733e-05
-6.521445603750595e-06   1.2344863468290428e-06   -1.1758874828574604e-05
-6.521445603750595e-06   1.2344863468290428e-06   -1.1758874828574604e-05
-6.521445603750595e-06   1.2344863468290428e-06   -1.1758874828574604e-05
-6.521445603750595e-06   1.2344863468290428e-06   -1.1758874828574604e-05
-6.652958623567493e-06   -5.808263037806322e-07   -1.30672507853021e-05
-6.652958623567493e-06   -5.808263037806322e-07   -1.30672507853021e-05
-6.652958623567493e-06   -5.808263037806322e-07   -1.30672507853021e-05
-6.652958623567493e-06   -5.808263037806322e-07   -1.30672507853021e-05
-6.322275801936449e-06   1.925806377174946e-06   -1.1049397474252902e-05
-6.322275801936449e-06   1.925806377174946e-06   -1.1049397474252902e-05
-6.322275801936449e-06   1.925806377174946e-06   -1.1049397474252902e-05
-6.322275801936449e-06   1.925806377174946e-06   -1.1049397474252902e-05
-5.3744510269567965e-06   -2.2437807332617576e-08   -1.1460158921847608e-05
-5.3744510269567965e-06   -2.2437807332617576e-08   -1.1460158921847608e-05
-5.3744510269567965e-06   -2.2437807332617576e-08   -1.1460158921847608e-05
-5.3744510269567965e-06   -2.2437807332617576e-08   -1.1460158921847608e-05
-5.946202631836508e-06   8.501050711390117e-07   -1.103076530746495e-05
-5.946202631836508e-06   8.501050711390117e-07   -1.103076530746495e-05
-5.946202631836508e-06   8.501050711390117e-07   -1.103076530746495e-05
-5.946202631836508e-06   8.501050711390117e-07   -1.103076530746495e-05
-5.374451026956769e-06   1.925806377174946e-06   -9.88045096354833e-06
-5.374451026956769e-06   1.925806377174946e-06   -9.88045096354833e-06
-5.374451026956769e-06   1.925806377174946e-06   -9.88045096354833e-06
-5.374451026956769e-06   1.925806377174946e-06   -9.88045096354833e-06
-6.3222758019364765e-06   -2.2437807332617576e-08   -1.2629105432552314e-05
-6.3222758019364765e-06   -2.2437807332617576e-08   -1.2629105432552314e-05
-6.3222758019364765e-06   -2.2437807332617576e-08   -1.2629105432552314e-05
-6.3222758019364765e-06   -2.2437807332617576e-08   -1.2629105432552314e-05
-5.904608489475024e-06   2.275894133954093e-06   -1.0253520377807033e-05
-5.904608489475024e-06   2.275894133954093e-06   -1.0253520377807033e-05
-5.904608489475024e-06   2.275894133954093e-06   -1.0253520377807033e-05
-5.904608489475024e-06   2.275894133954093e-06   -1.0253520377807033e-05
-4.427431527125899e-06   2.943549807198076e-07   -1.152655848978164e-05
-4.427431527125899e-06   2.943549807198076e-07   -1.152655848978164e-05
-4.427431527125899e-06   2.943549807198076e-07   -1.152655848978164e-05
-4.427431527125899e-06   2.943549807198076e-07   -1.152655848978164e-05
-5.40457116318213e-06   1.137296313032392e-06   -1.0403757229075967e-05
-5.40457116318213e-06   1.137296313032392e-06   -1.0403757229075967e-05
-5.40457116318213e-06   1.137296313032392e-06   -1.0403757229075967e-05
-5.40457116318213e-06   1.137296313032392e-06   -1.0403757229075967e-05
-4.427431527125926e-06   2.275894133954093e-06   -9.064596885866505e-06
-4.427431527125926e-06   2.275894133954093e-06   -9.064596885866505e-06
-4.427431527125926e-06   2.275894133954093e-06   -9.064596885866505e-06
-4.427431527125926e-06   2.275894133954093e-06   -9.064596885866505e-06
-5.904608489475051e-06   2.943549807198076e-07   -1.2715481981722142e-05
-5.904608489475051e-06   2.943549807198076e-07   -1.2715481981722142e-05
-5.904608489475051e-06   2.943549807198076e-07   -1.2715481981722142e-05
-5.904608489475051e-06   2.943549807198076e-07   -1.2715481981722142e-05
-5.580073903023333e-06   2.8308415972049016e-06   -9.515274669517036e-06
-5.580073903023333e-06   2.8308415972049016e-06   -9.515274669517036e-06
-5.580073903023333e-06   2.8308415972049016e-06   -9.515274669517036e-06
-5.580073903023333e-06   2.8308415972049016e-06   -9.515274669517036e-06
-3.25816460247503e-06   9.258584090594737e-07   -1.2242133590876841e-05
-3.25816460247503e-06   9.258584090594737e-07   -1.2242133590876841e-05
-3.25816460247503e-06   9.258584090594737e-07   -1.2242133590876841e-05
-3.25816460247503e-06   9.258584090594737e-07   -1.2242133590876841e-05
-4.72866829656552e-06   1.4136796611230852e-06   -1.0083986851964382e-05
-4.72866829656552e-06   1.4136796611230852e-06   -1.0083986851964382e-05
-4.72866829656552e-06   1.4136796611230852e-06   -1.0083986851964382e-05
-4.72866829656552e-06   1.4136796611230852e-06   -1.0083986851964382e-05
-6.652958623567493e-06   7.130459468217103e-07   -2.1429789766614087e-05
-6.652958623567493e-06   7.130459468217103e-07   -2.1429789766614087e-05
-6.652958623567493e-06   7.130459468217103e-07   -2.1429789766614087e-05
-6.652958623567493e-06   7.130459468217103e-07   -2.1429789766614087e-05
-7.699532924762393e-06   -1.2281757894635342e-07   -2.367559838406633e-05
-7.699532924762393e-06   -1.2281757894635342e-07   -2.367559838406633e-05
-7.699532924762393e-06   -1.2281757894635342e-07   -2.367559838406633e-05
-7.699532924762393e-06   -1.2281757894635342e-07   -2.367559838406633e-05
-7.433333912391506e-06   1.5061879482752925e-06   -2.1444672428549386e-05
-7.433333912391506e-06   1.5061879482752925e-06   -2.1444672428549386e-05
-7.433333912391506e-06   1.5061879482752925e-06   -2.1444672428549386e-05
-7.433333912391506e-06   1.5061879482752925e-06   -2.1444672428549386e-05
-6.3222758019364765e-06   5.823258452169675e-07   -2.274211868413928e-05
-6.3222758019364765e-06   5.823258452169675e-07   -2.274211868413928e-05
-6.3222758019364765e-06   5.823258452169675e-07   -2.274211868413928e-05
-6.3222758019364765e-06   5.823258452169675e-07   -2.274211868413928e-05
-6.945257300408859e-06   8.253009304611935e-07   -2.184960123783239e-05
-6.945257300408859e-06   8.253009304611935e-07   -2.184960123783239e-05
-6.945257300408859e-06   8.253009304611935e-07   -2.184960123783239e-05
-6.945257300408859e-06   8.253009304611935e-07   -2.184960123783239e-05
-6.322275801936422e-06   1.5061879482752925e-06   -2.0890355166714152e-05
-6.322275801936422e-06   1.5061879482752925e-06   -2.0890355166714152e-05
-6.322275801936422e-06   1.5061879482752925e-06   -2.0890355166714152e-05
-6.322275801936422e-06   1.5061879482752925e-06   -2.0890355166714152e-05
-7.4333339123914925e-06   5.823258452169675e-07   -2.3296435945974322e-05
-7.4333339123914925e-06   5.823258452169675e-07   -2.3296435945974322e-05
-7.4333339123914925e-06   5.823258452169675e-07   -2.3296435945974322e-05
-7.4333339123914925e-06   5.823258452169675e-07   -2.3296435945974322e-05
-7.156387878533556e-06   2.2443556794095234e-06   -2.126475025787135e-05
-7.156387878533556e-06   2.2443556794095234e-06   -2.126475025787135e-05
-7.156387878533556e-06   2.2443556794095234e-06   -2.126475025787135e-05
-7.156387878533556e-06   2.2443556794095234e-06   -2.126475025787135e-05
-5.904608489475051e-06   1.2618281259408823e-06   -2.2761532707554278e-05
-5.904608489475051e-06   1.2618281259408823e-06   -2.2761532707554278e-05
-5.904608489475051e-06   1.2618281259408823e-06   -2.2761532707554278e-05
-5.904608489475051e-06   1.2618281259408823e-06   -2.2761532707554278e-05
-6.678599941857674e-06   1.3945761868296332e-06   -2.155119579011673e-05
-6.678599941857674e-06   1.3945761868296332e-06   -2.155119579011673e-05
-6.678599941857674e-06   1.3945761868296332e-06   -2.155119579011673e-05
-6.678599941857674e-06   1.3945761868296332e-06   -2.155119579011673e-05
-5.904608489475024e-06   2.244355679409415e-06   -2.0675233725790134e-05
-5.904608489475024e-06   2.244355679409415e-06   -2.0675233725790134e-05
-5.904608489475024e-06   2.244355679409415e-06   -2.0675233725790134e-05
-5.904608489475024e-06   2.244355679409415e-06   -2.0675233725790134e-05
-7.156387878533529e-06   1.2618281259408823e-06   -2.3351049239635387e-05
-7.156387878533529e-06   1.2618281259408823e-06   -2.3351049239635387e-05
-7.156387878533529e-06   1.2618281259408823e-06   -2.3351049239635387e-05
-7.156387878533529e-06   1.2618281259408823e-06   -2.3351049239635387e-05
-6.895899383873902e-06   3.0652429808135416e-06   -2.1617206905252405e-05
-6.895899383873902e-06   3.0652429808135416e-06   -2.1617206905252405e-05
-6.895899383873902e-06   3.0652429808135416e-06   -2.1617206905252405e-05
-6.895899383873902e-06   3.0652429808135416e-06   -2.1617206905252405e-05
-5.58007390302336e-06   2.03836982436709e-06   -2.3194125479468675e-05
-5.58007390302336e-06   2.03836982436709e-06   -2.3194125479468675e-05
-5.58007390302336e-06   2.03836982436709e-06   -2.3194125479468675e-05
-5.58007390302336e-06   2.03836982436709e-06   -2.3194125479468675e-05
-6.444398016330656e-06   1.9924441240490916e-06   -2.172602987043237e-05
-6.444398016330656e-06   1.9924441240490916e-06   -2.172602987043237e-05
-6.444398016330656e-06   1.9924441240490916e-06   -2.172602987043237e-05
-6.444398016330656e-06   1.9924441240490916e-06   -2.172602987043237e-05
-7.69953292476238e-06   4.1151657130869806e-07   -2.4965901539195892e-05
-7.69953292476238e-06   4.1151657130869806e-07   -2.4965901539195892e-05
-7.69953292476238e-06   4.1151657130869806e-07   -2.4965901539195892e-05
-7.69953292476238e-06   4.1151657130869806e-07   -2.4965901539195892e-05
-8.796951713105627e-06   5.889352011434566e-07   -2.6688481675200457e-05
-8.796951713105627e-06   5.889352011434566e-07   -2.6688481675200457e-05
-8.796951713105627e-06   5.889352011434566e-07   -2.6688481675200457e-05
-8.796951713105627e-06   5.889352011434566e-07   -2.6688481675200457e-05
-8.535574678223849e-06   1.220098484810278e-06   -2.4579513360229485e-05
-8.535574678223849e-06   1.220098484810278e-06   -2.4579513360229485e-05
-8.535574678223849e-06   1.220098484810278e-06   -2.4579513360229485e-05
-8.535574678223849e-06   1.220098484810278e-06   -2.4579513360229485e-05
-7.433333912391506e-06   1.3185419490678064e-06   -2.647564738183784e-05
-7.433333912391506e-06   1.3185419490678064e-06   -2.647564738183784e-05
-7.433333912391506e-06   1.3185419490678064e-06   -2.647564738183784e-05
-7.433333912391506e-06   1.3185419490678064e-06   -2.647564738183784e-05
-8.067458839856527e-06   9.986450059851389e-07   -2.522683433688012e-05
-8.067458839856527e-06   9.986450059851389e-07   -2.522683433688012e-05
-8.067458839856527e-06   9.986450059851389e-07   -2.522683433688012e-05
-8.067458839856527e-06   9.986450059851389e-07   -2.522683433688012e-05
-7.433333912391479e-06   1.220098484810278e-06   -2.4638579438784013e-05
-7.433333912391479e-06   1.220098484810278e-06   -2.4638579438784013e-05
-7.433333912391479e-06   1.220098484810278e-06   -2.4638579438784013e-05
-7.433333912391479e-06   1.220098484810278e-06   -2.4638579438784013e-05
-8.535574678223864e-06   1.3185419490678064e-06   -2.641658130328342e-05
-8.535574678223864e-06   1.3185419490678064e-06   -2.641658130328342e-05
-8.535574678223864e-06   1.3185419490678064e-06   -2.641658130328342e-05
-8.535574678223864e-06   1.3185419490678064e-06   -2.641658130328342e-05
-8.260311913967311e-06   2.035729519013073e-06   -2.4650154195922716e-05
-8.260311913967311e-06   2.035729519013073e-06   -2.4650154195922716e-05
-8.260311913967311e-06   2.035729519013073e-06   -2.4650154195922716e-05
-8.260311913967311e-06   2.035729519013073e-06   -2.4650154195922716e-05
-7.156387878533556e-06   2.064063658860924e-06   -2.6507028072220813e-05
-7.156387878533556e-06   2.064063658860924e-06   -2.6507028072220813e-05
-7.156387878533556e-06   2.064063658860924e-06   -2.6507028072220813e-05
-7.156387878533556e-06   2.064063658860924e-06   -2.6507028072220813e-05
-7.84864023831968e-06   1.623316496352097e-06   -2.5088825841739057e-05
-7.84864023831968e-06   1.623316496352097e-06   -2.5088825841739057e-05
-7.84864023831968e-06   1.623316496352097e-06   -2.5088825841739057e-05
-7.84864023831968e-06   1.623316496352097e-06   -2.5088825841739057e-05
-7.156387878533529e-06   2.0357295190131814e-06   -2.4667154679831307e-05
-7.156387878533529e-06   2.0357295190131814e-06   -2.4667154679831307e-05
-7.156387878533529e-06   2.0357295190131814e-06   -2.4667154679831307e-05
-7.156387878533529e-06   2.0357295190131814e-06   -2.4667154679831307e-05
-8.260311913967311e-06   2.064063658860924e-06   -2.649002758831222e-05
-8.260311913967311e-06   2.064063658860924e-06   -2.649002758831222e-05
-8.260311913967311e-06   2.064063658860924e-06   -2.649002758831222e-05
-8.260311913967311e-06   2.064063658860924e-06   -2.649002758831222e-05
-8.00079396521361e-06   2.8637096575776866e-06   -2.5128640801097535e-05
-8.00079396521361e-06   2.8637096575776866e-06   -2.5128640801097535e-05
-8.00079396521361e-06   2.8637096575776866e-06   -2.5128640801097535e-05
-8.00079396521361e-06   2.8637096575776866e-06   -2.5128640801097535e-05
-6.8958993838739155e-06   2.819963230809826e-06   -2.6943883913936107e-05
-6.8958993838739155e-06   2.819963230809826e-06   -2.6943883913936107e-05
-6.8958993838739155e-06   2.819963230809826e-06   -2.6943883913936107e-05
-6.8958993838739155e-06   2.819963230809826e-06   -2.6943883913936107e-05
-7.647569486877125e-06   2.2567549455833292e-06   -2.535317543779504e-05
-7.647569486877125e-06   2.2567549455833292e-06   -2.535317543779504e-05
-7.647569486877125e-06   2.2567549455833292e-06   -2.535317543779504e-05
-7.647569486877125e-06   2.2567549455833292e-06   -2.535317543779504e-05
-8.796951713105595e-06   1.8103900321746191e-07   -2.153492187708273e-05
-8.796951713105595e-06   1.8103900321746191e-07   -2.153492187708273e-05
-8.796951713105595e-06   1.8103900321746191e-07   -2.153492187708273e-05
-8.796951713105595e-06   1.8103900321746191e-07   -2.153492187708273e-05
-9.959039571123712e-06   1.3073071357748e-06   -2.279597409424541e-05
-9.959039571123712e-06   1.3073071357748e-06   -2.279597409424541e-05
-9.959039571123712e-06   1.3073071357748e-06   -2.279597409424541e-05
-9.959039571123712e-06   1.3073071357748e-06   -2.279597409424541e-05
-9.642085942617518e-06   9.648644245800926e-07   -2.058509236014253e-05
-9.642085942617518e-06   9.648644245800926e-07   -2.058509236014253e-05
-9.642085942617518e-06   9.648644245800926e-07   -2.058509236014253e-05
-9.642085942617518e-06   9.648644245800926e-07   -2.058509236014253e-05
-8.535574678223849e-06   2.0397909403224723e-06   -2.3074233710243923e-05
-8.535574678223849e-06   2.0397909403224723e-06   -2.3074233710243923e-05
-8.535574678223849e-06   2.0397909403224723e-06   -2.3074233710243923e-05
-8.535574678223849e-06   2.0397909403224723e-06   -2.3074233710243923e-05
-9.161942884296216e-06   1.2045431347782387e-06   -2.152913801679709e-05
-9.161942884296216e-06   1.2045431347782387e-06   -2.152913801679709e-05
-9.161942884296216e-06   1.2045431347782387e-06   -2.152913801679709e-05
-9.161942884296216e-06   1.2045431347782387e-06   -2.152913801679709e-05
-8.535574678223835e-06   9.648644245800926e-07   -2.123004826958783e-05
-8.535574678223835e-06   9.648644245800926e-07   -2.123004826958783e-05
-8.535574678223835e-06   9.648644245800926e-07   -2.123004826958783e-05
-8.535574678223835e-06   9.648644245800926e-07   -2.123004826958783e-05
-9.642085942617518e-06   2.039790940322689e-06   -2.2429277800798558e-05
-9.642085942617518e-06   2.039790940322689e-06   -2.2429277800798558e-05
-9.642085942617518e-06   2.039790940322689e-06   -2.2429277800798558e-05
-9.642085942617518e-06   2.039790940322689e-06   -2.2429277800798558e-05
-9.230891633754363e-06   1.7029268053846266e-06   -2.0671851531694e-05
-9.230891633754363e-06   1.7029268053846266e-06   -2.0671851531694e-05
-9.230891633754363e-06   1.7029268053846266e-06   -2.0671851531694e-05
-9.230891633754363e-06   1.7029268053846266e-06   -2.0671851531694e-05
-8.260311913967311e-06   2.715018074420138e-06   -2.2896739159427e-05
-8.260311913967311e-06   2.715018074420138e-06   -2.2896739159427e-05
-8.260311913967311e-06   2.715018074420138e-06   -2.2896739159427e-05
-8.260311913967311e-06   2.715018074420138e-06   -2.2896739159427e-05
-8.878575637479605e-06   1.78612201181161e-06   -2.1308961982674908e-05
-8.878575637479605e-06   1.78612201181161e-06   -2.1308961982674908e-05
-8.878575637479605e-06   1.78612201181161e-06   -2.1308961982674908e-05
-8.878575637479605e-06   1.78612201181161e-06   -2.1308961982674908e-05
-8.260311913967276e-06   1.7029268053846266e-06   -2.1279106293115122e-05
-8.260311913967276e-06   1.7029268053846266e-06   -2.1279106293115122e-05
-8.260311913967276e-06   1.7029268053846266e-06   -2.1279106293115122e-05
-8.260311913967276e-06   1.7029268053846266e-06   -2.1279106293115122e-05
-9.230891633754363e-06   2.715018074420138e-06   -2.2289484398005637e-05
-9.230891633754363e-06   2.715018074420138e-06   -2.2289484398005637e-05
-9.230891633754363e-06   2.715018074420138e-06   -2.2289484398005637e-05
-9.230891633754363e-06   2.715018074420138e-06   -2.2289484398005637e-05
-8.908263856782896e-06   2.5367459732933677e-06   -2.124508877883669e-05
-8.908263856782896e-06   2.5367459732933677e-06   -2.124508877883669e-05
-8.908263856782896e-06   2.5367459732933677e-06   -2.124508877883669e-05
-8.908263856782896e-06   2.5367459732933677e-06   -2.124508877883669e-05
-8.00079396521361e-06   3.470953036776008e-06   -2.3318062836208363e-05
-8.00079396521361e-06   3.470953036776008e-06   -2.3318062836208363e-05
-8.00079396521361e-06   3.470953036776008e-06   -2.3318062836208363e-05
-8.00079396521361e-06   3.470953036776008e-06   -2.3318062836208363e-05
-8.667672485969482e-06   2.3798082084443414e-06   -2.155191173794931e-05
-8.667672485969482e-06   2.3798082084443414e-06   -2.155191173794931e-05
-8.667672485969482e-06   2.3798082084443414e-06   -2.155191173794931e-05
-8.667672485969482e-06   2.3798082084443414e-06   -2.155191173794931e-05
-9.959039571123671e-06   2.5678570081465006e-07   -1.146971000626722e-05
-9.959039571123671e-06   2.5678570081465006e-07   -1.146971000626722e-05
-9.959039571123671e-06   2.5678570081465006e-07   -1.146971000626722e-05
-9.959039571123671e-06   2.5678570081465006e-07   -1.146971000626722e-05
-1.2091143568947194e-05   2.199929631456054e-06   -1.3857330310921559e-05
-1.2091143568947194e-05   2.199929631456054e-06   -1.3857330310921559e-05
-1.2091143568947194e-05   2.199929631456054e-06   -1.3857330310921559e-05
-1.2091143568947194e-05   2.199929631456054e-06   -1.3857330310921559e-05
-1.0955169946855192e-05   8.770357668164142e-07   -9.43929708136312e-06
-1.0955169946855192e-05   8.770357668164142e-07   -9.43929708136312e-06
-1.0955169946855192e-05   8.770357668164142e-07   -9.43929708136312e-06
-1.0955169946855192e-05   8.770357668164142e-07   -9.43929708136312e-06
-9.642085942617504e-06   2.8646889541467623e-06   -1.2820362334157201e-05
-9.642085942617504e-06   2.8646889541467623e-06   -1.2820362334157201e-05
-9.642085942617504e-06   2.8646889541467623e-06   -1.2820362334157201e-05
-9.642085942617504e-06   2.8646889541467623e-06   -1.2820362334157201e-05
-1.0230403102894074e-05   1.6291946820814985e-06   -1.1098537170457442e-05
-1.0230403102894074e-05   1.6291946820814985e-06   -1.1098537170457442e-05
-1.0230403102894074e-05   1.6291946820814985e-06   -1.1098537170457442e-05
-1.0230403102894074e-05   1.6291946820814985e-06   -1.1098537170457442e-05
-9.64208594261749e-06   8.770357668164142e-07   -1.063188899376108e-05
-9.64208594261749e-06   8.770357668164142e-07   -1.063188899376108e-05
-9.64208594261749e-06   8.770357668164142e-07   -1.063188899376108e-05
-9.64208594261749e-06   8.770357668164142e-07   -1.063188899376108e-05
-1.0955169946855111e-05   2.8646889541467623e-06   -1.1627770421759106e-05
-1.0955169946855111e-05   2.8646889541467623e-06   -1.1627770421759106e-05
-1.0955169946855111e-05   2.8646889541467623e-06   -1.1627770421759106e-05
-1.0955169946855111e-05   2.8646889541467623e-06   -1.1627770421759106e-05
-1.0031215441440891e-05   1.2254920316202974e-06   -9.27575545061211e-06
-1.0031215441440891e-05   1.2254920316202974e-06   -9.27575545061211e-06
-1.0031215441440891e-05   1.2254920316202974e-06   -9.27575545061211e-06
-1.0031215441440891e-05   1.2254920316202974e-06   -9.27575545061211e-06
-9.23089163375435e-06   3.168999769286897e-06   -1.1775733106022707e-05
-9.23089163375435e-06   3.168999769286897e-06   -1.1775733106022707e-05
-9.23089163375435e-06   3.168999769286897e-06   -1.1775733106022707e-05
-9.23089163375435e-06   3.168999769286897e-06   -1.1775733106022707e-05
-9.748956751889545e-06   1.9377809070097703e-06   -1.0173559925097945e-05
-9.748956751889545e-06   1.9377809070097703e-06   -1.0173559925097945e-05
-9.748956751889545e-06   1.9377809070097703e-06   -1.0173559925097945e-05
-9.748956751889545e-06   1.9377809070097703e-06   -1.0173559925097945e-05
-9.230891633754329e-06   1.2254920316202974e-06   -1.044186009321196e-05
-9.230891633754329e-06   1.2254920316202974e-06   -1.044186009321196e-05
-9.230891633754329e-06   1.2254920316202974e-06   -1.044186009321196e-05
-9.230891633754329e-06   1.2254920316202974e-06   -1.044186009321196e-05
-1.0031215441440864e-05   3.16899976928668e-06   -1.0609628463422761e-05
-1.0031215441440864e-05   3.16899976928668e-06   -1.0609628463422761e-05
-1.0031215441440864e-05   3.16899976928668e-06   -1.0609628463422761e-05
-1.0031215441440864e-05   3.16899976928668e-06   -1.0609628463422761e-05
-8.89944071309049e-06   1.841702272849504e-06   -9.557091277558798e-06
-8.89944071309049e-06   1.841702272849504e-06   -9.557091277558798e-06
-8.89944071309049e-06   1.841702272849504e-06   -9.557091277558798e-06
-8.89944071309049e-06   1.841702272849504e-06   -9.557091277558798e-06
-8.908263856782896e-06   3.6386123771470734e-06   -1.062053210065003e-05
-8.908263856782896e-06   3.6386123771470734e-06   -1.062053210065003e-05
-8.908263856782896e-06   3.6386123771470734e-06   -1.062053210065003e-05
-8.908263856782896e-06   3.6386123771470734e-06   -1.062053210065003e-05
-9.0345927739516e-06   2.1859783889714365e-06   -9.538403512463368e-06
-9.0345927739516e-06   2.1859783889714365e-06   -9.538403512463368e-06
-9.0345927739516e-06   2.1859783889714365e-06   -9.538403512463368e-06
-9.0345927739516e-06   2.1859783889714365e-06   -9.538403512463368e-06
5.880432800128518e-06   -5.808263037806322e-07   -5.912941900790931e-06
5.880432800128518e-06   -5.808263037806322e-07   -5.912941900790931e-06
5.880432800128518e-06   -5.808263037806322e-07   -5.912941900790931e-06
5.880432800128518e-06   -5.808263037806322e-07   -5.912941900790931e-06
6.114421031961725e-07   -2.424441411374035e-06   -1.580076212690071e-05
6.114421031961725e-07   -2.424441411374035e-06   -1.580076212690071e-05
6.114421031961725e-07   -2.424441411374035e-06   -1.580076212690071e-05
6.114421031961725e-07   -2.424441411374035e-06   -1.580076212690071e-05
1.0641910898536323e-06   -2.2437807332617576e-08   -6.5421723036828295e-06
1.0641910898536323e-06   -2.2437807332617576e-08   -6.5421723036828295e-06
1.0641910898536323e-06   -2.2437807332617576e-08   -6.5421723036828295e-06
1.0641910898536323e-06   -2.2437807332617576e-08   -6.5421723036828295e-06
7.153580740506171e-06   -1.9934498375760897e-06   -1.550854783662444e-05
7.153580740506171e-06   -1.9934498375760897e-06   -1.550854783662444e-05
7.153580740506171e-06   -1.9934498375760897e-06   -1.550854783662444e-05
7.153580740506171e-06   -1.9934498375760897e-06   -1.550854783662444e-05
3.539814138416684e-06   -1.0134968174823483e-06   -1.0073575311864917e-05
3.539814138416684e-06   -1.0134968174823483e-06   -1.0073575311864917e-05
3.539814138416684e-06   -1.0134968174823483e-06   -1.0073575311864917e-05
3.539814138416684e-06   -1.0134968174823483e-06   -1.0073575311864917e-05
7.153580740506198e-06   -2.2437807332617576e-08   -5.359565085536768e-06
7.153580740506198e-06   -2.2437807332617576e-08   -5.359565085536768e-06
7.153580740506198e-06   -2.2437807332617576e-08   -5.359565085536768e-06
7.153580740506198e-06   -2.2437807332617576e-08   -5.359565085536768e-06
1.0641910898536052e-06   -1.9934498375760897e-06   -1.6691155054770665e-05
1.0641910898536052e-06   -1.9934498375760897e-06   -1.6691155054770665e-05
1.0641910898536052e-06   -1.9934498375760897e-06   -1.6691155054770665e-05
1.0641910898536052e-06   -1.9934498375760897e-06   -1.6691155054770665e-05
1.5983778856764252e-06   2.943549807198076e-07   -6.5955099173978845e-06
1.5983778856764252e-06   2.943549807198076e-07   -6.5955099173978845e-06
1.5983778856764252e-06   2.943549807198076e-07   -6.5955099173978845e-06
1.5983778856764252e-06   2.943549807198076e-07   -6.5955099173978845e-06
8.228150083105411e-06   -1.7050524426345023e-06   -1.6445485792433647e-05
8.228150083105411e-06   -1.7050524426345023e-06   -1.6445485792433647e-05
8.228150083105411e-06   -1.7050524426345023e-06   -1.6445485792433647e-05
8.228150083105411e-06   -1.7050524426345023e-06   -1.6445485792433647e-05
4.3462618144403555e-06   -8.114468324942666e-07   -1.0511835377409874e-05
4.3462618144403555e-06   -8.114468324942666e-07   -1.0511835377409874e-05
4.3462618144403555e-06   -8.114468324942666e-07   -1.0511835377409874e-05
4.3462618144403555e-06   -8.114468324942666e-07   -1.0511835377409874e-05
8.228150083105411e-06   2.943549807198076e-07   -5.395865463385255e-06
8.228150083105411e-06   2.943549807198076e-07   -5.395865463385255e-06
8.228150083105411e-06   2.943549807198076e-07   -5.395865463385255e-06
8.228150083105411e-06   2.943549807198076e-07   -5.395865463385255e-06
1.5983778856764252e-06   -1.7050524426345023e-06   -1.7645130246446276e-05
1.5983778856764252e-06   -1.7050524426345023e-06   -1.7645130246446276e-05
1.5983778856764252e-06   -1.7050524426345023e-06   -1.7645130246446276e-05
1.5983778856764252e-06   -1.7050524426345023e-06   -1.7645130246446276e-05
2.0369063595130146e-06   9.258584090594737e-07   -7.235503645616607e-06
2.0369063595130146e-06   9.258584090594737e-07   -7.235503645616607e-06
2.0369063595130146e-06   9.258584090594737e-07   -7.235503645616607e-06
2.0369063595130146e-06   9.258584090594737e-07   -7.235503645616607e-06
9.51911383091861e-06   -9.794005059958998e-07   -1.856269408225935e-05
9.51911383091861e-06   -9.794005059958998e-07   -1.856269408225935e-05
9.51911383091861e-06   -9.794005059958998e-07   -1.856269408225935e-05
9.51911383091861e-06   -9.794005059958998e-07   -1.856269408225935e-05
4.985246470718733e-06   -5.138091497746897e-07   -1.1285603295659561e-05
4.985246470718733e-06   -5.138091497746897e-07   -1.1285603295659561e-05
4.985246470718733e-06   -5.138091497746897e-07   -1.1285603295659561e-05
4.985246470718733e-06   -5.138091497746897e-07   -1.1285603295659561e-05
6.114421031961725e-07   -1.2281757894635342e-07   -1.7125940448650375e-05
6.114421031961725e-07   -1.2281757894635342e-07   -1.7125940448650375e-05
6.114421031961725e-07   -1.2281757894635342e-07   -1.7125940448650375e-05
6.114421031961725e-07   -1.2281757894635342e-07   -1.7125940448650375e-05
-5.517788407989889e-06   -9.546163312400095e-07   -2.7840403885336638e-05
-5.517788407989889e-06   -9.546163312400095e-07   -2.7840403885336638e-05
-5.517788407989889e-06   -9.546163312400095e-07   -2.7840403885336638e-05
-5.517788407989889e-06   -9.546163312400095e-07   -2.7840403885336638e-05
-5.121561655224859e-06   5.823258452167506e-07   -1.722211490621107e-05
-5.121561655224859e-06   5.823258452167506e-07   -1.722211490621107e-05
-5.121561655224859e-06   5.823258452167506e-07   -1.722211490621107e-05
-5.121561655224859e-06   5.823258452167506e-07   -1.722211490621107e-05
1.0641910898536052e-06   -3.6255640635161034e-07   -2.696477346373415e-05
1.0641910898536052e-06   -3.6255640635161034e-07   -2.696477346373415e-05
1.0641910898536052e-06   -3.6255640635161034e-07   -2.696477346373415e-05
1.0641910898536052e-06   -3.6255640635161034e-07   -2.696477346373415e-05
-2.1894127130737812e-06   -3.274420077811237e-08   -2.1739987782199354e-05
-2.1894127130737812e-06   -3.274420077811237e-08   -2.1739987782199354e-05
-2.1894127130737812e-06   -3.274420077811237e-08   -2.1739987782199354e-05
-2.1894127130737812e-06   -3.274420077811237e-08   -2.1739987782199354e-05
1.0641910898536052e-06   5.823258452169675e-07   -1.6655185555269794e-05
1.0641910898536052e-06   5.823258452169675e-07   -1.6655185555269794e-05
1.0641910898536052e-06   5.823258452169675e-07   -1.6655185555269794e-05
1.0641910898536052e-06   5.823258452169675e-07   -1.6655185555269794e-05
-5.1215616552248726e-06   -3.6255640635161034e-07   -2.7531702814675345e-05
-5.1215616552248726e-06   -3.6255640635161034e-07   -2.7531702814675345e-05
-5.1215616552248726e-06   -3.6255640635161034e-07   -2.7531702814675345e-05
-5.1215616552248726e-06   -3.6255640635161034e-07   -2.7531702814675345e-05
-4.723036626748443e-06   1.2618281259408823e-06   -1.724864537864146e-05
-4.723036626748443e-06   1.2618281259408823e-06   -1.724864537864146e-05
-4.723036626748443e-06   1.2618281259408823e-06   -1.724864537864146e-05
-4.723036626748443e-06   1.2618281259408823e-06   -1.724864537864146e-05
1.5983778856764252e-06   2.5002023358827556e-07   -2.7177251497271333e-05
1.5983778856764252e-06   2.5002023358827556e-07   -2.7177251497271333e-05
1.5983778856764252e-06   2.5002023358827556e-07   -2.7177251497271333e-05
1.5983778856764252e-06   2.5002023358827556e-07   -2.7177251497271333e-05
-1.839051509371801e-06   4.5427363533660434e-07   -2.1570754546573414e-05
-1.839051509371801e-06   4.5427363533660434e-07   -2.1570754546573414e-05
-1.839051509371801e-06   4.5427363533660434e-07   -2.1570754546573414e-05
-1.839051509371801e-06   4.5427363533660434e-07   -2.1570754546573414e-05
1.5983778856764252e-06   1.2618281259408823e-06   -1.664156064322994e-05
1.5983778856764252e-06   1.2618281259408823e-06   -1.664156064322994e-05
1.5983778856764252e-06   1.2618281259408823e-06   -1.664156064322994e-05
1.5983778856764252e-06   1.2618281259408823e-06   -1.664156064322994e-05
-4.723036626748443e-06   2.500202335880587e-07   -2.7784336232682962e-05
-4.723036626748443e-06   2.500202335880587e-07   -2.7784336232682962e-05
-4.723036626748443e-06   2.500202335880587e-07   -2.7784336232682962e-05
-4.723036626748443e-06   2.500202335880587e-07   -2.7784336232682962e-05
-4.3425772300325645e-06   2.038369824367307e-06   -1.768190289514707e-05
-4.3425772300325645e-06   2.038369824367307e-06   -1.768190289514707e-05
-4.3425772300325645e-06   2.038369824367307e-06   -1.768190289514707e-05
-4.3425772300325645e-06   2.038369824367307e-06   -1.768190289514707e-05
2.0369063595130146e-06   9.760410346571977e-07   -2.7676978270563756e-05
2.0369063595130146e-06   9.760410346571977e-07   -2.7676978270563756e-05
2.0369063595130146e-06   9.760410346571977e-07   -2.7676978270563756e-05
2.0369063595130146e-06   9.760410346571977e-07   -2.7676978270563756e-05
-1.4482667977302677e-06   9.947224473118646e-07   -2.18795651894182e-05
-1.4482667977302677e-06   9.947224473118646e-07   -2.18795651894182e-05
-1.4482667977302677e-06   9.947224473118646e-07   -2.18795651894182e-05
-1.4482667977302677e-06   9.947224473118646e-07   -2.18795651894182e-05
-5.517788407989903e-06   5.889352011436734e-07   -2.0744354169061757e-05
-5.517788407989903e-06   5.889352011436734e-07   -2.0744354169061757e-05
-5.517788407989903e-06   5.889352011436734e-07   -2.0744354169061757e-05
-5.517788407989903e-06   5.889352011436734e-07   -2.0744354169061757e-05
-1.159211214092953e-05   7.42128855463816e-07   -3.077631086470219e-05
-1.159211214092953e-05   7.42128855463816e-07   -3.077631086470219e-05
-1.159211214092953e-05   7.42128855463816e-07   -3.077631086470219e-05
-1.159211214092953e-05   7.42128855463816e-07   -3.077631086470219e-05
-1.119327588975365e-05   1.3185419490678064e-06   -2.0370878747614954e-05
-1.119327588975365e-05   1.3185419490678064e-06   -2.0370878747614954e-05
-1.119327588975365e-05   1.3185419490678064e-06   -2.0370878747614954e-05
-1.119327588975365e-05   1.3185419490678064e-06   -2.0370878747614954e-05
-5.1215616552248726e-06   1.369287939834065e-06   -3.052085006628917e-05
-5.1215616552248726e-06   1.369287939834065e-06   -3.052085006628917e-05
-5.1215616552248726e-06   1.369287939834065e-06   -3.052085006628917e-05
-5.1215616552248726e-06   1.369287939834065e-06   -3.052085006628917e-05
-8.307848175979751e-06   1.1325126127224947e-06   -2.5068307335430852e-05
-8.307848175979751e-06   1.1325126127224947e-06   -2.5068307335430852e-05
-8.307848175979751e-06   1.1325126127224947e-06   -2.5068307335430852e-05
-8.307848175979751e-06   1.1325126127224947e-06   -2.5068307335430852e-05
-5.121561655224886e-06   1.3185419490678064e-06   -2.0401326342074644e-05
-5.121561655224886e-06   1.3185419490678064e-06   -2.0401326342074644e-05
-5.121561655224886e-06   1.3185419490678064e-06   -2.0401326342074644e-05
-5.121561655224886e-06   1.3185419490678064e-06   -2.0401326342074644e-05
-1.1193275889753632e-05   1.3692879398342819e-06   -3.0490402471829506e-05
-1.1193275889753632e-05   1.3692879398342819e-06   -3.0490402471829506e-05
-1.1193275889753632e-05   1.3692879398342819e-06   -3.0490402471829506e-05
-1.1193275889753632e-05   1.3692879398342819e-06   -3.0490402471829506e-05
-1.0787738303744859e-05   2.064063658860924e-06   -2.0423300957891194e-05
-1.0787738303744859e-05   2.064063658860924e-06   -2.0423300957891194e-05
-1.0787738303744859e-05   2.064063658860924e-06   -2.0423300957891194e-05
-1.0787738303744859e-05   2.064063658860924e-06   -2.0423300957891194e-05
-4.723036626748457e-06   2.0329357477537075e-06   -3.0512460339554218e-05
-4.723036626748457e-06   2.0329357477537075e-06   -3.0512460339554218e-05
-4.723036626748457e-06   2.0329357477537075e-06   -3.0512460339554218e-05
-4.723036626748457e-06   2.0329357477537075e-06   -3.0512460339554218e-05
-7.957308939425842e-06   1.6803766239527253e-06   -2.4910471010811778e-05
-7.957308939425842e-06   1.6803766239527253e-06   -2.4910471010811778e-05
-7.957308939425842e-06   1.6803766239527253e-06   -2.4910471010811778e-05
-7.957308939425842e-06   1.6803766239527253e-06   -2.4910471010811778e-05
-4.723036626748457e-06   2.064063658860924e-06   -2.0404624211226886e-05
-4.723036626748457e-06   2.064063658860924e-06   -2.0404624211226886e-05
-4.723036626748457e-06   2.064063658860924e-06   -2.0404624211226886e-05
-4.723036626748457e-06   2.064063658860924e-06   -2.0404624211226886e-05
-1.0787738303744838e-05   2.0329357477537075e-06   -3.053113708621855e-05
-1.0787738303744838e-05   2.0329357477537075e-06   -3.053113708621855e-05
-1.0787738303744838e-05   2.0329357477537075e-06   -3.053113708621855e-05
-1.0787738303744838e-05   2.0329357477537075e-06   -3.053113708621855e-05
-1.0401089922462084e-05   2.819963230809826e-06   -2.0882659809838664e-05
-1.0401089922462084e-05   2.819963230809826e-06   -2.0882659809838664e-05
-1.0401089922462084e-05   2.819963230809826e-06   -2.0882659809838664e-05
-1.0401089922462084e-05   2.819963230809826e-06   -2.0882659809838664e-05
-4.3425772300325645e-06   2.708092607323423e-06   -3.0913058589796054e-05
-4.3425772300325645e-06   2.708092607323423e-06   -3.0913058589796054e-05
-4.3425772300325645e-06   2.708092607323423e-06   -3.0913058589796054e-05
-4.3425772300325645e-06   2.708092607323423e-06   -3.0913058589796054e-05
-7.631527112561782e-06   2.236605551426355e-06   -2.5148583218709625e-05
-7.631527112561782e-06   2.236605551426355e-06   -2.5148583218709625e-05
-7.631527112561782e-06   2.236605551426355e-06   -2.5148583218709625e-05
-7.631527112561782e-06   2.236605551426355e-06   -2.5148583218709625e-05
-1.1592112140929552e-05   1.3073071357745832e-06   -1.7435691275048595e-05
-1.1592112140929552e-05   1.3073071357745832e-06   -1.7435691275048595e-05
-1.1592112140929552e-05   1.3073071357745832e-06   -1.7435691275048595e-05
-1.1592112140929552e-05   1.3073071357745832e-06   -1.7435691275048595e-05
-1.7600695676869912e-05   2.3908704990930653e-06   -2.6799859150291585e-05
-1.7600695676869912e-05   2.3908704990930653e-06   -2.6799859150291585e-05
-1.7600695676869912e-05   2.3908704990930653e-06   -2.6799859150291585e-05
-1.7600695676869912e-05   2.3908704990930653e-06   -2.6799859150291585e-05
-1.7144469841800764e-05   2.0397909403224723e-06   -1.641618874319913e-05
-1.7144469841800764e-05   2.0397909403224723e-06   -1.641618874319913e-05
-1.7144469841800764e-05   2.0397909403224723e-06   -1.641618874319913e-05
-1.7144469841800764e-05   2.0397909403224723e-06   -1.641618874319913e-05
-1.1193275889753632e-05   3.06036162594993e-06   -2.694718774132075e-05
-1.1193275889753632e-05   3.06036162594993e-06   -2.694718774132075e-05
-1.1193275889753632e-05   3.06036162594993e-06   -2.694718774132075e-05
-1.1193275889753632e-05   3.06036162594993e-06   -2.694718774132075e-05
-1.428292675098758e-05   2.2860115913188317e-06   -2.133315961848551e-05
-1.428292675098758e-05   2.2860115913188317e-06   -2.133315961848551e-05
-1.428292675098758e-05   2.2860115913188317e-06   -2.133315961848551e-05
-1.428292675098758e-05   2.2860115913188317e-06   -2.133315961848551e-05
-1.119327588975365e-05   2.039790940322689e-06   -1.7028531154575604e-05
-1.119327588975365e-05   2.039790940322689e-06   -1.7028531154575604e-05
-1.119327588975365e-05   2.039790940322689e-06   -1.7028531154575604e-05
-1.119327588975365e-05   2.039790940322689e-06   -1.7028531154575604e-05
-1.7144469841800798e-05   3.0603616259497132e-06   -2.6334845329944426e-05
-1.7144469841800798e-05   3.0603616259497132e-06   -2.6334845329944426e-05
-1.7144469841800798e-05   3.0603616259497132e-06   -2.6334845329944426e-05
-1.7144469841800798e-05   3.0603616259497132e-06   -2.6334845329944426e-05
-1.659678208476427e-05   2.715018074420138e-06   -1.626121915546336e-05
-1.659678208476427e-05   2.715018074420138e-06   -1.626121915546336e-05
-1.659678208476427e-05   2.715018074420138e-06   -1.626121915546336e-05
-1.659678208476427e-05   2.715018074420138e-06   -1.626121915546336e-05
-1.0787738303744838e-05   3.6630070303247768e-06   -2.6511752164038333e-05
-1.0787738303744838e-05   3.6630070303247768e-06   -2.6511752164038333e-05
-1.0787738303744838e-05   3.6630070303247768e-06   -2.6511752164038333e-05
-1.0787738303744838e-05   3.6630070303247768e-06   -2.6511752164038333e-05
-1.3822405696446165e-05   2.815099809928747e-06   -2.094522884396566e-05
-1.3822405696446165e-05   2.815099809928747e-06   -2.094522884396566e-05
-1.3822405696446165e-05   2.815099809928747e-06   -2.094522884396566e-05
-1.3822405696446165e-05   2.815099809928747e-06   -2.094522884396566e-05
-1.0787738303744847e-05   2.715018074420138e-06   -1.683001252900595e-05
-1.0787738303744847e-05   2.715018074420138e-06   -1.683001252900595e-05
-1.0787738303744847e-05   2.715018074420138e-06   -1.683001252900595e-05
-1.0787738303744847e-05   2.715018074420138e-06   -1.683001252900595e-05
-1.659678208476427e-05   3.6630070303247768e-06   -2.5942958790495718e-05
-1.659678208476427e-05   3.6630070303247768e-06   -2.5942958790495718e-05
-1.659678208476427e-05   3.6630070303247768e-06   -2.5942958790495718e-05
-1.659678208476427e-05   3.6630070303247768e-06   -2.5942958790495718e-05
-1.6140860916438207e-05   3.470953036776225e-06   -1.6711324149526864e-05
-1.6140860916438207e-05   3.470953036776225e-06   -1.6711324149526864e-05
-1.6140860916438207e-05   3.470953036776225e-06   -1.6711324149526864e-05
-1.6140860916438207e-05   3.470953036776225e-06   -1.6711324149526864e-05
-1.0401089922462084e-05   4.336397580981342e-06   -2.6796875866010388e-05
-1.0401089922462084e-05   4.336397580981342e-06   -2.6796875866010388e-05
-1.0401089922462084e-05   4.336397580981342e-06   -2.6796875866010388e-05
-1.0401089922462084e-05   4.336397580981342e-06   -2.6796875866010388e-05
-1.3516129296577023e-05   3.3358638898454366e-06   -2.1004823361137175e-05
-1.3516129296577023e-05   3.3358638898454366e-06   -2.1004823361137175e-05
-1.3516129296577023e-05   3.3358638898454366e-06   -2.1004823361137175e-05
-1.3516129296577023e-05   3.3358638898454366e-06   -2.1004823361137175e-05
-1.7600695676869912e-05   2.199929631456054e-06   -9.012795832118929e-06
-1.7600695676869912e-05   2.199929631456054e-06   -9.012795832118929e-06
-1.7600695676869912e-05   2.199929631456054e-06   -9.012795832118929e-06
-1.7600695676869912e-05   2.199929631456054e-06   -9.012795832118929e-06
-2.4455808457721283e-05   4.111740674523452e-06   -1.929089717436403e-05
-2.4455808457721283e-05   4.111740674523452e-06   -1.929089717436403e-05
-2.4455808457721283e-05   4.111740674523452e-06   -1.929089717436403e-05
-2.4455808457721283e-05   4.111740674523452e-06   -1.929089717436403e-05
-2.3193002479950523e-05   2.8646889541467623e-06   -5.641568195163468e-06
-2.3193002479950523e-05   2.8646889541467623e-06   -5.641568195163468e-06
-2.3193002479950523e-05   2.8646889541467623e-06   -5.641568195163468e-06
-2.3193002479950523e-05   2.8646889541467623e-06   -5.641568195163468e-06
-1.7144469841800764e-05   4.807530756470359e-06   -1.6888161006807392e-05
-1.7144469841800764e-05   4.807530756470359e-06   -1.6888161006807392e-05
-1.7144469841800764e-05   4.807530756470359e-06   -1.6888161006807392e-05
-1.7144469841800764e-05   4.807530756470359e-06   -1.6888161006807392e-05
-1.976063742552192e-05   3.5744110655740527e-06   -1.178800988606792e-05
-1.976063742552192e-05   3.5744110655740527e-06   -1.178800988606792e-05
-1.976063742552192e-05   3.5744110655740527e-06   -1.178800988606792e-05
-1.976063742552192e-05   3.5744110655740527e-06   -1.178800988606792e-05
-1.7144469841800777e-05   2.8646889541467623e-06   -6.8072732765578e-06
-1.7144469841800777e-05   2.8646889541467623e-06   -6.8072732765578e-06
-1.7144469841800777e-05   2.8646889541467623e-06   -6.8072732765578e-06
-1.7144469841800777e-05   2.8646889541467623e-06   -6.8072732765578e-06
-2.3193002479950456e-05   4.807530756470359e-06   -1.5722455925413223e-05
-2.3193002479950456e-05   4.807530756470359e-06   -1.5722455925413223e-05
-2.3193002479950456e-05   4.807530756470359e-06   -1.5722455925413223e-05
-2.3193002479950456e-05   4.807530756470359e-06   -1.5722455925413223e-05
-2.2149342203096095e-05   3.168999769286897e-06   -4.614622336870412e-06
-2.2149342203096095e-05   3.168999769286897e-06   -4.614622336870412e-06
-2.2149342203096095e-05   3.168999769286897e-06   -4.614622336870412e-06
-2.2149342203096095e-05   3.168999769286897e-06   -4.614622336870412e-06
-1.6596782084764235e-05   5.057075646970393e-06   -1.5001734727366926e-05
-1.6596782084764235e-05   5.057075646970393e-06   -1.5001734727366926e-05
-1.6596782084764235e-05   5.057075646970393e-06   -1.5001734727366926e-05
-1.6596782084764235e-05   5.057075646970393e-06   -1.5001734727366926e-05
-1.930283198403319e-05   3.888292260302182e-06   -9.790381529917766e-06
-1.930283198403319e-05   3.888292260302182e-06   -9.790381529917766e-06
-1.930283198403319e-05   3.888292260302182e-06   -9.790381529917766e-06
-1.930283198403319e-05   3.888292260302182e-06   -9.790381529917766e-06
-1.659678208476427e-05   3.168999769286897e-06   -5.747467863480445e-06
-1.659678208476427e-05   3.168999769286897e-06   -5.747467863480445e-06
-1.659678208476427e-05   3.168999769286897e-06   -5.747467863480445e-06
-1.659678208476427e-05   3.168999769286897e-06   -5.747467863480445e-06
-2.2149342203096027e-05   5.057075646970393e-06   -1.386888920075686e-05
-2.2149342203096027e-05   5.057075646970393e-06   -1.386888920075686e-05
-2.2149342203096027e-05   5.057075646970393e-06   -1.386888920075686e-05
-2.2149342203096027e-05   5.057075646970393e-06   -1.386888920075686e-05
-2.091323338309446e-05   3.6386123771470734e-06   -3.5346055177715814e-06
-2.091323338309446e-05   3.6386123771470734e-06   -3.5346055177715814e-06
-2.091323338309446e-05   3.6386123771470734e-06   -3.5346055177715814e-06
-2.091323338309446e-05   3.6386123771470734e-06   -3.5346055177715814e-06
-1.6140860916438207e-05   5.371465934291475e-06   -1.2528271763151899e-05
-1.6140860916438207e-05   5.371465934291475e-06   -1.2528271763151899e-05
-1.6140860916438207e-05   5.371465934291475e-06   -1.2528271763151899e-05
-1.6140860916438207e-05   5.371465934291475e-06   -1.2528271763151899e-05
-1.8319860858769054e-05   4.039116708084338e-06   -8.097195656876403e-06
-1.8319860858769054e-05   4.039116708084338e-06   -8.097195656876403e-06
-1.8319860858769054e-05   4.039116708084338e-06   -8.097195656876403e-06
-1.8319860858769054e-05   4.039116708084338e-06   -8.097195656876403e-06
1.850449981495079e-05   -2.4244414113742518e-06   -7.038590246885232e-08
1.850449981495079e-05   -2.4244414113742518e-06   -7.038590246885232e-08
1.850449981495079e-05   -2.4244414113742518e-06   -7.038590246885232e-08
1.850449981495079e-05   -2.4244414113742518e-06   -7.038590246885232e-08
7.874205314279575e-06   -4.36417674055359e-06   -1.8951384601095453e-05
7.874205314279575e-06   -4.36417674055359e-06   -1.8951384601095453e-05
7.874205314279575e-06   -4.36417674055359e-06   -1.8951384601095453e-05
7.874205314279575e-06   -4.36417674055359e-06   -1.8951384601095453e-05
8.425972171582604e-06   -1.9934498375760897e-06   -2.0169863064654035e-06
8.425972171582604e-06   -1.9934498375760897e-06   -2.0169863064654035e-06
8.425972171582604e-06   -1.9934498375760897e-06   -2.0169863064654035e-06
8.425972171582604e-06   -1.9934498375760897e-06   -2.0169863064654035e-06
1.989365275336733e-05   -4.059759102602008e-06   -1.989000171709099e-05
1.989365275336733e-05   -4.059759102602008e-06   -1.989000171709099e-05
1.989365275336733e-05   -4.059759102602008e-06   -1.989000171709099e-05
1.989365275336733e-05   -4.059759102602008e-06   -1.989000171709099e-05
1.3122538709832196e-05   -2.8791757293762654e-06   -9.313161668467998e-06
1.3122538709832196e-05   -2.8791757293762654e-06   -9.313161668467998e-06
1.3122538709832196e-05   -2.8791757293762654e-06   -9.313161668467998e-06
1.3122538709832196e-05   -2.8791757293762654e-06   -9.313161668467998e-06
1.9893652753367357e-05   -1.9934498375760897e-06   -7.77200747449679e-07
1.9893652753367357e-05   -1.9934498375760897e-06   -7.77200747449679e-07
1.9893652753367357e-05   -1.9934498375760897e-06   -7.77200747449679e-07
1.9893652753367357e-05   -1.9934498375760897e-06   -7.77200747449679e-07
8.425972171582577e-06   -4.059759102602008e-06   -2.1129787276106442e-05
8.425972171582577e-06   -4.059759102602008e-06   -2.1129787276106442e-05
8.425972171582577e-06   -4.059759102602008e-06   -2.1129787276106442e-05
8.425972171582577e-06   -4.059759102602008e-06   -2.1129787276106442e-05
9.037544570286585e-06   -1.7050524426345023e-06   -2.872265853330353e-06
9.037544570286585e-06   -1.7050524426345023e-06   -2.872265853330353e-06
9.037544570286585e-06   -1.7050524426345023e-06   -2.872265853330353e-06
9.037544570286585e-06   -1.7050524426345023e-06   -2.872265853330353e-06
2.105927238764074e-05   -3.7968380480429918e-06   -2.1653407519008777e-05
2.105927238764074e-05   -3.7968380480429918e-06   -2.1653407519008777e-05
2.105927238764074e-05   -3.7968380480429918e-06   -2.1653407519008777e-05
2.105927238764074e-05   -3.7968380480429918e-06   -2.1653407519008777e-05
1.4165689889787805e-05   -2.7620588060081434e-06   -1.0784970901141504e-05
1.4165689889787805e-05   -2.7620588060081434e-06   -1.0784970901141504e-05
1.4165689889787805e-05   -2.7620588060081434e-06   -1.0784970901141504e-05
1.4165689889787805e-05   -2.7620588060081434e-06   -1.0784970901141504e-05
2.1059272387640766e-05   -1.7050524426345023e-06   -1.6171944900853679e-06
2.1059272387640766e-05   -1.7050524426345023e-06   -1.6171944900853679e-06
2.1059272387640766e-05   -1.7050524426345023e-06   -1.6171944900853679e-06
2.1059272387640766e-05   -1.7050524426345023e-06   -1.6171944900853679e-06
9.037544570286585e-06   -3.7968380480429918e-06   -2.290847888225425e-05
9.037544570286585e-06   -3.7968380480429918e-06   -2.290847888225425e-05
9.037544570286585e-06   -3.7968380480429918e-06   -2.290847888225425e-05
9.037544570286585e-06   -3.7968380480429918e-06   -2.290847888225425e-05
9.542014150191108e-06   -9.794005059958998e-07   -4.8419665382964504e-06
9.542014150191108e-06   -9.794005059958998e-07   -4.8419665382964504e-06
9.542014150191108e-06   -9.794005059958998e-07   -4.8419665382964504e-06
9.542014150191108e-06   -9.794005059958998e-07   -4.8419665382964504e-06
2.2412878596482136e-05   -2.9668362190365862e-06   -2.5100945854290575e-05
2.2412878596482136e-05   -2.9668362190365862e-06   -2.5100945854290575e-05
2.2412878596482136e-05   -2.9668362190365862e-06   -2.5100945854290575e-05
2.2412878596482136e-05   -2.9668362190365862e-06   -2.5100945854290575e-05
1.4727143881337139e-05   -2.4364826601065183e-06   -1.2609600131074298e-05
1.4727143881337139e-05   -2.4364826601065183e-06   -1.2609600131074298e-05
1.4727143881337139e-05   -2.4364826601065183e-06   -1.2609600131074298e-05
1.4727143881337139e-05   -2.4364826601065183e-06   -1.2609600131074298e-05
7.874205314279575e-06   -9.546163312397927e-07   -1.277478960703645e-05
7.874205314279575e-06   -9.546163312397927e-07   -1.277478960703645e-05
7.874205314279575e-06   -9.546163312397927e-07   -1.277478960703645e-05
7.874205314279575e-06   -9.546163312397927e-07   -1.277478960703645e-05
-3.3655871537389514e-06   -2.037015910604954e-06   -3.215721680135302e-05
-3.3655871537389514e-06   -2.037015910604954e-06   -3.215721680135302e-05
-3.3655871537389514e-06   -2.037015910604954e-06   -3.215721680135302e-05
-3.3655871537389514e-06   -2.037015910604954e-06   -3.215721680135302e-05
-2.8529664674395314e-06   -3.6255640635161034e-07   -1.3040326030568398e-05
-2.8529664674395314e-06   -3.6255640635161034e-07   -1.3040326030568398e-05
-2.8529664674395314e-06   -3.6255640635161034e-07   -1.3040326030568398e-05
-2.8529664674395314e-06   -3.6255640635161034e-07   -1.3040326030568398e-05
8.425972171582604e-06   -1.6120919315838842e-06   -3.108883578046575e-05
8.425972171582604e-06   -1.6120919315838842e-06   -3.108883578046575e-05
8.425972171582604e-06   -1.6120919315838842e-06   -3.108883578046575e-05
8.425972171582604e-06   -1.6120919315838842e-06   -3.108883578046575e-05
2.5480053694143756e-06   -9.837165717231557e-07   -2.1669249659435092e-05
2.5480053694143756e-06   -9.837165717231557e-07   -2.1669249659435092e-05
2.5480053694143756e-06   -9.837165717231557e-07   -2.1669249659435092e-05
2.5480053694143756e-06   -9.837165717231557e-07   -2.1669249659435092e-05
8.425972171582604e-06   -3.6255640635161034e-07   -1.229060471542886e-05
8.425972171582604e-06   -3.6255640635161034e-07   -1.229060471542886e-05
8.425972171582604e-06   -3.6255640635161034e-07   -1.229060471542886e-05
8.425972171582604e-06   -3.6255640635161034e-07   -1.229060471542886e-05
-2.8529664674395314e-06   -1.6120919315838842e-06   -3.183855709560507e-05
-2.8529664674395314e-06   -1.6120919315838842e-06   -3.183855709560507e-05
-2.8529664674395314e-06   -1.6120919315838842e-06   -3.183855709560507e-05
-2.8529664674395314e-06   -1.6120919315838842e-06   -3.183855709560507e-05
-2.3635468970873406e-06   2.5002023358827556e-07   -1.321012509514143e-05
-2.3635468970873406e-06   2.5002023358827556e-07   -1.321012509514143e-05
-2.3635468970873406e-06   2.5002023358827556e-07   -1.321012509514143e-05
-2.3635468970873406e-06   2.5002023358827556e-07   -1.321012509514143e-05
9.037544570286585e-06   -1.0928764180547293e-06   -3.1406206216445494e-05
9.037544570286585e-06   -1.0928764180547293e-06   -3.1406206216445494e-05
9.037544570286585e-06   -1.0928764180547293e-06   -3.1406206216445494e-05
9.037544570286585e-06   -1.0928764180547293e-06   -3.1406206216445494e-05
2.9537530126500544e-06   -6.073694455929497e-07   -2.1557857803861157e-05
2.9537530126500544e-06   -6.073694455929497e-07   -2.1557857803861157e-05
2.9537530126500544e-06   -6.073694455929497e-07   -2.1557857803861157e-05
2.9537530126500544e-06   -6.073694455929497e-07   -2.1557857803861157e-05
9.037544570286585e-06   2.500202335880587e-07   -1.2404387104155627e-05
9.037544570286585e-06   2.500202335880587e-07   -1.2404387104155627e-05
9.037544570286585e-06   2.500202335880587e-07   -1.2404387104155627e-05
9.037544570286585e-06   2.500202335880587e-07   -1.2404387104155627e-05
-2.3635468970873406e-06   -1.0928764180549461e-06   -3.22119442074313e-05
-2.3635468970873406e-06   -1.0928764180549461e-06   -3.22119442074313e-05
-2.3635468970873406e-06   -1.0928764180549461e-06   -3.22119442074313e-05
-2.3635468970873406e-06   -1.0928764180549461e-06   -3.22119442074313e-05
-1.9041078339451838e-06   9.760410346571977e-07   -1.3662199528000681e-05
-1.9041078339451838e-06   9.760410346571977e-07   -1.3662199528000681e-05
-1.9041078339451838e-06   9.760410346571977e-07   -1.3662199528000681e-05
-1.9041078339451838e-06   9.760410346571977e-07   -1.3662199528000681e-05
9.54201415019108e-06   -4.3913254939818847e-07   -3.1889965351128115e-05
9.54201415019108e-06   -4.3913254939818847e-07   -3.1889965351128115e-05
9.54201415019108e-06   -4.3913254939818847e-07   -3.1889965351128115e-05
9.54201415019108e-06   -4.3913254939818847e-07   -3.1889965351128115e-05
3.461516704058134e-06   -1.4291954099181214e-07   -2.193353074595079e-05
3.461516704058134e-06   -1.4291954099181214e-07   -2.193353074595079e-05
3.461516704058134e-06   -1.4291954099181214e-07   -2.193353074595079e-05
3.461516704058134e-06   -1.4291954099181214e-07   -2.193353074595079e-05
-3.365587153738965e-06   7.42128855463816e-07   -1.6452052526613184e-05
-3.365587153738965e-06   7.42128855463816e-07   -1.6452052526613184e-05
-3.365587153738965e-06   7.42128855463816e-07   -1.6452052526613184e-05
-3.365587153738965e-06   7.42128855463816e-07   -1.6452052526613184e-05
-1.440735204343803e-05   3.8411727629758877e-07   -3.506980095694474e-05
-1.440735204343803e-05   3.8411727629758877e-07   -3.506980095694474e-05
-1.440735204343803e-05   3.8411727629758877e-07   -3.506980095694474e-05
-1.440735204343803e-05   3.8411727629758877e-07   -3.506980095694474e-05
-1.3855691496177994e-05   1.369287939834065e-06   -1.633391326618587e-05
-1.3855691496177994e-05   1.369287939834065e-06   -1.633391326618587e-05
-1.3855691496177994e-05   1.369287939834065e-06   -1.633391326618587e-05
-1.3855691496177994e-05   1.369287939834065e-06   -1.633391326618587e-05
-2.8529664674395314e-06   8.618879664948256e-07   -3.43673483300797e-05
-2.8529664674395314e-06   8.618879664948256e-07   -3.43673483300797e-05
-2.8529664674395314e-06   8.618879664948256e-07   -3.43673483300797e-05
-2.8529664674395314e-06   8.618879664948256e-07   -3.43673483300797e-05
-8.561650602861007e-06   1.0180779977343388e-06   -2.4946588789787638e-05
-8.561650602861007e-06   1.0180779977343388e-06   -2.4946588789787638e-05
-8.561650602861007e-06   1.0180779977343388e-06   -2.4946588789787638e-05
-8.561650602861007e-06   1.0180779977343388e-06   -2.4946588789787638e-05
-2.8529664674395314e-06   1.3692879398342819e-06   -1.6029473282182303e-05
-2.8529664674395314e-06   1.3692879398342819e-06   -1.6029473282182303e-05
-2.8529664674395314e-06   1.3692879398342819e-06   -1.6029473282182303e-05
-2.8529664674395314e-06   1.3692879398342819e-06   -1.6029473282182303e-05
-1.3855691496177994e-05   8.618879664948256e-07   -3.46717883140834e-05
-1.3855691496177994e-05   8.618879664948256e-07   -3.46717883140834e-05
-1.3855691496177994e-05   8.618879664948256e-07   -3.46717883140834e-05
-1.3855691496177994e-05   8.618879664948256e-07   -3.46717883140834e-05
-1.3323426515497e-05   2.0329357477534907e-06   -1.6309370164602037e-05
-1.3323426515497e-05   2.0329357477534907e-06   -1.6309370164602037e-05
-1.3323426515497e-05   2.0329357477534907e-06   -1.6309370164602037e-05
-1.3323426515497e-05   2.0329357477534907e-06   -1.6309370164602037e-05
-2.3635468970873406e-06   1.4144008101044363e-06   -3.4204715232695335e-05
-2.3635468970873406e-06   1.4144008101044363e-06   -3.4204715232695335e-05
-2.3635468970873406e-06   1.4144008101044363e-06   -3.4204715232695335e-05
-2.3635468970873406e-06   1.4144008101044363e-06   -3.4204715232695335e-05
-8.087349172643055e-06   1.465510778373997e-06   -2.469571075439751e-05
-8.087349172643055e-06   1.465510778373997e-06   -2.469571075439751e-05
-8.087349172643055e-06   1.465510778373997e-06   -2.469571075439751e-05
-8.087349172643055e-06   1.465510778373997e-06   -2.469571075439751e-05
-2.3635468970873406e-06   2.0329357477537075e-06   -1.5938249202012604e-05
-2.3635468970873406e-06   2.0329357477537075e-06   -1.5938249202012604e-05
-2.3635468970873406e-06   2.0329357477537075e-06   -1.5938249202012604e-05
-2.3635468970873406e-06   2.0329357477537075e-06   -1.5938249202012604e-05
-1.3323426515497e-05   1.4144008101046532e-06   -3.4575836195284795e-05
-1.3323426515497e-05   1.4144008101046532e-06   -3.4575836195284795e-05
-1.3323426515497e-05   1.4144008101046532e-06   -3.4575836195284795e-05
-1.3323426515497e-05   1.4144008101046532e-06   -3.4575836195284795e-05
-1.2831615615829821e-05   2.708092607323423e-06   -1.6694581224367612e-05
-1.2831615615829821e-05   2.708092607323423e-06   -1.6694581224367612e-05
-1.2831615615829821e-05   2.708092607323423e-06   -1.6694581224367612e-05
-1.2831615615829821e-05   2.708092607323423e-06   -1.6694581224367612e-05
-1.9041078339451838e-06   1.9852615223891687e-06   -3.447339554321486e-05
-1.9041078339451838e-06   1.9852615223891687e-06   -3.447339554321486e-05
-1.9041078339451838e-06   1.9852615223891687e-06   -3.447339554321486e-05
-1.9041078339451838e-06   1.9852615223891687e-06   -3.447339554321486e-05
-7.663950602131646e-06   1.9245967857782834e-06   -2.4837258754271298e-05
-7.663950602131646e-06   1.9245967857782834e-06   -2.4837258754271298e-05
-7.663950602131646e-06   1.9245967857782834e-06   -2.4837258754271298e-05
-7.663950602131646e-06   1.9245967857782834e-06   -2.4837258754271298e-05
-1.440735204343805e-05   2.3908704990930653e-06   -1.3340545777693253e-05
-1.440735204343805e-05   2.3908704990930653e-06   -1.3340545777693253e-05
-1.440735204343805e-05   2.3908704990930653e-06   -1.3340545777693253e-05
-1.440735204343805e-05   2.3908704990930653e-06   -1.3340545777693253e-05
-2.5252320263250667e-05   2.8921501189925394e-06   -3.111472503877441e-05
-2.5252320263250667e-05   2.8921501189925394e-06   -3.111472503877441e-05
-2.5252320263250667e-05   2.8921501189925394e-06   -3.111472503877441e-05
-2.5252320263250667e-05   2.8921501189925394e-06   -3.111472503877441e-05
-2.458690700828916e-05   3.06036162594993e-06   -1.2528163808900729e-05
-2.458690700828916e-05   3.06036162594993e-06   -1.2528163808900729e-05
-2.458690700828916e-05   3.06036162594993e-06   -1.2528163808900729e-05
-2.458690700828916e-05   3.06036162594993e-06   -1.2528163808900729e-05
-1.3855691496178018e-05   3.4979195039108214e-06   -3.067605772252904e-05
-1.3855691496178018e-05   3.4979195039108214e-06   -3.067605772252904e-05
-1.3855691496178018e-05   3.4979195039108214e-06   -3.067605772252904e-05
-1.3855691496178018e-05   3.4979195039108214e-06   -3.067605772252904e-05
-1.9383070493539426e-05   3.0857703911704552e-06   -2.1216469925949148e-05
-1.9383070493539426e-05   3.0857703911704552e-06   -2.1216469925949148e-05
-1.9383070493539426e-05   3.0857703911704552e-06   -2.1216469925949148e-05
-1.9383070493539426e-05   3.0857703911704552e-06   -2.1216469925949148e-05
-1.3855691496178018e-05   3.06036162594993e-06   -1.2790698535677155e-05
-1.3855691496178018e-05   3.06036162594993e-06   -1.2790698535677155e-05
-1.3855691496178018e-05   3.06036162594993e-06   -1.2790698535677155e-05
-1.3855691496178018e-05   3.06036162594993e-06   -1.2790698535677155e-05
-2.458690700828916e-05   3.4979195039108214e-06   -3.0413522995752576e-05
-2.458690700828916e-05   3.4979195039108214e-06   -3.0413522995752576e-05
-2.458690700828916e-05   3.4979195039108214e-06   -3.0413522995752576e-05
-2.458690700828916e-05   3.4979195039108214e-06   -3.0413522995752576e-05
-2.3849515998095737e-05   3.66300703032456e-06   -1.207611117004894e-05
-2.3849515998095737e-05   3.66300703032456e-06   -1.207611117004894e-05
-2.3849515998095737e-05   3.66300703032456e-06   -1.207611117004894e-05
-2.3849515998095737e-05   3.66300703032456e-06   -1.207611117004894e-05
-1.3323426515497024e-05   4.01946381761286e-06   -2.9833467713419708e-05
-1.3323426515497024e-05   4.01946381761286e-06   -2.9833467713419708e-05
-1.3323426515497024e-05   4.01946381761286e-06   -2.9833467713419708e-05
-1.3323426515497024e-05   4.01946381761286e-06   -2.9833467713419708e-05
-1.8708905370810214e-05   3.558011643031234e-06   -2.0580798316481988e-05
-1.8708905370810214e-05   3.558011643031234e-06   -2.0580798316481988e-05
-1.8708905370810214e-05   3.558011643031234e-06   -2.0580798316481988e-05
-1.8708905370810214e-05   3.558011643031234e-06   -2.0580798316481988e-05
-1.3323426515497014e-05   3.66300703032456e-06   -1.228998524242179e-05
-1.3323426515497014e-05   3.66300703032456e-06   -1.228998524242179e-05
-1.3323426515497014e-05   3.66300703032456e-06   -1.228998524242179e-05
-1.3323426515497014e-05   3.66300703032456e-06   -1.228998524242179e-05
-2.3849515998095737e-05   4.019463817613077e-06   -2.9619593641046845e-05
-2.3849515998095737e-05   4.019463817613077e-06   -2.9619593641046845e-05
-2.3849515998095737e-05   4.019463817613077e-06   -2.9619593641046845e-05
-2.3849515998095737e-05   4.019463817613077e-06   -2.9619593641046845e-05
-2.3226705909550334e-05   4.336397580981342e-06   -1.2355700476928766e-05
-2.3226705909550334e-05   4.336397580981342e-06   -1.2355700476928766e-05
-2.3226705909550334e-05   4.336397580981342e-06   -1.2355700476928766e-05
-2.3226705909550334e-05   4.336397580981342e-06   -1.2355700476928766e-05
-1.2831615615829848e-05   4.595690330250028e-06   -2.9836426616024148e-05
-1.2831615615829848e-05   4.595690330250028e-06   -2.9836426616024148e-05
-1.2831615615829848e-05   4.595690330250028e-06   -2.9836426616024148e-05
-1.2831615615829848e-05   4.595690330250028e-06   -2.9836426616024148e-05
-1.829225950548754e-05   3.992698757351431e-06   -2.037355852285579e-05
-1.829225950548754e-05   3.992698757351431e-06   -2.037355852285579e-05
-1.829225950548754e-05   3.992698757351431e-06   -2.037355852285579e-05
-1.829225950548754e-05   3.992698757351431e-06   -2.037355852285579e-05
-2.5252320263250667e-05   4.111740674523452e-06   -6.67790265566643e-06
-2.5252320263250667e-05   4.111740674523452e-06   -6.67790265566643e-06
-2.5252320263250667e-05   4.111740674523452e-06   -6.67790265566643e-06
-2.5252320263250667e-05   4.111740674523452e-06   -6.67790265566643e-06
-3.668611209822989e-05   5.673370571156753e-06   -2.4797244442652006e-05
-3.668611209822989e-05   5.673370571156753e-06   -2.4797244442652006e-05
-3.668611209822989e-05   5.673370571156753e-06   -2.4797244442652006e-05
-3.668611209822989e-05   5.673370571156753e-06   -2.4797244442652006e-05
-3.5150182942485786e-05   4.807530756470359e-06   -2.0789674167431523e-06
-3.5150182942485786e-05   4.807530756470359e-06   -2.0789674167431523e-06
-3.5150182942485786e-05   4.807530756470359e-06   -2.0789674167431523e-06
-3.5150182942485786e-05   4.807530756470359e-06   -2.0789674167431523e-06
-2.4586907008289114e-05   6.478384204838166e-06   -2.068693937609146e-05
-2.4586907008289114e-05   6.478384204838166e-06   -2.068693937609146e-05
-2.4586907008289114e-05   6.478384204838166e-06   -2.068693937609146e-05
-2.4586907008289114e-05   6.478384204838166e-06   -2.068693937609146e-05
-2.9161749878629055e-05   5.404576958380029e-06   -1.2417916910983256e-05
-2.9161749878629055e-05   5.404576958380029e-06   -1.2417916910983256e-05
-2.9161749878629055e-05   5.404576958380029e-06   -1.2417916910983256e-05
-2.9161749878629055e-05   5.404576958380029e-06   -1.2417916910983256e-05
-2.4586907008289138e-05   4.807530756470359e-06   -3.081479485763641e-06
-2.4586907008289138e-05   4.807530756470359e-06   -3.081479485763641e-06
-2.4586907008289138e-05   4.807530756470359e-06   -3.081479485763641e-06
-2.4586907008289138e-05   4.807530756470359e-06   -3.081479485763641e-06
-3.515018294248573e-05   6.478384204837949e-06   -1.9684427307070976e-05
-3.515018294248573e-05   6.478384204837949e-06   -1.9684427307070976e-05
-3.515018294248573e-05   6.478384204837949e-06   -1.9684427307070976e-05
-3.515018294248573e-05   6.478384204837949e-06   -1.9684427307070976e-05
-3.3886431946835674e-05   5.057075646970393e-06   -1.547972788223202e-07
-3.3886431946835674e-05   5.057075646970393e-06   -1.547972788223202e-07
-3.3886431946835674e-05   5.057075646970393e-06   -1.547972788223202e-07
-3.3886431946835674e-05   5.057075646970393e-06   -1.547972788223202e-07
-2.3849515998095737e-05   6.690558693799942e-06   -1.7863080354819954e-05
-2.3849515998095737e-05   6.690558693799942e-06   -1.7863080354819954e-05
-2.3849515998095737e-05   6.690558693799942e-06   -1.7863080354819954e-05
-2.3849515998095737e-05   6.690558693799942e-06   -1.7863080354819954e-05
-2.8644609179238234e-05   5.726593101048911e-06   -9.292879030598113e-06
-2.8644609179238234e-05   5.726593101048911e-06   -9.292879030598113e-06
-2.8644609179238234e-05   5.726593101048911e-06   -9.292879030598113e-06
-2.8644609179238234e-05   5.726593101048911e-06   -9.292879030598113e-06
-2.3849515998095737e-05   5.057075646970393e-06   -1.1348871069201145e-06
-2.3849515998095737e-05   5.057075646970393e-06   -1.1348871069201145e-06
-2.3849515998095737e-05   5.057075646970393e-06   -1.1348871069201145e-06
-2.3849515998095737e-05   5.057075646970393e-06   -1.1348871069201145e-06
-3.388643194683555e-05   6.690558693799942e-06   -1.6882990526722133e-05
-3.388643194683555e-05   6.690558693799942e-06   -1.6882990526722133e-05
-3.388643194683555e-05   6.690558693799942e-06   -1.6882990526722133e-05
-3.388643194683555e-05   6.690558693799942e-06   -1.6882990526722133e-05
-3.252114041030564e-05   5.371465934291475e-06   2.2933690120512757e-06
-3.252114041030564e-05   5.371465934291475e-06   2.2933690120512757e-06
-3.252114041030564e-05   5.371465934291475e-06   2.2933690120512757e-06
-3.252114041030564e-05   5.371465934291475e-06   2.2933690120512757e-06
-2.3226705909550334e-05   6.871019455366228e-06   -1.4097087268519086e-05
-2.3226705909550334e-05   6.871019455366228e-06   -1.4097087268519086e-05
-2.3226705909550334e-05   6.871019455366228e-06   -1.4097087268519086e-05
-2.3226705909550334e-05   6.871019455366228e-06   -1.4097087268519086e-05
-2.7360087503202562e-05   5.778815609223074e-06   -6.552795638079578e-06
-2.7360087503202562e-05   5.778815609223074e-06   -6.552795638079578e-06
-2.7360087503202562e-05   5.778815609223074e-06   -6.552795638079578e-06
-2.7360087503202562e-05   5.778815609223074e-06   -6.552795638079578e-06
3.13257916097353e-05   -4.364176740553807e-06   6.278237783321648e-06
3.13257916097353e-05   -4.364176740553807e-06   6.278237783321648e-06
3.13257916097353e-05   -4.364176740553807e-06   6.278237783321648e-06
3.13257916097353e-05   -4.364176740553807e-06   6.278237783321648e-06
1.5081215818822977e-05   -6.451831504159346e-06   -2.2048648059695523e-05
1.5081215818822977e-05   -6.451831504159346e-06   -2.2048648059695523e-05
1.5081215818822977e-05   -6.451831504159346e-06   -2.2048648059695523e-05
1.5081215818822977e-05   -6.451831504159346e-06   -2.2048648059695523e-05
1.569229562606246e-05   -4.059759102602008e-06   3.063255934369598e-06
1.569229562606246e-05   -4.059759102602008e-06   3.063255934369598e-06
1.569229562606246e-05   -4.059759102602008e-06   3.063255934369598e-06
1.569229562606246e-05   -4.059759102602008e-06   3.063255934369598e-06
3.275043886714592e-05   -6.3023636972608064e-06   -2.402142004397442e-05
3.275043886714592e-05   -6.3023636972608064e-06   -2.402142004397442e-05
3.275043886714592e-05   -6.3023636972608064e-06   -2.402142004397442e-05
3.275043886714592e-05   -6.3023636972608064e-06   -2.402142004397442e-05
2.2747653293907575e-05   -4.776146340173442e-06   -8.265841169496338e-06
2.2747653293907575e-05   -4.776146340173442e-06   -8.265841169496338e-06
2.2747653293907575e-05   -4.776146340173442e-06   -8.265841169496338e-06
2.2747653293907575e-05   -4.776146340173442e-06   -8.265841169496338e-06
3.2750438867145976e-05   -4.059759102602008e-06   4.408818691164899e-06
3.2750438867145976e-05   -4.059759102602008e-06   4.408818691164899e-06
3.2750438867145976e-05   -4.059759102602008e-06   4.408818691164899e-06
3.2750438867145976e-05   -4.059759102602008e-06   4.408818691164899e-06
1.5692295626062446e-05   -6.3023636972608064e-06   -2.536698280076956e-05
1.5692295626062446e-05   -6.3023636972608064e-06   -2.536698280076956e-05
1.5692295626062446e-05   -6.3023636972608064e-06   -2.536698280076956e-05
1.5692295626062446e-05   -6.3023636972608064e-06   -2.536698280076956e-05
1.6300350324015324e-05   -3.7968380480432086e-06   1.4875366683619797e-06
1.6300350324015324e-05   -3.7968380480432086e-06   1.4875366683619797e-06
1.6300350324015324e-05   -3.7968380480432086e-06   1.4875366683619797e-06
1.6300350324015324e-05   -3.7968380480432086e-06   1.4875366683619797e-06
3.384304831727125e-05   -6.0831577081547385e-06   -2.6378501524330824e-05
3.384304831727125e-05   -6.0831577081547385e-06   -2.6378501524330824e-05
3.384304831727125e-05   -6.0831577081547385e-06   -2.6378501524330824e-05
3.384304831727125e-05   -6.0831577081547385e-06   -2.6378501524330824e-05
2.394846220575675e-05   -4.760110289258766e-06   -1.0681353123144483e-05
2.394846220575675e-05   -4.760110289258766e-06   -1.0681353123144483e-05
2.394846220575675e-05   -4.760110289258766e-06   -1.0681353123144483e-05
2.394846220575675e-05   -4.760110289258766e-06   -1.0681353123144483e-05
3.384304831727125e-05   -3.7968380480432086e-06   2.8593284644289627e-06
3.384304831727125e-05   -3.7968380480432086e-06   2.8593284644289627e-06
3.384304831727125e-05   -3.7968380480432086e-06   2.8593284644289627e-06
3.384304831727125e-05   -3.7968380480432086e-06   2.8593284644289627e-06
1.6300350324015324e-05   -6.0831577081547385e-06   -2.7750293320397915e-05
1.6300350324015324e-05   -6.0831577081547385e-06   -2.7750293320397915e-05
1.6300350324015324e-05   -6.0831577081547385e-06   -2.7750293320397915e-05
1.6300350324015324e-05   -6.0831577081547385e-06   -2.7750293320397915e-05
1.6712314384179007e-05   -2.966836219036803e-06   -1.68153384704048e-06
1.6712314384179007e-05   -2.966836219036803e-06   -1.68153384704048e-06
1.6712314384179007e-05   -2.966836219036803e-06   -1.68153384704048e-06
1.6712314384179007e-05   -2.966836219036803e-06   -1.68153384704048e-06
3.499875020054527e-05   -5.229623403861343e-06   -3.080125456342281e-05
3.499875020054527e-05   -5.229623403861343e-06   -3.080125456342281e-05
3.499875020054527e-05   -5.229623403861343e-06   -3.080125456342281e-05
3.499875020054527e-05   -5.229623403861343e-06   -3.080125456342281e-05
2.4279613648677942e-05   -4.3934787763008284e-06   -1.343771375351407e-05
2.4279613648677942e-05   -4.3934787763008284e-06   -1.343771375351407e-05
2.4279613648677942e-05   -4.3934787763008284e-06   -1.343771375351407e-05
2.4279613648677942e-05   -4.3934787763008284e-06   -1.343771375351407e-05
1.5081215818823018e-05   -2.037015910604737e-06   -7.530747527480404e-06
1.5081215818823018e-05   -2.037015910604737e-06   -7.530747527480404e-06
1.5081215818823018e-05   -2.037015910604737e-06   -7.530747527480404e-06
1.5081215818823018e-05   -2.037015910604737e-06   -7.530747527480404e-06
-9.396663337606147e-07   -4.16497793751967e-06   -3.550899499793546e-05
-9.396663337606147e-07   -4.16497793751967e-06   -3.550899499793546e-05
-9.396663337606147e-07   -4.16497793751967e-06   -3.550899499793546e-05
-9.396663337606147e-07   -4.16497793751967e-06   -3.550899499793546e-05
-3.129833405323665e-07   -1.6120919315838842e-06   -8.306544639611647e-06
-3.129833405323665e-07   -1.6120919315838842e-06   -8.306544639611647e-06
-3.129833405323665e-07   -1.6120919315838842e-06   -8.306544639611647e-06
-3.129833405323665e-07   -1.6120919315838842e-06   -8.306544639611647e-06
1.569229562606246e-05   -3.9633453809534945e-06   -3.357125751431443e-05
1.569229562606246e-05   -3.9633453809534945e-06   -3.357125751431443e-05
1.569229562606246e-05   -3.9633453809534945e-06   -3.357125751431443e-05
1.569229562606246e-05   -3.9633453809534945e-06   -3.357125751431443e-05
7.401929099637875e-06   -2.5205316825718804e-06   -2.0619668189302486e-05
7.401929099637875e-06   -2.5205316825718804e-06   -2.0619668189302486e-05
7.401929099637875e-06   -2.5205316825718804e-06   -2.0619668189302486e-05
7.401929099637875e-06   -2.5205316825718804e-06   -2.0619668189302486e-05
1.5692295626062446e-05   -1.6120919315838842e-06   -6.895792569989708e-06
1.5692295626062446e-05   -1.6120919315838842e-06   -6.895792569989708e-06
1.5692295626062446e-05   -1.6120919315838842e-06   -6.895792569989708e-06
1.5692295626062446e-05   -1.6120919315838842e-06   -6.895792569989708e-06
-3.129833405323665e-07   -3.9633453809534945e-06   -3.498200958393632e-05
-3.129833405323665e-07   -3.9633453809534945e-06   -3.498200958393632e-05
-3.129833405323665e-07   -3.9633453809534945e-06   -3.498200958393632e-05
-3.129833405323665e-07   -3.9633453809534945e-06   -3.498200958393632e-05
2.390207604235136e-07   -1.0928764180549461e-06   -8.508220058641401e-06
2.390207604235136e-07   -1.0928764180549461e-06   -8.508220058641401e-06
2.390207604235136e-07   -1.0928764180549461e-06   -8.508220058641401e-06
2.390207604235136e-07   -1.0928764180549461e-06   -8.508220058641401e-06
1.6300350324015324e-05   -3.5895920727413346e-06   -3.377907327181573e-05
1.6300350324015324e-05   -3.5895920727413346e-06   -3.377907327181573e-05
1.6300350324015324e-05   -3.5895920727413346e-06   -3.377907327181573e-05
1.6300350324015324e-05   -3.5895920727413346e-06   -3.377907327181573e-05
7.8271221544695e-06   -2.311351418769151e-06   -2.042397071495551e-05
7.8271221544695e-06   -2.311351418769151e-06   -2.042397071495551e-05
7.8271221544695e-06   -2.311351418769151e-06   -2.042397071495551e-05
7.8271221544695e-06   -2.311351418769151e-06   -2.042397071495551e-05
1.6300350324015324e-05   -1.0928764180547293e-06   -7.010190665829373e-06
1.6300350324015324e-05   -1.0928764180547293e-06   -7.010190665829373e-06
1.6300350324015324e-05   -1.0928764180547293e-06   -7.010190665829373e-06
1.6300350324015324e-05   -1.0928764180547293e-06   -7.010190665829373e-06
2.3902076042352715e-07   -3.5895920727413346e-06   -3.5277102664627675e-05
2.3902076042352715e-07   -3.5895920727413346e-06   -3.5277102664627675e-05
2.3902076042352715e-07   -3.5895920727413346e-06   -3.5277102664627675e-05
2.3902076042352715e-07   -3.5895920727413346e-06   -3.5277102664627675e-05
6.315367072939925e-07   -4.391325493979716e-07   -8.849231235424047e-06
6.315367072939925e-07   -4.391325493979716e-07   -8.849231235424047e-06
6.315367072939925e-07   -4.391325493979716e-07   -8.849231235424047e-06
6.315367072939925e-07   -4.391325493979716e-07   -8.849231235424047e-06
1.671231438417906e-05   -3.057698081681973e-06   -3.407938804419558e-05
1.671231438417906e-05   -3.057698081681973e-06   -3.407938804419558e-05
1.671231438417906e-05   -3.057698081681973e-06   -3.407938804419558e-05
1.671231438417906e-05   -3.057698081681973e-06   -3.407938804419558e-05
8.338226593160922e-06   -1.9437690625730836e-06   -2.0790932470630844e-05
8.338226593160922e-06   -1.9437690625730836e-06   -2.0790932470630844e-05
8.338226593160922e-06   -1.9437690625730836e-06   -2.0790932470630844e-05
8.338226593160922e-06   -1.9437690625730836e-06   -2.0790932470630844e-05
-9.396663337606147e-07   3.841172762973719e-07   -1.1505301951721201e-05
-9.396663337606147e-07   3.841172762973719e-07   -1.1505301951721201e-05
-9.396663337606147e-07   3.841172762973719e-07   -1.1505301951721201e-05
-9.396663337606147e-07   3.841172762973719e-07   -1.1505301951721201e-05
-1.6723961077703744e-05   -2.162127028857699e-06   -3.934020644138635e-05
-1.6723961077703744e-05   -2.162127028857699e-06   -3.934020644138635e-05
-1.6723961077703744e-05   -2.162127028857699e-06   -3.934020644138635e-05
-1.6723961077703744e-05   -2.162127028857699e-06   -3.934020644138635e-05
-1.597184176296269e-05   8.618879664946087e-07   -1.2506780335742006e-05
-1.597184176296269e-05   8.618879664946087e-07   -1.2506780335742006e-05
-1.597184176296269e-05   8.618879664946087e-07   -1.2506780335742006e-05
-1.597184176296269e-05   8.618879664946087e-07   -1.2506780335742006e-05
-3.129833405323665e-07   -1.9238528029320336e-06   -3.69334332448034e-05
-3.129833405323665e-07   -1.9238528029320336e-06   -3.69334332448034e-05
-3.129833405323665e-07   -1.9238528029320336e-06   -3.69334332448034e-05
-3.129833405323665e-07   -1.9238528029320336e-06   -3.69334332448034e-05
-8.38724539578388e-06   -4.0186451133743424e-07   -2.4389522794340845e-05
-8.38724539578388e-06   -4.0186451133743424e-07   -2.4389522794340845e-05
-8.38724539578388e-06   -4.0186451133743424e-07   -2.4389522794340845e-05
-8.38724539578388e-06   -4.0186451133743424e-07   -2.4389522794340845e-05
-3.129833405323665e-07   8.618879664946087e-07   -1.0835335874086085e-05
-3.129833405323665e-07   8.618879664946087e-07   -1.0835335874086085e-05
-3.129833405323665e-07   8.618879664946087e-07   -1.0835335874086085e-05
-3.129833405323665e-07   8.618879664946087e-07   -1.0835335874086085e-05
-1.597184176296269e-05   -1.9238528029320336e-06   -3.8604877706459296e-05
-1.597184176296269e-05   -1.9238528029320336e-06   -3.8604877706459296e-05
-1.597184176296269e-05   -1.9238528029320336e-06   -3.8604877706459296e-05
-1.597184176296269e-05   -1.9238528029320336e-06   -3.8604877706459296e-05
-1.5281837068604805e-05   1.4144008101046532e-06   -1.2282800011801341e-05
-1.5281837068604805e-05   1.4144008101046532e-06   -1.2282800011801341e-05
-1.5281837068604805e-05   1.4144008101046532e-06   -1.2282800011801341e-05
-1.5281837068604805e-05   1.4144008101046532e-06   -1.2282800011801341e-05
2.3902076042352715e-07   -1.5552807363884355e-06   -3.63690874656194e-05
2.3902076042352715e-07   -1.5552807363884355e-06   -3.63690874656194e-05
2.3902076042352715e-07   -1.5552807363884355e-06   -3.63690874656194e-05
2.3902076042352715e-07   -1.5552807363884355e-06   -3.63690874656194e-05
-7.775140180578973e-06   -1.2993690421195248e-07   -2.3867358863254495e-05
-7.775140180578973e-06   -1.2993690421195248e-07   -2.3867358863254495e-05
-7.775140180578973e-06   -1.2993690421195248e-07   -2.3867358863254495e-05
-7.775140180578973e-06   -1.2993690421195248e-07   -2.3867358863254495e-05
2.3902076042352715e-07   1.4144008101046532e-06   -1.0500991083905466e-05
2.3902076042352715e-07   1.4144008101046532e-06   -1.0500991083905466e-05
2.3902076042352715e-07   1.4144008101046532e-06   -1.0500991083905466e-05
2.3902076042352715e-07   1.4144008101046532e-06   -1.0500991083905466e-05
-1.5281837068604805e-05   -1.5552807363884355e-06   -3.815089639351533e-05
-1.5281837068604805e-05   -1.5552807363884355e-06   -3.815089639351533e-05
-1.5281837068604805e-05   -1.5552807363884355e-06   -3.815089639351533e-05
-1.5281837068604805e-05   -1.5552807363884355e-06   -3.815089639351533e-05
-1.481679820818238e-05   1.985261522388952e-06   -1.2497974219856248e-05
-1.481679820818238e-05   1.985261522388952e-06   -1.2497974219856248e-05
-1.481679820818238e-05   1.985261522388952e-06   -1.2497974219856248e-05
-1.481679820818238e-05   1.985261522388952e-06   -1.2497974219856248e-05
6.315367072939925e-07   -1.2054333822419851e-06   -3.633078213620487e-05
6.315367072939925e-07   -1.2054333822419851e-06   -3.633078213620487e-05
6.315367072939925e-07   -1.2054333822419851e-06   -3.633078213620487e-05
6.315367072939925e-07   -1.2054333822419851e-06   -3.633078213620487e-05
-7.33907215128998e-06   1.750769624275783e-07   -2.3874740245367155e-05
-7.33907215128998e-06   1.750769624275783e-07   -2.3874740245367155e-05
-7.33907215128998e-06   1.750769624275783e-07   -2.3874740245367155e-05
-7.33907215128998e-06   1.750769624275783e-07   -2.3874740245367155e-05
-1.6723961077703744e-05   2.892150118992756e-06   -9.378740388583874e-06
-1.6723961077703744e-05   2.892150118992756e-06   -9.378740388583874e-06
-1.6723961077703744e-05   2.892150118992756e-06   -9.378740388583874e-06
-1.6723961077703744e-05   2.892150118992756e-06   -9.378740388583874e-06
-3.273163043997707e-05   6.021761277410186e-07   -3.743217372045708e-05
-3.273163043997707e-05   6.021761277410186e-07   -3.743217372045708e-05
-3.273163043997707e-05   6.021761277410186e-07   -3.743217372045708e-05
-3.273163043997707e-05   6.021761277410186e-07   -3.743217372045708e-05
-3.166063943305999e-05   3.4979195039108214e-06   -9.986121852548365e-06
-3.166063943305999e-05   3.4979195039108214e-06   -9.986121852548365e-06
-3.166063943305999e-05   3.4979195039108214e-06   -9.986121852548365e-06
-3.166063943305999e-05   3.4979195039108214e-06   -9.986121852548365e-06
-1.597184176296269e-05   1.0394659899766283e-06   -3.4659045861016625e-05
-1.597184176296269e-05   1.0394659899766283e-06   -3.4659045861016625e-05
-1.597184176296269e-05   1.0394659899766283e-06   -3.4659045861016625e-05
-1.597184176296269e-05   1.0394659899766283e-06   -3.4659045861016625e-05
-2.402136486920695e-05   2.2140630743286947e-06   -2.194793226788756e-05
-2.402136486920695e-05   2.2140630743286947e-06   -2.194793226788756e-05
-2.402136486920695e-05   2.2140630743286947e-06   -2.194793226788756e-05
-2.402136486920695e-05   2.2140630743286947e-06   -2.194793226788756e-05
-1.597184176296269e-05   3.4979195039108214e-06   -8.511049744187827e-06
-1.597184176296269e-05   3.4979195039108214e-06   -8.511049744187827e-06
-1.597184176296269e-05   3.4979195039108214e-06   -8.511049744187827e-06
-1.597184176296269e-05   3.4979195039108214e-06   -8.511049744187827e-06
-3.166063943306004e-05   1.0394659899766283e-06   -3.613411796937727e-05
-3.166063943306004e-05   1.0394659899766283e-06   -3.613411796937727e-05
-3.166063943306004e-05   1.0394659899766283e-06   -3.613411796937727e-05
-3.166063943306004e-05   1.0394659899766283e-06   -3.613411796937727e-05
-3.0624204380802874e-05   4.019463817613077e-06   -9.087105058890044e-06
-3.0624204380802874e-05   4.019463817613077e-06   -9.087105058890044e-06
-3.0624204380802874e-05   4.019463817613077e-06   -9.087105058890044e-06
-3.0624204380802874e-05   4.019463817613077e-06   -9.087105058890044e-06
-1.5281837068604825e-05   1.441674602689928e-06   -3.3111043716933e-05
-1.5281837068604825e-05   1.441674602689928e-06   -3.3111043716933e-05
-1.5281837068604825e-05   1.441674602689928e-06   -3.3111043716933e-05
-1.5281837068604825e-05   1.441674602689928e-06   -3.3111043716933e-05
-2.3051761680799907e-05   2.594586145502221e-06   -2.0852916288961768e-05
-2.3051761680799907e-05   2.594586145502221e-06   -2.0852916288961768e-05
-2.3051761680799907e-05   2.594586145502221e-06   -2.0852916288961768e-05
-2.3051761680799907e-05   2.594586145502221e-06   -2.0852916288961768e-05
-1.528183706860479e-05   4.019463817613077e-06   -7.5404315299361325e-06
-1.528183706860479e-05   4.019463817613077e-06   -7.5404315299361325e-06
-1.528183706860479e-05   4.019463817613077e-06   -7.5404315299361325e-06
-1.528183706860479e-05   4.019463817613077e-06   -7.5404315299361325e-06
-3.062420438080293e-05   1.441674602689928e-06   -3.465771724588693e-05
-3.062420438080293e-05   1.441674602689928e-06   -3.465771724588693e-05
-3.062420438080293e-05   1.441674602689928e-06   -3.465771724588693e-05
-3.062420438080293e-05   1.441674602689928e-06   -3.465771724588693e-05
-2.98396157327468e-05   4.595690330250028e-06   -9.116023047362181e-06
-2.98396157327468e-05   4.595690330250028e-06   -9.116023047362181e-06
-2.98396157327468e-05   4.595690330250028e-06   -9.116023047362181e-06
-2.98396157327468e-05   4.595690330250028e-06   -9.116023047362181e-06
-1.4816798208182407e-05   1.7811629874880507e-06   -3.246533584931251e-05
-1.4816798208182407e-05   1.7811629874880507e-06   -3.246533584931251e-05
-1.4816798208182407e-05   1.7811629874880507e-06   -3.246533584931251e-05
-1.4816798208182407e-05   1.7811629874880507e-06   -3.246533584931251e-05
-2.251242009920054e-05   2.8603999719777756e-06   -2.0286841554976044e-05
-2.251242009920054e-05   2.8603999719777756e-06   -2.0286841554976044e-05
-2.251242009920054e-05   2.8603999719777756e-06   -2.0286841554976044e-05
-2.251242009920054e-05   2.8603999719777756e-06   -2.0286841554976044e-05
-3.273163043997707e-05   5.673370571156753e-06   -5.372222125192387e-06
-3.273163043997707e-05   5.673370571156753e-06   -5.372222125192387e-06
-3.273163043997707e-05   5.673370571156753e-06   -5.372222125192387e-06
-3.273163043997707e-05   5.673370571156753e-06   -5.372222125192387e-06
-4.946585124671117e-05   5.36647277376537e-06   -3.3446728814850936e-05
-4.946585124671117e-05   5.36647277376537e-06   -3.3446728814850936e-05
-4.946585124671117e-05   5.36647277376537e-06   -3.3446728814850936e-05
-4.946585124671117e-05   5.36647277376537e-06   -3.3446728814850936e-05
-4.734414120686672e-05   6.478384204838166e-06   -7.89618844430082e-08
-4.734414120686672e-05   6.478384204838166e-06   -7.89618844430082e-08
-4.734414120686672e-05   6.478384204838166e-06   -7.89618844430082e-08
-4.734414120686672e-05   6.478384204838166e-06   -7.89618844430082e-08
-3.1660639433059926e-05   6.779344785578503e-06   -2.6398707855898483e-05
-3.1660639433059926e-05   6.779344785578503e-06   -2.6398707855898483e-05
-3.1660639433059926e-05   6.779344785578503e-06   -2.6398707855898483e-05
-3.1660639433059926e-05   6.779344785578503e-06   -2.6398707855898483e-05
-3.856312614879138e-05   6.3903729368704025e-06   -1.4661180220454717e-05
-3.856312614879138e-05   6.3903729368704025e-06   -1.4661180220454717e-05
-3.856312614879138e-05   6.3903729368704025e-06   -1.4661180220454717e-05
-3.856312614879138e-05   6.3903729368704025e-06   -1.4661180220454717e-05
-3.166063943306001e-05   6.478384204838166e-06   -2.595382328872539e-07
-3.166063943306001e-05   6.478384204838166e-06   -2.595382328872539e-07
-3.166063943306001e-05   6.478384204838166e-06   -2.595382328872539e-07
-3.166063943306001e-05   6.478384204838166e-06   -2.595382328872539e-07
-4.734414120686665e-05   6.779344785578503e-06   -2.6218131507454285e-05
-4.734414120686665e-05   6.779344785578503e-06   -2.6218131507454285e-05
-4.734414120686665e-05   6.779344785578503e-06   -2.6218131507454285e-05
-4.734414120686665e-05   6.779344785578503e-06   -2.6218131507454285e-05
-4.558575609077363e-05   6.690558693799942e-06   2.9135838987289593e-06
-4.558575609077363e-05   6.690558693799942e-06   2.9135838987289593e-06
-4.558575609077363e-05   6.690558693799942e-06   2.9135838987289593e-06
-4.558575609077363e-05   6.690558693799942e-06   2.9135838987289593e-06
-3.0624204380802874e-05   7.097518146120373e-06   -2.2266511289281207e-05
-3.0624204380802874e-05   7.097518146120373e-06   -2.2266511289281207e-05
-3.0624204380802874e-05   7.097518146120373e-06   -2.2266511289281207e-05
-3.0624204380802874e-05   7.097518146120373e-06   -2.2266511289281207e-05
-3.7767957470864223e-05   6.853072417186638e-06   -1.0213588701818243e-05
-3.7767957470864223e-05   6.853072417186638e-06   -1.0213588701818243e-05
-3.7767957470864223e-05   6.853072417186638e-06   -1.0213588701818243e-05
-3.7767957470864223e-05   6.853072417186638e-06   -1.0213588701818243e-05
-3.062420438080293e-05   6.690558693799942e-06   2.669408227336874e-06
-3.062420438080293e-05   6.690558693799942e-06   2.669408227336874e-06
-3.062420438080293e-05   6.690558693799942e-06   2.669408227336874e-06
-3.062420438080293e-05   6.690558693799942e-06   2.669408227336874e-06
-4.558575609077371e-05   7.097518146120373e-06   -2.2022335617888963e-05
-4.558575609077371e-05   7.097518146120373e-06   -2.2022335617888963e-05
-4.558575609077371e-05   7.097518146120373e-06   -2.2022335617888963e-05
-4.558575609077371e-05   7.097518146120373e-06   -2.2022335617888963e-05
-4.374530723408745e-05   6.871019455366228e-06   6.928947479093242e-06
-4.374530723408745e-05   6.871019455366228e-06   6.928947479093242e-06
-4.374530723408745e-05   6.871019455366228e-06   6.928947479093242e-06
-4.374530723408745e-05   6.871019455366228e-06   6.928947479093242e-06
-2.983961573274685e-05   7.639697502885567e-06   -1.6708411851652944e-05
-2.983961573274685e-05   7.639697502885567e-06   -1.6708411851652944e-05
-2.983961573274685e-05   7.639697502885567e-06   -1.6708411851652944e-05
-2.983961573274685e-05   7.639697502885567e-06   -1.6708411851652944e-05
-3.598827438245481e-05   7.006845603850986e-06   -6.080936296052248e-06
-3.598827438245481e-05   7.006845603850986e-06   -6.080936296052248e-06
-3.598827438245481e-05   7.006845603850986e-06   -6.080936296052248e-06
-3.598827438245481e-05   7.006845603850986e-06   -6.080936296052248e-06
4.300553922089546e-05   -6.451831504159129e-06   1.4724737214614797e-05
4.300553922089546e-05   -6.451831504159129e-06   1.4724737214614797e-05
4.300553922089546e-05   -6.451831504159129e-06   1.4724737214614797e-05
4.300553922089546e-05   -6.451831504159129e-06   1.4724737214614797e-05
2.1600998723973148e-05   -8.151396586967988e-06   -2.196923599660772e-05
2.1600998723973148e-05   -8.151396586967988e-06   -2.196923599660772e-05
2.1600998723973148e-05   -8.151396586967988e-06   -2.196923599660772e-05
2.1600998723973148e-05   -8.151396586967988e-06   -2.196923599660772e-05
2.212340401510561e-05   -6.302363697261023e-06   1.057520887741718e-05
2.212340401510561e-05   -6.302363697261023e-06   1.057520887741718e-05
2.212340401510561e-05   -6.302363697261023e-06   1.057520887741718e-05
2.212340401510561e-05   -6.302363697261023e-06   1.057520887741718e-05
4.407022219097954e-05   -8.355367429721669e-06   -2.4771019176229544e-05
4.407022219097954e-05   -8.355367429721669e-06   -2.4771019176229544e-05
4.407022219097954e-05   -8.355367429721669e-06   -2.4771019176229544e-05
4.407022219097954e-05   -8.355367429721669e-06   -2.4771019176229544e-05
3.139629756892366e-05   -6.5901099676056625e-06   -4.706965950072688e-06
3.139629756892366e-05   -6.5901099676056625e-06   -4.706965950072688e-06
3.139629756892366e-05   -6.5901099676056625e-06   -4.706965950072688e-06
3.139629756892366e-05   -6.5901099676056625e-06   -4.706965950072688e-06
4.407022219097954e-05   -6.302363697261023e-06   1.180701111689361e-05
4.407022219097954e-05   -6.302363697261023e-06   1.180701111689361e-05
4.407022219097954e-05   -6.302363697261023e-06   1.180701111689361e-05
4.407022219097954e-05   -6.302363697261023e-06   1.180701111689361e-05
2.212340401510561e-05   -8.355367429721669e-06   -2.6002821415705975e-05
2.212340401510561e-05   -8.355367429721669e-06   -2.6002821415705975e-05
2.212340401510561e-05   -8.355367429721669e-06   -2.6002821415705975e-05
2.212340401510561e-05   -8.355367429721669e-06   -2.6002821415705975e-05
2.2564839231140944e-05   -6.0831577081547385e-06   8.351254318473373e-06
2.2564839231140944e-05   -6.0831577081547385e-06   8.351254318473373e-06
2.2564839231140944e-05   -6.0831577081547385e-06   8.351254318473373e-06
2.2564839231140944e-05   -6.0831577081547385e-06   8.351254318473373e-06
4.473319665518406e-05   -8.278624617262661e-06   -2.7278727909467476e-05
4.473319665518406e-05   -8.278624617262661e-06   -2.7278727909467476e-05
4.473319665518406e-05   -8.278624617262661e-06   -2.7278727909467476e-05
4.473319665518406e-05   -8.278624617262661e-06   -2.7278727909467476e-05
3.249832094515017e-05   -6.796975351641352e-06   -7.77625795211689e-06
3.249832094515017e-05   -6.796975351641352e-06   -7.77625795211689e-06
3.249832094515017e-05   -6.796975351641352e-06   -7.77625795211689e-06
3.249832094515017e-05   -6.796975351641352e-06   -7.77625795211689e-06
4.473319665518406e-05   -6.0831577081547385e-06   9.668534463937737e-06
4.473319665518406e-05   -6.0831577081547385e-06   9.668534463937737e-06
4.473319665518406e-05   -6.0831577081547385e-06   9.668534463937737e-06
4.473319665518406e-05   -6.0831577081547385e-06   9.668534463937737e-06
2.2564839231140944e-05   -8.278624617262661e-06   -2.859600805493192e-05
2.2564839231140944e-05   -8.278624617262661e-06   -2.859600805493192e-05
2.2564839231140944e-05   -8.278624617262661e-06   -2.859600805493192e-05
2.2564839231140944e-05   -8.278624617262661e-06   -2.859600805493192e-05
2.3025248007021052e-05   -5.229623403861126e-06   4.0421431668615036e-06
2.3025248007021052e-05   -5.229623403861126e-06   4.0421431668615036e-06
2.3025248007021052e-05   -5.229623403861126e-06   4.0421431668615036e-06
2.3025248007021052e-05   -5.229623403861126e-06   4.0421431668615036e-06
4.538606271530211e-05   -7.815031575066555e-06   -3.1674636444217026e-05
4.538606271530211e-05   -7.815031575066555e-06   -3.1674636444217026e-05
4.538606271530211e-05   -7.815031575066555e-06   -3.1674636444217026e-05
4.538606271530211e-05   -7.815031575066555e-06   -3.1674636444217026e-05
3.250928571750014e-05   -6.539670488009148e-06   -1.0978558100114871e-05
3.250928571750014e-05   -6.539670488009148e-06   -1.0978558100114871e-05
3.250928571750014e-05   -6.539670488009148e-06   -1.0978558100114871e-05
3.250928571750014e-05   -6.539670488009148e-06   -1.0978558100114871e-05
2.1600998723973148e-05   -4.16497793751967e-06   1.5214284428384864e-06
2.1600998723973148e-05   -4.16497793751967e-06   1.5214284428384864e-06
2.1600998723973148e-05   -4.16497793751967e-06   1.5214284428384864e-06
2.1600998723973148e-05   -4.16497793751967e-06   1.5214284428384864e-06
2.5198277970606424e-06   -8.139480179841741e-06   -3.266522444740909e-05
2.5198277970606424e-06   -8.139480179841741e-06   -3.266522444740909e-05
2.5198277970606424e-06   -8.139480179841741e-06   -3.266522444740909e-05
2.5198277970606424e-06   -8.139480179841741e-06   -3.266522444740909e-05
3.128177393523727e-06   -3.9633453809534945e-06   -1.084010231341536e-07
3.128177393523727e-06   -3.9633453809534945e-06   -1.084010231341536e-07
3.128177393523727e-06   -3.9633453809534945e-06   -1.084010231341536e-07
3.128177393523727e-06   -3.9633453809534945e-06   -1.084010231341536e-07
2.2123404015105664e-05   -8.095570692631237e-06   -2.9287776872097515e-05
2.2123404015105664e-05   -8.095570692631237e-06   -2.9287776872097515e-05
2.2123404015105664e-05   -8.095570692631237e-06   -2.9287776872097515e-05
2.2123404015105664e-05   -8.095570692631237e-06   -2.9287776872097515e-05
1.239020251223539e-05   -5.49350414056661e-06   -1.4627014298552652e-05
1.239020251223539e-05   -5.49350414056661e-06   -1.4627014298552652e-05
1.239020251223539e-05   -5.49350414056661e-06   -1.4627014298552652e-05
1.239020251223539e-05   -5.49350414056661e-06   -1.4627014298552652e-05
2.212340401510561e-05   -3.9633453809534945e-06   2.37093416387247e-06
2.212340401510561e-05   -3.9633453809534945e-06   2.37093416387247e-06
2.212340401510561e-05   -3.9633453809534945e-06   2.37093416387247e-06
2.212340401510561e-05   -3.9633453809534945e-06   2.37093416387247e-06
3.128177393523727e-06   -8.095570692631237e-06   -3.176711205910411e-05
3.128177393523727e-06   -8.095570692631237e-06   -3.176711205910411e-05
3.128177393523727e-06   -8.095570692631237e-06   -3.176711205910411e-05
3.128177393523727e-06   -8.095570692631237e-06   -3.176711205910411e-05
3.6772488507023454e-06   -3.5895920727413346e-06   -3.1417105693159683e-07
3.6772488507023454e-06   -3.5895920727413346e-06   -3.1417105693159683e-07
3.6772488507023454e-06   -3.5895920727413346e-06   -3.1417105693159683e-07
3.6772488507023454e-06   -3.5895920727413346e-06   -3.1417105693159683e-07
2.2564839231140944e-05   -7.984001112719234e-06   -2.9156842933675676e-05
2.2564839231140944e-05   -7.984001112719234e-06   -2.9156842933675676e-05
2.2564839231140944e-05   -7.984001112719234e-06   -2.9156842933675676e-05
2.2564839231140944e-05   -7.984001112719234e-06   -2.9156842933675676e-05
1.273376509563204e-05   -5.551386029539621e-06   -1.4231288424401516e-05
1.273376509563204e-05   -5.551386029539621e-06   -1.4231288424401516e-05
1.273376509563204e-05   -5.551386029539621e-06   -1.4231288424401516e-05
1.273376509563204e-05   -5.551386029539621e-06   -1.4231288424401516e-05
2.2564839231140944e-05   -3.5895920727413346e-06   2.322474367055425e-06
2.2564839231140944e-05   -3.5895920727413346e-06   2.322474367055425e-06
2.2564839231140944e-05   -3.5895920727413346e-06   2.322474367055425e-06
2.2564839231140944e-05   -3.5895920727413346e-06   2.322474367055425e-06
3.677248850702332e-06   -7.984001112719234e-06   -3.179348835766259e-05
3.677248850702332e-06   -7.984001112719234e-06   -3.179348835766259e-05
3.677248850702332e-06   -7.984001112719234e-06   -3.179348835766259e-05
3.677248850702332e-06   -7.984001112719234e-06   -3.179348835766259e-05
4.497156380933438e-06   -3.057698081681973e-06   -7.014892901792066e-07
4.497156380933438e-06   -3.057698081681973e-06   -7.014892901792066e-07
4.497156380933438e-06   -3.057698081681973e-06   -7.014892901792066e-07
4.497156380933438e-06   -3.057698081681973e-06   -7.014892901792066e-07
2.3025248007021025e-05   -7.762983560286518e-06   -2.875847071316228e-05
2.3025248007021025e-05   -7.762983560286518e-06   -2.875847071316228e-05
2.3025248007021025e-05   -7.762983560286518e-06   -2.875847071316228e-05
2.3025248007021025e-05   -7.762983560286518e-06   -2.875847071316228e-05
1.3393556826896812e-05   -5.461834293961397e-06   -1.4086341639416966e-05
1.3393556826896812e-05   -5.461834293961397e-06   -1.4086341639416966e-05
1.3393556826896812e-05   -5.461834293961397e-06   -1.4086341639416966e-05
1.3393556826896812e-05   -5.461834293961397e-06   -1.4086341639416966e-05
2.5198277970606424e-06   -2.162127028857699e-06   -3.166737762912695e-06
2.5198277970606424e-06   -2.162127028857699e-06   -3.166737762912695e-06
2.5198277970606424e-06   -2.162127028857699e-06   -3.166737762912695e-06
2.5198277970606424e-06   -2.162127028857699e-06   -3.166737762912695e-06
-1.636224752736629e-05   -9.778651993720298e-06   -3.9206778282541675e-05
-1.636224752736629e-05   -9.778651993720298e-06   -3.9206778282541675e-05
-1.636224752736629e-05   -9.778651993720298e-06   -3.9206778282541675e-05
-1.636224752736629e-05   -9.778651993720298e-06   -3.9206778282541675e-05
-1.5414156652074266e-05   -1.9238528029320336e-06   -6.9005045950963975e-06
-1.5414156652074266e-05   -1.9238528029320336e-06   -6.9005045950963975e-06
-1.5414156652074266e-05   -1.9238528029320336e-06   -6.9005045950963975e-06
-1.5414156652074266e-05   -1.9238528029320336e-06   -6.9005045950963975e-06
3.128177393523727e-06   -9.991652654757271e-06   -3.296371475999796e-05
3.128177393523727e-06   -9.991652654757271e-06   -3.296371475999796e-05
3.128177393523727e-06   -9.991652654757271e-06   -3.296371475999796e-05
3.128177393523727e-06   -9.991652654757271e-06   -3.296371475999796e-05
-6.315937614172636e-06   -5.518981201976369e-06   -1.990712595217257e-05
-6.315937614172636e-06   -5.518981201976369e-06   -1.990712595217257e-05
-6.315937614172636e-06   -5.518981201976369e-06   -1.990712595217257e-05
-6.315937614172636e-06   -5.518981201976369e-06   -1.990712595217257e-05
3.128177393523727e-06   -1.9238528029320336e-06   -2.0598246840012116e-06
3.128177393523727e-06   -1.9238528029320336e-06   -2.0598246840012116e-06
3.128177393523727e-06   -1.9238528029320336e-06   -2.0598246840012116e-06
3.128177393523727e-06   -1.9238528029320336e-06   -2.0598246840012116e-06
-1.5414156652074293e-05   -9.991652654757271e-06   -3.780439467109323e-05
-1.5414156652074293e-05   -9.991652654757271e-06   -3.780439467109323e-05
-1.5414156652074293e-05   -9.991652654757271e-06   -3.780439467109323e-05
-1.5414156652074293e-05   -9.991652654757271e-06   -3.780439467109323e-05
-1.4596626401412979e-05   -1.5552807363886523e-06   -6.437575620072203e-06
-1.4596626401412979e-05   -1.5552807363886523e-06   -6.437575620072203e-06
-1.4596626401412979e-05   -1.5552807363886523e-06   -6.437575620072203e-06
-1.4596626401412979e-05   -1.5552807363886523e-06   -6.437575620072203e-06
3.677248850702332e-06   -9.940980339969959e-06   -3.18626146114488e-05
3.677248850702332e-06   -9.940980339969959e-06   -3.18626146114488e-05
3.677248850702332e-06   -9.940980339969959e-06   -3.18626146114488e-05
3.677248850702332e-06   -9.940980339969959e-06   -3.18626146114488e-05
-5.642954183254031e-06   -5.641221218304331e-06   -1.890879836118764e-05
-5.642954183254031e-06   -5.641221218304331e-06   -1.890879836118764e-05
-5.642954183254031e-06   -5.641221218304331e-06   -1.890879836118764e-05
-5.642954183254031e-06   -5.641221218304331e-06   -1.890879836118764e-05
3.677248850702332e-06   -1.5552807363884355e-06   -1.4061558579232672e-06
3.677248850702332e-06   -1.5552807363884355e-06   -1.4061558579232672e-06
3.677248850702332e-06   -1.5552807363884355e-06   -1.4061558579232672e-06
3.677248850702332e-06   -1.5552807363884355e-06   -1.4061558579232672e-06
-1.4596626401413026e-05   -9.940980339969742e-06   -3.6894034373597816e-05
-1.4596626401413026e-05   -9.940980339969742e-06   -3.6894034373597816e-05
-1.4596626401413026e-05   -9.940980339969742e-06   -3.6894034373597816e-05
-1.4596626401413026e-05   -9.940980339969742e-06   -3.6894034373597816e-05
-1.3185749133696452e-05   -1.205433382242202e-06   -6.411160601650472e-06
-1.3185749133696452e-05   -1.205433382242202e-06   -6.411160601650472e-06
-1.3185749133696452e-05   -1.205433382242202e-06   -6.411160601650472e-06
-1.3185749133696452e-05   -1.205433382242202e-06   -6.411160601650472e-06
4.497156380933438e-06   -9.587794280296186e-06   -3.085325325386795e-05
4.497156380933438e-06   -9.587794280296186e-06   -3.085325325386795e-05
4.497156380933438e-06   -9.587794280296186e-06   -3.085325325386795e-05
4.497156380933438e-06   -9.587794280296186e-06   -3.085325325386795e-05
-4.768172112131634e-06   -5.512522205103213e-06   -1.785620234387523e-05
-4.768172112131634e-06   -5.512522205103213e-06   -1.785620234387523e-05
-4.768172112131634e-06   -5.512522205103213e-06   -1.785620234387523e-05
-4.768172112131634e-06   -5.512522205103213e-06   -1.785620234387523e-05
-1.636224752736625e-05   6.021761277410186e-07   -4.454635626149894e-06
-1.636224752736625e-05   6.021761277410186e-07   -4.454635626149894e-06
-1.636224752736625e-05   6.021761277410186e-07   -4.454635626149894e-06
-1.636224752736625e-05   6.021761277410186e-07   -4.454635626149894e-06
-3.741224323775791e-05   -1.2153038346606262e-05   -4.719109049474443e-05
-3.741224323775791e-05   -1.2153038346606262e-05   -4.719109049474443e-05
-3.741224323775791e-05   -1.2153038346606262e-05   -4.719109049474443e-05
-3.741224323775791e-05   -1.2153038346606262e-05   -4.719109049474443e-05
-3.627685949464368e-05   1.0394659899766283e-06   -1.173006940767031e-05
-3.627685949464368e-05   1.0394659899766283e-06   -1.173006940767031e-05
-3.627685949464368e-05   1.0394659899766283e-06   -1.173006940767031e-05
-3.627685949464368e-05   1.0394659899766283e-06   -1.173006940767031e-05
-1.5414156652074266e-05   -1.3586195106717568e-05   -3.772584415393609e-05
-1.5414156652074266e-05   -1.3586195106717568e-05   -3.772584415393609e-05
-1.5414156652074266e-05   -1.3586195106717568e-05   -3.772584415393609e-05
-1.5414156652074266e-05   -1.3586195106717568e-05   -3.772584415393609e-05
-2.5989182278742062e-05   -6.159738293138586e-06   -2.455667553097064e-05
-2.5989182278742062e-05   -6.159738293138586e-06   -2.455667553097064e-05
-2.5989182278742062e-05   -6.159738293138586e-06   -2.455667553097064e-05
-2.5989182278742062e-05   -6.159738293138586e-06   -2.455667553097064e-05
-1.5414156652074266e-05   1.0394659899766283e-06   -2.9546727496538357e-06
-1.5414156652074266e-05   1.0394659899766283e-06   -2.9546727496538357e-06
-1.5414156652074266e-05   1.0394659899766283e-06   -2.9546727496538357e-06
-1.5414156652074266e-05   1.0394659899766283e-06   -2.9546727496538357e-06
-3.627685949464374e-05   -1.358619510671735e-05   -4.650124081195274e-05
-3.627685949464374e-05   -1.358619510671735e-05   -4.650124081195274e-05
-3.627685949464374e-05   -1.358619510671735e-05   -4.650124081195274e-05
-3.627685949464374e-05   -1.358619510671735e-05   -4.650124081195274e-05
-3.518883871955365e-05   1.441674602689928e-06   -1.0457541413355295e-05
-3.518883871955365e-05   1.441674602689928e-06   -1.0457541413355295e-05
-3.518883871955365e-05   1.441674602689928e-06   -1.0457541413355295e-05
-3.518883871955365e-05   1.441674602689928e-06   -1.0457541413355295e-05
-1.4596626401413006e-05   -1.3658022847085277e-05   -3.5718076807057675e-05
-1.4596626401413006e-05   -1.3658022847085277e-05   -3.5718076807057675e-05
-1.4596626401413006e-05   -1.3658022847085277e-05   -3.5718076807057675e-05
-1.4596626401413006e-05   -1.3658022847085277e-05   -3.5718076807057675e-05
-2.4882021115781473e-05   -6.1770329512858026e-06   -2.3064346220589885e-05
-2.4882021115781473e-05   -6.1770329512858026e-06   -2.3064346220589885e-05
-2.4882021115781473e-05   -6.1770329512858026e-06   -2.3064346220589885e-05
-2.4882021115781473e-05   -6.1770329512858026e-06   -2.3064346220589885e-05
-1.4596626401412986e-05   1.441674602689928e-06   -1.3977229434897816e-06
-1.4596626401412986e-05   1.441674602689928e-06   -1.3977229434897816e-06
-1.4596626401412986e-05   1.441674602689928e-06   -1.3977229434897816e-06
-1.4596626401412986e-05   1.441674602689928e-06   -1.3977229434897816e-06
-3.518883871955372e-05   -1.3658022847085277e-05   -4.477789527692288e-05
-3.518883871955372e-05   -1.3658022847085277e-05   -4.477789527692288e-05
-3.518883871955372e-05   -1.3658022847085277e-05   -4.477789527692288e-05
-3.518883871955372e-05   -1.3658022847085277e-05   -4.477789527692288e-05
-3.340304978921893e-05   1.7811629874882676e-06   -9.16445336367872e-06
-3.340304978921893e-05   1.7811629874882676e-06   -9.16445336367872e-06
-3.340304978921893e-05   1.7811629874882676e-06   -9.16445336367872e-06
-3.340304978921893e-05   1.7811629874882676e-06   -9.16445336367872e-06
-1.3185749133696465e-05   -1.2440763665343699e-05   -3.432679846451694e-05
-1.3185749133696465e-05   -1.2440763665343699e-05   -3.432679846451694e-05
-1.3185749133696465e-05   -1.2440763665343699e-05   -3.432679846451694e-05
-1.3185749133696465e-05   -1.2440763665343699e-05   -3.432679846451694e-05
-2.3791756900023865e-05   -5.43885987532391e-06   -2.0851261127982756e-05
-2.3791756900023865e-05   -5.43885987532391e-06   -2.0851261127982756e-05
-2.3791756900023865e-05   -5.43885987532391e-06   -2.0851261127982756e-05
-2.3791756900023865e-05   -5.43885987532391e-06   -2.0851261127982756e-05
-3.741224323775791e-05   5.366472773765153e-06   -7.938180726717531e-06
-3.741224323775791e-05   5.366472773765153e-06   -7.938180726717531e-06
-3.741224323775791e-05   5.366472773765153e-06   -7.938180726717531e-06
-3.741224323775791e-05   5.366472773765153e-06   -7.938180726717531e-06
-6.432439433996642e-05   0.0   -5.601164956132445e-05
-6.432439433996642e-05   0.0   -5.601164956132445e-05
-6.432439433996642e-05   0.0   -5.601164956132445e-05
-6.432439433996642e-05   0.0   -5.601164956132445e-05
-6.266602531426289e-05   6.77934478557872e-06   -6.062266165538866e-06
-6.266602531426289e-05   6.77934478557872e-06   -6.062266165538866e-06
-6.266602531426289e-05   6.77934478557872e-06   -6.062266165538866e-06
-6.266602531426289e-05   6.77934478557872e-06   -6.062266165538866e-06
-3.627685949464368e-05   0.0   -4.597660232689045e-05
-3.627685949464368e-05   0.0   -4.597660232689045e-05
-3.627685949464368e-05   0.0   -4.597660232689045e-05
-3.627685949464368e-05   0.0   -4.597660232689045e-05
-4.803901508491613e-05   2.0802842720588077e-06   -2.762118023967175e-05
-4.803901508491613e-05   2.0802842720588077e-06   -2.762118023967175e-05
-4.803901508491613e-05   2.0802842720588077e-06   -2.762118023967175e-05
-4.803901508491613e-05   2.0802842720588077e-06   -2.762118023967175e-05
-3.6276859494643713e-05   6.77934478557872e-06   -1.9946592941916773e-06
-3.6276859494643713e-05   6.77934478557872e-06   -1.9946592941916773e-06
-3.6276859494643713e-05   6.77934478557872e-06   -1.9946592941916773e-06
-3.6276859494643713e-05   6.77934478557872e-06   -1.9946592941916773e-06
-6.266602531426278e-05   0.0   -5.0044209198237466e-05
-6.266602531426278e-05   0.0   -5.0044209198237466e-05
-6.266602531426278e-05   0.0   -5.0044209198237466e-05
-6.266602531426278e-05   0.0   -5.0044209198237466e-05
-6.126125292332471e-05   7.097518146120373e-06   -2.3248463444216832e-06
-6.126125292332471e-05   7.097518146120373e-06   -2.3248463444216832e-06
-6.126125292332471e-05   7.097518146120373e-06   -2.3248463444216832e-06
-6.126125292332471e-05   7.097518146120373e-06   -2.3248463444216832e-06
-3.518883871955372e-05   0.0   -4.152035912970129e-05
-3.518883871955372e-05   0.0   -4.152035912970129e-05
-3.518883871955372e-05   0.0   -4.152035912970129e-05
-3.518883871955372e-05   0.0   -4.152035912970129e-05
-4.755284088601359e-05   3.2848996935174856e-06   -2.2884628668377955e-05
-4.755284088601359e-05   3.2848996935174856e-06   -2.2884628668377955e-05
-4.755284088601359e-05   3.2848996935174856e-06   -2.2884628668377955e-05
-4.755284088601359e-05   3.2848996935174856e-06   -2.2884628668377955e-05
-3.518883871955372e-05   7.097518146120373e-06   1.9336645432504757e-06
-3.518883871955372e-05   7.097518146120373e-06   1.9336645432504757e-06
-3.518883871955372e-05   7.097518146120373e-06   1.9336645432504757e-06
-3.518883871955372e-05   7.097518146120373e-06   1.9336645432504757e-06
-6.12612529233246e-05   0.0   -4.5778870017373365e-05
-6.12612529233246e-05   0.0   -4.5778870017373365e-05
-6.12612529233246e-05   0.0   -4.5778870017373365e-05
-6.12612529233246e-05   0.0   -4.5778870017373365e-05
-5.845653214308674e-05   7.639697502885567e-06   3.6973685379066692e-06
-5.845653214308674e-05   7.639697502885567e-06   3.6973685379066692e-06
-5.845653214308674e-05   7.639697502885567e-06   3.6973685379066692e-06
-5.845653214308674e-05   7.639697502885567e-06   3.6973685379066692e-06
-3.340304978921899e-05   0.0   -3.347461688347502e-05
-3.340304978921899e-05   0.0   -3.347461688347502e-05
-3.340304978921899e-05   0.0   -3.347461688347502e-05
-3.340304978921899e-05   0.0   -3.347461688347502e-05
-4.509827390201479e-05   4.048329127534674e-06   -1.6411574172002738e-05
-4.509827390201479e-05   4.048329127534674e-06   -1.6411574172002738e-05
-4.509827390201479e-05   4.048329127534674e-06   -1.6411574172002738e-05
-4.509827390201479e-05   4.048329127534674e-06   -1.6411574172002738e-05
4.7577348234790405e-05   -8.151396586967988e-06   2.8366334610968862e-05
4.7577348234790405e-05   -8.151396586967988e-06   2.8366334610968862e-05
4.7577348234790405e-05   -8.151396586967988e-06   2.8366334610968862e-05
4.7577348234790405e-05   -8.151396586967988e-06   2.8366334610968862e-05
2.4663263884529643e-05   -6.297932362663364e-06   -8.711727438216114e-06
2.4663263884529643e-05   -6.297932362663364e-06   -8.711727438216114e-06
2.4663263884529643e-05   -6.297932362663364e-06   -8.711727438216114e-06
2.4663263884529643e-05   -6.297932362663364e-06   -8.711727438216114e-06
2.404717998059966e-05   -8.355367429721669e-06   2.5033326980658088e-05
2.404717998059966e-05   -8.355367429721669e-06   2.5033326980658088e-05
2.404717998059966e-05   -8.355367429721669e-06   2.5033326980658088e-05
2.404717998059966e-05   -8.355367429721669e-06   2.5033326980658088e-05
4.707456678515298e-05   -6.921234496063636e-06   -1.4206130787125629e-05
4.707456678515298e-05   -6.921234496063636e-06   -1.4206130787125629e-05
4.707456678515298e-05   -6.921234496063636e-06   -1.4206130787125629e-05
4.707456678515298e-05   -6.921234496063636e-06   -1.4206130787125629e-05
3.437295121914235e-05   -7.0327970098462735e-06   7.030165997828458e-06
3.437295121914235e-05   -7.0327970098462735e-06   7.030165997828458e-06
3.437295121914235e-05   -7.0327970098462735e-06   7.030165997828458e-06
3.437295121914235e-05   -7.0327970098462735e-06   7.030165997828458e-06
4.707456678515298e-05   -8.355367429721669e-06   2.417284722046331e-05
4.707456678515298e-05   -8.355367429721669e-06   2.417284722046331e-05
4.707456678515298e-05   -8.355367429721669e-06   2.417284722046331e-05
4.707456678515298e-05   -8.355367429721669e-06   2.417284722046331e-05
2.404717998059966e-05   -6.921234496063636e-06   -1.3345651026930717e-05
2.404717998059966e-05   -6.921234496063636e-06   -1.3345651026930717e-05
2.404717998059966e-05   -6.921234496063636e-06   -1.3345651026930717e-05
2.404717998059966e-05   -6.921234496063636e-06   -1.3345651026930717e-05
2.348944358723554e-05   -8.278624617262661e-06   2.2465891821933084e-05
2.348944358723554e-05   -8.278624617262661e-06   2.2465891821933084e-05
2.348944358723554e-05   -8.278624617262661e-06   2.2465891821933084e-05
2.348944358723554e-05   -8.278624617262661e-06   2.2465891821933084e-05
4.649150190619216e-05   -6.97731676598326e-06   -1.6651656753762133e-05
4.649150190619216e-05   -6.97731676598326e-06   -1.6651656753762133e-05
4.649150190619216e-05   -6.97731676598326e-06   -1.6651656753762133e-05
4.649150190619216e-05   -6.97731676598326e-06   -1.6651656753762133e-05
3.4352025796199594e-05   -7.156182772282251e-06   3.6881230333381384e-06
3.4352025796199594e-05   -7.156182772282251e-06   3.6881230333381384e-06
3.4352025796199594e-05   -7.156182772282251e-06   3.6881230333381384e-06
3.4352025796199594e-05   -7.156182772282251e-06   3.6881230333381384e-06
4.6491501906192225e-05   -8.278624617262444e-06   2.1685107111165444e-05
4.6491501906192225e-05   -8.278624617262444e-06   2.1685107111165444e-05
4.6491501906192225e-05   -8.278624617262444e-06   2.1685107111165444e-05
4.6491501906192225e-05   -8.278624617262444e-06   2.1685107111165444e-05
2.348944358723554e-05   -6.97731676598326e-06   -1.587087204299464e-05
2.348944358723554e-05   -6.97731676598326e-06   -1.587087204299464e-05
2.348944358723554e-05   -6.97731676598326e-06   -1.587087204299464e-05
2.348944358723554e-05   -6.97731676598326e-06   -1.587087204299464e-05
2.2808767611349215e-05   -7.815031575066555e-06   1.828885288936025e-05
2.2808767611349215e-05   -7.815031575066555e-06   1.828885288936025e-05
2.2808767611349215e-05   -7.815031575066555e-06   1.828885288936025e-05
2.2808767611349215e-05   -7.815031575066555e-06   1.828885288936025e-05
4.557779670160898e-05   -6.827403341248253e-06   -2.0252105868030212e-05
4.557779670160898e-05   -6.827403341248253e-06   -2.0252105868030212e-05
4.557779670160898e-05   -6.827403341248253e-06   -2.0252105868030212e-05
4.557779670160898e-05   -6.827403341248253e-06   -2.0252105868030212e-05
3.3183969503049325e-05   -6.804358681776132e-06   3.9044600055258534e-07
3.3183969503049325e-05   -6.804358681776132e-06   3.9044600055258534e-07
3.3183969503049325e-05   -6.804358681776132e-06   3.9044600055258534e-07
3.3183969503049325e-05   -6.804358681776132e-06   3.9044600055258534e-07
2.4663263884529643e-05   -8.139480179841741e-06   2.116712604014392e-05
2.4663263884529643e-05   -8.139480179841741e-06   2.116712604014392e-05
2.4663263884529643e-05   -8.139480179841741e-06   2.116712604014392e-05
2.4663263884529643e-05   -8.139480179841741e-06   2.116712604014392e-05
5.192563537515047e-06   -3.8750672803999735e-06   -8.725393465215388e-06
5.192563537515047e-06   -3.8750672803999735e-06   -8.725393465215388e-06
5.192563537515047e-06   -3.8750672803999735e-06   -8.725393465215388e-06
5.192563537515047e-06   -3.8750672803999735e-06   -8.725393465215388e-06
4.217624732418999e-06   -8.095570692631237e-06   2.4140481234098763e-05
4.217624732418999e-06   -8.095570692631237e-06   2.4140481234098763e-05
4.217624732418999e-06   -8.095570692631237e-06   2.4140481234098763e-05
4.217624732418999e-06   -8.095570692631237e-06   2.4140481234098763e-05
2.404717998059966e-05   -4.1087211762446535e-06   -1.1300887222701045e-05
2.404717998059966e-05   -4.1087211762446535e-06   -1.1300887222701045e-05
2.404717998059966e-05   -4.1087211762446535e-06   -1.1300887222701045e-05
2.404717998059966e-05   -4.1087211762446535e-06   -1.1300887222701045e-05
1.4509030914626585e-05   -5.830247791696955e-06   5.628943856525497e-06
1.4509030914626585e-05   -5.830247791696955e-06   5.628943856525497e-06
1.4509030914626585e-05   -5.830247791696955e-06   5.628943856525497e-06
1.4509030914626585e-05   -5.830247791696955e-06   5.628943856525497e-06
2.4047179980599633e-05   -8.095570692631237e-06   2.1748371524266683e-05
2.4047179980599633e-05   -8.095570692631237e-06   2.1748371524266683e-05
2.4047179980599633e-05   -8.095570692631237e-06   2.1748371524266683e-05
2.4047179980599633e-05   -8.095570692631237e-06   2.1748371524266683e-05
4.217624732418999e-06   -4.10872117624487e-06   -8.908777512869046e-06
4.217624732418999e-06   -4.10872117624487e-06   -8.908777512869046e-06
4.217624732418999e-06   -4.10872117624487e-06   -8.908777512869046e-06
4.217624732418999e-06   -4.10872117624487e-06   -8.908777512869046e-06
3.521713694998915e-06   -7.984001112719234e-06   2.416890998394104e-05
3.521713694998915e-06   -7.984001112719234e-06   2.416890998394104e-05
3.521713694998915e-06   -7.984001112719234e-06   2.416890998394104e-05
3.521713694998915e-06   -7.984001112719234e-06   2.416890998394104e-05
2.348944358723554e-05   -4.2109127114662356e-06   -1.1374492877205036e-05
2.348944358723554e-05   -4.2109127114662356e-06   -1.1374492877205036e-05
2.348944358723554e-05   -4.2109127114662356e-06   -1.1374492877205036e-05
2.348944358723554e-05   -4.2109127114662356e-06   -1.1374492877205036e-05
1.3671703621098965e-05   -5.709494917668055e-06   5.887556390077287e-06
1.3671703621098965e-05   -5.709494917668055e-06   5.887556390077287e-06
1.3671703621098965e-05   -5.709494917668055e-06   5.887556390077287e-06
1.3671703621098965e-05   -5.709494917668055e-06   5.887556390077287e-06
2.348944358723558e-05   -7.984001112719451e-06   2.1905056943189328e-05
2.348944358723558e-05   -7.984001112719451e-06   2.1905056943189328e-05
2.348944358723558e-05   -7.984001112719451e-06   2.1905056943189328e-05
2.348944358723558e-05   -7.984001112719451e-06   2.1905056943189328e-05
3.521713694998915e-06   -4.2109127114662356e-06   -9.11063983645335e-06
3.521713694998915e-06   -4.2109127114662356e-06   -9.11063983645335e-06
3.521713694998915e-06   -4.2109127114662356e-06   -9.11063983645335e-06
3.521713694998915e-06   -4.2109127114662356e-06   -9.11063983645335e-06
2.7478564001078313e-06   -7.762983560286518e-06   2.494629917060287e-05
2.7478564001078313e-06   -7.762983560286518e-06   2.494629917060287e-05
2.7478564001078313e-06   -7.762983560286518e-06   2.494629917060287e-05
2.7478564001078313e-06   -7.762983560286518e-06   2.494629917060287e-05
2.28087676113492e-05   -4.112924147845615e-06   -1.0678588495597395e-05
2.28087676113492e-05   -4.112924147845615e-06   -1.0678588495597395e-05
2.28087676113492e-05   -4.112924147845615e-06   -1.0678588495597395e-05
2.28087676113492e-05   -4.112924147845615e-06   -1.0678588495597395e-05
1.3160958391706826e-05   -5.456647141533757e-06   6.20732733335285e-06
1.3160958391706826e-05   -5.456647141533757e-06   6.20732733335285e-06
1.3160958391706826e-05   -5.456647141533757e-06   6.20732733335285e-06
1.3160958391706826e-05   -5.456647141533757e-06   6.20732733335285e-06
5.192563537515061e-06   -9.778651993720298e-06   2.175413492359413e-05
5.192563537515061e-06   -9.778651993720298e-06   2.175413492359413e-05
5.192563537515061e-06   -9.778651993720298e-06   2.175413492359413e-05
5.192563537515061e-06   -9.778651993720298e-06   2.175413492359413e-05
-1.3515857356028181e-05   -1.600010878617707e-06   -4.519381896583396e-06
-1.3515857356028181e-05   -1.600010878617707e-06   -4.519381896583396e-06
-1.3515857356028181e-05   -1.600010878617707e-06   -4.519381896583396e-06
-1.3515857356028181e-05   -1.600010878617707e-06   -4.519381896583396e-06
-1.503198398474534e-05   -9.991652654757271e-06   2.7925717268374294e-05
-1.503198398474534e-05   -9.991652654757271e-06   2.7925717268374294e-05
-1.503198398474534e-05   -9.991652654757271e-06   2.7925717268374294e-05
-1.503198398474534e-05   -9.991652654757271e-06   2.7925717268374294e-05
4.217624732418999e-06   -1.6885880961411363e-06   -9.138802662068897e-06
4.217624732418999e-06   -1.6885880961411363e-06   -9.138802662068897e-06
4.217624732418999e-06   -1.6885880961411363e-06   -9.138802662068897e-06
4.217624732418999e-06   -1.6885880961411363e-06   -9.138802662068897e-06
-4.618612770866508e-06   -5.578548850112067e-06   7.92223629578941e-06
-4.618612770866508e-06   -5.578548850112067e-06   7.92223629578941e-06
-4.618612770866508e-06   -5.578548850112067e-06   7.92223629578941e-06
-4.618612770866508e-06   -5.578548850112067e-06   7.92223629578941e-06
4.217624732418999e-06   -9.991652654757271e-06   2.2943878533204722e-05
4.217624732418999e-06   -9.991652654757271e-06   2.2943878533204722e-05
4.217624732418999e-06   -9.991652654757271e-06   2.2943878533204722e-05
4.217624732418999e-06   -9.991652654757271e-06   2.2943878533204722e-05
-1.5031983984745313e-05   -1.6885880961411363e-06   -4.156963926899406e-06
-1.5031983984745313e-05   -1.6885880961411363e-06   -4.156963926899406e-06
-1.5031983984745313e-05   -1.6885880961411363e-06   -4.156963926899406e-06
-1.5031983984745313e-05   -1.6885880961411363e-06   -4.156963926899406e-06
-1.5959767028887197e-05   -9.940980339969742e-06   2.8985848271762113e-05
-1.5959767028887197e-05   -9.940980339969742e-06   2.8985848271762113e-05
-1.5959767028887197e-05   -9.940980339969742e-06   2.8985848271762113e-05
-1.5959767028887197e-05   -9.940980339969742e-06   2.8985848271762113e-05
3.521713694998915e-06   -1.7975394372914903e-06   -8.369350809655265e-06
3.521713694998915e-06   -1.7975394372914903e-06   -8.369350809655265e-06
3.521713694998915e-06   -1.7975394372914903e-06   -8.369350809655265e-06
3.521713694998915e-06   -1.7975394372914903e-06   -8.369350809655265e-06
-5.645571430802149e-06   -5.557729819210492e-06   9.165571962497788e-06
-5.645571430802149e-06   -5.557729819210492e-06   9.165571962497788e-06
-5.645571430802149e-06   -5.557729819210492e-06   9.165571962497788e-06
-5.645571430802149e-06   -5.557729819210492e-06   9.165571962497788e-06
3.521713694998915e-06   -9.940980339969742e-06   2.4099783730155075e-05
3.521713694998915e-06   -9.940980339969742e-06   2.4099783730155075e-05
3.521713694998915e-06   -9.940980339969742e-06   2.4099783730155075e-05
3.521713694998915e-06   -9.940980339969742e-06   2.4099783730155075e-05
-1.595976702888717e-05   -1.7975394372914903e-06   -3.4832862680479835e-06
-1.595976702888717e-05   -1.7975394372914903e-06   -3.4832862680479835e-06
-1.595976702888717e-05   -1.7975394372914903e-06   -3.4832862680479835e-06
-1.595976702888717e-05   -1.7975394372914903e-06   -3.4832862680479835e-06
-1.7049642227090335e-05   -9.587794280296186e-06   3.0356668428745126e-05
-1.7049642227090335e-05   -9.587794280296186e-06   3.0356668428745126e-05
-1.7049642227090335e-05   -9.587794280296186e-06   3.0356668428745126e-05
-1.7049642227090335e-05   -9.587794280296186e-06   3.0356668428745126e-05
2.7478564001078313e-06   -1.7844934274875712e-06   -7.321143128270269e-06
2.7478564001078313e-06   -1.7844934274875712e-06   -7.321143128270269e-06
2.7478564001078313e-06   -1.7844934274875712e-06   -7.321143128270269e-06
2.7478564001078313e-06   -1.7844934274875712e-06   -7.321143128270269e-06
-6.48240136793754e-06   -5.332435889386254e-06   1.0191385295611169e-05
-6.48240136793754e-06   -5.332435889386254e-06   1.0191385295611169e-05
-6.48240136793754e-06   -5.332435889386254e-06   1.0191385295611169e-05
-6.48240136793754e-06   -5.332435889386254e-06   1.0191385295611169e-05
-1.3515857356028195e-05   -1.2153038346606262e-05   2.63301360650611e-05
-1.3515857356028195e-05   -1.2153038346606262e-05   2.63301360650611e-05
-1.3515857356028195e-05   -1.2153038346606262e-05   2.63301360650611e-05
-1.3515857356028195e-05   -1.2153038346606262e-05   2.63301360650611e-05
-3.4786621633037704e-05   1.8048004548436823e-06   -7.464344490844916e-07
-3.4786621633037704e-05   1.8048004548436823e-06   -7.464344490844916e-07
-3.4786621633037704e-05   1.8048004548436823e-06   -7.464344490844916e-07
-3.4786621633037704e-05   1.8048004548436823e-06   -7.464344490844916e-07
-3.6612693672233594e-05   -1.358619510671735e-05   3.717880094631851e-05
-3.6612693672233594e-05   -1.358619510671735e-05   3.717880094631851e-05
-3.6612693672233594e-05   -1.358619510671735e-05   3.717880094631851e-05
-3.6612693672233594e-05   -1.358619510671735e-05   3.717880094631851e-05
-1.5031983984745313e-05   1.7046934945937238e-06   -7.963581693615657e-06
-1.5031983984745313e-05   1.7046934945937238e-06   -7.963581693615657e-06
-1.5031983984745313e-05   1.7046934945937238e-06   -7.963581693615657e-06
-1.5031983984745313e-05   1.7046934945937238e-06   -7.963581693615657e-06
-2.464025784795691e-05   -5.006889509431064e-06   1.207715788081862e-05
-2.464025784795691e-05   -5.006889509431064e-06   1.207715788081862e-05
-2.464025784795691e-05   -5.006889509431064e-06   1.207715788081862e-05
-2.464025784795691e-05   -5.006889509431064e-06   1.207715788081862e-05
-1.503198398474534e-05   -1.358619510671735e-05   2.8004267785531473e-05
-1.503198398474534e-05   -1.358619510671735e-05   2.8004267785531473e-05
-1.503198398474534e-05   -1.358619510671735e-05   2.8004267785531473e-05
-1.503198398474534e-05   -1.358619510671735e-05   2.8004267785531473e-05
-3.661269367223353e-05   1.7046934945937238e-06   1.210951467171405e-06
-3.661269367223353e-05   1.7046934945937238e-06   1.210951467171405e-06
-3.661269367223353e-05   1.7046934945937238e-06   1.210951467171405e-06
-3.661269367223353e-05   1.7046934945937238e-06   1.210951467171405e-06
-3.7724875587609565e-05   -1.3658022847085277e-05   3.926553208826811e-05
-3.7724875587609565e-05   -1.3658022847085277e-05   3.926553208826811e-05
-3.7724875587609565e-05   -1.3658022847085277e-05   3.926553208826811e-05
-3.7724875587609565e-05   -1.3658022847085277e-05   3.926553208826811e-05
-1.595976702888717e-05   1.5148542361913177e-06   -6.1133750929017806e-06
-1.595976702888717e-05   1.5148542361913177e-06   -6.1133750929017806e-06
-1.595976702888717e-05   1.5148542361913177e-06   -6.1133750929017806e-06
-1.595976702888717e-05   1.5148542361913177e-06   -6.1133750929017806e-06
-2.5823707953930535e-05   -5.778616036417744e-06   1.470260861240259e-05
-2.5823707953930535e-05   -5.778616036417744e-06   1.470260861240259e-05
-2.5823707953930535e-05   -5.778616036417744e-06   1.470260861240259e-05
-2.5823707953930535e-05   -5.778616036417744e-06   1.470260861240259e-05
-1.5959767028887156e-05   -1.3658022847085277e-05   3.016180583830213e-05
-1.5959767028887156e-05   -1.3658022847085277e-05   3.016180583830213e-05
-1.5959767028887156e-05   -1.3658022847085277e-05   3.016180583830213e-05
-1.5959767028887156e-05   -1.3658022847085277e-05   3.016180583830213e-05
-3.77248755876095e-05   1.5148542361913177e-06   2.9903511570640627e-06
-3.77248755876095e-05   1.5148542361913177e-06   2.9903511570640627e-06
-3.77248755876095e-05   1.5148542361913177e-06   2.9903511570640627e-06
-3.77248755876095e-05   1.5148542361913177e-06   2.9903511570640627e-06
-3.8924158145209204e-05   -1.2440763665343699e-05   4.015653287583868e-05
-3.8924158145209204e-05   -1.2440763665343699e-05   4.015653287583868e-05
-3.8924158145209204e-05   -1.2440763665343699e-05   4.015653287583868e-05
-3.8924158145209204e-05   -1.2440763665343699e-05   4.015653287583868e-05
-1.7049642227090307e-05   1.2992248661727358e-06   -4.544986773269584e-06
-1.7049642227090307e-05   1.2992248661727358e-06   -4.544986773269584e-06
-1.7049642227090307e-05   1.2992248661727358e-06   -4.544986773269584e-06
-1.7049642227090307e-05   1.2992248661727358e-06   -4.544986773269584e-06
-2.704642556044695e-05   -5.819168021048687e-06   1.6387354514658004e-05
-2.704642556044695e-05   -5.819168021048687e-06   1.6387354514658004e-05
-2.704642556044695e-05   -5.819168021048687e-06   1.6387354514658004e-05
-2.704642556044695e-05   -5.819168021048687e-06   1.6387354514658004e-05
-3.478662163303758e-05   0.0   2.9104163943610164e-05
-3.478662163303758e-05   0.0   2.9104163943610164e-05
-3.478662163303758e-05   0.0   2.9104163943610164e-05
-3.478662163303758e-05   0.0   2.9104163943610164e-05
-6.11683230406833e-05   8.031716468453283e-06   -1.004630852139408e-05
-6.11683230406833e-05   8.031716468453283e-06   -1.004630852139408e-05
-6.11683230406833e-05   8.031716468453283e-06   -1.004630852139408e-05
-6.11683230406833e-05   8.031716468453283e-06   -1.004630852139408e-05
-6.367881278215587e-05   0.0   4.2360222030513517e-05
-6.367881278215587e-05   0.0   4.2360222030513517e-05
-6.367881278215587e-05   0.0   4.2360222030513517e-05
-6.367881278215587e-05   0.0   4.2360222030513517e-05
-3.661269367223353e-05   7.761304331888475e-06   -7.40675908515666e-06
-3.661269367223353e-05   7.761304331888475e-06   -7.40675908515666e-06
-3.661269367223353e-05   7.761304331888475e-06   -7.40675908515666e-06
-3.661269367223353e-05   7.761304331888475e-06   -7.40675908515666e-06
-4.697110537520783e-05   4.7644599824501165e-06   1.165536702946339e-05
-4.697110537520783e-05   4.7644599824501165e-06   1.165536702946339e-05
-4.697110537520783e-05   4.7644599824501165e-06   1.165536702946339e-05
-4.697110537520783e-05   4.7644599824501165e-06   1.165536702946339e-05
-3.66126936722335e-05   0.0   3.770343943138043e-05
-3.66126936722335e-05   0.0   3.770343943138043e-05
-3.66126936722335e-05   0.0   3.770343943138043e-05
-3.66126936722335e-05   0.0   3.770343943138043e-05
-6.367881278215599e-05   7.761304331888475e-06   -2.749976486023575e-06
-6.367881278215599e-05   7.761304331888475e-06   -2.749976486023575e-06
-6.367881278215599e-05   7.761304331888475e-06   -2.749976486023575e-06
-6.367881278215599e-05   7.761304331888475e-06   -2.749976486023575e-06
-6.494221021532707e-05   0.0   4.706252529073588e-05
-6.494221021532707e-05   0.0   4.706252529073588e-05
-6.494221021532707e-05   0.0   4.706252529073588e-05
-6.494221021532707e-05   0.0   4.706252529073588e-05
-3.77248755876095e-05   7.565761758743933e-06   -2.839156144039841e-06
-3.77248755876095e-05   7.565761758743933e-06   -2.839156144039841e-06
-3.77248755876095e-05   7.565761758743933e-06   -2.839156144039841e-06
-3.77248755876095e-05   7.565761758743933e-06   -2.839156144039841e-06
-4.940286081288565e-05   3.980929519199891e-06   1.8775051908480724e-05
-4.940286081288565e-05   3.980929519199891e-06   1.8775051908480724e-05
-4.940286081288565e-05   3.980929519199891e-06   1.8775051908480724e-05
-4.940286081288565e-05   3.980929519199891e-06   1.8775051908480724e-05
-3.77248755876095e-05   0.0   4.252306823548967e-05
-3.77248755876095e-05   0.0   4.252306823548967e-05
-3.77248755876095e-05   0.0   4.252306823548967e-05
-3.77248755876095e-05   0.0   4.252306823548967e-05
-6.494221021532719e-05   7.565761758743933e-06   1.7003009112065296e-06
-6.494221021532719e-05   7.565761758743933e-06   1.7003009112065296e-06
-6.494221021532719e-05   7.565761758743933e-06   1.7003009112065296e-06
-6.494221021532719e-05   7.565761758743933e-06   1.7003009112065296e-06
-6.634538422978132e-05   0.0   5.333103003133657e-05
-6.634538422978132e-05   0.0   5.333103003133657e-05
-6.634538422978132e-05   0.0   5.333103003133657e-05
-6.634538422978132e-05   0.0   5.333103003133657e-05
-3.8924158145209204e-05   6.315265971261735e-06   3.839826974292459e-06
-3.8924158145209204e-05   6.315265971261735e-06   3.839826974292459e-06
-3.8924158145209204e-05   6.315265971261735e-06   3.839826974292459e-06
-3.8924158145209204e-05   6.315265971261735e-06   3.839826974292459e-06
-4.980125245443844e-05   2.8014196791583713e-06   2.407662526493647e-05
-4.980125245443844e-05   2.8014196791583713e-06   2.407662526493647e-05
-4.980125245443844e-05   2.8014196791583713e-06   2.407662526493647e-05
-4.980125245443844e-05   2.8014196791583713e-06   2.407662526493647e-05
4.1919346747837464e-05   -6.297932362663364e-06   2.9697356431969413e-05
4.1919346747837464e-05   -6.297932362663364e-06   2.9697356431969413e-05
4.1919346747837464e-05   -6.297932362663364e-06   2.9697356431969413e-05
4.1919346747837464e-05   -6.297932362663364e-06   2.9697356431969413e-05
2.1185959148960283e-05   -4.763576889858009e-06   -3.937676282476173e-06
2.1185959148960283e-05   -4.763576889858009e-06   -3.937676282476173e-06
2.1185959148960283e-05   -4.763576889858009e-06   -3.937676282476173e-06
2.1185959148960283e-05   -4.763576889858009e-06   -3.937676282476173e-06
2.063109867173427e-05   -6.921234496063636e-06   2.590791714350408e-05
2.063109867173427e-05   -6.921234496063636e-06   2.590791714350408e-05
2.063109867173427e-05   -6.921234496063636e-06   2.590791714350408e-05
2.063109867173427e-05   -6.921234496063636e-06   2.590791714350408e-05
4.093057375840774e-05   -5.3953076016902655e-06   -8.840097470908687e-06
4.093057375840774e-05   -5.3953076016902655e-06   -8.840097470908687e-06
4.093057375840774e-05   -5.3953076016902655e-06   -8.840097470908687e-06
4.093057375840774e-05   -5.3953076016902655e-06   -8.840097470908687e-06
2.9779258594086917e-05   -5.611993626142937e-06   9.875439417630696e-06
2.9779258594086917e-05   -5.611993626142937e-06   9.875439417630696e-06
2.9779258594086917e-05   -5.611993626142937e-06   9.875439417630696e-06
2.9779258594086917e-05   -5.611993626142937e-06   9.875439417630696e-06
4.093057375840766e-05   -6.921234496063636e-06   2.4992361006880362e-05
4.093057375840766e-05   -6.921234496063636e-06   2.4992361006880362e-05
4.093057375840766e-05   -6.921234496063636e-06   2.4992361006880362e-05
4.093057375840766e-05   -6.921234496063636e-06   2.4992361006880362e-05
2.0631098671734296e-05   -5.3953076016902655e-06   -7.92454133428488e-06
2.0631098671734296e-05   -5.3953076016902655e-06   -7.92454133428488e-06
2.0631098671734296e-05   -5.3953076016902655e-06   -7.92454133428488e-06
2.0631098671734296e-05   -5.3953076016902655e-06   -7.92454133428488e-06
1.9916209902126574e-05   -6.97731676598326e-06   2.324634624205281e-05
1.9916209902126574e-05   -6.97731676598326e-06   2.324634624205281e-05
1.9916209902126574e-05   -6.97731676598326e-06   2.324634624205281e-05
1.9916209902126574e-05   -6.97731676598326e-06   2.324634624205281e-05
3.99296950409238e-05   -5.488332789885166e-06   -1.1002852708267901e-05
3.99296950409238e-05   -5.488332789885166e-06   -1.1002852708267901e-05
3.99296950409238e-05   -5.488332789885166e-06   -1.1002852708267901e-05
3.99296950409238e-05   -5.488332789885166e-06   -1.1002852708267901e-05
2.9506076683070794e-05   -5.856190303945175e-06   6.590559063256277e-06
2.9506076683070794e-05   -5.856190303945175e-06   6.590559063256277e-06
2.9506076683070794e-05   -5.856190303945175e-06   6.590559063256277e-06
2.9506076683070794e-05   -5.856190303945175e-06   6.590559063256277e-06
3.99296950409238e-05   -6.97731676598326e-06   2.235295585639415e-05
3.99296950409238e-05   -6.97731676598326e-06   2.235295585639415e-05
3.99296950409238e-05   -6.97731676598326e-06   2.235295585639415e-05
3.99296950409238e-05   -6.97731676598326e-06   2.235295585639415e-05
1.9916209902126574e-05   -5.488332789885166e-06   -1.010946232260924e-05
1.9916209902126574e-05   -5.488332789885166e-06   -1.010946232260924e-05
1.9916209902126574e-05   -5.488332789885166e-06   -1.010946232260924e-05
1.9916209902126574e-05   -5.488332789885166e-06   -1.010946232260924e-05
1.9165843967176876e-05   -6.82740334124847e-06   1.9295044772697605e-05
1.9165843967176876e-05   -6.82740334124847e-06   1.9295044772697605e-05
1.9165843967176876e-05   -6.82740334124847e-06   1.9295044772697605e-05
1.9165843967176876e-05   -6.82740334124847e-06   1.9295044772697605e-05
3.867654257491374e-05   -5.449728460631695e-06   -1.4049391168567122e-05
3.867654257491374e-05   -5.449728460631695e-06   -1.4049391168567122e-05
3.867654257491374e-05   -5.449728460631695e-06   -1.4049391168567122e-05
3.867654257491374e-05   -5.449728460631695e-06   -1.4049391168567122e-05
2.8198118862677452e-05   -5.701589730659805e-06   3.565765113843942e-06
2.8198118862677452e-05   -5.701589730659805e-06   3.565765113843942e-06
2.8198118862677452e-05   -5.701589730659805e-06   3.565765113843942e-06
2.8198118862677452e-05   -5.701589730659805e-06   3.565765113843942e-06
2.1185959148960283e-05   -3.8750672803999735e-06   2.8045655948988248e-05
2.1185959148960283e-05   -3.8750672803999735e-06   2.8045655948988248e-05
2.1185959148960283e-05   -3.8750672803999735e-06   2.8045655948988248e-05
2.1185959148960283e-05   -3.8750672803999735e-06   2.8045655948988248e-05
2.2861235062354696e-06   -1.6760267722867959e-06   -2.134645817351735e-06
2.2861235062354696e-06   -1.6760267722867959e-06   -2.134645817351735e-06
2.2861235062354696e-06   -1.6760267722867959e-06   -2.134645817351735e-06
2.2861235062354696e-06   -1.6760267722867959e-06   -2.134645817351735e-06
1.734503359405678e-06   -4.10872117624487e-06   2.920912867621149e-05
1.734503359405678e-06   -4.10872117624487e-06   2.920912867621149e-05
1.734503359405678e-06   -4.10872117624487e-06   2.920912867621149e-05
1.734503359405678e-06   -4.10872117624487e-06   2.920912867621149e-05
2.0631098671734296e-05   -2.0146416287824924e-06   -3.5416445728138373e-06
2.0631098671734296e-05   -2.0146416287824924e-06   -3.5416445728138373e-06
2.0631098671734296e-05   -2.0146416287824924e-06   -3.5416445728138373e-06
2.0631098671734296e-05   -2.0146416287824924e-06   -3.5416445728138373e-06
1.1349390409752191e-05   -2.7144423877733474e-06   1.2347749652550833e-05
1.1349390409752191e-05   -2.7144423877733474e-06   1.2347749652550833e-05
1.1349390409752191e-05   -2.7144423877733474e-06   1.2347749652550833e-05
1.1349390409752191e-05   -2.7144423877733474e-06   1.2347749652550833e-05
2.0631098671734276e-05   -4.10872117624487e-06   2.795268094773389e-05
2.0631098671734276e-05   -4.10872117624487e-06   2.795268094773389e-05
2.0631098671734276e-05   -4.10872117624487e-06   2.795268094773389e-05
2.0631098671734276e-05   -4.10872117624487e-06   2.795268094773389e-05
1.734503359405678e-06   -2.0146416287824924e-06   -2.285196844336386e-06
1.734503359405678e-06   -2.0146416287824924e-06   -2.285196844336386e-06
1.734503359405678e-06   -2.0146416287824924e-06   -2.285196844336386e-06
1.734503359405678e-06   -2.0146416287824924e-06   -2.285196844336386e-06
1.0308053755476467e-06   -4.2109127114662356e-06   2.892797287908696e-05
1.0308053755476467e-06   -4.2109127114662356e-06   2.892797287908696e-05
1.0308053755476467e-06   -4.2109127114662356e-06   2.892797287908696e-05
1.0308053755476467e-06   -4.2109127114662356e-06   2.892797287908696e-05
1.9916209902126574e-05   -2.2355002593926754e-06   -3.732948803122533e-06
1.9916209902126574e-05   -2.2355002593926754e-06   -3.732948803122533e-06
1.9916209902126574e-05   -2.2355002593926754e-06   -3.732948803122533e-06
1.9916209902126574e-05   -2.2355002593926754e-06   -3.732948803122533e-06
1.0649121484912668e-05   -2.8419888379272937e-06   1.2076091706021938e-05
1.0649121484912668e-05   -2.8419888379272937e-06   1.2076091706021938e-05
1.0649121484912668e-05   -2.8419888379272937e-06   1.2076091706021938e-05
1.0649121484912668e-05   -2.8419888379272937e-06   1.2076091706021938e-05
1.991620990212654e-05   -4.2109127114662356e-06   2.7742725407842606e-05
1.991620990212654e-05   -4.2109127114662356e-06   2.7742725407842606e-05
1.991620990212654e-05   -4.2109127114662356e-06   2.7742725407842606e-05
1.991620990212654e-05   -4.2109127114662356e-06   2.7742725407842606e-05
1.0308053755476467e-06   -2.2355002593926754e-06   -2.5477013318781936e-06
1.0308053755476467e-06   -2.2355002593926754e-06   -2.5477013318781936e-06
1.0308053755476467e-06   -2.2355002593926754e-06   -2.5477013318781936e-06
1.0308053755476467e-06   -2.2355002593926754e-06   -2.5477013318781936e-06
2.534919669122486e-07   -4.112924147845615e-06   2.9346704254543544e-05
2.534919669122486e-07   -4.112924147845615e-06   2.9346704254543544e-05
2.534919669122486e-07   -4.112924147845615e-06   2.9346704254543544e-05
2.534919669122486e-07   -4.112924147845615e-06   2.9346704254543544e-05
1.9165843967176856e-05   -2.3283923983384407e-06   -3.244601462268443e-06
1.9165843967176856e-05   -2.3283923983384407e-06   -3.244601462268443e-06
1.9165843967176856e-05   -2.3283923983384407e-06   -3.244601462268443e-06
1.9165843967176856e-05   -2.3283923983384407e-06   -3.244601462268443e-06
1.0080568673052172e-05   -2.813374219995217e-06   1.2188513120934047e-05
1.0080568673052172e-05   -2.813374219995217e-06   1.2188513120934047e-05
1.0080568673052172e-05   -2.813374219995217e-06   1.2188513120934047e-05
1.0080568673052172e-05   -2.813374219995217e-06   1.2188513120934047e-05
2.2861235062354696e-06   -1.6000108786179239e-06   2.8663907153426548e-05
2.2861235062354696e-06   -1.6000108786179239e-06   2.8663907153426548e-05
2.2861235062354696e-06   -1.6000108786179239e-06   2.8663907153426548e-05
2.2861235062354696e-06   -1.6000108786179239e-06   2.8663907153426548e-05
-1.6027218439338274e-05   1.4999386376635462e-06   1.6402872394767967e-09
-1.6027218439338274e-05   1.4999386376635462e-06   1.6402872394767967e-09
-1.6027218439338274e-05   1.4999386376635462e-06   1.6402872394767967e-09
-1.6027218439338274e-05   1.4999386376635462e-06   1.6402872394767967e-09
-1.664891409555265e-05   -1.6885880961411363e-06   3.073767350541363e-05
-1.664891409555265e-05   -1.6885880961411363e-06   3.073767350541363e-05
-1.664891409555265e-05   -1.6885880961411363e-06   3.073767350541363e-05
-1.664891409555265e-05   -1.6885880961411363e-06   3.073767350541363e-05
1.734503359405678e-06   1.2423618678627547e-06   -1.6599255645858223e-06
1.734503359405678e-06   1.2423618678627547e-06   -1.6599255645858223e-06
1.734503359405678e-06   1.2423618678627547e-06   -1.6599255645858223e-06
1.734503359405678e-06   1.2423618678627547e-06   -1.6599255645858223e-06
-7.150891753720506e-06   -8.929188850988201e-10   1.3895019162673118e-05
-7.150891753720506e-06   -8.929188850988201e-10   1.3895019162673118e-05
-7.150891753720506e-06   -8.929188850988201e-10   1.3895019162673118e-05
-7.150891753720506e-06   -8.929188850988201e-10   1.3895019162673118e-05
1.7345033594056916e-06   -1.6885880961411363e-06   2.897910352701134e-05
1.7345033594056916e-06   -1.6885880961411363e-06   2.897910352701134e-05
1.7345033594056916e-06   -1.6885880961411363e-06   2.897910352701134e-05
1.7345033594056916e-06   -1.6885880961411363e-06   2.897910352701134e-05
-1.664891409555265e-05   1.2423618678627547e-06   9.864441381638757e-08
-1.664891409555265e-05   1.2423618678627547e-06   9.864441381638757e-08
-1.664891409555265e-05   1.2423618678627547e-06   9.864441381638757e-08
-1.664891409555265e-05   1.2423618678627547e-06   9.864441381638757e-08
-1.7481337260481292e-05   -1.7975394372914903e-06   3.1349345785540786e-05
-1.7481337260481292e-05   -1.7975394372914903e-06   3.1349345785540786e-05
-1.7481337260481292e-05   -1.7975394372914903e-06   3.1349345785540786e-05
-1.7481337260481292e-05   -1.7975394372914903e-06   3.1349345785540786e-05
1.0308053755476467e-06   1.0026003621351701e-06   -1.184309154163472e-06
1.0308053755476467e-06   1.0026003621351701e-06   -1.184309154163472e-06
1.0308053755476467e-06   1.0026003621351701e-06   -1.184309154163472e-06
1.0308053755476467e-06   1.0026003621351701e-06   -1.184309154163472e-06
-7.763853236466757e-06   -7.220553480580434e-08   1.4118338737358505e-05
-7.763853236466757e-06   -7.220553480580434e-08   1.4118338737358505e-05
-7.763853236466757e-06   -7.220553480580434e-08   1.4118338737358505e-05
-7.763853236466757e-06   -7.220553480580434e-08   1.4118338737358505e-05
1.0308053755476467e-06   -1.7975394372914903e-06   2.9669261905884855e-05
1.0308053755476467e-06   -1.7975394372914903e-06   2.9669261905884855e-05
1.0308053755476467e-06   -1.7975394372914903e-06   2.9669261905884855e-05
1.0308053755476467e-06   -1.7975394372914903e-06   2.9669261905884855e-05
-1.7481337260481292e-05   1.0026003621351701e-06   4.957747254925133e-07
-1.7481337260481292e-05   1.0026003621351701e-06   4.957747254925133e-07
-1.7481337260481292e-05   1.0026003621351701e-06   4.957747254925133e-07
-1.7481337260481292e-05   1.0026003621351701e-06   4.957747254925133e-07
-1.8368197377943753e-05   -1.7844934274875712e-06   3.20829884155752e-05
-1.8368197377943753e-05   -1.7844934274875712e-06   3.20829884155752e-05
-1.8368197377943753e-05   -1.7844934274875712e-06   3.20829884155752e-05
-1.8368197377943753e-05   -1.7844934274875712e-06   3.20829884155752e-05
2.534919669122622e-07   8.302973077938935e-07   -5.220349336870799e-07
2.534919669122622e-07   8.302973077938935e-07   -5.220349336870799e-07
2.534919669122622e-07   8.302973077938935e-07   -5.220349336870799e-07
2.534919669122622e-07   8.302973077938935e-07   -5.220349336870799e-07
-8.545142054745923e-06   -1.2278308112487028e-07   1.4714203335761648e-05
-8.545142054745923e-06   -1.2278308112487028e-07   1.4714203335761648e-05
-8.545142054745923e-06   -1.2278308112487028e-07   1.4714203335761648e-05
-8.545142054745923e-06   -1.2278308112487028e-07   1.4714203335761648e-05
-1.602721843933822e-05   1.8048004548438992e-06   2.5922121029824238e-05
-1.602721843933822e-05   1.8048004548438992e-06   2.5922121029824238e-05
-1.602721843933822e-05   1.8048004548438992e-06   2.5922121029824238e-05
-1.602721843933822e-05   1.8048004548438992e-06   2.5922121029824238e-05
-3.398044713669263e-05   4.872769751228419e-06   -2.1591452212690963e-06
-3.398044713669263e-05   4.872769751228419e-06   -2.1591452212690963e-06
-3.398044713669263e-05   4.872769751228419e-06   -2.1591452212690963e-06
-3.398044713669263e-05   4.872769751228419e-06   -2.1591452212690963e-06
-3.4883657271317625e-05   1.7046934945937238e-06   2.8677498384310773e-05
-3.4883657271317625e-05   1.7046934945937238e-06   2.8677498384310773e-05
-3.4883657271317625e-05   1.7046934945937238e-06   2.8677498384310773e-05
-3.4883657271317625e-05   1.7046934945937238e-06   2.8677498384310773e-05
-1.6648914095552622e-05   4.615431237282993e-06   -3.460182887577394e-06
-1.6648914095552622e-05   4.615431237282993e-06   -3.460182887577394e-06
-1.6648914095552622e-05   4.615431237282993e-06   -3.460182887577394e-06
-1.6648914095552622e-05   4.615431237282993e-06   -3.460182887577394e-06
-2.5186392894393302e-05   3.303547656417251e-06   1.155607859234316e-05
-2.5186392894393302e-05   3.303547656417251e-06   1.155607859234316e-05
-2.5186392894393302e-05   3.303547656417251e-06   1.155607859234316e-05
-2.5186392894393302e-05   3.303547656417251e-06   1.155607859234316e-05
-1.664891409555265e-05   1.7046934945937238e-06   2.6931055738697407e-05
-1.664891409555265e-05   1.7046934945937238e-06   2.6931055738697407e-05
-1.664891409555265e-05   1.7046934945937238e-06   2.6931055738697407e-05
-1.664891409555265e-05   1.7046934945937238e-06   2.6931055738697407e-05
-3.488365727131757e-05   4.6154312372827765e-06   -1.7137402419641632e-06
-3.488365727131757e-05   4.6154312372827765e-06   -1.7137402419641632e-06
-3.488365727131757e-05   4.6154312372827765e-06   -1.7137402419641632e-06
-3.488365727131757e-05   4.6154312372827765e-06   -1.7137402419641632e-06
-3.599131721200668e-05   1.5148542361913177e-06   3.043631534412343e-05
-3.599131721200668e-05   1.5148542361913177e-06   3.043631534412343e-05
-3.599131721200668e-05   1.5148542361913177e-06   3.043631534412343e-05
-3.599131721200668e-05   1.5148542361913177e-06   3.043631534412343e-05
-1.7481337260481292e-05   4.376618208585181e-06   -2.1307096251885075e-06
-1.7481337260481292e-05   4.376618208585181e-06   -2.1307096251885075e-06
-1.7481337260481292e-05   4.376618208585181e-06   -2.1307096251885075e-06
-1.7481337260481292e-05   4.376618208585181e-06   -2.1307096251885075e-06
-2.5857593257149867e-05   3.2460391014980158e-06   1.2508064500177954e-05
-2.5857593257149867e-05   3.2460391014980158e-06   1.2508064500177954e-05
-2.5857593257149867e-05   3.2460391014980158e-06   1.2508064500177954e-05
-2.5857593257149867e-05   3.2460391014980158e-06   1.2508064500177954e-05
-1.748133726048128e-05   1.5148542361913177e-06   2.8719256960686853e-05
-1.748133726048128e-05   1.5148542361913177e-06   2.8719256960686853e-05
-1.748133726048128e-05   1.5148542361913177e-06   2.8719256960686853e-05
-1.748133726048128e-05   1.5148542361913177e-06   2.8719256960686853e-05
-3.599131721200662e-05   4.376618208585181e-06   -4.136512417521462e-07
-3.599131721200662e-05   4.376618208585181e-06   -4.136512417521462e-07
-3.599131721200662e-05   4.376618208585181e-06   -4.136512417521462e-07
-3.599131721200662e-05   4.376618208585181e-06   -4.136512417521462e-07
-3.7162446141069245e-05   1.2992248661727358e-06   3.183042008428382e-05
-3.7162446141069245e-05   1.2992248661727358e-06   3.183042008428382e-05
-3.7162446141069245e-05   1.2992248661727358e-06   3.183042008428382e-05
-3.7162446141069245e-05   1.2992248661727358e-06   3.183042008428382e-05
-1.8368197377943712e-05   4.054651241827689e-06   -1.1465836796515326e-06
-1.8368197377943712e-05   4.054651241827689e-06   -1.1465836796515326e-06
-1.8368197377943712e-05   4.054651241827689e-06   -1.1465836796515326e-06
-1.8368197377943712e-05   4.054651241827689e-06   -1.1465836796515326e-06
-2.698105835387227e-05   3.0529161905608337e-06   1.3809225644323636e-05
-2.698105835387227e-05   3.0529161905608337e-06   1.3809225644323636e-05
-2.698105835387227e-05   3.0529161905608337e-06   1.3809225644323636e-05
-2.698105835387227e-05   3.0529161905608337e-06   1.3809225644323636e-05
-3.398044713669263e-05   8.031716468453283e-06   1.3643998654273349e-05
-3.398044713669263e-05   8.031716468453283e-06   1.3643998654273349e-05
-3.398044713669263e-05   8.031716468453283e-06   1.3643998654273349e-05
-3.398044713669263e-05   8.031716468453283e-06   1.3643998654273349e-05
-5.118945319809948e-05   7.924741303709905e-06   -1.510186321358384e-05
-5.118945319809948e-05   7.924741303709905e-06   -1.510186321358384e-05
-5.118945319809948e-05   7.924741303709905e-06   -1.510186321358384e-05
-5.118945319809948e-05   7.924741303709905e-06   -1.510186321358384e-05
-5.281211023601272e-05   7.761304331888475e-06   2.0251530611386202e-05
-5.281211023601272e-05   7.761304331888475e-06   2.0251530611386202e-05
-5.281211023601272e-05   7.761304331888475e-06   2.0251530611386202e-05
-5.281211023601272e-05   7.761304331888475e-06   2.0251530611386202e-05
-3.488365727131757e-05   8.080875630894335e-06   -9.820967109176092e-06
-3.488365727131757e-05   8.080875630894335e-06   -9.820967109176092e-06
-3.488365727131757e-05   8.080875630894335e-06   -9.820967109176092e-06
-3.488365727131757e-05   8.080875630894335e-06   -9.820967109176092e-06
-4.1476875705102136e-05   8.071112083179663e-06   1.1735884090936766e-06
-4.1476875705102136e-05   8.071112083179663e-06   1.1735884090936766e-06
-4.1476875705102136e-05   8.071112083179663e-06   1.1735884090936766e-06
-4.1476875705102136e-05   8.071112083179663e-06   1.1735884090936766e-06
-3.488365727131754e-05   7.761304331888692e-06   2.005978783198271e-05
-3.488365727131754e-05   7.761304331888692e-06   2.005978783198271e-05
-3.488365727131754e-05   7.761304331888692e-06   2.005978783198271e-05
-3.488365727131754e-05   7.761304331888692e-06   2.005978783198271e-05
-5.281211023601272e-05   8.080875630894335e-06   -9.629224329772462e-06
-5.281211023601272e-05   8.080875630894335e-06   -9.629224329772462e-06
-5.281211023601272e-05   8.080875630894335e-06   -9.629224329772462e-06
-5.281211023601272e-05   8.080875630894335e-06   -9.629224329772462e-06
-5.440327731627747e-05   7.565761758743933e-06   2.4881756088701882e-05
-5.440327731627747e-05   7.565761758743933e-06   2.4881756088701882e-05
-5.440327731627747e-05   7.565761758743933e-06   2.4881756088701882e-05
-5.440327731627747e-05   7.565761758743933e-06   2.4881756088701882e-05
-3.599131721200662e-05   8.024008501548345e-06   -6.079792130765448e-06
-3.599131721200662e-05   8.024008501548345e-06   -6.079792130765448e-06
-3.599131721200662e-05   8.024008501548345e-06   -6.079792130765448e-06
-3.599131721200662e-05   8.024008501548345e-06   -6.079792130765448e-06
-4.3344483921800456e-05   8.073552781479379e-06   6.145759150932753e-06
-4.3344483921800456e-05   8.073552781479379e-06   6.145759150932753e-06
-4.3344483921800456e-05   8.073552781479379e-06   6.145759150932753e-06
-4.3344483921800456e-05   8.073552781479379e-06   6.145759150932753e-06
-3.599131721200662e-05   7.565761758743933e-06   2.4606808043019473e-05
-3.599131721200662e-05   7.565761758743933e-06   2.4606808043019473e-05
-3.599131721200662e-05   7.565761758743933e-06   2.4606808043019473e-05
-3.599131721200662e-05   7.565761758743933e-06   2.4606808043019473e-05
-5.4403277316277554e-05   8.024008501548345e-06   -5.80484408508285e-06
-5.4403277316277554e-05   8.024008501548345e-06   -5.80484408508285e-06
-5.4403277316277554e-05   8.024008501548345e-06   -5.80484408508285e-06
-5.4403277316277554e-05   8.024008501548345e-06   -5.80484408508285e-06
-5.628051594186563e-05   6.315265971261735e-06   3.261653425072684e-05
-5.628051594186563e-05   6.315265971261735e-06   3.261653425072684e-05
-5.628051594186563e-05   6.315265971261735e-06   3.261653425072684e-05
-5.628051594186563e-05   6.315265971261735e-06   3.261653425072684e-05
-3.716244614106918e-05   7.390755200913221e-06   1.0779104494146883e-07
-3.716244614106918e-05   7.390755200913221e-06   1.0779104494146883e-07
-3.716244614106918e-05   7.390755200913221e-06   1.0779104494146883e-07
-3.716244614106918e-05   7.390755200913221e-06   1.0779104494146883e-07
-4.400398485110645e-05   7.693253133010452e-06   1.1328856802412531e-05
-4.400398485110645e-05   7.693253133010452e-06   1.1328856802412531e-05
-4.400398485110645e-05   7.693253133010452e-06   1.1328856802412531e-05
-4.400398485110645e-05   7.693253133010452e-06   1.1328856802412531e-05
3.407721947406187e-05   -4.7635768898582256e-06   2.6230385688731303e-05
3.407721947406187e-05   -4.7635768898582256e-06   2.6230385688731303e-05
3.407721947406187e-05   -4.7635768898582256e-06   2.6230385688731303e-05
3.407721947406187e-05   -4.7635768898582256e-06   2.6230385688731303e-05
1.685911451476173e-05   -3.5030811019619214e-06   -1.7101584373646096e-06
1.685911451476173e-05   -3.5030811019619214e-06   -1.7101584373646096e-06
1.685911451476173e-05   -3.5030811019619214e-06   -1.7101584373646096e-06
1.685911451476173e-05   -3.5030811019619214e-06   -1.7101584373646096e-06
1.6219732310454493e-05   -5.3953076016902655e-06   2.2800078475548988e-05
1.6219732310454493e-05   -5.3953076016902655e-06   2.2800078475548988e-05
1.6219732310454493e-05   -5.3953076016902655e-06   2.2800078475548988e-05
1.6219732310454493e-05   -5.3953076016902655e-06   2.2800078475548988e-05
3.290191044542795e-05   -4.061277867085326e-06   -5.803969590169812e-06
3.290191044542795e-05   -4.061277867085326e-06   -5.803969590169812e-06
3.290191044542795e-05   -4.061277867085326e-06   -5.803969590169812e-06
3.290191044542795e-05   -4.061277867085326e-06   -5.803969590169812e-06
2.3869468032661074e-05   -4.3852319801009065e-06   9.444473565584262e-06
2.3869468032661074e-05   -4.3852319801009065e-06   9.444473565584262e-06
2.3869468032661074e-05   -4.3852319801009065e-06   9.444473565584262e-06
2.3869468032661074e-05   -4.3852319801009065e-06   9.444473565584262e-06
3.2901910445427886e-05   -5.3953076016902655e-06   2.1999660634785785e-05
3.2901910445427886e-05   -5.3953076016902655e-06   2.1999660634785785e-05
3.2901910445427886e-05   -5.3953076016902655e-06   2.1999660634785785e-05
3.2901910445427886e-05   -5.3953076016902655e-06   2.1999660634785785e-05
1.6219732310454547e-05   -4.061277867085326e-06   -5.003551749406749e-06
1.6219732310454547e-05   -4.061277867085326e-06   -5.003551749406749e-06
1.6219732310454547e-05   -4.061277867085326e-06   -5.003551749406749e-06
1.6219732310454547e-05   -4.061277867085326e-06   -5.003551749406749e-06
1.550890267719747e-05   -5.488332789885383e-06   2.042658278147893e-05
1.550890267719747e-05   -5.488332789885383e-06   2.042658278147893e-05
1.550890267719747e-05   -5.488332789885383e-06   2.042658278147893e-05
1.550890267719747e-05   -5.488332789885383e-06   2.042658278147893e-05
3.1836892219526286e-05   -4.172827452931897e-06   -7.576036324574391e-06
3.1836892219526286e-05   -4.172827452931897e-06   -7.576036324574391e-06
3.1836892219526286e-05   -4.172827452931897e-06   -7.576036324574391e-06
3.1836892219526286e-05   -4.172827452931897e-06   -7.576036324574391e-06
2.3431086388054475e-05   -4.601829036715273e-06   6.691041011481904e-06
2.3431086388054475e-05   -4.601829036715273e-06   6.691041011481904e-06
2.3431086388054475e-05   -4.601829036715273e-06   6.691041011481904e-06
2.3431086388054475e-05   -4.601829036715273e-06   6.691041011481904e-06
3.183689221952617e-05   -5.488332789885166e-06   1.9637279579306837e-05
3.183689221952617e-05   -5.488332789885166e-06   1.9637279579306837e-05
3.183689221952617e-05   -5.488332789885166e-06   1.9637279579306837e-05
3.183689221952617e-05   -5.488332789885166e-06   1.9637279579306837e-05
1.5508902677197497e-05   -4.172827452931897e-06   -6.786733122402249e-06
1.5508902677197497e-05   -4.172827452931897e-06   -6.786733122402249e-06
1.5508902677197497e-05   -4.172827452931897e-06   -6.786733122402249e-06
1.5508902677197497e-05   -4.172827452931897e-06   -6.786733122402249e-06
1.4824896086433827e-05   -5.449728460631695e-06   1.7111857806013714e-05
1.4824896086433827e-05   -5.449728460631695e-06   1.7111857806013714e-05
1.4824896086433827e-05   -5.449728460631695e-06   1.7111857806013714e-05
1.4824896086433827e-05   -5.449728460631695e-06   1.7111857806013714e-05
3.062997385442895e-05   -4.214912567492924e-06   -9.970828009861398e-06
3.062997385442895e-05   -4.214912567492924e-06   -9.970828009861398e-06
3.062997385442895e-05   -4.214912567492924e-06   -9.970828009861398e-06
3.062997385442895e-05   -4.214912567492924e-06   -9.970828009861398e-06
2.2232636777137306e-05   -4.522833836772275e-06   4.209486547192726e-06
2.2232636777137306e-05   -4.522833836772275e-06   4.209486547192726e-06
2.2232636777137306e-05   -4.522833836772275e-06   4.209486547192726e-06
2.2232636777137306e-05   -4.522833836772275e-06   4.209486547192726e-06
1.685911451476173e-05   -1.676026772286579e-06   2.7470289321725248e-05
1.685911451476173e-05   -1.676026772286579e-06   2.7470289321725248e-05
1.685911451476173e-05   -1.676026772286579e-06   2.7470289321725248e-05
1.685911451476173e-05   -1.676026772286579e-06   2.7470289321725248e-05
6.967102972974145e-07   -6.712170489199011e-07   1.1358347933047765e-06
6.967102972974145e-07   -6.712170489199011e-07   1.1358347933047765e-06
6.967102972974145e-07   -6.712170489199011e-07   1.1358347933047765e-06
6.967102972974145e-07   -6.712170489199011e-07   1.1358347933047765e-06
8.254798075670836e-08   -2.0146416287824924e-06   2.775199594440606e-05
8.254798075670836e-08   -2.0146416287824924e-06   2.775199594440606e-05
8.254798075670836e-08   -2.0146416287824924e-06   2.775199594440606e-05
8.254798075670836e-08   -2.0146416287824924e-06   2.775199594440606e-05
1.6219732310454547e-05   -1.0662737831390427e-06   2.8766802085691216e-07
1.6219732310454547e-05   -1.0662737831390427e-06   2.8766802085691216e-07
1.6219732310454547e-05   -1.0662737831390427e-06   2.8766802085691216e-07
1.6219732310454547e-05   -1.0662737831390427e-06   2.8766802085691216e-07
8.361610568526534e-06   -1.3071879059877323e-06   1.3529086064446069e-05
8.361610568526534e-06   -1.3071879059877323e-06   1.3529086064446069e-05
8.361610568526534e-06   -1.3071879059877323e-06   1.3529086064446069e-05
8.361610568526534e-06   -1.3071879059877323e-06   1.3529086064446069e-05
1.6219732310454534e-05   -2.0146416287824924e-06   2.7182975237019882e-05
1.6219732310454534e-05   -2.0146416287824924e-06   2.7182975237019882e-05
1.6219732310454534e-05   -2.0146416287824924e-06   2.7182975237019882e-05
1.6219732310454534e-05   -2.0146416287824924e-06   2.7182975237019882e-05
8.254798075670836e-08   -1.0662737831390427e-06   8.56688728242982e-07
8.254798075670836e-08   -1.0662737831390427e-06   8.56688728242982e-07
8.254798075670836e-08   -1.0662737831390427e-06   8.56688728242982e-07
8.254798075670836e-08   -1.0662737831390427e-06   8.56688728242982e-07
-5.558623810849564e-07   -2.2355002593926754e-06   2.7329124318429448e-05
-5.558623810849564e-07   -2.2355002593926754e-06   2.7329124318429448e-05
-5.558623810849564e-07   -2.2355002593926754e-06   2.7329124318429448e-05
-5.558623810849564e-07   -2.2355002593926754e-06   2.7329124318429448e-05
1.5508902677197497e-05   -1.3587868969528946e-06   2.8487870495020522e-08
1.5508902677197497e-05   -1.3587868969528946e-06   2.8487870495020522e-08
1.5508902677197497e-05   -1.3587868969528946e-06   2.8487870495020522e-08
1.5508902677197497e-05   -1.3587868969528946e-06   2.8487870495020522e-08
7.655699818831327e-06   -1.5137379710977207e-06   1.321012994559243e-05
7.655699818831327e-06   -1.5137379710977207e-06   1.321012994559243e-05
7.655699818831327e-06   -1.5137379710977207e-06   1.321012994559243e-05
7.655699818831327e-06   -1.5137379710977207e-06   1.321012994559243e-05
1.550890267719747e-05   -2.2355002593926754e-06   2.680309630096584e-05
1.550890267719747e-05   -2.2355002593926754e-06   2.680309630096584e-05
1.550890267719747e-05   -2.2355002593926754e-06   2.680309630096584e-05
1.550890267719747e-05   -2.2355002593926754e-06   2.680309630096584e-05
-5.558623810849564e-07   -1.3587868969531115e-06   5.545158879587033e-07
-5.558623810849564e-07   -1.3587868969531115e-06   5.545158879587033e-07
-5.558623810849564e-07   -1.3587868969531115e-06   5.545158879587033e-07
-5.558623810849564e-07   -1.3587868969531115e-06   5.545158879587033e-07
-1.2205028140849022e-06   -2.3283923983384407e-06   2.753404450130917e-05
-1.2205028140849022e-06   -2.3283923983384407e-06   2.753404450130917e-05
-1.2205028140849022e-06   -2.3283923983384407e-06   2.753404450130917e-05
-1.2205028140849022e-06   -2.3283923983384407e-06   2.753404450130917e-05
1.4824896086433868e-05   -1.5883892027274051e-06   3.477110830780081e-07
1.4824896086433868e-05   -1.5883892027274051e-06   3.477110830780081e-07
1.4824896086433868e-05   -1.5883892027274051e-06   3.477110830780081e-07
1.4824896086433868e-05   -1.5883892027274051e-06   3.477110830780081e-07
7.126443933246171e-06   -1.6235006110505192e-06   1.3199531516718503e-05
7.126443933246171e-06   -1.6235006110505192e-06   1.3199531516718503e-05
7.126443933246171e-06   -1.6235006110505192e-06   1.3199531516718503e-05
7.126443933246171e-06   -1.6235006110505192e-06   1.3199531516718503e-05
6.967102972974145e-07   1.4999386376635462e-06   2.8349491550567606e-05
6.967102972974145e-07   1.4999386376635462e-06   2.8349491550567606e-05
6.967102972974145e-07   1.4999386376635462e-06   2.8349491550567606e-05
6.967102972974145e-07   1.4999386376635462e-06   2.8349491550567606e-05
-1.4996213809330663e-05   2.16950686836412e-06   2.596358977941123e-06
-1.4996213809330663e-05   2.16950686836412e-06   2.596358977941123e-06
-1.4996213809330663e-05   2.16950686836412e-06   2.596358977941123e-06
-1.4996213809330663e-05   2.16950686836412e-06   2.596358977941123e-06
-1.5638137718678518e-05   1.2423618678627547e-06   2.8736973453684757e-05
-1.5638137718678518e-05   1.2423618678627547e-06   2.8736973453684757e-05
-1.5638137718678518e-05   1.2423618678627547e-06   2.8736973453684757e-05
-1.5638137718678518e-05   1.2423618678627547e-06   2.8736973453684757e-05
8.254798075670836e-08   1.841872250409743e-06   2.1761243917644408e-06
8.254798075670836e-08   1.841872250409743e-06   2.1761243917644408e-06
8.254798075670836e-08   1.841872250409743e-06   2.1761243917644408e-06
8.254798075670836e-08   1.841872250409743e-06   2.1761243917644408e-06
-7.475247924444773e-06   1.706646876900109e-06   1.485358612453934e-05
-7.475247924444773e-06   1.706646876900109e-06   1.485358612453934e-05
-7.475247924444773e-06   1.706646876900109e-06   1.485358612453934e-05
-7.475247924444773e-06   1.706646876900109e-06   1.485358612453934e-05
8.254798075670836e-08   1.2423618678627547e-06   2.8377267224156543e-05
8.254798075670836e-08   1.2423618678627547e-06   2.8377267224156543e-05
8.254798075670836e-08   1.2423618678627547e-06   2.8377267224156543e-05
8.254798075670836e-08   1.2423618678627547e-06   2.8377267224156543e-05
-1.5638137718678518e-05   1.841872250409743e-06   2.5358306212928993e-06
-1.5638137718678518e-05   1.841872250409743e-06   2.5358306212928993e-06
-1.5638137718678518e-05   1.841872250409743e-06   2.5358306212928993e-06
-1.5638137718678518e-05   1.841872250409743e-06   2.5358306212928993e-06
-1.6315699426018427e-05   1.0026003621351701e-06   2.9005229767344607e-05
-1.6315699426018427e-05   1.0026003621351701e-06   2.9005229767344607e-05
-1.6315699426018427e-05   1.0026003621351701e-06   2.9005229767344607e-05
-1.6315699426018427e-05   1.0026003621351701e-06   2.9005229767344607e-05
-5.558623810849564e-07   1.5237891474696123e-06   2.426121421255002e-06
-5.558623810849564e-07   1.5237891474696123e-06   2.426121421255002e-06
-5.558623810849564e-07   1.5237891474696123e-06   2.426121421255002e-06
-5.558623810849564e-07   1.5237891474696123e-06   2.426121421255002e-06
-8.071374599095115e-06   1.5202245578342134e-06   1.4954113871719799e-05
-8.071374599095115e-06   1.5202245578342134e-06   1.4954113871719799e-05
-8.071374599095115e-06   1.5202245578342134e-06   1.4954113871719799e-05
-8.071374599095115e-06   1.5202245578342134e-06   1.4954113871719799e-05
-5.558623810849564e-07   1.0026003621351701e-06   2.8692516496144115e-05
-5.558623810849564e-07   1.0026003621351701e-06   2.8692516496144115e-05
-5.558623810849564e-07   1.0026003621351701e-06   2.8692516496144115e-05
-5.558623810849564e-07   1.0026003621351701e-06   2.8692516496144115e-05
-1.6315699426018427e-05   1.5237891474696123e-06   2.7388346924555208e-06
-1.6315699426018427e-05   1.5237891474696123e-06   2.7388346924555208e-06
-1.6315699426018427e-05   1.5237891474696123e-06   2.7388346924555208e-06
-1.6315699426018427e-05   1.5237891474696123e-06   2.7388346924555208e-06
-1.701471897205882e-05   8.302973077941103e-07   2.9432149475670365e-05
-1.701471897205882e-05   8.302973077941103e-07   2.9432149475670365e-05
-1.701471897205882e-05   8.302973077941103e-07   2.9432149475670365e-05
-1.701471897205882e-05   8.302973077941103e-07   2.9432149475670365e-05
-1.2205028140849022e-06   1.2407264669343603e-06   2.862198383562982e-06
-1.2205028140849022e-06   1.2407264669343603e-06   2.862198383562982e-06
-1.2205028140849022e-06   1.2407264669343603e-06   2.862198383562982e-06
-1.2205028140849022e-06   1.2407264669343603e-06   2.862198383562982e-06
-8.716510084533296e-06   1.341752451130239e-06   1.5294928243793414e-05
-8.716510084533296e-06   1.341752451130239e-06   1.5294928243793414e-05
-8.716510084533296e-06   1.341752451130239e-06   1.5294928243793414e-05
-8.716510084533296e-06   1.341752451130239e-06   1.5294928243793414e-05
-1.4996213809330717e-05   4.872769751228636e-06   2.4749665402648904e-05
-1.4996213809330717e-05   4.872769751228636e-06   2.4749665402648904e-05
-1.4996213809330717e-05   4.872769751228636e-06   2.4749665402648904e-05
-1.4996213809330717e-05   4.872769751228636e-06   2.4749665402648904e-05
-3.0206128134186247e-05   4.934706635020304e-06   -5.630296751685466e-07
-3.0206128134186247e-05   4.934706635020304e-06   -5.630296751685466e-07
-3.0206128134186247e-05   4.934706635020304e-06   -5.630296751685466e-07
-3.0206128134186247e-05   4.934706635020304e-06   -5.630296751685466e-07
-3.095121481127845e-05   4.6154312372827765e-06   2.5182577575113933e-05
-3.095121481127845e-05   4.6154312372827765e-06   2.5182577575113933e-05
-3.095121481127845e-05   4.6154312372827765e-06   2.5182577575113933e-05
-3.095121481127845e-05   4.6154312372827765e-06   2.5182577575113933e-05
-1.5638137718678545e-05   4.622816941987715e-06   -3.43649002042029e-07
-1.5638137718678545e-05   4.622816941987715e-06   -3.43649002042029e-07
-1.5638137718678545e-05   4.622816941987715e-06   -3.43649002042029e-07
-1.5638137718678545e-05   4.622816941987715e-06   -3.43649002042029e-07
-2.2845426588575163e-05   4.748505855394847e-06   1.1593085766407928e-05
-2.2845426588575163e-05   4.748505855394847e-06   1.1593085766407928e-05
-2.2845426588575163e-05   4.748505855394847e-06   1.1593085766407928e-05
-2.2845426588575163e-05   4.748505855394847e-06   1.1593085766407928e-05
-1.5638137718678545e-05   4.6154312372827765e-06   2.5178146152290948e-05
-1.5638137718678545e-05   4.6154312372827765e-06   2.5178146152290948e-05
-1.5638137718678545e-05   4.6154312372827765e-06   2.5178146152290948e-05
-1.5638137718678545e-05   4.6154312372827765e-06   2.5178146152290948e-05
-3.095121481127845e-05   4.622816941987715e-06   -3.3921757921942346e-07
-3.095121481127845e-05   4.622816941987715e-06   -3.3921757921942346e-07
-3.095121481127845e-05   4.622816941987715e-06   -3.3921757921942346e-07
-3.095121481127845e-05   4.622816941987715e-06   -3.3921757921942346e-07
-3.1776461367262525e-05   4.376618208585181e-06   2.6353444290651588e-05
-3.1776461367262525e-05   4.376618208585181e-06   2.6353444290651588e-05
-3.1776461367262525e-05   4.376618208585181e-06   2.6353444290651588e-05
-3.1776461367262525e-05   4.376618208585181e-06   2.6353444290651588e-05
-1.6315699426018454e-05   4.3344496652314175e-06   6.108088479236527e-07
-1.6315699426018454e-05   4.3344496652314175e-06   6.108088479236527e-07
-1.6315699426018454e-05   4.3344496652314175e-06   6.108088479236527e-07
-1.6315699426018454e-05   4.3344496652314175e-06   6.108088479236527e-07
-2.338239553422087e-05   4.572928702819071e-06   1.2245548272375392e-05
-2.338239553422087e-05   4.572928702819071e-06   1.2245548272375392e-05
-2.338239553422087e-05   4.572928702819071e-06   1.2245548272375392e-05
-2.338239553422087e-05   4.572928702819071e-06   1.2245548272375392e-05
-1.631569942601844e-05   4.376618208585181e-06   2.6378745416663803e-05
-1.631569942601844e-05   4.376618208585181e-06   2.6378745416663803e-05
-1.631569942601844e-05   4.376618208585181e-06   2.6378745416663803e-05
-1.631569942601844e-05   4.376618208585181e-06   2.6378745416663803e-05
-3.1776461367262525e-05   4.3344496652314175e-06   5.855077219116007e-07
-3.1776461367262525e-05   4.3344496652314175e-06   5.855077219116007e-07
-3.1776461367262525e-05   4.3344496652314175e-06   5.855077219116007e-07
-3.1776461367262525e-05   4.3344496652314175e-06   5.855077219116007e-07
-3.256263167943484e-05   4.054651241827689e-06   2.719484986247675e-05
-3.256263167943484e-05   4.054651241827689e-06   2.719484986247675e-05
-3.256263167943484e-05   4.054651241827689e-06   2.719484986247675e-05
-3.256263167943484e-05   4.054651241827689e-06   2.719484986247675e-05
-1.701471897205882e-05   3.9815238650603955e-06   1.3255384429103128e-06
-1.701471897205882e-05   3.9815238650603955e-06   1.3255384429103128e-06
-1.701471897205882e-05   3.9815238650603955e-06   1.3255384429103128e-06
-1.701471897205882e-05   3.9815238650603955e-06   1.3255384429103128e-06
-2.4240466611623714e-05   4.343780260320949e-06   1.315109733836321e-05
-2.4240466611623714e-05   4.343780260320949e-06   1.315109733836321e-05
-2.4240466611623714e-05   4.343780260320949e-06   1.315109733836321e-05
-2.4240466611623714e-05   4.343780260320949e-06   1.315109733836321e-05
-3.0206128134186192e-05   7.924741303709905e-06   1.1908294639455014e-05
-3.0206128134186192e-05   7.924741303709905e-06   1.1908294639455014e-05
-3.0206128134186192e-05   7.924741303709905e-06   1.1908294639455014e-05
-3.0206128134186192e-05   7.924741303709905e-06   1.1908294639455014e-05
-4.4678480134811393e-05   7.114300406181823e-06   -1.2698556566770433e-05
-4.4678480134811393e-05   7.114300406181823e-06   -1.2698556566770433e-05
-4.4678480134811393e-05   7.114300406181823e-06   -1.2698556566770433e-05
-4.4678480134811393e-05   7.114300406181823e-06   -1.2698556566770433e-05
-4.585205701122688e-05   8.080875630894335e-06   1.654251129585703e-05
-4.585205701122688e-05   8.080875630894335e-06   1.654251129585703e-05
-4.585205701122688e-05   8.080875630894335e-06   1.654251129585703e-05
-4.585205701122688e-05   8.080875630894335e-06   1.654251129585703e-05
-3.095121481127845e-05   7.192809944153028e-06   -7.759386292012515e-06
-3.095121481127845e-05   7.192809944153028e-06   -7.759386292012515e-06
-3.095121481127845e-05   7.192809944153028e-06   -7.759386292012515e-06
-3.095121481127845e-05   7.192809944153028e-06   -7.759386292012515e-06
-3.6469413043100136e-05   7.532212543174882e-06   1.2339692016106844e-06
-3.6469413043100136e-05   7.532212543174882e-06   1.2339692016106844e-06
-3.6469413043100136e-05   7.532212543174882e-06   1.2339692016106844e-06
-3.6469413043100136e-05   7.532212543174882e-06   1.2339692016106844e-06
-3.0951214811278366e-05   8.080875630894335e-06   1.7075350707901815e-05
-3.0951214811278366e-05   8.080875630894335e-06   1.7075350707901815e-05
-3.0951214811278366e-05   8.080875630894335e-06   1.7075350707901815e-05
-3.0951214811278366e-05   8.080875630894335e-06   1.7075350707901815e-05
-4.585205701122694e-05   7.192809944153028e-06   -8.292225704057245e-06
-4.585205701122694e-05   7.192809944153028e-06   -8.292225704057245e-06
-4.585205701122694e-05   7.192809944153028e-06   -8.292225704057245e-06
-4.585205701122694e-05   7.192809944153028e-06   -8.292225704057245e-06
-4.699718309024374e-05   8.024008501548129e-06   2.0141598136976142e-05
-4.699718309024374e-05   8.024008501548129e-06   2.0141598136976142e-05
-4.699718309024374e-05   8.024008501548129e-06   2.0141598136976142e-05
-4.699718309024374e-05   8.024008501548129e-06   2.0141598136976142e-05
-3.1776461367262525e-05   7.114499727111593e-06   -4.680566136663986e-06
-3.1776461367262525e-05   7.114499727111593e-06   -4.680566136663986e-06
-3.1776461367262525e-05   7.114499727111593e-06   -4.680566136663986e-06
-3.1776461367262525e-05   7.114499727111593e-06   -4.680566136663986e-06
-3.791696914855174e-05   7.670898806535261e-06   5.219774051164303e-06
-3.791696914855174e-05   7.670898806535261e-06   5.219774051164303e-06
-3.791696914855174e-05   7.670898806535261e-06   5.219774051164303e-06
-3.791696914855174e-05   7.670898806535261e-06   5.219774051164303e-06
-3.1776461367262525e-05   8.024008501548129e-06   2.0687303401638367e-05
-3.1776461367262525e-05   8.024008501548129e-06   2.0687303401638367e-05
-3.1776461367262525e-05   8.024008501548129e-06   2.0687303401638367e-05
-3.1776461367262525e-05   8.024008501548129e-06   2.0687303401638367e-05
-4.699718309024382e-05   7.114499727111593e-06   -5.226271401326211e-06
-4.699718309024382e-05   7.114499727111593e-06   -5.226271401326211e-06
-4.699718309024382e-05   7.114499727111593e-06   -5.226271401326211e-06
-4.699718309024382e-05   7.114499727111593e-06   -5.226271401326211e-06
-4.833373597533825e-05   7.3907552009134375e-06   2.6302368786565488e-05
-4.833373597533825e-05   7.3907552009134375e-06   2.6302368786565488e-05
-4.833373597533825e-05   7.3907552009134375e-06   2.6302368786565488e-05
-4.833373597533825e-05   7.3907552009134375e-06   2.6302368786565488e-05
-3.256263167943484e-05   6.568088575728114e-06   5.107949351708645e-07
-3.256263167943484e-05   6.568088575728114e-06   5.107949351708645e-07
-3.256263167943484e-05   6.568088575728114e-06   5.107949351708645e-07
-3.256263167943484e-05   6.568088575728114e-06   5.107949351708645e-07
-3.82762217937334e-05   7.445278345429409e-06   9.507131263848331e-06
-3.82762217937334e-05   7.445278345429409e-06   9.507131263848331e-06
-3.82762217937334e-05   7.445278345429409e-06   9.507131263848331e-06
-3.82762217937334e-05   7.445278345429409e-06   9.507131263848331e-06
2.5943660489755572e-05   -3.5030811019619214e-06   2.1953637047382197e-05
2.5943660489755572e-05   -3.5030811019619214e-06   2.1953637047382197e-05
2.5943660489755572e-05   -3.5030811019619214e-06   2.1953637047382197e-05
2.5943660489755572e-05   -3.5030811019619214e-06   2.1953637047382197e-05
1.2207002695400754e-05   -2.3242496775320674e-06   -2.3349375521779236e-07
1.2207002695400754e-05   -2.3242496775320674e-06   -2.3349375521779236e-07
1.2207002695400754e-05   -2.3242496775320674e-06   -2.3349375521779236e-07
1.2207002695400754e-05   -2.3242496775320674e-06   -2.3349375521779236e-07
1.1635324704420266e-05   -4.061277867085326e-06   1.9281946523193923e-05
1.1635324704420266e-05   -4.061277867085326e-06   1.9281946523193923e-05
1.1635324704420266e-05   -4.061277867085326e-06   1.9281946523193923e-05
1.1635324704420266e-05   -4.061277867085326e-06   1.9281946523193923e-05
2.4837077002743557e-05   -2.81768828800928e-06   -3.4671277214569314e-06
2.4837077002743557e-05   -2.81768828800928e-06   -3.4671277214569314e-06
2.4837077002743557e-05   -2.81768828800928e-06   -3.4671277214569314e-06
2.4837077002743557e-05   -2.81768828800928e-06   -3.4671277214569314e-06
1.777844814965421e-05   -3.2001314562535126e-06   8.526719601305084e-06
1.777844814965421e-05   -3.2001314562535126e-06   8.526719601305084e-06
1.777844814965421e-05   -3.2001314562535126e-06   8.526719601305084e-06
1.777844814965421e-05   -3.2001314562535126e-06   8.526719601305084e-06
2.4837077002743557e-05   -4.061277867085109e-06   1.8535792775748556e-05
2.4837077002743557e-05   -4.061277867085109e-06   1.8535792775748556e-05
2.4837077002743557e-05   -4.061277867085109e-06   1.8535792775748556e-05
2.4837077002743557e-05   -4.061277867085109e-06   1.8535792775748556e-05
1.163532470442029e-05   -2.81768828800928e-06   -2.720973974011361e-06
1.163532470442029e-05   -2.81768828800928e-06   -2.720973974011361e-06
1.163532470442029e-05   -2.81768828800928e-06   -2.720973974011361e-06
1.163532470442029e-05   -2.81768828800928e-06   -2.720973974011361e-06
1.1003846122687996e-05   -4.1728274529316805e-06   1.7404774325899025e-05
1.1003846122687996e-05   -4.1728274529316805e-06   1.7404774325899025e-05
1.1003846122687996e-05   -4.1728274529316805e-06   1.7404774325899025e-05
1.1003846122687996e-05   -4.1728274529316805e-06   1.7404774325899025e-05
2.3866657332117064e-05   -2.9490160848805267e-06   -4.76753117731357e-06
2.3866657332117064e-05   -2.9490160848805267e-06   -4.76753117731357e-06
2.3866657332117064e-05   -2.9490160848805267e-06   -4.76753117731357e-06
2.3866657332117064e-05   -2.9490160848805267e-06   -4.76753117731357e-06
1.7323235685779852e-05   -3.4006072656158053e-06   6.4091262750234974e-06
1.7323235685779852e-05   -3.4006072656158053e-06   6.4091262750234974e-06
1.7323235685779852e-05   -3.4006072656158053e-06   6.4091262750234974e-06
1.7323235685779852e-05   -3.4006072656158053e-06   6.4091262750234974e-06
2.3866657332117026e-05   -4.1728274529316805e-06   1.6670487505068094e-05
2.3866657332117026e-05   -4.1728274529316805e-06   1.6670487505068094e-05
2.3866657332117026e-05   -4.1728274529316805e-06   1.6670487505068094e-05
2.3866657332117026e-05   -4.1728274529316805e-06   1.6670487505068094e-05
1.100384612268802e-05   -2.9490160848805267e-06   -4.0332443564828225e-06
1.100384612268802e-05   -2.9490160848805267e-06   -4.0332443564828225e-06
1.100384612268802e-05   -2.9490160848805267e-06   -4.0332443564828225e-06
1.100384612268802e-05   -2.9490160848805267e-06   -4.0332443564828225e-06
1.0420486904203173e-05   -4.2149125674931405e-06   1.4857811782880348e-05
1.0420486904203173e-05   -4.2149125674931405e-06   1.4857811782880348e-05
1.0420486904203173e-05   -4.2149125674931405e-06   1.4857811782880348e-05
1.0420486904203173e-05   -4.2149125674931405e-06   1.4857811782880348e-05
2.2781511568505016e-05   -3.0694586017389076e-06   -6.4311683704083e-06
2.2781511568505016e-05   -3.0694586017389076e-06   -6.4311683704083e-06
2.2781511568505016e-05   -3.0694586017389076e-06   -6.4311683704083e-06
2.2781511568505016e-05   -3.0694586017389076e-06   -6.4311683704083e-06
1.630677062948422e-05   -3.379984532379636e-06   4.546382086344389e-06
1.630677062948422e-05   -3.379984532379636e-06   4.546382086344389e-06
1.630677062948422e-05   -3.379984532379636e-06   4.546382086344389e-06
1.630677062948422e-05   -3.379984532379636e-06   4.546382086344389e-06
1.2207002695400713e-05   -6.712170489196843e-07   2.4904043298689576e-05
1.2207002695400713e-05   -6.712170489196843e-07   2.4904043298689576e-05
1.2207002695400713e-05   -6.712170489196843e-07   2.4904043298689576e-05
1.2207002695400713e-05   -6.712170489196843e-07   2.4904043298689576e-05
-7.912379610835904e-07   -1.6712183118503324e-08   3.6330117906963055e-06
-7.912379610835904e-07   -1.6712183118503324e-08   3.6330117906963055e-06
-7.912379610835904e-07   -1.6712183118503324e-08   3.6330117906963055e-06
-7.912379610835904e-07   -1.6712183118503324e-08   3.6330117906963055e-06
-1.3289663871281693e-06   -1.0662737831390427e-06   2.4945897697557632e-05
-1.3289663871281693e-06   -1.0662737831390427e-06   2.4945897697557632e-05
-1.3289663871281693e-06   -1.0662737831390427e-06   2.4945897697557632e-05
-1.3289663871281693e-06   -1.0662737831390427e-06   2.4945897697557632e-05
1.163532470442029e-05   -4.4505477630562944e-07   2.9660144742102537e-06
1.163532470442029e-05   -4.4505477630562944e-07   2.9660144742102537e-06
1.163532470442029e-05   -4.4505477630562944e-07   2.9660144742102537e-06
1.163532470442029e-05   -4.4505477630562944e-07   2.9660144742102537e-06
5.342407418786844e-06   -5.655035965575813e-07   1.3526479242417186e-05
5.342407418786844e-06   -5.655035965575813e-07   1.3526479242417186e-05
5.342407418786844e-06   -5.655035965575813e-07   1.3526479242417186e-05
5.342407418786844e-06   -5.655035965575813e-07   1.3526479242417186e-05
1.1635324704420235e-05   -1.0662737831390427e-06   2.4573166293457693e-05
1.1635324704420235e-05   -1.0662737831390427e-06   2.4573166293457693e-05
1.1635324704420235e-05   -1.0662737831390427e-06   2.4573166293457693e-05
1.1635324704420235e-05   -1.0662737831390427e-06   2.4573166293457693e-05
-1.3289663871281693e-06   -4.4505477630562944e-07   3.338745878310261e-06
-1.3289663871281693e-06   -4.4505477630562944e-07   3.338745878310261e-06
-1.3289663871281693e-06   -4.4505477630562944e-07   3.338745878310261e-06
-1.3289663871281693e-06   -4.4505477630562944e-07   3.338745878310261e-06
-1.8782465272848987e-06   -1.3587868969531115e-06   2.4566140219438987e-05
-1.8782465272848987e-06   -1.3587868969531115e-06   2.4566140219438987e-05
-1.8782465272848987e-06   -1.3587868969531115e-06   2.4566140219438987e-05
-1.8782465272848987e-06   -1.3587868969531115e-06   2.4566140219438987e-05
1.100384612268802e-05   -7.818787292150891e-07   2.7498409021747936e-06
1.100384612268802e-05   -7.818787292150891e-07   2.7498409021747936e-06
1.100384612268802e-05   -7.818787292150891e-07   2.7498409021747936e-06
1.100384612268802e-05   -7.818787292150891e-07   2.7498409021747936e-06
4.738513578421921e-06   -8.294256513227162e-07   1.3220589962550166e-05
4.738513578421921e-06   -8.294256513227162e-07   1.3220589962550166e-05
4.738513578421921e-06   -8.294256513227162e-07   1.3220589962550166e-05
4.738513578421921e-06   -8.294256513227162e-07   1.3220589962550166e-05
1.1003846122687996e-05   -1.3587868969531115e-06   2.421999531879637e-05
1.1003846122687996e-05   -1.3587868969531115e-06   2.421999531879637e-05
1.1003846122687996e-05   -1.3587868969531115e-06   2.421999531879637e-05
1.1003846122687996e-05   -1.3587868969531115e-06   2.421999531879637e-05
-1.8782465272848987e-06   -7.818787292150891e-07   3.0959858028175745e-06
-1.8782465272848987e-06   -7.818787292150891e-07   3.0959858028175745e-06
-1.8782465272848987e-06   -7.818787292150891e-07   3.0959858028175745e-06
-1.8782465272848987e-06   -7.818787292150891e-07   3.0959858028175745e-06
-2.430574518720089e-06   -1.5883892027274051e-06   2.4732805947472137e-05
-2.430574518720089e-06   -1.5883892027274051e-06   2.4732805947472137e-05
-2.430574518720089e-06   -1.5883892027274051e-06   2.4732805947472137e-05
-2.430574518720089e-06   -1.5883892027274051e-06   2.4732805947472137e-05
1.042048690420318e-05   -1.0928148568344152e-06   3.0170256350641212e-06
1.042048690420318e-05   -1.0928148568344152e-06   3.0170256350641212e-06
1.042048690420318e-05   -1.0928148568344152e-06   3.0170256350641212e-06
1.042048690420318e-05   -1.0928148568344152e-06   3.0170256350641212e-06
4.278562882555672e-06   -1.0238210830864573e-06   1.3212169406895272e-05
4.278562882555672e-06   -1.0238210830864573e-06   1.3212169406895272e-05
4.278562882555672e-06   -1.0238210830864573e-06   1.3212169406895272e-05
4.278562882555672e-06   -1.0238210830864573e-06   1.3212169406895272e-05
-7.912379610835768e-07   2.16950686836412e-06   2.635552946438622e-05
-7.912379610835768e-07   2.16950686836412e-06   2.635552946438622e-05
-7.912379610835768e-07   2.16950686836412e-06   2.635552946438622e-05
-7.912379610835768e-07   2.16950686836412e-06   2.635552946438622e-05
-1.3516660691341518e-05   2.2349034937137018e-06   5.185729555832845e-06
-1.3516660691341518e-05   2.2349034937137018e-06   5.185729555832845e-06
-1.3516660691341518e-05   2.2349034937137018e-06   5.185729555832845e-06
-1.3516660691341518e-05   2.2349034937137018e-06   5.185729555832845e-06
-1.4057558035689887e-05   1.841872250409743e-06   2.6275873652689772e-05
-1.4057558035689887e-05   1.841872250409743e-06   2.6275873652689772e-05
-1.4057558035689887e-05   1.841872250409743e-06   2.6275873652689772e-05
-1.4057558035689887e-05   1.841872250409743e-06   2.6275873652689772e-05
-1.3289663871281693e-06   1.8594394030940938e-06   5.051013946809666e-06
-1.3289663871281693e-06   1.8594394030940938e-06   5.051013946809666e-06
-1.3289663871281693e-06   1.8594394030940938e-06   5.051013946809666e-06
-1.3289663871281693e-06   1.8594394030940938e-06   5.051013946809666e-06
-7.442813008544514e-06   1.9904625223002986e-06   1.516214444431316e-05
-7.442813008544514e-06   1.9904625223002986e-06   1.516214444431316e-05
-7.442813008544514e-06   1.9904625223002986e-06   1.516214444431316e-05
-7.442813008544514e-06   1.9904625223002986e-06   1.516214444431316e-05
-1.3289663871281693e-06   1.841872250409743e-06   2.6265333361079118e-05
-1.3289663871281693e-06   1.841872250409743e-06   2.6265333361079118e-05
-1.3289663871281693e-06   1.841872250409743e-06   2.6265333361079118e-05
-1.3289663871281693e-06   1.841872250409743e-06   2.6265333361079118e-05
-1.4057558035689887e-05   1.8594394030940938e-06   5.061554238420347e-06
-1.4057558035689887e-05   1.8594394030940938e-06   5.061554238420347e-06
-1.4057558035689887e-05   1.8594394030940938e-06   5.061554238420347e-06
-1.4057558035689887e-05   1.8594394030940938e-06   5.061554238420347e-06
-1.4611813493269274e-05   1.5237891474696123e-06   2.641745848896808e-05
-1.4611813493269274e-05   1.5237891474696123e-06   2.641745848896808e-05
-1.4611813493269274e-05   1.5237891474696123e-06   2.641745848896808e-05
-1.4611813493269274e-05   1.5237891474696123e-06   2.641745848896808e-05
-1.8782465272848987e-06   1.4899770411907088e-06   5.2151341427611995e-06
-1.8782465272848987e-06   1.4899770411907088e-06   5.2151341427611995e-06
-1.8782465272848987e-06   1.4899770411907088e-06   5.2151341427611995e-06
-1.8782465272848987e-06   1.4899770411907088e-06   5.2151341427611995e-06
-7.9447644894121e-06   1.7384198311072054e-06   1.5176931739024007e-05
-7.9447644894121e-06   1.7384198311072054e-06   1.5176931739024007e-05
-7.9447644894121e-06   1.7384198311072054e-06   1.5176931739024007e-05
-7.9447644894121e-06   1.7384198311072054e-06   1.5176931739024007e-05
-1.8782465272848987e-06   1.5237891474696123e-06   2.643774575273542e-05
-1.8782465272848987e-06   1.5237891474696123e-06   2.643774575273542e-05
-1.8782465272848987e-06   1.5237891474696123e-06   2.643774575273542e-05
-1.8782465272848987e-06   1.5237891474696123e-06   2.643774575273542e-05
-1.4611813493269315e-05   1.4899770411907088e-06   5.194846878993939e-06
-1.4611813493269315e-05   1.4899770411907088e-06   5.194846878993939e-06
-1.4611813493269315e-05   1.4899770411907088e-06   5.194846878993939e-06
-1.4611813493269315e-05   1.4899770411907088e-06   5.194846878993939e-06
-1.516571202654983e-05   1.2407264669343603e-06   2.6742530636545943e-05
-1.516571202654983e-05   1.2407264669343603e-06   2.6742530636545943e-05
-1.516571202654983e-05   1.2407264669343603e-06   2.6742530636545943e-05
-1.516571202654983e-05   1.2407264669343603e-06   2.6742530636545943e-05
-2.430574518720089e-06   1.1394586435264139e-06   5.578062150874352e-06
-2.430574518720089e-06   1.1394586435264139e-06   5.578062150874352e-06
-2.430574518720089e-06   1.1394586435264139e-06   5.578062150874352e-06
-2.430574518720089e-06   1.1394586435264139e-06   5.578062150874352e-06
-8.47038824139899e-06   1.492936778382586e-06   1.5432331474425962e-05
-8.47038824139899e-06   1.492936778382586e-06   1.5432331474425962e-05
-8.47038824139899e-06   1.492936778382586e-06   1.5432331474425962e-05
-8.47038824139899e-06   1.492936778382586e-06   1.5432331474425962e-05
-1.3516660691341477e-05   4.934706635020304e-06   2.3198216656211083e-05
-1.3516660691341477e-05   4.934706635020304e-06   2.3198216656211083e-05
-1.3516660691341477e-05   4.934706635020304e-06   2.3198216656211083e-05
-1.3516660691341477e-05   4.934706635020304e-06   2.3198216656211083e-05
-2.5968771802482052e-05   4.403001306562326e-06   2.125674940568886e-06
-2.5968771802482052e-05   4.403001306562326e-06   2.125674940568886e-06
-2.5968771802482052e-05   4.403001306562326e-06   2.125674940568886e-06
-2.5968771802482052e-05   4.403001306562326e-06   2.125674940568886e-06
-2.6551020591053965e-05   4.622816941987715e-06   2.304922753534563e-05
-2.6551020591053965e-05   4.622816941987715e-06   2.304922753534563e-05
-2.6551020591053965e-05   4.622816941987715e-06   2.304922753534563e-05
-2.6551020591053965e-05   4.622816941987715e-06   2.304922753534563e-05
-1.40575580356899e-05   4.0442061186390064e-06   2.5739564370814614e-06
-1.40575580356899e-05   4.0442061186390064e-06   2.5739564370814614e-06
-1.40575580356899e-05   4.0442061186390064e-06   2.5739564370814614e-06
-1.40575580356899e-05   4.0442061186390064e-06   2.5739564370814614e-06
-1.99571343033405e-05   4.4415310270684485e-06   1.2168188604774792e-05
-1.99571343033405e-05   4.4415310270684485e-06   1.2168188604774792e-05
-1.99571343033405e-05   4.4415310270684485e-06   1.2168188604774792e-05
-1.99571343033405e-05   4.4415310270684485e-06   1.2168188604774792e-05
-1.4057558035689887e-05   4.622816941987715e-06   2.3396394029354898e-05
-1.4057558035689887e-05   4.622816941987715e-06   2.3396394029354898e-05
-1.4057558035689887e-05   4.622816941987715e-06   2.3396394029354898e-05
-1.4057558035689887e-05   4.622816941987715e-06   2.3396394029354898e-05
-2.655102059105391e-05   4.0442061186390064e-06   2.2267899430721385e-06
-2.655102059105391e-05   4.0442061186390064e-06   2.2267899430721385e-06
-2.655102059105391e-05   4.0442061186390064e-06   2.2267899430721385e-06
-2.655102059105391e-05   4.0442061186390064e-06   2.2267899430721385e-06
-2.71916173518663e-05   4.3344496652314175e-06   2.3914262543352823e-05
-2.71916173518663e-05   4.3344496652314175e-06   2.3914262543352823e-05
-2.71916173518663e-05   4.3344496652314175e-06   2.3914262543352823e-05
-2.71916173518663e-05   4.3344496652314175e-06   2.3914262543352823e-05
-1.4611813493269315e-05   3.709166163426295e-06   3.323092880107802e-06
-1.4611813493269315e-05   3.709166163426295e-06   3.323092880107802e-06
-1.4611813493269315e-05   3.709166163426295e-06   3.323092880107802e-06
-1.4611813493269315e-05   3.709166163426295e-06   3.323092880107802e-06
-2.037352610935054e-05   4.212797108531924e-06   1.2623768673180274e-05
-2.037352610935054e-05   4.212797108531924e-06   1.2623768673180274e-05
-2.037352610935054e-05   4.212797108531924e-06   1.2623768673180274e-05
-2.037352610935054e-05   4.212797108531924e-06   1.2623768673180274e-05
-1.4611813493269315e-05   4.3344496652314175e-06   2.4289432644436265e-05
-1.4611813493269315e-05   4.3344496652314175e-06   2.4289432644436265e-05
-1.4611813493269315e-05   4.3344496652314175e-06   2.4289432644436265e-05
-1.4611813493269315e-05   4.3344496652314175e-06   2.4289432644436265e-05
-2.7191617351866274e-05   3.709166163426295e-06   2.9479227790246308e-06
-2.7191617351866274e-05   3.709166163426295e-06   2.9479227790246308e-06
-2.7191617351866274e-05   3.709166163426295e-06   2.9479227790246308e-06
-2.7191617351866274e-05   3.709166163426295e-06   2.9479227790246308e-06
-2.777691428391198e-05   3.9815238650603955e-06   2.4561701215603145e-05
-2.777691428391198e-05   3.9815238650603955e-06   2.4561701215603145e-05
-2.777691428391198e-05   3.9815238650603955e-06   2.4561701215603145e-05
-2.777691428391198e-05   3.9815238650603955e-06   2.4561701215603145e-05
-1.5165712026549844e-05   3.3183372237176843e-06   3.940942771472102e-06
-1.5165712026549844e-05   3.3183372237176843e-06   3.940942771472102e-06
-1.5165712026549844e-05   3.3183372237176843e-06   3.940942771472102e-06
-1.5165712026549844e-05   3.3183372237176843e-06   3.940942771472102e-06
-2.103924033055364e-05   3.953978468794386e-06   1.3348771864433258e-05
-2.103924033055364e-05   3.953978468794386e-06   1.3348771864433258e-05
-2.103924033055364e-05   3.953978468794386e-06   1.3348771864433258e-05
-2.103924033055364e-05   3.953978468794386e-06   1.3348771864433258e-05
-2.5968771802482052e-05   7.114300406181823e-06   1.1229931106051388e-05
-2.5968771802482052e-05   7.114300406181823e-06   1.1229931106051388e-05
-2.5968771802482052e-05   7.114300406181823e-06   1.1229931106051388e-05
-2.5968771802482052e-05   7.114300406181823e-06   1.1229931106051388e-05
-3.781109467362244e-05   6.077602889655032e-06   -9.129292189098681e-06
-3.781109467362244e-05   6.077602889655032e-06   -9.129292189098681e-06
-3.781109467362244e-05   6.077602889655032e-06   -9.129292189098681e-06
-3.781109467362244e-05   6.077602889655032e-06   -9.129292189098681e-06
-3.88583694812346e-05   7.192809944153028e-06   1.4943383922671766e-05
-3.88583694812346e-05   7.192809944153028e-06   1.4943383922671766e-05
-3.88583694812346e-05   7.192809944153028e-06   1.4943383922671766e-05
-3.88583694812346e-05   7.192809944153028e-06   1.4943383922671766e-05
-2.6551020591053965e-05   6.050018444352231e-06   -4.883189327748805e-06
-2.6551020591053965e-05   6.050018444352231e-06   -4.883189327748805e-06
-2.6551020591053965e-05   6.050018444352231e-06   -4.883189327748805e-06
-2.6551020591053965e-05   6.050018444352231e-06   -4.883189327748805e-06
-3.106813621191361e-05   6.5107813280603465e-06   2.368878976792598e-06
-3.106813621191361e-05   6.5107813280603465e-06   2.368878976792598e-06
-3.106813621191361e-05   6.5107813280603465e-06   2.368878976792598e-06
-3.106813621191361e-05   6.5107813280603465e-06   2.368878976792598e-06
-2.6551020591053938e-05   7.192809944153028e-06   1.5629058822552483e-05
-2.6551020591053938e-05   7.192809944153028e-06   1.5629058822552483e-05
-2.6551020591053938e-05   7.192809944153028e-06   1.5629058822552483e-05
-2.6551020591053938e-05   7.192809944153028e-06   1.5629058822552483e-05
-3.8858369481234683e-05   6.050018444352231e-06   -5.5688642276291965e-06
-3.8858369481234683e-05   6.050018444352231e-06   -5.5688642276291965e-06
-3.8858369481234683e-05   6.050018444352231e-06   -5.5688642276291965e-06
-3.8858369481234683e-05   6.050018444352231e-06   -5.5688642276291965e-06
-3.979524293233334e-05   7.114499727111376e-06   1.7936086623989963e-05
-3.979524293233334e-05   7.114499727111376e-06   1.7936086623989963e-05
-3.979524293233334e-05   7.114499727111376e-06   1.7936086623989963e-05
-3.979524293233334e-05   7.114499727111376e-06   1.7936086623989963e-05
-2.71916173518663e-05   5.927662959132225e-06   -2.3578539493346166e-06
-2.71916173518663e-05   5.927662959132225e-06   -2.3578539493346166e-06
-2.71916173518663e-05   5.927662959132225e-06   -2.3578539493346166e-06
-2.71916173518663e-05   5.927662959132225e-06   -2.3578539493346166e-06
-3.227584172100076e-05   6.583705668239447e-06   5.7222277070929244e-06
-3.227584172100076e-05   6.583705668239447e-06   5.7222277070929244e-06
-3.227584172100076e-05   6.583705668239447e-06   5.7222277070929244e-06
-3.227584172100076e-05   6.583705668239447e-06   5.7222277070929244e-06
-2.71916173518663e-05   7.114499727111593e-06   1.8648188684777345e-05
-2.71916173518663e-05   7.114499727111593e-06   1.8648188684777345e-05
-2.71916173518663e-05   7.114499727111593e-06   1.8648188684777345e-05
-2.71916173518663e-05   7.114499727111593e-06   1.8648188684777345e-05
-3.9795242932333396e-05   5.927662959132225e-06   -3.069956010122107e-06
-3.9795242932333396e-05   5.927662959132225e-06   -3.069956010122107e-06
-3.9795242932333396e-05   5.927662959132225e-06   -3.069956010122107e-06
-3.9795242932333396e-05   5.927662959132225e-06   -3.069956010122107e-06
-4.0870984688576615e-05   6.568088575728114e-06   2.3081395718775122e-05
-4.0870984688576615e-05   6.568088575728114e-06   2.3081395718775122e-05
-4.0870984688576615e-05   6.568088575728114e-06   2.3081395718775122e-05
-4.0870984688576615e-05   6.568088575728114e-06   2.3081395718775122e-05
-2.777691428391198e-05   5.385691217146566e-06   1.967383459482825e-06
-2.777691428391198e-05   5.385691217146566e-06   1.967383459482825e-06
-2.777691428391198e-05   5.385691217146566e-06   1.967383459482825e-06
-2.777691428391198e-05   5.385691217146566e-06   1.967383459482825e-06
-3.252761542911565e-05   6.358728926680228e-06   9.301396075769484e-06
-3.252761542911565e-05   6.358728926680228e-06   9.301396075769484e-06
-3.252761542911565e-05   6.358728926680228e-06   9.301396075769484e-06
-3.252761542911565e-05   6.358728926680228e-06   9.301396075769484e-06
1.794460324123438e-05   -2.3242496775320674e-06   1.7919804948587415e-05
1.794460324123438e-05   -2.3242496775320674e-06   1.7919804948587415e-05
1.794460324123438e-05   -2.3242496775320674e-06   1.7919804948587415e-05
1.794460324123438e-05   -2.3242496775320674e-06   1.7919804948587415e-05
7.45032110924478e-06   -1.1525962473975162e-06   1.132326786685428e-06
7.45032110924478e-06   -1.1525962473975162e-06   1.132326786685428e-06
7.45032110924478e-06   -1.1525962473975162e-06   1.132326786685428e-06
7.45032110924478e-06   -1.1525962473975162e-06   1.132326786685428e-06
6.989644670310011e-06   -2.81768828800928e-06   1.610337265735848e-05
6.989644670310011e-06   -2.81768828800928e-06   1.610337265735848e-05
6.989644670310011e-06   -2.81768828800928e-06   1.610337265735848e-05
6.989644670310011e-06   -2.81768828800928e-06   1.610337265735848e-05
1.6962868712030484e-05   -1.5950346485078728e-06   -1.2522595958765274e-06
1.6962868712030484e-05   -1.5950346485078728e-06   -1.2522595958765274e-06
1.6962868712030484e-05   -1.5950346485078728e-06   -1.2522595958765274e-06
1.6962868712030484e-05   -1.5950346485078728e-06   -1.2522595958765274e-06
1.1723532256354259e-05   -2.0191300604108144e-06   7.734425077392699e-06
1.1723532256354259e-05   -2.0191300604108144e-06   7.734425077392699e-06
1.1723532256354259e-05   -2.0191300604108144e-06   7.734425077392699e-06
1.1723532256354259e-05   -2.0191300604108144e-06   7.734425077392699e-06
1.6962868712030504e-05   -2.81768828800928e-06   1.5369780473657594e-05
1.6962868712030504e-05   -2.81768828800928e-06   1.5369780473657594e-05
1.6962868712030504e-05   -2.81768828800928e-06   1.5369780473657594e-05
1.6962868712030504e-05   -2.81768828800928e-06   1.5369780473657594e-05
6.989644670309987e-06   -1.5950346485078728e-06   -5.186674121756803e-07
6.989644670309987e-06   -1.5950346485078728e-06   -5.186674121756803e-07
6.989644670309987e-06   -1.5950346485078728e-06   -5.186674121756803e-07
6.989644670309987e-06   -1.5950346485078728e-06   -5.186674121756803e-07
6.471687892447637e-06   -2.9490160848805267e-06   1.4755553692717303e-05
6.471687892447637e-06   -2.9490160848805267e-06   1.4755553692717303e-05
6.471687892447637e-06   -2.9490160848805267e-06   1.4755553692717303e-05
6.471687892447637e-06   -2.9490160848805267e-06   1.4755553692717303e-05
1.6119552635221133e-05   -1.7467747987973386e-06   -2.045565650221512e-06
1.6119552635221133e-05   -1.7467747987973386e-06   -2.045565650221512e-06
1.6119552635221133e-05   -1.7467747987973386e-06   -2.045565650221512e-06
1.6119552635221133e-05   -1.7467747987973386e-06   -2.045565650221512e-06
1.1289522969750277e-05   -2.206998580314614e-06   6.280618061140391e-06
1.1289522969750277e-05   -2.206998580314614e-06   6.280618061140391e-06
1.1289522969750277e-05   -2.206998580314614e-06   6.280618061140391e-06
1.1289522969750277e-05   -2.206998580314614e-06   6.280618061140391e-06
1.611955263522116e-05   -2.9490160848805267e-06   1.4034208921067629e-05
1.611955263522116e-05   -2.9490160848805267e-06   1.4034208921067629e-05
1.611955263522116e-05   -2.9490160848805267e-06   1.4034208921067629e-05
1.611955263522116e-05   -2.9490160848805267e-06   1.4034208921067629e-05
6.471687892447627e-06   -1.7467747987973386e-06   -1.3242208785717562e-06
6.471687892447627e-06   -1.7467747987973386e-06   -1.3242208785717562e-06
6.471687892447627e-06   -1.7467747987973386e-06   -1.3242208785717562e-06
6.471687892447627e-06   -1.7467747987973386e-06   -1.3242208785717562e-06
6.007160647004802e-06   -3.0694586017389076e-06   1.3001190572154418e-05
6.007160647004802e-06   -3.0694586017389076e-06   1.3001190572154418e-05
6.007160647004802e-06   -3.0694586017389076e-06   1.3001190572154418e-05
6.007160647004802e-06   -3.0694586017389076e-06   1.3001190572154418e-05
1.516209527548508e-05   -1.9455354598237745e-06   -2.9313876937951206e-06
1.516209527548508e-05   -1.9455354598237745e-06   -2.9313876937951206e-06
1.516209527548508e-05   -1.9455354598237745e-06   -2.9313876937951206e-06
1.516209527548508e-05   -1.9455354598237745e-06   -2.9313876937951206e-06
1.0477448425000713e-05   -2.2425631448701015e-06   5.054573668039802e-06
1.0477448425000713e-05   -2.2425631448701015e-06   5.054573668039802e-06
1.0477448425000713e-05   -2.2425631448701015e-06   5.054573668039802e-06
1.0477448425000713e-05   -2.2425631448701015e-06   5.054573668039802e-06
7.450321109244807e-06   -1.6712183118503324e-08   2.209659963310173e-05
7.450321109244807e-06   -1.6712183118503324e-08   2.209659963310173e-05
7.450321109244807e-06   -1.6712183118503324e-08   2.209659963310173e-05
7.450321109244807e-06   -1.6712183118503324e-08   2.209659963310173e-05
-2.3922827920109456e-06   5.796738894365584e-07   6.050091441208512e-06
-2.3922827920109456e-06   5.796738894365584e-07   6.050091441208512e-06
-2.3922827920109456e-06   5.796738894365584e-07   6.050091441208512e-06
-2.3922827920109456e-06   5.796738894365584e-07   6.050091441208512e-06
-2.8158205051565405e-06   -4.4505477630562944e-07   2.213705835854465e-05
-2.8158205051565405e-06   -4.4505477630562944e-07   2.213705835854465e-05
-2.8158205051565405e-06   -4.4505477630562944e-07   2.213705835854465e-05
-2.8158205051565405e-06   -4.4505477630562944e-07   2.213705835854465e-05
6.989644670309987e-06   1.3277397863543233e-07   5.447919146469389e-06
6.989644670309987e-06   1.3277397863543233e-07   5.447919146469389e-06
6.989644670309987e-06   1.3277397863543233e-07   5.447919146469389e-06
6.989644670309987e-06   1.3277397863543233e-07   5.447919146469389e-06
2.237614349162626e-06   2.4043105050722963e-08   1.3433208205866019e-05
2.237614349162626e-06   2.4043105050722963e-08   1.3433208205866019e-05
2.237614349162626e-06   2.4043105050722963e-08   1.3433208205866019e-05
2.237614349162626e-06   2.4043105050722963e-08   1.3433208205866019e-05
6.989644670310008e-06   -4.4505477630562944e-07   2.1790361105580164e-05
6.989644670310008e-06   -4.4505477630562944e-07   2.1790361105580164e-05
6.989644670310008e-06   -4.4505477630562944e-07   2.1790361105580164e-05
6.989644670310008e-06   -4.4505477630562944e-07   2.1790361105580164e-05
-2.815820505156554e-06   1.327739786352155e-07   5.79461639943382e-06
-2.815820505156554e-06   1.327739786352155e-07   5.79461639943382e-06
-2.815820505156554e-06   1.327739786352155e-07   5.79461639943382e-06
-2.815820505156554e-06   1.327739786352155e-07   5.79461639943382e-06
-3.24898012763699e-06   -7.818787292150891e-07   2.1868477263999454e-05
-3.24898012763699e-06   -7.818787292150891e-07   2.1868477263999454e-05
-3.24898012763699e-06   -7.818787292150891e-07   2.1868477263999454e-05
-3.24898012763699e-06   -7.818787292150891e-07   2.1868477263999454e-05
6.471687892447627e-06   -2.3214820817421544e-07   5.337525584567316e-06
6.471687892447627e-06   -2.3214820817421544e-07   5.337525584567316e-06
6.471687892447627e-06   -2.3214820817421544e-07   5.337525584567316e-06
6.471687892447627e-06   -2.3214820817421544e-07   5.337525584567316e-06
1.7714059819785129e-06   -2.735747058602283e-07   1.319618466729483e-05
1.7714059819785129e-06   -2.735747058602283e-07   1.319618466729483e-05
1.7714059819785129e-06   -2.735747058602283e-07   1.319618466729483e-05
1.7714059819785129e-06   -2.735747058602283e-07   1.319618466729483e-05
6.4716878924476475e-06   -7.818787292150891e-07   2.1538638951374973e-05
6.4716878924476475e-06   -7.818787292150891e-07   2.1538638951374973e-05
6.4716878924476475e-06   -7.818787292150891e-07   2.1538638951374973e-05
6.4716878924476475e-06   -7.818787292150891e-07   2.1538638951374973e-05
-3.24898012763699e-06   -2.3214820817421544e-07   5.667363897191892e-06
-3.24898012763699e-06   -2.3214820817421544e-07   5.667363897191892e-06
-3.24898012763699e-06   -2.3214820817421544e-07   5.667363897191892e-06
-3.24898012763699e-06   -2.3214820817421544e-07   5.667363897191892e-06
-3.6785941182316905e-06   -1.0928148568344152e-06   2.2063323244888113e-05
-3.6785941182316905e-06   -1.0928148568344152e-06   2.2063323244888113e-05
-3.6785941182316905e-06   -1.0928148568344152e-06   2.2063323244888113e-05
-3.6785941182316905e-06   -1.0928148568344152e-06   2.2063323244888113e-05
6.007160647004775e-06   -5.907964456452943e-07   5.619187589447226e-06
6.007160647004775e-06   -5.907964456452943e-07   5.619187589447226e-06
6.007160647004775e-06   -5.907964456452943e-07   5.619187589447226e-06
6.007160647004775e-06   -5.907964456452943e-07   5.619187589447226e-06
1.4039895812045066e-06   -5.207840320319533e-07   1.3249131917613018e-05
1.4039895812045066e-06   -5.207840320319533e-07   1.3249131917613018e-05
1.4039895812045066e-06   -5.207840320319533e-07   1.3249131917613018e-05
1.4039895812045066e-06   -5.207840320319533e-07   1.3249131917613018e-05
-2.392282792010932e-06   2.2349034937137018e-06   2.396791106656134e-05
-2.392282792010932e-06   2.2349034937137018e-06   2.396791106656134e-05
-2.392282792010932e-06   2.2349034937137018e-06   2.396791106656134e-05
-2.392282792010932e-06   2.2349034937137018e-06   2.396791106656134e-05
-1.2070826816009469e-05   2.201932369892516e-06   7.817221685604467e-06
-1.2070826816009469e-05   2.201932369892516e-06   7.817221685604467e-06
-1.2070826816009469e-05   2.201932369892516e-06   7.817221685604467e-06
-1.2070826816009469e-05   2.201932369892516e-06   7.817221685604467e-06
-1.2488949406464287e-05   1.8594394030940938e-06   2.3811673515462795e-05
-1.2488949406464287e-05   1.8594394030940938e-06   2.3811673515462795e-05
-1.2488949406464287e-05   1.8594394030940938e-06   2.3811673515462795e-05
-1.2488949406464287e-05   1.8594394030940938e-06   2.3811673515462795e-05
-2.8158205051565405e-06   1.7966845504585084e-06   7.727444924864491e-06
-2.8158205051565405e-06   1.7966845504585084e-06   7.727444924864491e-06
-2.8158205051565405e-06   1.7966845504585084e-06   7.727444924864491e-06
-2.8158205051565405e-06   1.7966845504585084e-06   7.727444924864491e-06
-7.4606155685472865e-06   1.972527570571472e-06   1.536326421844848e-05
-7.4606155685472865e-06   1.972527570571472e-06   1.536326421844848e-05
-7.4606155685472865e-06   1.972527570571472e-06   1.536326421844848e-05
-7.4606155685472865e-06   1.972527570571472e-06   1.536326421844848e-05
-2.8158205051565405e-06   1.8594394030943106e-06   2.384932642704408e-05
-2.8158205051565405e-06   1.8594394030943106e-06   2.384932642704408e-05
-2.8158205051565405e-06   1.8594394030943106e-06   2.384932642704408e-05
-2.8158205051565405e-06   1.8594394030943106e-06   2.384932642704408e-05
-1.2488949406464287e-05   1.7966845504587253e-06   7.689792013283259e-06
-1.2488949406464287e-05   1.7966845504587253e-06   7.689792013283259e-06
-1.2488949406464287e-05   1.7966845504587253e-06   7.689792013283259e-06
-1.2488949406464287e-05   1.7966845504587253e-06   7.689792013283259e-06
-1.291702082504591e-05   1.4899770411907088e-06   2.3931306654805646e-05
-1.291702082504591e-05   1.4899770411907088e-06   2.3931306654805646e-05
-1.291702082504591e-05   1.4899770411907088e-06   2.3931306654805646e-05
-1.291702082504591e-05   1.4899770411907088e-06   2.3931306654805646e-05
-3.2489801276369766e-06   1.3961121259615898e-06   7.874224441595164e-06
-3.2489801276369766e-06   1.3961121259615898e-06   7.874224441595164e-06
-3.2489801276369766e-06   1.3961121259615898e-06   7.874224441595164e-06
-3.2489801276369766e-06   1.3961121259615898e-06   7.874224441595164e-06
-7.84328287302592e-06   1.6787534339577671e-06   1.5361810899112863e-05
-7.84328287302592e-06   1.6787534339577671e-06   1.5361810899112863e-05
-7.84328287302592e-06   1.6787534339577671e-06   1.5361810899112863e-05
-7.84328287302592e-06   1.6787534339577671e-06   1.5361810899112863e-05
-3.24898012763699e-06   1.4899770411907088e-06   2.3987625603943377e-05
-3.24898012763699e-06   1.4899770411907088e-06   2.3987625603943377e-05
-3.24898012763699e-06   1.4899770411907088e-06   2.3987625603943377e-05
-3.24898012763699e-06   1.4899770411907088e-06   2.3987625603943377e-05
-1.291702082504591e-05   1.396112125961373e-06   7.817905492457622e-06
-1.291702082504591e-05   1.396112125961373e-06   7.817905492457622e-06
-1.291702082504591e-05   1.396112125961373e-06   7.817905492457622e-06
-1.291702082504591e-05   1.396112125961373e-06   7.817905492457622e-06
-1.3340001741312556e-05   1.1394586435264139e-06   2.4249694231738127e-05
-1.3340001741312556e-05   1.1394586435264139e-06   2.4249694231738127e-05
-1.3340001741312556e-05   1.1394586435264139e-06   2.4249694231738127e-05
-1.3340001741312556e-05   1.1394586435264139e-06   2.4249694231738127e-05
-3.678594118231677e-06   1.010590441152641e-06   8.224669114694432e-06
-3.678594118231677e-06   1.010590441152641e-06   8.224669114694432e-06
-3.678594118231677e-06   1.010590441152641e-06   8.224669114694432e-06
-3.678594118231677e-06   1.010590441152641e-06   8.224669114694432e-06
-8.24368516987906e-06   1.3919812416440368e-06   1.5604319720478372e-05
-8.24368516987906e-06   1.3919812416440368e-06   1.5604319720478372e-05
-8.24368516987906e-06   1.3919812416440368e-06   1.5604319720478372e-05
-8.24368516987906e-06   1.3919812416440368e-06   1.5604319720478372e-05
-1.2070826816009469e-05   4.403001306562109e-06   2.1207096974079458e-05
-1.2070826816009469e-05   4.403001306562109e-06   2.1207096974079458e-05
-1.2070826816009469e-05   4.403001306562109e-06   2.1207096974079458e-05
-1.2070826816009469e-05   4.403001306562109e-06   2.1207096974079458e-05
-2.1592274861442355e-05   3.780775378060255e-06   4.964681341256623e-06
-2.1592274861442355e-05   3.780775378060255e-06   4.964681341256623e-06
-2.1592274861442355e-05   3.780775378060255e-06   4.964681341256623e-06
-2.1592274861442355e-05   3.780775378060255e-06   4.964681341256623e-06
-2.2041100414008964e-05   4.0442061186390064e-06   2.0928838469354196e-05
-2.2041100414008964e-05   4.0442061186390064e-06   2.0928838469354196e-05
-2.2041100414008964e-05   4.0442061186390064e-06   2.0928838469354196e-05
-2.2041100414008964e-05   4.0442061186390064e-06   2.0928838469354196e-05
-1.2488949406464232e-05   3.385477377355591e-06   5.403824034882907e-06
-1.2488949406464232e-05   3.385477377355591e-06   5.403824034882907e-06
-1.2488949406464232e-05   3.385477377355591e-06   5.403824034882907e-06
-1.2488949406464232e-05   3.385477377355591e-06   5.403824034882907e-06
-1.699993299926372e-05   3.8360810260371254e-06   1.2651767833673513e-05
-1.699993299926372e-05   3.8360810260371254e-06   1.2651767833673513e-05
-1.699993299926372e-05   3.8360810260371254e-06   1.2651767833673513e-05
-1.699993299926372e-05   3.8360810260371254e-06   1.2651767833673513e-05
-1.2488949406464287e-05   4.0442061186390064e-06   2.1324075714123964e-05
-1.2488949406464287e-05   4.0442061186390064e-06   2.1324075714123964e-05
-1.2488949406464287e-05   4.0442061186390064e-06   2.1324075714123964e-05
-1.2488949406464287e-05   4.0442061186390064e-06   2.1324075714123964e-05
-2.204110041400891e-05   3.385477377355591e-06   5.00858679011295e-06
-2.204110041400891e-05   3.385477377355591e-06   5.00858679011295e-06
-2.204110041400891e-05   3.385477377355591e-06   5.00858679011295e-06
-2.204110041400891e-05   3.385477377355591e-06   5.00858679011295e-06
-2.254593226560096e-05   3.709166163426295e-06   2.1645508021897594e-05
-2.254593226560096e-05   3.709166163426295e-06   2.1645508021897594e-05
-2.254593226560096e-05   3.709166163426295e-06   2.1645508021897594e-05
-2.254593226560096e-05   3.709166163426295e-06   2.1645508021897594e-05
-1.2917020825045856e-05   3.0190917733896074e-06   6.011366921661207e-06
-1.2917020825045856e-05   3.0190917733896074e-06   6.011366921661207e-06
-1.2917020825045856e-05   3.0190917733896074e-06   6.011366921661207e-06
-1.2917020825045856e-05   3.0190917733896074e-06   6.011366921661207e-06
-1.7309549903221543e-05   3.567071584147357e-06   1.3003460832166573e-05
-1.7309549903221543e-05   3.567071584147357e-06   1.3003460832166573e-05
-1.7309549903221543e-05   3.567071584147357e-06   1.3003460832166573e-05
-1.7309549903221543e-05   3.567071584147357e-06   1.3003460832166573e-05
-1.2917020825045883e-05   3.709166163426295e-06   2.2059552655919346e-05
-1.2917020825045883e-05   3.709166163426295e-06   2.2059552655919346e-05
-1.2917020825045883e-05   3.709166163426295e-06   2.2059552655919346e-05
-1.2917020825045883e-05   3.709166163426295e-06   2.2059552655919346e-05
-2.2545932265600934e-05   3.019091773389824e-06   5.597322287639265e-06
-2.2545932265600934e-05   3.019091773389824e-06   5.597322287639265e-06
-2.2545932265600934e-05   3.019091773389824e-06   5.597322287639265e-06
-2.2545932265600934e-05   3.019091773389824e-06   5.597322287639265e-06
-2.2994312873188597e-05   3.3183372237176843e-06   2.2247679877117257e-05
-2.2994312873188597e-05   3.3183372237176843e-06   2.2247679877117257e-05
-2.2994312873188597e-05   3.3183372237176843e-06   2.2247679877117257e-05
-2.2994312873188597e-05   3.3183372237176843e-06   2.2247679877117257e-05
-1.3340001741312502e-05   2.6089111082787473e-06   6.582816993253959e-06
-1.3340001741312502e-05   2.6089111082787473e-06   6.582816993253959e-06
-1.3340001741312502e-05   2.6089111082787473e-06   6.582816993253959e-06
-1.3340001741312502e-05   2.6089111082787473e-06   6.582816993253959e-06
-1.7816242490462802e-05   3.283234492752231e-06   1.3638624211153802e-05
-1.7816242490462802e-05   3.283234492752231e-06   1.3638624211153802e-05
-1.7816242490462802e-05   3.283234492752231e-06   1.3638624211153802e-05
-1.7816242490462802e-05   3.283234492752231e-06   1.3638624211153802e-05
-2.1592274861442355e-05   6.077602889655032e-06   1.0200812797226799e-05
-2.1592274861442355e-05   6.077602889655032e-06   1.0200812797226799e-05
-2.1592274861442355e-05   6.077602889655032e-06   1.0200812797226799e-05
-2.1592274861442355e-05   6.077602889655032e-06   1.0200812797226799e-05
-3.0536388169403745e-05   4.968239349889027e-06   -5.371660839901843e-06
-3.0536388169403745e-05   4.968239349889027e-06   -5.371660839901843e-06
-3.0536388169403745e-05   4.968239349889027e-06   -5.371660839901843e-06
-3.0536388169403745e-05   4.968239349889027e-06   -5.371660839901843e-06
-3.147599545036238e-05   6.050018444352231e-06   1.3094640263004676e-05
-3.147599545036238e-05   6.050018444352231e-06   1.3094640263004676e-05
-3.147599545036238e-05   6.050018444352231e-06   1.3094640263004676e-05
-3.147599545036238e-05   6.050018444352231e-06   1.3094640263004676e-05
-2.2041100414008883e-05   4.842986885138624e-06   -1.9059658620560957e-06
-2.2041100414008883e-05   4.842986885138624e-06   -1.9059658620560957e-06
-2.2041100414008883e-05   4.842986885138624e-06   -1.9059658620560957e-06
-2.2041100414008883e-05   4.842986885138624e-06   -1.9059658620560957e-06
-2.542121373547783e-05   5.383885165084323e-06   3.403017372425026e-06
-2.542121373547783e-05   5.383885165084323e-06   3.403017372425026e-06
-2.542121373547783e-05   5.383885165084323e-06   3.403017372425026e-06
-2.542121373547783e-05   5.383885165084323e-06   3.403017372425026e-06
-2.2041100414008937e-05   6.050018444352231e-06   1.3818859198533036e-05
-2.2041100414008937e-05   6.050018444352231e-06   1.3818859198533036e-05
-2.2041100414008937e-05   6.050018444352231e-06   1.3818859198533036e-05
-2.2041100414008937e-05   6.050018444352231e-06   1.3818859198533036e-05
-3.147599545036243e-05   4.8429868851384075e-06   -2.6301847975844007e-06
-3.147599545036243e-05   4.8429868851384075e-06   -2.6301847975844007e-06
-3.147599545036243e-05   4.8429868851384075e-06   -2.6301847975844007e-06
-3.147599545036243e-05   4.8429868851384075e-06   -2.6301847975844007e-06
-3.229500434914179e-05   5.927662959132225e-06   1.5595649608076073e-05
-3.229500434914179e-05   5.927662959132225e-06   1.5595649608076073e-05
-3.229500434914179e-05   5.927662959132225e-06   1.5595649608076073e-05
-3.229500434914179e-05   5.927662959132225e-06   1.5595649608076073e-05
-2.254593226560088e-05   4.687526816695049e-06   9.127782097024563e-08
-2.254593226560088e-05   4.687526816695049e-06   9.127782097024563e-08
-2.254593226560088e-05   4.687526816695049e-06   9.127782097024563e-08
-2.254593226560088e-05   4.687526816695049e-06   9.127782097024563e-08
-2.6418900686025644e-05   5.388522444279729e-06   6.1256278117950095e-06
-2.6418900686025644e-05   5.388522444279729e-06   6.1256278117950095e-06
-2.6418900686025644e-05   5.388522444279729e-06   6.1256278117950095e-06
-2.6418900686025644e-05   5.388522444279729e-06   6.1256278117950095e-06
-2.2545932265600934e-05   5.927662959132225e-06   1.63397312935384e-05
-2.2545932265600934e-05   5.927662959132225e-06   1.63397312935384e-05
-2.2545932265600934e-05   5.927662959132225e-06   1.63397312935384e-05
-2.2545932265600934e-05   5.927662959132225e-06   1.63397312935384e-05
-3.2295004349141817e-05   4.687526816695049e-06   -6.528038644920274e-07
-3.2295004349141817e-05   4.687526816695049e-06   -6.528038644920274e-07
-3.2295004349141817e-05   4.687526816695049e-06   -6.528038644920274e-07
-3.2295004349141817e-05   4.687526816695049e-06   -6.528038644920274e-07
-3.3244370888111004e-05   5.385691217146566e-06   1.9939018382132906e-05
-3.3244370888111004e-05   5.385691217146566e-06   1.9939018382132906e-05
-3.3244370888111004e-05   5.385691217146566e-06   1.9939018382132906e-05
-3.3244370888111004e-05   5.385691217146566e-06   1.9939018382132906e-05
-2.2994312873188515e-05   4.164000937478471e-06   3.5886025250629985e-06
-2.2994312873188515e-05   4.164000937478471e-06   3.5886025250629985e-06
-2.2994312873188515e-05   4.164000937478471e-06   3.5886025250629985e-06
-2.2994312873188515e-05   4.164000937478471e-06   3.5886025250629985e-06
-2.663668839784896e-05   5.16035194250415e-06   9.061417796481642e-06
-2.663668839784896e-05   5.16035194250415e-06   9.061417796481642e-06
-2.663668839784896e-05   5.16035194250415e-06   9.061417796481642e-06
-2.663668839784896e-05   5.16035194250415e-06   9.061417796481642e-06
1.0039454104130712e-05   -1.1525962473975162e-06   1.4141633006483126e-05
1.0039454104130712e-05   -1.1525962473975162e-06   1.4141633006483126e-05
1.0039454104130712e-05   -1.1525962473975162e-06   1.4141633006483126e-05
1.0039454104130712e-05   -1.1525962473975162e-06   1.4141633006483126e-05
2.6538616583264056e-06   1.0232772398735893e-08   2.530009675353771e-06
2.6538616583264056e-06   1.0232772398735893e-08   2.530009675353771e-06
2.6538616583264056e-06   1.0232772398735893e-08   2.530009675353771e-06
2.6538616583264056e-06   1.0232772398735893e-08   2.530009675353771e-06
2.308100611487866e-06   -1.595034648507656e-06   1.317525683384199e-05
2.308100611487866e-06   -1.595034648507656e-06   1.317525683384199e-05
2.308100611487866e-06   -1.595034648507656e-06   1.317525683384199e-05
2.308100611487866e-06   -1.595034648507656e-06   1.317525683384199e-05
9.18395314761333e-06   -3.869371454967357e-07   9.906441051599034e-07
9.18395314761333e-06   -3.869371454967357e-07   9.906441051599034e-07
9.18395314761333e-06   -3.869371454967357e-07   9.906441051599034e-07
9.18395314761333e-06   -3.869371454967357e-07   9.906441051599034e-07
5.690714703525909e-06   -8.372882188097727e-07   7.082918822627152e-06
5.690714703525909e-06   -8.372882188097727e-07   7.082918822627152e-06
5.690714703525909e-06   -8.372882188097727e-07   7.082918822627152e-06
5.690714703525909e-06   -8.372882188097727e-07   7.082918822627152e-06
9.18395314761335e-06   -1.5950346485078728e-06   1.2450398332035546e-05
9.18395314761335e-06   -1.5950346485078728e-06   1.2450398332035546e-05
9.18395314761335e-06   -1.5950346485078728e-06   1.2450398332035546e-05
9.18395314761335e-06   -1.5950346485078728e-06   1.2450398332035546e-05
2.308100611487866e-06   -3.869371454967357e-07   1.715502606966469e-06
2.308100611487866e-06   -3.869371454967357e-07   1.715502606966469e-06
2.308100611487866e-06   -3.869371454967357e-07   1.715502606966469e-06
2.308100611487866e-06   -3.869371454967357e-07   1.715502606966469e-06
1.9046468880836515e-06   -1.7467747987975554e-06   1.2359018330260034e-05
1.9046468880836515e-06   -1.7467747987975554e-06   1.2359018330260034e-05
1.9046468880836515e-06   -1.7467747987975554e-06   1.2359018330260034e-05
1.9046468880836515e-06   -1.7467747987975554e-06   1.2359018330260034e-05
8.459038719425976e-06   -5.573792291802731e-07   7.21394602919224e-07
8.459038719425976e-06   -5.573792291802731e-07   7.21394602919224e-07
8.459038719425976e-06   -5.573792291802731e-07   7.21394602919224e-07
8.459038719425976e-06   -5.573792291802731e-07   7.21394602919224e-07
5.2792243348331956e-06   -1.0107333834230743e-06   6.293097736452817e-06
5.2792243348331956e-06   -1.0107333834230743e-06   6.293097736452817e-06
5.2792243348331956e-06   -1.0107333834230743e-06   6.293097736452817e-06
5.2792243348331956e-06   -1.0107333834230743e-06   6.293097736452817e-06
8.45903871942599e-06   -1.7467747987975554e-06   1.1645380988489686e-05
8.45903871942599e-06   -1.7467747987975554e-06   1.1645380988489686e-05
8.45903871942599e-06   -1.7467747987975554e-06   1.1645380988489686e-05
8.45903871942599e-06   -1.7467747987975554e-06   1.1645380988489686e-05
1.904646888083648e-06   -5.573792291802731e-07   1.4350319446894497e-06
1.904646888083648e-06   -5.573792291802731e-07   1.4350319446894497e-06
1.904646888083648e-06   -5.573792291802731e-07   1.4350319446894497e-06
1.904646888083648e-06   -5.573792291802731e-07   1.4350319446894497e-06
1.5548298369636704e-06   -1.9455354598237745e-06   1.1410795282012988e-05
1.5548298369636704e-06   -1.9455354598237745e-06   1.1410795282012988e-05
1.5548298369636704e-06   -1.9455354598237745e-06   1.1410795282012988e-05
1.5548298369636704e-06   -1.9455354598237745e-06   1.1410795282012988e-05
7.60934470316418e-06   -8.397716026866753e-07   6.564788573966217e-07
7.60934470316418e-06   -8.397716026866753e-07   6.564788573966217e-07
7.60934470316418e-06   -8.397716026866753e-07   6.564788573966217e-07
7.60934470316418e-06   -8.397716026866753e-07   6.564788573966217e-07
4.6674911192291735e-06   -1.0987455542474031e-06   5.71495253489162e-06
4.6674911192291735e-06   -1.0987455542474031e-06   5.71495253489162e-06
4.6674911192291735e-06   -1.0987455542474031e-06   5.71495253489162e-06
4.6674911192291735e-06   -1.0987455542474031e-06   5.71495253489162e-06
2.653861658326409e-06   5.796738894363416e-07   1.9399263429350946e-05
2.653861658326409e-06   5.796738894363416e-07   1.9399263429350946e-05
2.653861658326409e-06   5.796738894363416e-07   1.9399263429350946e-05
2.653861658326409e-06   5.796738894363416e-07   1.9399263429350946e-05
-4.0698984201752956e-06   1.1078445681082403e-06   8.509899039051182e-06
-4.0698984201752956e-06   1.1078445681082403e-06   8.509899039051182e-06
-4.0698984201752956e-06   1.1078445681082403e-06   8.509899039051182e-06
-4.0698984201752956e-06   1.1078445681082403e-06   8.509899039051182e-06
-4.373910675769163e-06   1.3277397863543233e-07   1.945824327810326e-05
-4.373910675769163e-06   1.3277397863543233e-07   1.945824327810326e-05
-4.373910675769163e-06   1.3277397863543233e-07   1.945824327810326e-05
-4.373910675769163e-06   1.3277397863543233e-07   1.945824327810326e-05
2.308100611487866e-06   6.601071213289348e-07   8.00515791372547e-06
2.308100611487866e-06   6.601071213289348e-07   8.00515791372547e-06
2.308100611487866e-06   6.601071213289348e-07   8.00515791372547e-06
2.308100611487866e-06   6.601071213289348e-07   8.00515791372547e-06
-9.210910987082788e-07   5.750032246272171e-07   1.3438206435407277e-05
-9.210910987082788e-07   5.750032246272171e-07   1.3438206435407277e-05
-9.210910987082788e-07   5.750032246272171e-07   1.3438206435407277e-05
-9.210910987082788e-07   5.750032246272171e-07   1.3438206435407277e-05
2.308100611487866e-06   1.3277397863543233e-07   1.9141843392487005e-05
2.308100611487866e-06   1.3277397863543233e-07   1.9141843392487005e-05
2.308100611487866e-06   1.3277397863543233e-07   1.9141843392487005e-05
2.308100611487866e-06   1.3277397863543233e-07   1.9141843392487005e-05
-4.373910675769163e-06   6.601071213289348e-07   8.3215577993417e-06
-4.373910675769163e-06   6.601071213289348e-07   8.3215577993417e-06
-4.373910675769163e-06   6.601071213289348e-07   8.3215577993417e-06
-4.373910675769163e-06   6.601071213289348e-07   8.3215577993417e-06
-4.686913643297264e-06   -2.3214820817421544e-07   1.9328919433573644e-05
-4.686913643297264e-06   -2.3214820817421544e-07   1.9328919433573644e-05
-4.686913643297264e-06   -2.3214820817421544e-07   1.9328919433573644e-05
-4.686913643297264e-06   -2.3214820817421544e-07   1.9328919433573644e-05
1.904646888083648e-06   2.814428587832613e-07   8.034830574430879e-06
1.904646888083648e-06   2.814428587832613e-07   8.034830574430879e-06
1.904646888083648e-06   2.814428587832613e-07   8.034830574430879e-06
1.904646888083648e-06   2.814428587832613e-07   8.034830574430879e-06
-1.2459342275717277e-06   2.632310074333639e-07   1.3296726211333543e-05
-1.2459342275717277e-06   2.632310074333639e-07   1.3296726211333543e-05
-1.2459342275717277e-06   2.632310074333639e-07   1.3296726211333543e-05
-1.2459342275717277e-06   2.632310074333639e-07   1.3296726211333543e-05
1.9046468880836515e-06   -2.3214820817421544e-07   1.9020764793398984e-05
1.9046468880836515e-06   -2.3214820817421544e-07   1.9020764793398984e-05
1.9046468880836515e-06   -2.3214820817421544e-07   1.9020764793398984e-05
1.9046468880836515e-06   -2.3214820817421544e-07   1.9020764793398984e-05
-4.686913643297278e-06   2.8144285878336974e-07   8.342985214605477e-06
-4.686913643297278e-06   2.8144285878336974e-07   8.342985214605477e-06
-4.686913643297278e-06   2.8144285878336974e-07   8.342985214605477e-06
-4.686913643297278e-06   2.8144285878336974e-07   8.342985214605477e-06
-4.995376135011648e-06   -5.907964456452943e-07   1.9578762761366677e-05
-4.995376135011648e-06   -5.907964456452943e-07   1.9578762761366677e-05
-4.995376135011648e-06   -5.907964456452943e-07   1.9578762761366677e-05
-4.995376135011648e-06   -5.907964456452943e-07   1.9578762761366677e-05
1.5548298369636704e-06   -1.0455297687794914e-07   8.370006726814255e-06
1.5548298369636704e-06   -1.0455297687794914e-07   8.370006726814255e-06
1.5548298369636704e-06   -1.0455297687794914e-07   8.370006726814255e-06
1.5548298369636704e-06   -1.0455297687794914e-07   8.370006726814255e-06
-1.5204653019434028e-06   -1.5638802271407404e-08   1.3442150120228881e-05
-1.5204653019434028e-06   -1.5638802271407404e-08   1.3442150120228881e-05
-1.5204653019434028e-06   -1.5638802271407404e-08   1.3442150120228881e-05
-1.5204653019434028e-06   -1.5638802271407404e-08   1.3442150120228881e-05
-4.0698984201752956e-06   2.201932369892516e-06   2.1503078755242644e-05
-4.0698984201752956e-06   2.201932369892516e-06   2.1503078755242644e-05
-4.0698984201752956e-06   2.201932369892516e-06   2.1503078755242644e-05
-4.0698984201752956e-06   2.201932369892516e-06   2.1503078755242644e-05
-1.067662751800253e-05   2.0782231441029975e-06   1.0417638056723591e-05
-1.067662751800253e-05   2.0782231441029975e-06   1.0417638056723591e-05
-1.067662751800253e-05   2.0782231441029975e-06   1.0417638056723591e-05
-1.067662751800253e-05   2.0782231441029975e-06   1.0417638056723591e-05
-1.0968563819362923e-05   1.7966845504585084e-06   2.1312811088227833e-05
-1.0968563819362923e-05   1.7966845504585084e-06   2.1312811088227833e-05
-1.0968563819362923e-05   1.7966845504585084e-06   2.1312811088227833e-05
-1.0968563819362923e-05   1.7966845504585084e-06   2.1312811088227833e-05
-4.373910675769136e-06   1.6662500249482216e-06   1.0399983230877894e-05
-4.373910675769136e-06   1.6662500249482216e-06   1.0399983230877894e-05
-4.373910675769136e-06   1.6662500249482216e-06   1.0399983230877894e-05
-4.373910675769136e-06   1.6662500249482216e-06   1.0399983230877894e-05
-7.536523027733378e-06   1.8887851486759123e-06   1.5537482743248923e-05
-7.536523027733378e-06   1.8887851486759123e-06   1.5537482743248923e-05
-7.536523027733378e-06   1.8887851486759123e-06   1.5537482743248923e-05
-7.536523027733378e-06   1.8887851486759123e-06   1.5537482743248923e-05
-4.373910675769163e-06   1.7966845504587253e-06   2.1391071803534092e-05
-4.373910675769163e-06   1.7966845504587253e-06   2.1391071803534092e-05
-4.373910675769163e-06   1.7966845504587253e-06   2.1391071803534092e-05
-4.373910675769163e-06   1.7966845504587253e-06   2.1391071803534092e-05
-1.0968563819362896e-05   1.6662500249482216e-06   1.032172251557177e-05
-1.0968563819362896e-05   1.6662500249482216e-06   1.032172251557177e-05
-1.0968563819362896e-05   1.6662500249482216e-06   1.032172251557177e-05
-1.0968563819362896e-05   1.6662500249482216e-06   1.032172251557177e-05
-1.1269979342640787e-05   1.3961121259615898e-06   2.1451958811533663e-05
-1.1269979342640787e-05   1.3961121259615898e-06   2.1451958811533663e-05
-1.1269979342640787e-05   1.3961121259615898e-06   2.1451958811533663e-05
-1.1269979342640787e-05   1.3961121259615898e-06   2.1451958811533663e-05
-4.686913643297264e-06   1.2564101818893659e-06   1.0564003812404456e-05
-4.686913643297264e-06   1.2564101818893659e-06   1.0564003812404456e-05
-4.686913643297264e-06   1.2564101818893659e-06   1.0564003812404456e-05
-4.686913643297264e-06   1.2564101818893659e-06   1.0564003812404456e-05
-7.796263115180263e-06   1.5757989170299413e-06   1.555461969112511e-05
-7.796263115180263e-06   1.5757989170299413e-06   1.555461969112511e-05
-7.796263115180263e-06   1.5757989170299413e-06   1.555461969112511e-05
-7.796263115180263e-06   1.5757989170299413e-06   1.555461969112511e-05
-4.686913643297278e-06   1.3961121259615898e-06   2.1535779977976998e-05
-4.686913643297278e-06   1.3961121259615898e-06   2.1535779977976998e-05
-4.686913643297278e-06   1.3961121259615898e-06   2.1535779977976998e-05
-4.686913643297278e-06   1.3961121259615898e-06   2.1535779977976998e-05
-1.1269979342640787e-05   1.2564101818893659e-06   1.0480182645961175e-05
-1.1269979342640787e-05   1.2564101818893659e-06   1.0480182645961175e-05
-1.1269979342640787e-05   1.2564101818893659e-06   1.0480182645961175e-05
-1.1269979342640787e-05   1.2564101818893659e-06   1.0480182645961175e-05
-1.1566624185179093e-05   1.010590441152424e-06   2.1795191221912454e-05
-1.1566624185179093e-05   1.010590441152424e-06   2.1795191221912454e-05
-1.1566624185179093e-05   1.010590441152424e-06   2.1795191221912454e-05
-1.1566624185179093e-05   1.010590441152424e-06   2.1795191221912454e-05
-4.995376135011648e-06   8.641870778394907e-07   1.093095315628806e-05
-4.995376135011648e-06   8.641870778394907e-07   1.093095315628806e-05
-4.995376135011648e-06   8.641870778394907e-07   1.093095315628806e-05
-4.995376135011648e-06   8.641870778394907e-07   1.093095315628806e-05
-8.072646612478439e-06   1.2691875930601493e-06   1.5816736976267243e-05
-8.072646612478439e-06   1.2691875930601493e-06   1.5816736976267243e-05
-8.072646612478439e-06   1.2691875930601493e-06   1.5816736976267243e-05
-8.072646612478439e-06   1.2691875930601493e-06   1.5816736976267243e-05
-1.067662751800253e-05   3.780775378060255e-06   1.8949648432522396e-05
-1.067662751800253e-05   3.780775378060255e-06   1.8949648432522396e-05
-1.067662751800253e-05   3.780775378060255e-06   1.8949648432522396e-05
-1.067662751800253e-05   3.780775378060255e-06   1.8949648432522396e-05
-1.7167510274851297e-05   3.09258472391881e-06   7.71859611195622e-06
-1.7167510274851297e-05   3.09258472391881e-06   7.71859611195622e-06
-1.7167510274851297e-05   3.09258472391881e-06   7.71859611195622e-06
-1.7167510274851297e-05   3.09258472391881e-06   7.71859611195622e-06
-1.7485976648139748e-05   3.3854773773558076e-06   1.8602045133089915e-05
-1.7485976648139748e-05   3.3854773773558076e-06   1.8602045133089915e-05
-1.7485976648139748e-05   3.3854773773558076e-06   1.8602045133089915e-05
-1.7485976648139748e-05   3.3854773773558076e-06   1.8602045133089915e-05
-1.0968563819362896e-05   2.677480749459964e-06   8.164488395199512e-06
-1.0968563819362896e-05   2.677480749459964e-06   8.164488395199512e-06
-1.0968563819362896e-05   2.677480749459964e-06   8.164488395199512e-06
-1.0968563819362896e-05   2.677480749459964e-06   8.164488395199512e-06
-1.404062294838154e-05   3.180459365155269e-06   1.298279977414744e-05
-1.404062294838154e-05   3.180459365155269e-06   1.298279977414744e-05
-1.404062294838154e-05   3.180459365155269e-06   1.298279977414744e-05
-1.404062294838154e-05   3.180459365155269e-06   1.298279977414744e-05
-1.0968563819362923e-05   3.385477377355591e-06   1.9026843109827508e-05
-1.0968563819362923e-05   3.385477377355591e-06   1.9026843109827508e-05
-1.0968563819362923e-05   3.385477377355591e-06   1.9026843109827508e-05
-1.0968563819362923e-05   3.385477377355591e-06   1.9026843109827508e-05
-1.748597664813972e-05   2.677480749459964e-06   7.739690418462136e-06
-1.748597664813972e-05   2.677480749459964e-06   7.739690418462136e-06
-1.748597664813972e-05   2.677480749459964e-06   7.739690418462136e-06
-1.748597664813972e-05   2.677480749459964e-06   7.739690418462136e-06
-1.786281730066451e-05   3.019091773389824e-06   1.921370902077408e-05
-1.786281730066451e-05   3.019091773389824e-06   1.921370902077408e-05
-1.786281730066451e-05   3.019091773389824e-06   1.921370902077408e-05
-1.786281730066451e-05   3.019091773389824e-06   1.921370902077408e-05
-1.126997934264076e-05   2.2995730734514178e-06   8.657356977364303e-06
-1.126997934264076e-05   2.2995730734514178e-06   8.657356977364303e-06
-1.126997934264076e-05   2.2995730734514178e-06   8.657356977364303e-06
-1.126997934264076e-05   2.2995730734514178e-06   8.657356977364303e-06
-1.4246179843707837e-05   2.8871430669784315e-06   1.3265149149693073e-05
-1.4246179843707837e-05   2.8871430669784315e-06   1.3265149149693073e-05
-1.4246179843707837e-05   2.8871430669784315e-06   1.3265149149693073e-05
-1.4246179843707837e-05   2.8871430669784315e-06   1.3265149149693073e-05
-1.126997934264076e-05   3.0190917733896074e-06   1.964542024073695e-05
-1.126997934264076e-05   3.0190917733896074e-06   1.964542024073695e-05
-1.126997934264076e-05   3.0190917733896074e-06   1.964542024073695e-05
-1.126997934264076e-05   3.0190917733896074e-06   1.964542024073695e-05
-1.7862817300664483e-05   2.299573073451526e-06   8.225645757401325e-06
-1.7862817300664483e-05   2.299573073451526e-06   8.225645757401325e-06
-1.7862817300664483e-05   2.299573073451526e-06   8.225645757401325e-06
-1.7862817300664483e-05   2.299573073451526e-06   8.225645757401325e-06
-1.8185798064496964e-05   2.6089111082787473e-06   1.980242147269515e-05
-1.8185798064496964e-05   2.6089111082787473e-06   1.980242147269515e-05
-1.8185798064496964e-05   2.6089111082787473e-06   1.980242147269515e-05
-1.8185798064496964e-05   2.6089111082787473e-06   1.980242147269515e-05
-1.1566624185179066e-05   1.8951801929432705e-06   9.198703556366733e-06
-1.1566624185179066e-05   1.8951801929432705e-06   9.198703556366733e-06
-1.1566624185179066e-05   1.8951801929432705e-06   9.198703556366733e-06
-1.1566624185179066e-05   1.8951801929432705e-06   9.198703556366733e-06
-1.4601164190574919e-05   2.5928232647058017e-06   1.38376843889697e-05
-1.4601164190574919e-05   2.5928232647058017e-06   1.38376843889697e-05
-1.4601164190574919e-05   2.5928232647058017e-06   1.38376843889697e-05
-1.4601164190574919e-05   2.5928232647058017e-06   1.38376843889697e-05
-1.716751027485135e-05   4.96823934988881e-06   8.866009982738655e-06
-1.716751027485135e-05   4.96823934988881e-06   8.866009982738655e-06
-1.716751027485135e-05   4.96823934988881e-06   8.866009982738655e-06
-1.716751027485135e-05   4.96823934988881e-06   8.866009982738655e-06
-2.303751552693885e-05   3.8131643644860776e-06   -1.6103770953154566e-06
-2.303751552693885e-05   3.8131643644860776e-06   -1.6103770953154566e-06
-2.303751552693885e-05   3.8131643644860776e-06   -1.6103770953154566e-06
-2.303751552693885e-05   3.8131643644860776e-06   -1.6103770953154566e-06
-2.3854634330465778e-05   4.8429868851384075e-06   1.0942423725641059e-05
-2.3854634330465778e-05   4.8429868851384075e-06   1.0942423725641059e-05
-2.3854634330465778e-05   4.8429868851384075e-06   1.0942423725641059e-05
-2.3854634330465778e-05   4.8429868851384075e-06   1.0942423725641059e-05
-1.7485976648139693e-05   3.6012056263388676e-06   1.0730630103776041e-06
-1.7485976648139693e-05   3.6012056263388676e-06   1.0730630103776041e-06
-1.7485976648139693e-05   3.6012056263388676e-06   1.0730630103776041e-06
-1.7485976648139693e-05   3.6012056263388676e-06   1.0730630103776041e-06
-1.964354174643004e-05   4.22615080263207e-06   4.294037735086496e-06
-1.964354174643004e-05   4.22615080263207e-06   4.294037735086496e-06
-1.964354174643004e-05   4.22615080263207e-06   4.294037735086496e-06
-1.964354174643004e-05   4.22615080263207e-06   4.294037735086496e-06
-1.7485976648139693e-05   4.8429868851384075e-06   1.1687492480920653e-05
-1.7485976648139693e-05   4.8429868851384075e-06   1.1687492480920653e-05
-1.7485976648139693e-05   4.8429868851384075e-06   1.1687492480920653e-05
-1.7485976648139693e-05   4.8429868851384075e-06   1.1687492480920653e-05
-2.3854634330465778e-05   3.6012056263388676e-06   3.2799425509779344e-07
-2.3854634330465778e-05   3.6012056263388676e-06   3.2799425509779344e-07
-2.3854634330465778e-05   3.6012056263388676e-06   3.2799425509779344e-07
-2.3854634330465778e-05   3.6012056263388676e-06   3.2799425509779344e-07
-2.4557440211933558e-05   4.687526816695049e-06   1.2948993968753698e-05
-2.4557440211933558e-05   4.687526816695049e-06   1.2948993968753698e-05
-2.4557440211933558e-05   4.687526816695049e-06   1.2948993968753698e-05
-2.4557440211933558e-05   4.687526816695049e-06   1.2948993968753698e-05
-1.7862817300664456e-05   3.4230758411095538e-06   2.5499597019899346e-06
-1.7862817300664456e-05   3.4230758411095538e-06   2.5499597019899346e-06
-1.7862817300664456e-05   3.4230758411095538e-06   2.5499597019899346e-06
-1.7862817300664456e-05   3.4230758411095538e-06   2.5499597019899346e-06
-2.0429645258080627e-05   4.171888168677572e-06   6.37871890114296e-06
-2.0429645258080627e-05   4.171888168677572e-06   6.37871890114296e-06
-2.0429645258080627e-05   4.171888168677572e-06   6.37871890114296e-06
-2.0429645258080627e-05   4.171888168677572e-06   6.37871890114296e-06
-1.7862817300664483e-05   4.687526816695266e-06   1.370766455410506e-05
-1.7862817300664483e-05   4.687526816695266e-06   1.370766455410506e-05
-1.7862817300664483e-05   4.687526816695266e-06   1.370766455410506e-05
-1.7862817300664483e-05   4.687526816695266e-06   1.370766455410506e-05
-2.4557440211933667e-05   3.4230758411094454e-06   1.7912891166385722e-06
-2.4557440211933667e-05   3.4230758411094454e-06   1.7912891166385722e-06
-2.4557440211933667e-05   3.4230758411094454e-06   1.7912891166385722e-06
-2.4557440211933667e-05   3.4230758411094454e-06   1.7912891166385722e-06
-2.5397784620595086e-05   4.164000937478688e-06   1.64976010915334e-05
-2.5397784620595086e-05   4.164000937478688e-06   1.64976010915334e-05
-2.5397784620595086e-05   4.164000937478688e-06   1.64976010915334e-05
-2.5397784620595086e-05   4.164000937478688e-06   1.64976010915334e-05
-1.818579806449691e-05   2.936898300421936e-06   5.21388508027069e-06
-1.818579806449691e-05   2.936898300421936e-06   5.21388508027069e-06
-1.818579806449691e-05   2.936898300421936e-06   5.21388508027069e-06
-1.818579806449691e-05   2.936898300421936e-06   5.21388508027069e-06
-2.0622330747313604e-05   3.950793732399212e-06   8.666435625779049e-06
-2.0622330747313604e-05   3.950793732399212e-06   8.666435625779049e-06
-2.0622330747313604e-05   3.950793732399212e-06   8.666435625779049e-06
-2.0622330747313604e-05   3.950793732399212e-06   8.666435625779049e-06
2.115513805173798e-06   1.0232772398735893e-08   1.0590431630603213e-05
2.115513805173798e-06   1.0232772398735893e-08   1.0590431630603213e-05
2.115513805173798e-06   1.0232772398735893e-08   1.0590431630603213e-05
2.115513805173798e-06   1.0232772398735893e-08   1.0590431630603213e-05
-2.1417129169293807e-06   1.129247399571094e-06   4.166462536734717e-06
-2.1417129169293807e-06   1.129247399571094e-06   4.166462536734717e-06
-2.1417129169293807e-06   1.129247399571094e-06   4.166462536734717e-06
-2.1417129169293807e-06   1.129247399571094e-06   4.166462536734717e-06
-2.3881752113618324e-06   -3.869371454967357e-07   1.043256428700319e-05
-2.3881752113618324e-06   -3.869371454967357e-07   1.043256428700319e-05
-2.3881752113618324e-06   -3.869371454967357e-07   1.043256428700319e-05
-2.3881752113618324e-06   -3.869371454967357e-07   1.043256428700319e-05
1.3667314104013947e-06   7.586301200289717e-07   3.4870462247490607e-06
1.3667314104013947e-06   7.586301200289717e-07   3.4870462247490607e-06
1.3667314104013947e-06   7.586301200289717e-07   3.4870462247490607e-06
1.3667314104013947e-06   7.586301200289717e-07   3.4870462247490607e-06
-3.645234025379875e-07   3.1396030335077707e-07   6.639272802988277e-06
-3.645234025379875e-07   3.1396030335077707e-07   6.639272802988277e-06
-3.645234025379875e-07   3.1396030335077707e-07   6.639272802988277e-06
-3.645234025379875e-07   3.1396030335077707e-07   6.639272802988277e-06
1.3667314104013947e-06   -3.869371454967357e-07   9.745223927687613e-06
1.3667314104013947e-06   -3.869371454967357e-07   9.745223927687613e-06
1.3667314104013947e-06   -3.869371454967357e-07   9.745223927687613e-06
1.3667314104013947e-06   -3.869371454967357e-07   9.745223927687613e-06
-2.3881752113618324e-06   7.586301200289717e-07   4.174386584064474e-06
-2.3881752113618324e-06   7.586301200289717e-07   4.174386584064474e-06
-2.3881752113618324e-06   7.586301200289717e-07   4.174386584064474e-06
-2.3881752113618324e-06   7.586301200289717e-07   4.174386584064474e-06
-2.6929006027750685e-06   -5.573792291803815e-07   1.0151346387670573e-05
-2.6929006027750685e-06   -5.573792291803815e-07   1.0151346387670573e-05
-2.6929006027750685e-06   -5.573792291803815e-07   1.0151346387670573e-05
-2.6929006027750685e-06   -5.573792291803815e-07   1.0151346387670573e-05
7.162850463680583e-07   5.557510484485413e-07   3.8014921391880984e-06
7.162850463680583e-07   5.557510484485413e-07   3.8014921391880984e-06
7.162850463680583e-07   5.557510484485413e-07   3.8014921391880984e-06
7.162850463680583e-07   5.557510484485413e-07   3.8014921391880984e-06
-7.674299268105673e-07   1.5612533660162853e-07   6.514125854927017e-06
-7.674299268105673e-07   1.5612533660162853e-07   6.514125854927017e-06
-7.674299268105673e-07   1.5612533660162853e-07   6.514125854927017e-06
-7.674299268105673e-07   1.5612533660162853e-07   6.514125854927017e-06
7.162850463680583e-07   -5.573792291803815e-07   9.483468221093208e-06
7.162850463680583e-07   -5.573792291803815e-07   9.483468221093208e-06
7.162850463680583e-07   -5.573792291803815e-07   9.483468221093208e-06
7.162850463680583e-07   -5.573792291803815e-07   9.483468221093208e-06
-2.692900602775065e-06   5.557510484485413e-07   4.469370305765327e-06
-2.692900602775065e-06   5.557510484485413e-07   4.469370305765327e-06
-2.692900602775065e-06   5.557510484485413e-07   4.469370305765327e-06
-2.692900602775065e-06   5.557510484485413e-07   4.469370305765327e-06
-2.9480273848130887e-06   -8.397716026865669e-07   1.00391364530652e-05
-2.9480273848130887e-06   -8.397716026865669e-07   1.00391364530652e-05
-2.9480273848130887e-06   -8.397716026865669e-07   1.00391364530652e-05
-2.9480273848130887e-06   -8.397716026865669e-07   1.00391364530652e-05
-1.00290266065018e-07   1.2654916519121845e-07   4.71311546109169e-06
-1.00290266065018e-07   1.2654916519121845e-07   4.71311546109169e-06
-1.00290266065018e-07   1.2654916519121845e-07   4.71311546109169e-06
-1.00290266065018e-07   1.2654916519121845e-07   4.71311546109169e-06
-1.2053758456172624e-06   1.310554513967322e-08   6.622990932376335e-06
-1.2053758456172624e-06   1.310554513967322e-08   6.622990932376335e-06
-1.2053758456172624e-06   1.310554513967322e-08   6.622990932376335e-06
-1.2053758456172624e-06   1.310554513967322e-08   6.622990932376335e-06
-2.1417129169293807e-06   1.1078445681082403e-06   1.6924827363401073e-05
-2.1417129169293807e-06   1.1078445681082403e-06   1.6924827363401073e-05
-2.1417129169293807e-06   1.1078445681082403e-06   1.6924827363401073e-05
-2.1417129169293807e-06   1.1078445681082403e-06   1.6924827363401073e-05
-5.702825143472085e-06   1.3307827333019096e-06   1.1123403218279548e-05
-5.702825143472085e-06   1.3307827333019096e-06   1.1123403218279548e-05
-5.702825143472085e-06   1.3307827333019096e-06   1.1123403218279548e-05
-5.702825143472085e-06   1.3307827333019096e-06   1.1123403218279548e-05
-5.889253235751607e-06   6.601071213289348e-07   1.687666082952281e-05
-5.889253235751607e-06   6.601071213289348e-07   1.687666082952281e-05
-5.889253235751607e-06   6.601071213289348e-07   1.687666082952281e-05
-5.889253235751607e-06   6.601071213289348e-07   1.687666082952281e-05
-2.3881752113618324e-06   9.175091809299684e-07   1.0887089553112599e-05
-2.3881752113618324e-06   9.175091809299684e-07   1.0887089553112599e-05
-2.3881752113618324e-06   9.175091809299684e-07   1.0887089553112599e-05
-2.3881752113618324e-06   9.175091809299684e-07   1.0887089553112599e-05
-4.055675270705058e-06   9.55482050832594e-07   1.3643472596743062e-05
-4.055675270705058e-06   9.55482050832594e-07   1.3643472596743062e-05
-4.055675270705058e-06   9.55482050832594e-07   1.3643472596743062e-05
-4.055675270705058e-06   9.55482050832594e-07   1.3643472596743062e-05
-2.388175211361829e-06   6.601071213289348e-07   1.672221959376195e-05
-2.388175211361829e-06   6.601071213289348e-07   1.672221959376195e-05
-2.388175211361829e-06   6.601071213289348e-07   1.672221959376195e-05
-2.388175211361829e-06   6.601071213289348e-07   1.672221959376195e-05
-5.889253235751607e-06   9.175091809299684e-07   1.1041530788873186e-05
-5.889253235751607e-06   9.175091809299684e-07   1.1041530788873186e-05
-5.889253235751607e-06   9.175091809299684e-07   1.1041530788873186e-05
-5.889253235751607e-06   9.175091809299684e-07   1.1041530788873186e-05
-6.081623187556204e-06   2.8144285878336974e-07   1.6904497405527885e-05
-6.081623187556204e-06   2.8144285878336974e-07   1.6904497405527885e-05
-6.081623187556204e-06   2.8144285878336974e-07   1.6904497405527885e-05
-6.081623187556204e-06   2.8144285878336974e-07   1.6904497405527885e-05
-2.692900602775065e-06   5.370301723097446e-07   1.110327404277673e-05
-2.692900602775065e-06   5.370301723097446e-07   1.110327404277673e-05
-2.692900602775065e-06   5.370301723097446e-07   1.110327404277673e-05
-2.692900602775065e-06   5.370301723097446e-07   1.110327404277673e-05
-4.2462015331879884e-06   6.540685379967815e-07   1.3621885907386076e-05
-4.2462015331879884e-06   6.540685379967815e-07   1.3621885907386076e-05
-4.2462015331879884e-06   6.540685379967815e-07   1.3621885907386076e-05
-4.2462015331879884e-06   6.540685379967815e-07   1.3621885907386076e-05
-2.692900602775065e-06   2.8144285878336974e-07   1.6751145017411886e-05
-2.692900602775065e-06   2.8144285878336974e-07   1.6751145017411886e-05
-2.692900602775065e-06   2.8144285878336974e-07   1.6751145017411886e-05
-2.692900602775065e-06   2.8144285878336974e-07   1.6751145017411886e-05
-6.0816231875561905e-06   5.370301723097446e-07   1.1256626430892634e-05
-6.0816231875561905e-06   5.370301723097446e-07   1.1256626430892634e-05
-6.0816231875561905e-06   5.370301723097446e-07   1.1256626430892634e-05
-6.0816231875561905e-06   5.370301723097446e-07   1.1256626430892634e-05
-6.270538421606947e-06   -1.0455297687794914e-07   1.722747729609043e-05
-6.270538421606947e-06   -1.0455297687794914e-07   1.722747729609043e-05
-6.270538421606947e-06   -1.0455297687794914e-07   1.722747729609043e-05
-6.270538421606947e-06   -1.0455297687794914e-07   1.722747729609043e-05
-2.948027384813082e-06   1.2589916960554278e-07   1.1551687613544024e-05
-2.948027384813082e-06   1.2589916960554278e-07   1.1551687613544024e-05
-2.948027384813082e-06   1.2589916960554278e-07   1.1551687613544024e-05
-2.948027384813082e-06   1.2589916960554278e-07   1.1551687613544024e-05
-4.436142910967619e-06   3.5878683645319646e-07   1.389214755702634e-05
-4.436142910967619e-06   3.5878683645319646e-07   1.389214755702634e-05
-4.436142910967619e-06   3.5878683645319646e-07   1.389214755702634e-05
-4.436142910967619e-06   3.5878683645319646e-07   1.389214755702634e-05
-5.702825143472071e-06   2.0782231441029975e-06   1.9040554815663363e-05
-5.702825143472071e-06   2.0782231441029975e-06   1.9040554815663363e-05
-5.702825143472071e-06   2.0782231441029975e-06   1.9040554815663363e-05
-5.702825143472071e-06   2.0782231441029975e-06   1.9040554815663363e-05
-9.246086603955777e-06   1.602554090744928e-06   1.2849717616175683e-05
-9.246086603955777e-06   1.602554090744928e-06   1.2849717616175683e-05
-9.246086603955777e-06   1.602554090744928e-06   1.2849717616175683e-05
-9.246086603955777e-06   1.602554090744928e-06   1.2849717616175683e-05
-9.404237318198208e-06   1.6662500249482216e-06   1.868756167237222e-05
-9.404237318198208e-06   1.6662500249482216e-06   1.868756167237222e-05
-9.404237318198208e-06   1.6662500249482216e-06   1.868756167237222e-05
-9.404237318198208e-06   1.6662500249482216e-06   1.868756167237222e-05
-5.889253235751607e-06   1.2203757104703493e-06   1.3096779456981338e-05
-5.889253235751607e-06   1.2203757104703493e-06   1.3096779456981338e-05
-5.889253235751607e-06   1.2203757104703493e-06   1.3096779456981338e-05
-5.889253235751607e-06   1.2203757104703493e-06   1.3096779456981338e-05
-7.564785161682697e-06   1.6093365508038993e-06   1.565595616266635e-05
-7.564785161682697e-06   1.6093365508038993e-06   1.565595616266635e-05
-7.564785161682697e-06   1.6093365508038993e-06   1.565595616266635e-05
-7.564785161682697e-06   1.6093365508038993e-06   1.565595616266635e-05
-5.889253235751607e-06   1.6662500249482216e-06   1.895508626105892e-05
-5.889253235751607e-06   1.6662500249482216e-06   1.895508626105892e-05
-5.889253235751607e-06   1.6662500249482216e-06   1.895508626105892e-05
-5.889253235751607e-06   1.6662500249482216e-06   1.895508626105892e-05
-9.404237318198208e-06   1.2203757104703493e-06   1.2829254868294555e-05
-9.404237318198208e-06   1.2203757104703493e-06   1.2829254868294555e-05
-9.404237318198208e-06   1.2203757104703493e-06   1.2829254868294555e-05
-9.404237318198208e-06   1.2203757104703493e-06   1.2829254868294555e-05
-9.573563809540855e-06   1.2564101818892575e-06   1.887088986028923e-05
-9.573563809540855e-06   1.2564101818892575e-06   1.887088986028923e-05
-9.573563809540855e-06   1.2564101818892575e-06   1.887088986028923e-05
-9.573563809540855e-06   1.2564101818892575e-06   1.887088986028923e-05
-6.0816231875561905e-06   8.320332768266964e-07   1.3305614966685724e-05
-6.0816231875561905e-06   8.320332768266964e-07   1.3305614966685724e-05
-6.0816231875561905e-06   8.320332768266964e-07   1.3305614966685724e-05
-6.0816231875561905e-06   8.320332768266964e-07   1.3305614966685724e-05
-7.699932906496413e-06   1.303734169027463e-06   1.5719777296265252e-05
-7.699932906496413e-06   1.303734169027463e-06   1.5719777296265252e-05
-7.699932906496413e-06   1.303734169027463e-06   1.5719777296265252e-05
-7.699932906496413e-06   1.303734169027463e-06   1.5719777296265252e-05
-6.0816231875561905e-06   1.2564101818892575e-06   1.912551600332681e-05
-6.0816231875561905e-06   1.2564101818892575e-06   1.912551600332681e-05
-6.0816231875561905e-06   1.2564101818892575e-06   1.912551600332681e-05
-6.0816231875561905e-06   1.2564101818892575e-06   1.912551600332681e-05
-9.573563809540855e-06   8.320332768266964e-07   1.305098882364809e-05
-9.573563809540855e-06   8.320332768266964e-07   1.305098882364809e-05
-9.573563809540855e-06   8.320332768266964e-07   1.305098882364809e-05
-9.573563809540855e-06   8.320332768266964e-07   1.305098882364809e-05
-9.739402894260065e-06   8.641870778393823e-07   1.9256736088468763e-05
-9.739402894260065e-06   8.641870778393823e-07   1.9256736088468763e-05
-9.739402894260065e-06   8.641870778393823e-07   1.9256736088468763e-05
-9.739402894260065e-06   8.641870778393823e-07   1.9256736088468763e-05
-6.270538421606934e-06   4.6428448478050104e-07   1.3715236856548968e-05
-6.270538421606934e-06   4.6428448478050104e-07   1.3715236856548968e-05
-6.270538421606934e-06   4.6428448478050104e-07   1.3715236856548968e-05
-6.270538421606934e-06   4.6428448478050104e-07   1.3715236856548968e-05
-7.850481914560328e-06   1.0028955720722864e-06   1.6025309359096225e-05
-7.850481914560328e-06   1.0028955720722864e-06   1.6025309359096225e-05
-7.850481914560328e-06   1.0028955720722864e-06   1.6025309359096225e-05
-7.850481914560328e-06   1.0028955720722864e-06   1.6025309359096225e-05
-9.246086603955804e-06   3.09258472391881e-06   1.6469025831365985e-05
-9.246086603955804e-06   3.09258472391881e-06   1.6469025831365985e-05
-9.246086603955804e-06   3.09258472391881e-06   1.6469025831365985e-05
-9.246086603955804e-06   3.09258472391881e-06   1.6469025831365985e-05
-1.2733686706506073e-05   2.1708304428351725e-06   1.0103306425132089e-05
-1.2733686706506073e-05   2.1708304428351725e-06   1.0103306425132089e-05
-1.2733686706506073e-05   2.1708304428351725e-06   1.0103306425132089e-05
-1.2733686706506073e-05   2.1708304428351725e-06   1.0103306425132089e-05
-1.2907584821321758e-05   2.677480749459964e-06   1.5985145528892475e-05
-1.2907584821321758e-05   2.677480749459964e-06   1.5985145528892475e-05
-1.2907584821321758e-05   2.677480749459964e-06   1.5985145528892475e-05
-1.2907584821321758e-05   2.677480749459964e-06   1.5985145528892475e-05
-9.404237318198208e-06   1.7688440442805136e-06   1.0691415046794144e-05
-9.404237318198208e-06   1.7688440442805136e-06   1.0691415046794144e-05
-9.404237318198208e-06   1.7688440442805136e-06   1.0691415046794144e-05
-9.404237318198208e-06   1.7688440442805136e-06   1.0691415046794144e-05
-1.104942161391321e-05   2.405648877056932e-06   1.3051305973319958e-05
-1.104942161391321e-05   2.405648877056932e-06   1.3051305973319958e-05
-1.104942161391321e-05   2.405648877056932e-06   1.3051305973319958e-05
-1.104942161391321e-05   2.405648877056932e-06   1.3051305973319958e-05
-9.404237318198208e-06   2.677480749459964e-06   1.6530327552000015e-05
-9.404237318198208e-06   2.677480749459964e-06   1.6530327552000015e-05
-9.404237318198208e-06   2.677480749459964e-06   1.6530327552000015e-05
-9.404237318198208e-06   2.677480749459964e-06   1.6530327552000015e-05
-1.2907584821321704e-05   1.7688440442805136e-06   1.014623302368655e-05
-1.2907584821321704e-05   1.7688440442805136e-06   1.014623302368655e-05
-1.2907584821321704e-05   1.7688440442805136e-06   1.014623302368655e-05
-1.2907584821321704e-05   1.7688440442805136e-06   1.014623302368655e-05
-1.3147144052728298e-05   2.299573073451526e-06   1.651481808875692e-05
-1.3147144052728298e-05   2.299573073451526e-06   1.651481808875692e-05
-1.3147144052728298e-05   2.299573073451526e-06   1.651481808875692e-05
-1.3147144052728298e-05   2.299573073451526e-06   1.651481808875692e-05
-9.573563809540855e-06   1.4108295685590034e-06   1.1092097119713349e-05
-9.573563809540855e-06   1.4108295685590034e-06   1.1092097119713349e-05
-9.573563809540855e-06   1.4108295685590034e-06   1.1092097119713349e-05
-9.573563809540855e-06   1.4108295685590034e-06   1.1092097119713349e-05
-1.1143892533780836e-05   2.1094963818571975e-06   1.329011157213413e-05
-1.1143892533780836e-05   2.1094963818571975e-06   1.329011157213413e-05
-1.1143892533780836e-05   2.1094963818571975e-06   1.329011157213413e-05
-1.1143892533780836e-05   2.1094963818571975e-06   1.329011157213413e-05
-9.573563809540855e-06   2.299573073451526e-06   1.7048064191692194e-05
-9.573563809540855e-06   2.299573073451526e-06   1.7048064191692194e-05
-9.573563809540855e-06   2.299573073451526e-06   1.7048064191692194e-05
-9.573563809540855e-06   2.299573073451526e-06   1.7048064191692194e-05
-1.3147144052728243e-05   1.4108295685591118e-06   1.055885101677802e-05
-1.3147144052728243e-05   1.4108295685591118e-06   1.055885101677802e-05
-1.3147144052728243e-05   1.4108295685591118e-06   1.055885101677802e-05
-1.3147144052728243e-05   1.4108295685591118e-06   1.055885101677802e-05
-1.3339015250446809e-05   1.895180192943379e-06   1.7102639021220555e-05
-1.3339015250446809e-05   1.895180192943379e-06   1.7102639021220555e-05
-1.3339015250446809e-05   1.895180192943379e-06   1.7102639021220555e-05
-1.3339015250446809e-05   1.895180192943379e-06   1.7102639021220555e-05
-9.739402894260037e-06   1.0456977174188621e-06   1.1612974579557284e-05
-9.739402894260037e-06   1.0456977174188621e-06   1.1612974579557284e-05
-9.739402894260037e-06   1.0456977174188621e-06   1.1612974579557284e-05
-9.739402894260037e-06   1.0456977174188621e-06   1.1612974579557284e-05
-1.134273297764699e-05   1.8274207901744412e-06   1.3816157541549296e-05
-1.134273297764699e-05   1.8274207901744412e-06   1.3816157541549296e-05
-1.134273297764699e-05   1.8274207901744412e-06   1.3816157541549296e-05
-1.134273297764699e-05   1.8274207901744412e-06   1.3816157541549296e-05
-1.2733686706506073e-05   3.8131643644860776e-06   7.280045046685808e-06
-1.2733686706506073e-05   3.8131643644860776e-06   7.280045046685808e-06
-1.2733686706506073e-05   3.8131643644860776e-06   7.280045046685808e-06
-1.2733686706506073e-05   3.8131643644860776e-06   7.280045046685808e-06
-1.5491220038672034e-05   2.5722930870468756e-06   1.9396333932789707e-06
-1.5491220038672034e-05   2.5722930870468756e-06   1.9396333932789707e-06
-1.5491220038672034e-05   2.5722930870468756e-06   1.9396333932789707e-06
-1.5491220038672034e-05   2.5722930870468756e-06   1.9396333932789707e-06
-1.6148570002629957e-05   3.601205626338976e-06   8.540742658070806e-06
-1.6148570002629957e-05   3.601205626338976e-06   8.540742658070806e-06
-1.6148570002629957e-05   3.601205626338976e-06   8.540742658070806e-06
-1.6148570002629957e-05   3.601205626338976e-06   8.540742658070806e-06
-1.290758482132173e-05   2.304913188443873e-06   3.916876151960954e-06
-1.290758482132173e-05   2.304913188443873e-06   3.916876151960954e-06
-1.290758482132173e-05   2.304913188443873e-06   3.916876151960954e-06
-1.290758482132173e-05   2.304913188443873e-06   3.916876151960954e-06
-1.3822924013458796e-05   3.0405320573744475e-06   5.00107015083092e-06
-1.3822924013458796e-05   3.0405320573744475e-06   5.00107015083092e-06
-1.3822924013458796e-05   3.0405320573744475e-06   5.00107015083092e-06
-1.3822924013458796e-05   3.0405320573744475e-06   5.00107015083092e-06
-1.290758482132173e-05   3.601205626338976e-06   9.318518120807672e-06
-1.290758482132173e-05   3.601205626338976e-06   9.318518120807672e-06
-1.290758482132173e-05   3.601205626338976e-06   9.318518120807672e-06
-1.290758482132173e-05   3.601205626338976e-06   9.318518120807672e-06
-1.6148570002629957e-05   2.304913188443873e-06   3.1391006892239246e-06
-1.6148570002629957e-05   2.304913188443873e-06   3.1391006892239246e-06
-1.6148570002629957e-05   2.304913188443873e-06   3.1391006892239246e-06
-1.6148570002629957e-05   2.304913188443873e-06   3.1391006892239246e-06
-1.671235907013262e-05   3.4230758411095538e-06   1.0057851206028679e-05
-1.671235907013262e-05   3.4230758411095538e-06   1.0057851206028679e-05
-1.671235907013262e-05   3.4230758411095538e-06   1.0057851206028679e-05
-1.671235907013262e-05   3.4230758411095538e-06   1.0057851206028679e-05
-1.314714405272827e-05   2.1209411289144784e-06   4.897107004338296e-06
-1.314714405272827e-05   2.1209411289144784e-06   4.897107004338296e-06
-1.314714405272827e-05   2.1209411289144784e-06   4.897107004338296e-06
-1.314714405272827e-05   2.1209411289144784e-06   4.897107004338296e-06
-1.4380891388242646e-05   2.9363612006178506e-06   6.464100520506928e-06
-1.4380891388242646e-05   2.9363612006178506e-06   6.464100520506928e-06
-1.4380891388242646e-05   2.9363612006178506e-06   6.464100520506928e-06
-1.4380891388242646e-05   2.9363612006178506e-06   6.464100520506928e-06
-1.314714405272827e-05   3.4230758411095538e-06   1.0839132033345529e-05
-1.314714405272827e-05   3.4230758411095538e-06   1.0839132033345529e-05
-1.314714405272827e-05   3.4230758411095538e-06   1.0839132033345529e-05
-1.314714405272827e-05   3.4230758411095538e-06   1.0839132033345529e-05
-1.671235907013262e-05   2.1209411289144784e-06   4.1158261770212834e-06
-1.671235907013262e-05   2.1209411289144784e-06   4.1158261770212834e-06
-1.671235907013262e-05   2.1209411289144784e-06   4.1158261770212834e-06
-1.671235907013262e-05   2.1209411289144784e-06   4.1158261770212834e-06
-1.7428983797715652e-05   2.936898300421936e-06   1.2801998416205398e-05
-1.7428983797715652e-05   2.936898300421936e-06   1.2801998416205398e-05
-1.7428983797715652e-05   2.936898300421936e-06   1.2801998416205398e-05
-1.7428983797715652e-05   2.936898300421936e-06   1.2801998416205398e-05
-1.3339015250446809e-05   1.6967971702217931e-06   6.729444848877647e-06
-1.3339015250446809e-05   1.6967971702217931e-06   6.729444848877647e-06
-1.3339015250446809e-05   1.6967971702217931e-06   6.729444848877647e-06
-1.3339015250446809e-05   1.6967971702217931e-06   6.729444848877647e-06
-1.4538775534320278e-05   2.734352415088761e-06   8.106512175079766e-06
-1.4538775534320278e-05   2.734352415088761e-06   8.106512175079766e-06
-1.4538775534320278e-05   2.734352415088761e-06   8.106512175079766e-06
-1.4538775534320278e-05   2.734352415088761e-06   8.106512175079766e-06
-6.170437160599201e-06   1.129247399571094e-06   7.5907011360247544e-06
-6.170437160599201e-06   1.129247399571094e-06   7.5907011360247544e-06
-6.170437160599201e-06   1.129247399571094e-06   7.5907011360247544e-06
-6.170437160599201e-06   1.129247399571094e-06   7.5907011360247544e-06
-6.822706884963487e-06   2.1465100429034364e-06   7.11394251475038e-06
-6.822706884963487e-06   2.1465100429034364e-06   7.11394251475038e-06
-6.822706884963487e-06   2.1465100429034364e-06   7.11394251475038e-06
-6.822706884963487e-06   2.1465100429034364e-06   7.11394251475038e-06
-7.001935097214575e-06   7.586301200289717e-07   8.133611572772633e-06
-7.001935097214575e-06   7.586301200289717e-07   8.133611572772633e-06
-7.001935097214575e-06   7.586301200289717e-07   8.133611572772633e-06
-7.001935097214575e-06   7.586301200289717e-07   8.133611572772633e-06
-6.917304031907975e-06   1.674283862783876e-06   7.443167551608645e-06
-6.917304031907975e-06   1.674283862783876e-06   7.443167551608645e-06
-6.917304031907975e-06   1.674283862783876e-06   7.443167551608645e-06
-6.917304031907975e-06   1.674283862783876e-06   7.443167551608645e-06
-6.5632187781808824e-06   1.3325659272954166e-06   7.058056223356604e-06
-6.5632187781808824e-06   1.3325659272954166e-06   7.058056223356604e-06
-6.5632187781808824e-06   1.3325659272954166e-06   7.058056223356604e-06
-6.5632187781808824e-06   1.3325659272954166e-06   7.058056223356604e-06
-6.917304031907995e-06   7.586301200289717e-07   7.584219327119658e-06
-6.917304031907995e-06   7.586301200289717e-07   7.584219327119658e-06
-6.917304031907995e-06   7.586301200289717e-07   7.584219327119658e-06
-6.917304031907995e-06   7.586301200289717e-07   7.584219327119658e-06
-7.001935097214575e-06   1.674283862783876e-06   7.99255979726162e-06
-7.001935097214575e-06   1.674283862783876e-06   7.99255979726162e-06
-7.001935097214575e-06   1.674283862783876e-06   7.99255979726162e-06
-7.001935097214575e-06   1.674283862783876e-06   7.99255979726162e-06
-7.234410997244934e-06   5.557510484485413e-07   8.37901976955517e-06
-7.234410997244934e-06   5.557510484485413e-07   8.37901976955517e-06
-7.234410997244934e-06   5.557510484485413e-07   8.37901976955517e-06
-7.234410997244934e-06   5.557510484485413e-07   8.37901976955517e-06
-7.644569753091742e-06   1.3489077380317424e-06   8.586723682216585e-06
-7.644569753091742e-06   1.3489077380317424e-06   8.586723682216585e-06
-7.644569753091742e-06   1.3489077380317424e-06   8.586723682216585e-06
-7.644569753091742e-06   1.3489077380317424e-06   8.586723682216585e-06
-7.00734235889015e-06   1.1292044093619367e-06   7.65650002241587e-06
-7.00734235889015e-06   1.1292044093619367e-06   7.65650002241587e-06
-7.00734235889015e-06   1.1292044093619367e-06   7.65650002241587e-06
-7.00734235889015e-06   1.1292044093619367e-06   7.65650002241587e-06
-7.644569753091755e-06   5.557510484486498e-07   7.903125755805206e-06
-7.644569753091755e-06   5.557510484486498e-07   7.903125755805206e-06
-7.644569753091755e-06   5.557510484486498e-07   7.903125755805206e-06
-7.644569753091755e-06   5.557510484486498e-07   7.903125755805206e-06
-7.234410997244934e-06   1.3489077380317424e-06   9.062617695966536e-06
-7.234410997244934e-06   1.3489077380317424e-06   9.062617695966536e-06
-7.234410997244934e-06   1.3489077380317424e-06   9.062617695966536e-06
-7.234410997244934e-06   1.3489077380317424e-06   9.062617695966536e-06
-7.383738135884152e-06   1.2654916519121845e-07   9.188311135334437e-06
-7.383738135884152e-06   1.2654916519121845e-07   9.188311135334437e-06
-7.383738135884152e-06   1.2654916519121845e-07   9.188311135334437e-06
-7.383738135884152e-06   1.2654916519121845e-07   9.188311135334437e-06
-8.41945661619117e-06   5.492089736818624e-07   1.066091271741831e-05
-8.41945661619117e-06   5.492089736818624e-07   1.066091271741831e-05
-8.41945661619117e-06   5.492089736818624e-07   1.066091271741831e-05
-8.41945661619117e-06   5.492089736818624e-07   1.066091271741831e-05
-7.3229343556851624e-06   8.80972398641512e-07   8.634317561598971e-06
-7.3229343556851624e-06   8.80972398641512e-07   8.634317561598971e-06
-7.3229343556851624e-06   8.80972398641512e-07   8.634317561598971e-06
-7.3229343556851624e-06   8.80972398641512e-07   8.634317561598971e-06
-6.822706884963487e-06   1.3307827333019096e-06   1.502423650445267e-05
-6.822706884963487e-06   1.3307827333019096e-06   1.502423650445267e-05
-6.822706884963487e-06   1.3307827333019096e-06   1.502423650445267e-05
-6.822706884963487e-06   1.3307827333019096e-06   1.502423650445267e-05
-6.961502098685169e-06   5.562958352576847e-07   1.4328219009423365e-05
-6.961502098685169e-06   5.562958352576847e-07   1.4328219009423365e-05
-6.961502098685169e-06   5.562958352576847e-07   1.4328219009423365e-05
-6.961502098685169e-06   5.562958352576847e-07   1.4328219009423365e-05
-7.018925056387237e-06   9.175091809299684e-07   1.4454535570386875e-05
-7.018925056387237e-06   9.175091809299684e-07   1.4454535570386875e-05
-7.018925056387237e-06   9.175091809299684e-07   1.4454535570386875e-05
-7.018925056387237e-06   9.175091809299684e-07   1.4454535570386875e-05
-7.001935097214575e-06   2.645442285402e-07   1.4817997943199652e-05
-7.001935097214575e-06   2.645442285402e-07   1.4817997943199652e-05
-7.001935097214575e-06   2.645442285402e-07   1.4817997943199652e-05
-7.001935097214575e-06   2.645442285402e-07   1.4817997943199652e-05
-6.930991063963475e-06   6.776593267502403e-07   1.4451888828855082e-05
-6.930991063963475e-06   6.776593267502403e-07   1.4451888828855082e-05
-6.930991063963475e-06   6.776593267502403e-07   1.4451888828855082e-05
-6.930991063963475e-06   6.776593267502403e-07   1.4451888828855082e-05
-7.001935097214582e-06   9.175091809299684e-07   1.484631454182065e-05
-7.001935097214582e-06   9.175091809299684e-07   1.484631454182065e-05
-7.001935097214582e-06   9.175091809299684e-07   1.484631454182065e-05
-7.001935097214582e-06   9.175091809299684e-07   1.484631454182065e-05
-7.018925056387237e-06   2.645442285402e-07   1.4426218971765715e-05
-7.018925056387237e-06   2.645442285402e-07   1.4426218971765715e-05
-7.018925056387237e-06   2.645442285402e-07   1.4426218971765715e-05
-7.018925056387237e-06   2.645442285402e-07   1.4426218971765715e-05
-7.089680576291286e-06   5.370301723096362e-07   1.4647637423168404e-05
-7.089680576291286e-06   5.370301723096362e-07   1.4647637423168404e-05
-7.089680576291286e-06   5.370301723096362e-07   1.4647637423168404e-05
-7.089680576291286e-06   5.370301723096362e-07   1.4647637423168404e-05
-7.234410997244934e-06   -7.177996668746153e-08   1.5254140874822732e-05
-7.234410997244934e-06   -7.177996668746153e-08   1.5254140874822732e-05
-7.234410997244934e-06   -7.177996668746153e-08   1.5254140874822732e-05
-7.234410997244934e-06   -7.177996668746153e-08   1.5254140874822732e-05
-7.000932450677576e-06   4.370515608669544e-07   1.4559711047344682e-05
-7.000932450677576e-06   4.370515608669544e-07   1.4559711047344682e-05
-7.000932450677576e-06   4.370515608669544e-07   1.4559711047344682e-05
-7.000932450677576e-06   4.370515608669544e-07   1.4559711047344682e-05
-7.234410997244934e-06   5.370301723096362e-07   1.5012923506566532e-05
-7.234410997244934e-06   5.370301723096362e-07   1.5012923506566532e-05
-7.234410997244934e-06   5.370301723096362e-07   1.5012923506566532e-05
-7.234410997244934e-06   5.370301723096362e-07   1.5012923506566532e-05
-7.0896805762912725e-06   -7.177996668746153e-08   1.4888854791424448e-05
-7.0896805762912725e-06   -7.177996668746153e-08   1.4888854791424448e-05
-7.0896805762912725e-06   -7.177996668746153e-08   1.4888854791424448e-05
-7.0896805762912725e-06   -7.177996668746153e-08   1.4888854791424448e-05
-7.142300245823775e-06   1.2589916960554278e-07   1.5064040292221833e-05
-7.142300245823775e-06   1.2589916960554278e-07   1.5064040292221833e-05
-7.142300245823775e-06   1.2589916960554278e-07   1.5064040292221833e-05
-7.142300245823775e-06   1.2589916960554278e-07   1.5064040292221833e-05
-7.383738135884135e-06   -5.125183884582287e-07   1.5849487310493854e-05
-7.383738135884135e-06   -5.125183884582287e-07   1.5849487310493854e-05
-7.383738135884135e-06   -5.125183884582287e-07   1.5849487310493854e-05
-7.383738135884135e-06   -5.125183884582287e-07   1.5849487310493854e-05
-7.109673246317337e-06   1.55499838955654e-07   1.4991901558100465e-05
-7.109673246317337e-06   1.55499838955654e-07   1.4991901558100465e-05
-7.109673246317337e-06   1.55499838955654e-07   1.4991901558100465e-05
-7.109673246317337e-06   1.55499838955654e-07   1.4991901558100465e-05
-6.961502098685183e-06   1.602554090744928e-06   1.6571260195537263e-05
-6.961502098685183e-06   1.602554090744928e-06   1.6571260195537263e-05
-6.961502098685183e-06   1.602554090744928e-06   1.6571260195537263e-05
-6.961502098685183e-06   1.602554090744928e-06   1.6571260195537263e-05
-7.533874490249146e-06   1.557627424517735e-07   1.4749231400621474e-05
-7.533874490249146e-06   1.557627424517735e-07   1.4749231400621474e-05
-7.533874490249146e-06   1.557627424517735e-07   1.4749231400621474e-05
-7.533874490249146e-06   1.557627424517735e-07   1.4749231400621474e-05
-7.555135634256449e-06   1.2203757104703493e-06   1.5723886389518572e-05
-7.555135634256449e-06   1.2203757104703493e-06   1.5723886389518572e-05
-7.555135634256449e-06   1.2203757104703493e-06   1.5723886389518572e-05
-7.555135634256449e-06   1.2203757104703493e-06   1.5723886389518572e-05
-7.018925056387237e-06   -8.945403782366053e-08   1.5616099942046264e-05
-7.018925056387237e-06   -8.945403782366053e-08   1.5616099942046264e-05
-7.018925056387237e-06   -8.945403782366053e-08   1.5616099942046264e-05
-7.018925056387237e-06   -8.945403782366053e-08   1.5616099942046264e-05
-7.255434108299794e-06   6.973068451171559e-07   1.553822516546944e-05
-7.255434108299794e-06   6.973068451171559e-07   1.553822516546944e-05
-7.255434108299794e-06   6.973068451171559e-07   1.553822516546944e-05
-7.255434108299794e-06   6.973068451171559e-07   1.553822516546944e-05
-7.018925056387237e-06   1.2203757104703493e-06   1.6509784238494946e-05
-7.018925056387237e-06   1.2203757104703493e-06   1.6509784238494946e-05
-7.018925056387237e-06   1.2203757104703493e-06   1.6509784238494946e-05
-7.018925056387237e-06   1.2203757104703493e-06   1.6509784238494946e-05
-7.555135634256422e-06   -8.945403782366053e-08   1.4830202093069891e-05
-7.555135634256422e-06   -8.945403782366053e-08   1.4830202093069891e-05
-7.555135634256422e-06   -8.945403782366053e-08   1.4830202093069891e-05
-7.555135634256422e-06   -8.945403782366053e-08   1.4830202093069891e-05
-7.591515390531077e-06   8.320332768266964e-07   1.59676055325349e-05
-7.591515390531077e-06   8.320332768266964e-07   1.59676055325349e-05
-7.591515390531077e-06   8.320332768266964e-07   1.59676055325349e-05
-7.591515390531077e-06   8.320332768266964e-07   1.59676055325349e-05
-7.0896805762912725e-06   -3.830007672176827e-07   1.5860234601895067e-05
-7.0896805762912725e-06   -3.830007672176827e-07   1.5860234601895067e-05
-7.0896805762912725e-06   -3.830007672176827e-07   1.5860234601895067e-05
-7.0896805762912725e-06   -3.830007672176827e-07   1.5860234601895067e-05
-7.262222877078378e-06   4.549518320683425e-07   1.564503354363532e-05
-7.262222877078378e-06   4.549518320683425e-07   1.564503354363532e-05
-7.262222877078378e-06   4.549518320683425e-07   1.564503354363532e-05
-7.262222877078378e-06   4.549518320683425e-07   1.564503354363532e-05
-7.0896805762912725e-06   8.320332768266964e-07   1.669662595896133e-05
-7.0896805762912725e-06   8.320332768266964e-07   1.669662595896133e-05
-7.0896805762912725e-06   8.320332768266964e-07   1.669662595896133e-05
-7.0896805762912725e-06   8.320332768266964e-07   1.669662595896133e-05
-7.591515390531077e-06   -3.830007672176827e-07   1.5131214175468472e-05
-7.591515390531077e-06   -3.830007672176827e-07   1.5131214175468472e-05
-7.591515390531077e-06   -3.830007672176827e-07   1.5131214175468472e-05
-7.591515390531077e-06   -3.830007672176827e-07   1.5131214175468472e-05
-7.615928646639364e-06   4.6428448478050104e-07   1.640454919530688e-05
-7.615928646639364e-06   4.6428448478050104e-07   1.640454919530688e-05
-7.615928646639364e-06   4.6428448478050104e-07   1.640454919530688e-05
-7.615928646639364e-06   4.6428448478050104e-07   1.640454919530688e-05
-7.142300245823775e-06   -6.769972686024067e-07   1.629993757931055e-05
-7.142300245823775e-06   -6.769972686024067e-07   1.629993757931055e-05
-7.142300245823775e-06   -6.769972686024067e-07   1.629993757931055e-05
-7.142300245823775e-06   -6.769972686024067e-07   1.629993757931055e-05
-7.2812354104517525e-06   2.0595824160875818e-07   1.6001722880896606e-05
-7.2812354104517525e-06   2.0595824160875818e-07   1.6001722880896606e-05
-7.2812354104517525e-06   2.0595824160875818e-07   1.6001722880896606e-05
-7.2812354104517525e-06   2.0595824160875818e-07   1.6001722880896606e-05
-7.533874490249146e-06   2.1708304428351725e-06   1.3509826764168014e-05
-7.533874490249146e-06   2.1708304428351725e-06   1.3509826764168014e-05
-7.533874490249146e-06   2.1708304428351725e-06   1.3509826764168014e-05
-7.533874490249146e-06   2.1708304428351725e-06   1.3509826764168014e-05
-8.344680672519678e-06   7.14960336021934e-07   1.1284961062962417e-05
-8.344680672519678e-06   7.14960336021934e-07   1.1284961062962417e-05
-8.344680672519678e-06   7.14960336021934e-07   1.1284961062962417e-05
-8.344680672519678e-06   7.14960336021934e-07   1.1284961062962417e-05
-8.36134171301766e-06   1.768844044280622e-06   1.2759624632401674e-05
-8.36134171301766e-06   1.768844044280622e-06   1.2759624632401674e-05
-8.36134171301766e-06   1.768844044280622e-06   1.2759624632401674e-05
-8.36134171301766e-06   1.768844044280622e-06   1.2759624632401674e-05
-7.555135634256449e-06   3.91474151586026e-07   1.224236977008297e-05
-7.555135634256449e-06   3.91474151586026e-07   1.224236977008297e-05
-7.555135634256449e-06   3.91474151586026e-07   1.224236977008297e-05
-7.555135634256449e-06   3.91474151586026e-07   1.224236977008297e-05
-7.928067703194473e-06   1.2903899158665582e-06   1.2324573759744657e-05
-7.928067703194473e-06   1.2903899158665582e-06   1.2324573759744657e-05
-7.928067703194473e-06   1.2903899158665582e-06   1.2324573759744657e-05
-7.928067703194473e-06   1.2903899158665582e-06   1.2324573759744657e-05
-7.555135634256449e-06   1.7688440442805136e-06   1.3586046568018215e-05
-7.555135634256449e-06   1.7688440442805136e-06   1.3586046568018215e-05
-7.555135634256449e-06   1.7688440442805136e-06   1.3586046568018215e-05
-7.555135634256449e-06   1.7688440442805136e-06   1.3586046568018215e-05
-8.36134171301766e-06   3.91474151586026e-07   1.1415947834466321e-05
-8.36134171301766e-06   3.91474151586026e-07   1.1415947834466321e-05
-8.36134171301766e-06   3.91474151586026e-07   1.1415947834466321e-05
-8.36134171301766e-06   3.91474151586026e-07   1.1415947834466321e-05
-8.454405445174854e-06   1.4108295685591118e-06   1.3230764957669183e-05
-8.454405445174854e-06   1.4108295685591118e-06   1.3230764957669183e-05
-8.454405445174854e-06   1.4108295685591118e-06   1.3230764957669183e-05
-8.454405445174854e-06   1.4108295685591118e-06   1.3230764957669183e-05
-7.591515390531077e-06   1.1424811700746877e-07   1.2570563737527142e-05
-7.591515390531077e-06   1.1424811700746877e-07   1.2570563737527142e-05
-7.591515390531077e-06   1.1424811700746877e-07   1.2570563737527142e-05
-7.591515390531077e-06   1.1424811700746877e-07   1.2570563737527142e-05
-7.908088758065167e-06   1.0252082932107887e-06   1.2551609911028551e-05
-7.908088758065167e-06   1.0252082932107887e-06   1.2551609911028551e-05
-7.908088758065167e-06   1.0252082932107887e-06   1.2551609911028551e-05
-7.908088758065167e-06   1.0252082932107887e-06   1.2551609911028551e-05
-7.59151539053105e-06   1.4108295685591118e-06   1.4008713828599887e-05
-7.59151539053105e-06   1.4108295685591118e-06   1.4008713828599887e-05
-7.59151539053105e-06   1.4108295685591118e-06   1.4008713828599887e-05
-7.59151539053105e-06   1.4108295685591118e-06   1.4008713828599887e-05
-8.454405445174854e-06   1.1424811700746877e-07   1.1792614866596167e-05
-8.454405445174854e-06   1.1424811700746877e-07   1.1792614866596167e-05
-8.454405445174854e-06   1.1424811700746877e-07   1.1792614866596167e-05
-8.454405445174854e-06   1.1424811700746877e-07   1.1792614866596167e-05
-8.510694754348708e-06   1.0456977174188621e-06   1.3815590937601291e-05
-8.510694754348708e-06   1.0456977174188621e-06   1.3815590937601291e-05
-8.510694754348708e-06   1.0456977174188621e-06   1.3815590937601291e-05
-8.510694754348708e-06   1.0456977174188621e-06   1.3815590937601291e-05
-7.615928646639364e-06   -1.6536484349671853e-07   1.3050951627968232e-05
-7.615928646639364e-06   -1.6536484349671853e-07   1.3050951627968232e-05
-7.615928646639364e-06   -1.6536484349671853e-07   1.3050951627968232e-05
-7.615928646639364e-06   -1.6536484349671853e-07   1.3050951627968232e-05
-7.950564576592701e-06   7.880487453585999e-07   1.3036630024577012e-05
-7.950564576592701e-06   7.880487453585999e-07   1.3036630024577012e-05
-7.950564576592701e-06   7.880487453585999e-07   1.3036630024577012e-05
-7.950564576592701e-06   7.880487453585999e-07   1.3036630024577012e-05
-8.344680672519678e-06   2.5722930870468756e-06   5.217154434690474e-06
-8.344680672519678e-06   2.5722930870468756e-06   5.217154434690474e-06
-8.344680672519678e-06   2.5722930870468756e-06   5.217154434690474e-06
-8.344680672519678e-06   2.5722930870468756e-06   5.217154434690474e-06
-8.283363801968682e-06   1.1833721928038447e-06   4.485996682396264e-06
-8.283363801968682e-06   1.1833721928038447e-06   4.485996682396264e-06
-8.283363801968682e-06   1.1833721928038447e-06   4.485996682396264e-06
-8.283363801968682e-06   1.1833721928038447e-06   4.485996682396264e-06
-8.709519411858387e-06   2.3049131884437645e-06   5.719605834199923e-06
-8.709519411858387e-06   2.3049131884437645e-06   5.719605834199923e-06
-8.709519411858387e-06   2.3049131884437645e-06   5.719605834199923e-06
-8.709519411858387e-06   2.3049131884437645e-06   5.719605834199923e-06
-8.36134171301766e-06   9.538099776504783e-07   5.949971595941282e-06
-8.36134171301766e-06   9.538099776504783e-07   5.949971595941282e-06
-8.36134171301766e-06   9.538099776504783e-07   5.949971595941282e-06
-8.36134171301766e-06   9.538099776504783e-07   5.949971595941282e-06
-8.150621625650946e-06   1.8115392580640927e-06   5.084133882081996e-06
-8.150621625650946e-06   1.8115392580640927e-06   5.084133882081996e-06
-8.150621625650946e-06   1.8115392580640927e-06   5.084133882081996e-06
-8.150621625650946e-06   1.8115392580640927e-06   5.084133882081996e-06
-8.361341713017633e-06   2.3049131884437645e-06   6.530267760675808e-06
-8.361341713017633e-06   2.3049131884437645e-06   6.530267760675808e-06
-8.361341713017633e-06   2.3049131884437645e-06   6.530267760675808e-06
-8.361341713017633e-06   2.3049131884437645e-06   6.530267760675808e-06
-8.709519411858387e-06   9.538099776504783e-07   5.139309669465234e-06
-8.709519411858387e-06   9.538099776504783e-07   5.139309669465234e-06
-8.709519411858387e-06   9.538099776504783e-07   5.139309669465234e-06
-8.709519411858387e-06   9.538099776504783e-07   5.139309669465234e-06
-9.083402283278528e-06   2.1209411289144784e-06   6.7787745119997096e-06
-9.083402283278528e-06   2.1209411289144784e-06   6.7787745119997096e-06
-9.083402283278528e-06   2.1209411289144784e-06   6.7787745119997096e-06
-9.083402283278528e-06   2.1209411289144784e-06   6.7787745119997096e-06
-8.454405445174827e-06   8.038637401983008e-07   6.520692881723498e-06
-8.454405445174827e-06   8.038637401983008e-07   6.520692881723498e-06
-8.454405445174827e-06   8.038637401983008e-07   6.520692881723498e-06
-8.454405445174827e-06   8.038637401983008e-07   6.520692881723498e-06
-8.455406358711626e-06   1.6784448974594421e-06   5.997612376595115e-06
-8.455406358711626e-06   1.6784448974594421e-06   5.997612376595115e-06
-8.455406358711626e-06   1.6784448974594421e-06   5.997612376595115e-06
-8.455406358711626e-06   1.6784448974594421e-06   5.997612376595115e-06
-8.454405445174827e-06   2.1209411289144784e-06   7.569020945229405e-06
-8.454405445174827e-06   2.1209411289144784e-06   7.569020945229405e-06
-8.454405445174827e-06   2.1209411289144784e-06   7.569020945229405e-06
-8.454405445174827e-06   2.1209411289144784e-06   7.569020945229405e-06
-9.083402283278474e-06   8.038637401983008e-07   5.730446448493803e-06
-9.083402283278474e-06   8.038637401983008e-07   5.730446448493803e-06
-9.083402283278474e-06   8.038637401983008e-07   5.730446448493803e-06
-9.083402283278474e-06   8.038637401983008e-07   5.730446448493803e-06
-9.636811765891418e-06   1.6967971702217931e-06   8.723934484778815e-06
-9.636811765891418e-06   1.6967971702217931e-06   8.723934484778815e-06
-9.636811765891418e-06   1.6967971702217931e-06   8.723934484778815e-06
-9.636811765891418e-06   1.6967971702217931e-06   8.723934484778815e-06
-8.510694754348681e-06   5.004368244596459e-07   7.5648890063312216e-06
-8.510694754348681e-06   5.004368244596459e-07   7.5648890063312216e-06
-8.510694754348681e-06   5.004368244596459e-07   7.5648890063312216e-06
-8.510694754348681e-06   5.004368244596459e-07   7.5648890063312216e-06
-8.558696979563712e-06   1.5187648048324695e-06   7.033895926798609e-06
-8.558696979563712e-06   1.5187648048324695e-06   7.033895926798609e-06
-8.558696979563712e-06   1.5187648048324695e-06   7.033895926798609e-06
-8.558696979563712e-06   1.5187648048324695e-06   7.033895926798609e-06
-1.6203594507173417e-05   2.1465100429034364e-06   6.376397938594506e-06
-1.6203594507173417e-05   2.1465100429034364e-06   6.376397938594506e-06
-1.6203594507173417e-05   2.1465100429034364e-06   6.376397938594506e-06
-1.6203594507173417e-05   2.1465100429034364e-06   6.376397938594506e-06
-1.0972096940078939e-05   2.968212949728817e-06   1.558858229451385e-05
-1.0972096940078939e-05   2.968212949728817e-06   1.558858229451385e-05
-1.0972096940078939e-05   2.968212949728817e-06   1.558858229451385e-05
-1.0972096940078939e-05   2.968212949728817e-06   1.558858229451385e-05
-1.0969113468004448e-05   1.674283862783876e-06   7.212794630503337e-06
-1.0969113468004448e-05   1.674283862783876e-06   7.212794630503337e-06
-1.0969113468004448e-05   1.674283862783876e-06   7.212794630503337e-06
-1.0969113468004448e-05   1.674283862783876e-06   7.212794630503337e-06
-1.7866521003509e-05   1.186472666581302e-06   1.9001160574065915e-05
-1.7866521003509e-05   1.186472666581302e-06   1.9001160574065915e-05
-1.7866521003509e-05   1.186472666581302e-06   1.9001160574065915e-05
-1.7866521003509e-05   1.186472666581302e-06   1.9001160574065915e-05
-1.3279567307334098e-05   1.7552089731708931e-06   1.101499596315394e-05
-1.3279567307334098e-05   1.7552089731708931e-06   1.101499596315394e-05
-1.3279567307334098e-05   1.7552089731708931e-06   1.101499596315394e-05
-1.3279567307334098e-05   1.7552089731708931e-06   1.101499596315394e-05
-1.7866521003509034e-05   1.674283862783876e-06   7.505481348224832e-06
-1.7866521003509034e-05   1.674283862783876e-06   7.505481348224832e-06
-1.7866521003509034e-05   1.674283862783876e-06   7.505481348224832e-06
-1.7866521003509034e-05   1.674283862783876e-06   7.505481348224832e-06
-1.0969113468004425e-05   1.186472666581302e-06   1.8708473856344338e-05
-1.0969113468004425e-05   1.186472666581302e-06   1.8708473856344338e-05
-1.0969113468004425e-05   1.186472666581302e-06   1.8708473856344338e-05
-1.0969113468004425e-05   1.186472666581302e-06   1.8708473856344338e-05
-1.1124484367705403e-05   1.3489077380317424e-06   8.053415371639047e-06
-1.1124484367705403e-05   1.3489077380317424e-06   8.053415371639047e-06
-1.1124484367705403e-05   1.3489077380317424e-06   8.053415371639047e-06
-1.1124484367705403e-05   1.3489077380317424e-06   8.053415371639047e-06
-1.793460461716617e-05   8.457193649527204e-07   1.9705528811254458e-05
-1.793460461716617e-05   8.457193649527204e-07   1.9705528811254458e-05
-1.793460461716617e-05   8.457193649527204e-07   1.9705528811254458e-05
-1.793460461716617e-05   8.457193649527204e-07   1.9705528811254458e-05
-1.4179592619344195e-05   1.0906795247444482e-06   1.3300199385676014e-05
-1.4179592619344195e-05   1.0906795247444482e-06   1.3300199385676014e-05
-1.4179592619344195e-05   1.0906795247444482e-06   1.3300199385676014e-05
-1.4179592619344195e-05   1.0906795247444482e-06   1.3300199385676014e-05
-1.7934604617166203e-05   1.3489077380317424e-06   8.355328395486569e-06
-1.7934604617166203e-05   1.3489077380317424e-06   8.355328395486569e-06
-1.7934604617166203e-05   1.3489077380317424e-06   8.355328395486569e-06
-1.7934604617166203e-05   1.3489077380317424e-06   8.355328395486569e-06
-1.1124484367705379e-05   8.457193649527204e-07   1.9403615787407018e-05
-1.1124484367705379e-05   8.457193649527204e-07   1.9403615787407018e-05
-1.1124484367705379e-05   8.457193649527204e-07   1.9403615787407018e-05
-1.1124484367705379e-05   8.457193649527204e-07   1.9403615787407018e-05
-1.101138632990538e-05   5.492089736818624e-07   9.52262774991079e-06
-1.101138632990538e-05   5.492089736818624e-07   9.52262774991079e-06
-1.101138632990538e-05   5.492089736818624e-07   9.52262774991079e-06
-1.101138632990538e-05   5.492089736818624e-07   9.52262774991079e-06
-1.813767920156913e-05   -6.067266463914689e-07   2.209334390806102e-05
-1.813767920156913e-05   -6.067266463914689e-07   2.209334390806102e-05
-1.813767920156913e-05   -6.067266463914689e-07   2.209334390806102e-05
-1.813767920156913e-05   -6.067266463914689e-07   2.209334390806102e-05
-1.3968996022502903e-05   5.218093427856248e-07   1.4468417016111012e-05
-1.3968996022502903e-05   5.218093427856248e-07   1.4468417016111012e-05
-1.3968996022502903e-05   5.218093427856248e-07   1.4468417016111012e-05
-1.3968996022502903e-05   5.218093427856248e-07   1.4468417016111012e-05
-1.097209694007896e-05   5.562958352576847e-07   1.4548388316189232e-05
-1.097209694007896e-05   5.562958352576847e-07   1.4548388316189232e-05
-1.097209694007896e-05   5.562958352576847e-07   1.4548388316189232e-05
-1.097209694007896e-05   5.562958352576847e-07   1.4548388316189232e-05
-6.748139268646566e-06   -3.403116581656405e-06   1.921267031842813e-05
-6.748139268646566e-06   -3.403116581656405e-06   1.921267031842813e-05
-6.748139268646566e-06   -3.403116581656405e-06   1.921267031842813e-05
-6.748139268646566e-06   -3.403116581656405e-06   1.921267031842813e-05
-6.765519094879474e-06   2.645442285402e-07   1.2204186159901222e-05
-6.765519094879474e-06   2.645442285402e-07   1.2204186159901222e-05
-6.765519094879474e-06   2.645442285402e-07   1.2204186159901222e-05
-6.765519094879474e-06   2.645442285402e-07   1.2204186159901222e-05
-1.0969113468004425e-05   -2.792200132360062e-06   2.1044223398316336e-05
-1.0969113468004425e-05   -2.792200132360062e-06   2.1044223398316336e-05
-1.0969113468004425e-05   -2.792200132360062e-06   2.1044223398316336e-05
-1.0969113468004425e-05   -2.792200132360062e-06   2.1044223398316336e-05
-8.8180804834928e-06   -1.6839915816366149e-06   1.6794243293696227e-05
-8.8180804834928e-06   -1.6839915816366149e-06   1.6794243293696227e-05
-8.8180804834928e-06   -1.6839915816366149e-06   1.6794243293696227e-05
-8.8180804834928e-06   -1.6839915816366149e-06   1.6794243293696227e-05
-1.0969113468004438e-05   2.645442285402e-07   1.4038232776441152e-05
-1.0969113468004438e-05   2.645442285402e-07   1.4038232776441152e-05
-1.0969113468004438e-05   2.645442285402e-07   1.4038232776441152e-05
-1.0969113468004438e-05   2.645442285402e-07   1.4038232776441152e-05
-6.765519094879461e-06   -2.792200132360062e-06   1.921017678177619e-05
-6.765519094879461e-06   -2.792200132360062e-06   1.921017678177619e-05
-6.765519094879461e-06   -2.792200132360062e-06   1.921017678177619e-05
-6.765519094879461e-06   -2.792200132360062e-06   1.921017678177619e-05
-6.7973908274693556e-06   -7.177996668746153e-08   1.2575829650408724e-05
-6.7973908274693556e-06   -7.177996668746153e-08   1.2575829650408724e-05
-6.7973908274693556e-06   -7.177996668746153e-08   1.2575829650408724e-05
-6.7973908274693556e-06   -7.177996668746153e-08   1.2575829650408724e-05
-1.1124484367705379e-05   -2.8536281334982938e-06   2.1456761117555272e-05
-1.1124484367705379e-05   -2.8536281334982938e-06   2.1456761117555272e-05
-1.1124484367705379e-05   -2.8536281334982938e-06   2.1456761117555272e-05
-1.1124484367705379e-05   -2.8536281334982938e-06   2.1456761117555272e-05
-8.757516571598386e-06   -1.4715526300411886e-06   1.6682569488635977e-05
-8.757516571598386e-06   -1.4715526300411886e-06   1.6682569488635977e-05
-8.757516571598386e-06   -1.4715526300411886e-06   1.6682569488635977e-05
-8.757516571598386e-06   -1.4715526300411886e-06   1.6682569488635977e-05
-1.1124484367705403e-05   -7.177996668746153e-08   1.4244938550495305e-05
-1.1124484367705403e-05   -7.177996668746153e-08   1.4244938550495305e-05
-1.1124484367705403e-05   -7.177996668746153e-08   1.4244938550495305e-05
-1.1124484367705403e-05   -7.177996668746153e-08   1.4244938550495305e-05
-6.7973908274693285e-06   -2.8536281334982938e-06   1.97876522174688e-05
-6.7973908274693285e-06   -2.8536281334982938e-06   1.97876522174688e-05
-6.7973908274693285e-06   -2.8536281334982938e-06   1.97876522174688e-05
-6.7973908274693285e-06   -2.8536281334982938e-06   1.97876522174688e-05
-6.737394667281508e-06   -5.125183884582287e-07   1.3040572463346607e-05
-6.737394667281508e-06   -5.125183884582287e-07   1.3040572463346607e-05
-6.737394667281508e-06   -5.125183884582287e-07   1.3040572463346607e-05
-6.737394667281508e-06   -5.125183884582287e-07   1.3040572463346607e-05
-1.101138632990535e-05   -2.87424171270046e-06   2.1580925895598263e-05
-1.101138632990535e-05   -2.87424171270046e-06   2.1580925895598263e-05
-1.101138632990535e-05   -2.87424171270046e-06   2.1580925895598263e-05
-1.101138632990535e-05   -2.87424171270046e-06   2.1580925895598263e-05
-8.803903407723075e-06   -1.6486656662256273e-06   1.7166442064076227e-05
-8.803903407723075e-06   -1.6486656662256273e-06   1.7166442064076227e-05
-8.803903407723075e-06   -1.6486656662256273e-06   1.7166442064076227e-05
-8.803903407723075e-06   -1.6486656662256273e-06   1.7166442064076227e-05
-6.748139268646566e-06   1.557627424517735e-07   1.3461828066214758e-05
-6.748139268646566e-06   1.557627424517735e-07   1.3461828066214758e-05
-6.748139268646566e-06   1.557627424517735e-07   1.3461828066214758e-05
-6.748139268646566e-06   1.557627424517735e-07   1.3461828066214758e-05
-4.985016828939955e-06   -2.659118599811791e-06   1.4711436660367575e-05
-4.985016828939955e-06   -2.659118599811791e-06   1.4711436660367575e-05
-4.985016828939955e-06   -2.659118599811791e-06   1.4711436660367575e-05
-4.985016828939955e-06   -2.659118599811791e-06   1.4711436660367575e-05
-4.944850421241537e-06   -8.945403782366053e-08   1.1880784956114893e-05
-4.944850421241537e-06   -8.945403782366053e-08   1.1880784956114893e-05
-4.944850421241537e-06   -8.945403782366053e-08   1.1880784956114893e-05
-4.944850421241537e-06   -8.945403782366053e-08   1.1880784956114893e-05
-6.765519094879461e-06   -2.6115909946017465e-06   1.6428514919578357e-05
-6.765519094879461e-06   -2.6115909946017465e-06   1.6428514919578357e-05
-6.765519094879461e-06   -2.6115909946017465e-06   1.6428514919578357e-05
-6.765519094879461e-06   -2.6115909946017465e-06   1.6428514919578357e-05
-5.825529179925668e-06   -1.3426195311535259e-06   1.410048218325306e-05
-5.825529179925668e-06   -1.3426195311535259e-06   1.410048218325306e-05
-5.825529179925668e-06   -1.3426195311535259e-06   1.410048218325306e-05
-5.825529179925668e-06   -1.3426195311535259e-06   1.410048218325306e-05
-6.765519094879461e-06   -8.945403782366053e-08   1.3394067130181636e-05
-6.765519094879461e-06   -8.945403782366053e-08   1.3394067130181636e-05
-6.765519094879461e-06   -8.945403782366053e-08   1.3394067130181636e-05
-6.765519094879461e-06   -8.945403782366053e-08   1.3394067130181636e-05
-4.944850421241537e-06   -2.6115909946017465e-06   1.4915232745511505e-05
-4.944850421241537e-06   -2.6115909946017465e-06   1.4915232745511505e-05
-4.944850421241537e-06   -2.6115909946017465e-06   1.4915232745511505e-05
-4.944850421241537e-06   -2.6115909946017465e-06   1.4915232745511505e-05
-4.911870440034118e-06   -3.830007672176827e-07   1.2162866278952783e-05
-4.911870440034118e-06   -3.830007672176827e-07   1.2162866278952783e-05
-4.911870440034118e-06   -3.830007672176827e-07   1.2162866278952783e-05
-4.911870440034118e-06   -3.830007672176827e-07   1.2162866278952783e-05
-6.7973908274693285e-06   -2.690239403761995e-06   1.6689743439938045e-05
-6.7973908274693285e-06   -2.690239403761995e-06   1.6689743439938045e-05
-6.7973908274693285e-06   -2.690239403761995e-06   1.6689743439938045e-05
-6.7973908274693285e-06   -2.690239403761995e-06   1.6689743439938045e-05
-5.778509539261307e-06   -1.4294093013101868e-06   1.4235109898120093e-05
-5.778509539261307e-06   -1.4294093013101868e-06   1.4235109898120093e-05
-5.778509539261307e-06   -1.4294093013101868e-06   1.4235109898120093e-05
-5.778509539261307e-06   -1.4294093013101868e-06   1.4235109898120093e-05
-6.7973908274693285e-06   -3.830007672176827e-07   1.3547209460879398e-05
-6.7973908274693285e-06   -3.830007672176827e-07   1.3547209460879398e-05
-6.7973908274693285e-06   -3.830007672176827e-07   1.3547209460879398e-05
-6.7973908274693285e-06   -3.830007672176827e-07   1.3547209460879398e-05
-4.911870440034118e-06   -2.690239403761995e-06   1.5305400258011485e-05
-4.911870440034118e-06   -2.690239403761995e-06   1.5305400258011485e-05
-4.911870440034118e-06   -2.690239403761995e-06   1.5305400258011485e-05
-4.911870440034118e-06   -2.690239403761995e-06   1.5305400258011485e-05
-4.82170077064766e-06   -6.769972686024067e-07   1.2600351551315112e-05
-4.82170077064766e-06   -6.769972686024067e-07   1.2600351551315112e-05
-4.82170077064766e-06   -6.769972686024067e-07   1.2600351551315112e-05
-4.82170077064766e-06   -6.769972686024067e-07   1.2600351551315112e-05
-6.737394667281508e-06   -2.7998667947464915e-06   1.7066896428057858e-05
-6.737394667281508e-06   -2.7998667947464915e-06   1.7066896428057858e-05
-6.737394667281508e-06   -2.7998667947464915e-06   1.7066896428057858e-05
-6.737394667281508e-06   -2.7998667947464915e-06   1.7066896428057858e-05
-5.723873391332848e-06   -1.5570261862294125e-06   1.4631989936366525e-05
-5.723873391332848e-06   -1.5570261862294125e-06   1.4631989936366525e-05
-5.723873391332848e-06   -1.5570261862294125e-06   1.4631989936366525e-05
-5.723873391332848e-06   -1.5570261862294125e-06   1.4631989936366525e-05
-4.985016828939955e-06   7.14960336021934e-07   9.182150987285603e-06
-4.985016828939955e-06   7.14960336021934e-07   9.182150987285603e-06
-4.985016828939955e-06   7.14960336021934e-07   9.182150987285603e-06
-4.985016828939955e-06   7.14960336021934e-07   9.182150987285603e-06
-4.1802705440247955e-06   -1.093189124916626e-06   9.438505118914456e-06
-4.1802705440247955e-06   -1.093189124916626e-06   9.438505118914456e-06
-4.1802705440247955e-06   -1.093189124916626e-06   9.438505118914456e-06
-4.1802705440247955e-06   -1.093189124916626e-06   9.438505118914456e-06
-4.095517695312475e-06   3.91474151586026e-07   8.29141743699459e-06
-4.095517695312475e-06   3.91474151586026e-07   8.29141743699459e-06
-4.095517695312475e-06   3.91474151586026e-07   8.29141743699459e-06
-4.095517695312475e-06   3.91474151586026e-07   8.29141743699459e-06
-4.944850421241537e-06   -1.2777511753029984e-06   1.0708507176343085e-05
-4.944850421241537e-06   -1.2777511753029984e-06   1.0708507176343085e-05
-4.944850421241537e-06   -1.2777511753029984e-06   1.0708507176343085e-05
-4.944850421241537e-06   -1.2777511753029984e-06   1.0708507176343085e-05
-4.518426811932625e-06   -2.497286319763322e-07   9.380987634832229e-06
-4.518426811932625e-06   -2.497286319763322e-07   9.380987634832229e-06
-4.518426811932625e-06   -2.497286319763322e-07   9.380987634832229e-06
-4.518426811932625e-06   -2.497286319763322e-07   9.380987634832229e-06
-4.944850421241537e-06   3.91474151586026e-07   9.292952633127918e-06
-4.944850421241537e-06   3.91474151586026e-07   9.292952633127918e-06
-4.944850421241537e-06   3.91474151586026e-07   9.292952633127918e-06
-4.944850421241537e-06   3.91474151586026e-07   9.292952633127918e-06
-4.095517695312475e-06   -1.2777511753029984e-06   9.706971980209675e-06
-4.095517695312475e-06   -1.2777511753029984e-06   9.706971980209675e-06
-4.095517695312475e-06   -1.2777511753029984e-06   9.706971980209675e-06
-4.095517695312475e-06   -1.2777511753029984e-06   9.706971980209675e-06
-4.0602666344315055e-06   1.1424811700746877e-07   8.68203445176575e-06
-4.0602666344315055e-06   1.1424811700746877e-07   8.68203445176575e-06
-4.0602666344315055e-06   1.1424811700746877e-07   8.68203445176575e-06
-4.0602666344315055e-06   1.1424811700746877e-07   8.68203445176575e-06
-4.911870440034118e-06   -1.4193875317353069e-06   1.1021555517015907e-05
-4.911870440034118e-06   -1.4193875317353069e-06   1.1021555517015907e-05
-4.911870440034118e-06   -1.4193875317353069e-06   1.1021555517015907e-05
-4.911870440034118e-06   -1.4193875317353069e-06   1.1021555517015907e-05
-4.434218734127333e-06   -4.4607011047518045e-07   9.641478887748207e-06
-4.434218734127333e-06   -4.4607011047518045e-07   9.641478887748207e-06
-4.434218734127333e-06   -4.4607011047518045e-07   9.641478887748207e-06
-4.434218734127333e-06   -4.4607011047518045e-07   9.641478887748207e-06
-4.911870440034118e-06   1.1424811700746877e-07   9.602215841011399e-06
-4.911870440034118e-06   1.1424811700746877e-07   9.602215841011399e-06
-4.911870440034118e-06   1.1424811700746877e-07   9.602215841011399e-06
-4.911870440034118e-06   1.1424811700746877e-07   9.602215841011399e-06
-4.0602666344315055e-06   -1.4193875317353069e-06   1.010137412777015e-05
-4.0602666344315055e-06   -1.4193875317353069e-06   1.010137412777015e-05
-4.0602666344315055e-06   -1.4193875317353069e-06   1.010137412777015e-05
-4.0602666344315055e-06   -1.4193875317353069e-06   1.010137412777015e-05
-3.99884228866244e-06   -1.6536484349671853e-07   9.172556884311667e-06
-3.99884228866244e-06   -1.6536484349671853e-07   9.172556884311667e-06
-3.99884228866244e-06   -1.6536484349671853e-07   9.172556884311667e-06
-3.99884228866244e-06   -1.6536484349671853e-07   9.172556884311667e-06
-4.82170077064766e-06   -1.604661122981603e-06   1.1407565455311109e-05
-4.82170077064766e-06   -1.604661122981603e-06   1.1407565455311109e-05
-4.82170077064766e-06   -1.604661122981603e-06   1.1407565455311109e-05
-4.82170077064766e-06   -1.604661122981603e-06   1.1407565455311109e-05
-4.370753895033898e-06   -6.186143530342923e-07   1.0064359267320053e-05
-4.370753895033898e-06   -6.186143530342923e-07   1.0064359267320053e-05
-4.370753895033898e-06   -6.186143530342923e-07   1.0064359267320053e-05
-4.370753895033898e-06   -6.186143530342923e-07   1.0064359267320053e-05
-4.180270544024741e-06   1.183372192803899e-06   2.1316494667021494e-06
-4.180270544024741e-06   1.183372192803899e-06   2.1316494667021494e-06
-4.180270544024741e-06   1.183372192803899e-06   2.1316494667021494e-06
-4.180270544024741e-06   1.183372192803899e-06   2.1316494667021494e-06
-2.4548117905905196e-06   -1.1900547455942143e-07   4.225987455341244e-06
-2.4548117905905196e-06   -1.1900547455942143e-07   4.225987455341244e-06
-2.4548117905905196e-06   -1.1900547455942143e-07   4.225987455341244e-06
-2.4548117905905196e-06   -1.1900547455942143e-07   4.225987455341244e-06
-2.5981961765658007e-06   9.538099776504783e-07   2.1527661861355353e-06
-2.5981961765658007e-06   9.538099776504783e-07   2.1527661861355353e-06
-2.5981961765658007e-06   9.538099776504783e-07   2.1527661861355353e-06
-2.5981961765658007e-06   9.538099776504783e-07   2.1527661861355353e-06
-4.095517695312475e-06   -1.6731504290615098e-07   5.32097706304745e-06
-4.095517695312475e-06   -1.6731504290615098e-07   5.32097706304745e-06
-4.095517695312475e-06   -1.6731504290615098e-07   5.32097706304745e-06
-4.095517695312475e-06   -1.6731504290615098e-07   5.32097706304745e-06
-3.217502228453073e-06   6.091574296378417e-07   3.391734468088611e-06
-3.217502228453073e-06   6.091574296378417e-07   3.391734468088611e-06
-3.217502228453073e-06   6.091574296378417e-07   3.391734468088611e-06
-3.217502228453073e-06   6.091574296378417e-07   3.391734468088611e-06
-4.095517695312475e-06   9.538099776504783e-07   2.82544119846928e-06
-4.095517695312475e-06   9.538099776504783e-07   2.82544119846928e-06
-4.095517695312475e-06   9.538099776504783e-07   2.82544119846928e-06
-4.095517695312475e-06   9.538099776504783e-07   2.82544119846928e-06
-2.5981961765658007e-06   -1.6731504290615098e-07   4.64830205071338e-06
-2.5981961765658007e-06   -1.6731504290615098e-07   4.64830205071338e-06
-2.5981961765658007e-06   -1.6731504290615098e-07   4.64830205071338e-06
-2.5981961765658007e-06   -1.6731504290615098e-07   4.64830205071338e-06
-2.7165343850614216e-06   8.038637401983008e-07   2.788443529060038e-06
-2.7165343850614216e-06   8.038637401983008e-07   2.788443529060038e-06
-2.7165343850614216e-06   8.038637401983008e-07   2.788443529060038e-06
-2.7165343850614216e-06   8.038637401983008e-07   2.788443529060038e-06
-4.0602666344315055e-06   -2.322511561900231e-07   5.6496662158431665e-06
-4.0602666344315055e-06   -2.322511561900231e-07   5.6496662158431665e-06
-4.0602666344315055e-06   -2.322511561900231e-07   5.6496662158431665e-06
-4.0602666344315055e-06   -2.322511561900231e-07   5.6496662158431665e-06
-3.2794699703819676e-06   4.964608294027984e-07   3.911111251071557e-06
-3.2794699703819676e-06   4.964608294027984e-07   3.911111251071557e-06
-3.2794699703819676e-06   4.964608294027984e-07   3.911111251071557e-06
-3.2794699703819676e-06   4.964608294027984e-07   3.911111251071557e-06
-4.0602666344315055e-06   8.038637401983008e-07   3.4101124668931893e-06
-4.0602666344315055e-06   8.038637401983008e-07   3.4101124668931893e-06
-4.0602666344315055e-06   8.038637401983008e-07   3.4101124668931893e-06
-4.0602666344315055e-06   8.038637401983008e-07   3.4101124668931893e-06
-2.7165343850614216e-06   -2.322511561900231e-07   5.027997278010123e-06
-2.7165343850614216e-06   -2.322511561900231e-07   5.027997278010123e-06
-2.7165343850614216e-06   -2.322511561900231e-07   5.027997278010123e-06
-2.7165343850614216e-06   -2.322511561900231e-07   5.027997278010123e-06
-2.9991053776985406e-06   5.004368244596459e-07   3.925298378159203e-06
-2.9991053776985406e-06   5.004368244596459e-07   3.925298378159203e-06
-2.9991053776985406e-06   5.004368244596459e-07   3.925298378159203e-06
-2.9991053776985406e-06   5.004368244596459e-07   3.925298378159203e-06
-3.99884228866244e-06   -3.1261887731506995e-07   6.079359984163823e-06
-3.99884228866244e-06   -3.1261887731506995e-07   6.079359984163823e-06
-3.99884228866244e-06   -3.1261887731506995e-07   6.079359984163823e-06
-3.99884228866244e-06   -3.1261887731506995e-07   6.079359984163823e-06
-3.291334466815158e-06   4.193842660233358e-07   4.460978395082042e-06
-3.291334466815158e-06   4.193842660233358e-07   4.460978395082042e-06
-3.291334466815158e-06   4.193842660233358e-07   4.460978395082042e-06
-3.291334466815158e-06   4.193842660233358e-07   4.460978395082042e-06
-3.813788140328636e-05   2.968212949728817e-06   1.6551113347035653e-05
-3.813788140328636e-05   2.968212949728817e-06   1.6551113347035653e-05
-3.813788140328636e-05   2.968212949728817e-06   1.6551113347035653e-05
-3.813788140328636e-05   2.968212949728817e-06   1.6551113347035653e-05
-8.941850809049333e-06   -1.8891097762114148e-05   5.209557791032498e-05
-8.941850809049333e-06   -1.8891097762114148e-05   5.209557791032498e-05
-8.941850809049333e-06   -1.8891097762114148e-05   5.209557791032498e-05
-8.941850809049333e-06   -1.8891097762114148e-05   5.209557791032498e-05
-1.051184031263309e-05   1.186472666581302e-06   9.064523782802755e-06
-1.051184031263309e-05   1.186472666581302e-06   9.064523782802755e-06
-1.051184031263309e-05   1.186472666581302e-06   9.064523782802755e-06
-1.051184031263309e-05   1.186472666581302e-06   9.064523782802755e-06
-3.478301895457355e-05   -1.472159421286828e-05   5.9061328313706485e-05
-3.478301895457355e-05   -1.472159421286828e-05   5.9061328313706485e-05
-3.478301895457355e-05   -1.472159421286828e-05   5.9061328313706485e-05
-3.478301895457355e-05   -1.472159421286828e-05   5.9061328313706485e-05
-2.3185119193499792e-05   -7.3274308966499375e-06   3.529499738885256e-05
-2.3185119193499792e-05   -7.3274308966499375e-06   3.529499738885256e-05
-2.3185119193499792e-05   -7.3274308966499375e-06   3.529499738885256e-05
-2.3185119193499792e-05   -7.3274308966499375e-06   3.529499738885256e-05
-3.478301895457349e-05   1.186472666581302e-06   1.8609363910472473e-05
-3.478301895457349e-05   1.186472666581302e-06   1.8609363910472473e-05
-3.478301895457349e-05   1.186472666581302e-06   1.8609363910472473e-05
-3.478301895457349e-05   1.186472666581302e-06   1.8609363910472473e-05
-1.0511840312633111e-05   -1.472159421286828e-05   4.951648818603675e-05
-1.0511840312633111e-05   -1.472159421286828e-05   4.951648818603675e-05
-1.0511840312633111e-05   -1.472159421286828e-05   4.951648818603675e-05
-1.0511840312633111e-05   -1.472159421286828e-05   4.951648818603675e-05
-1.0757726692141885e-05   8.457193649527204e-07   9.962318636766898e-06
-1.0757726692141885e-05   8.457193649527204e-07   9.962318636766898e-06
-1.0757726692141885e-05   8.457193649527204e-07   9.962318636766898e-06
-1.0757726692141885e-05   8.457193649527204e-07   9.962318636766898e-06
-3.2820547599063405e-05   -1.2717632644099922e-05   5.487169802040093e-05
-3.2820547599063405e-05   -1.2717632644099922e-05   5.487169802040093e-05
-3.2820547599063405e-05   -1.2717632644099922e-05   5.487169802040093e-05
-3.2820547599063405e-05   -1.2717632644099922e-05   5.487169802040093e-05
-2.2498106400116555e-05   -6.9460706657685495e-06   3.4204692168490736e-05
-2.2498106400116555e-05   -6.9460706657685495e-06   3.4204692168490736e-05
-2.2498106400116555e-05   -6.9460706657685495e-06   3.4204692168490736e-05
-2.2498106400116555e-05   -6.9460706657685495e-06   3.4204692168490736e-05
-3.282054759906335e-05   8.457193649527204e-07   1.8100329842198482e-05
-3.282054759906335e-05   8.457193649527204e-07   1.8100329842198482e-05
-3.282054759906335e-05   8.457193649527204e-07   1.8100329842198482e-05
-3.282054759906335e-05   8.457193649527204e-07   1.8100329842198482e-05
-1.0757726692141899e-05   -1.2717632644099922e-05   4.673368681496937e-05
-1.0757726692141899e-05   -1.2717632644099922e-05   4.673368681496937e-05
-1.0757726692141899e-05   -1.2717632644099922e-05   4.673368681496937e-05
-1.0757726692141899e-05   -1.2717632644099922e-05   4.673368681496937e-05
-1.1800611395167216e-05   -6.067266463914418e-07   1.2467488162197542e-05
-1.1800611395167216e-05   -6.067266463914418e-07   1.2467488162197542e-05
-1.1800611395167216e-05   -6.067266463914418e-07   1.2467488162197542e-05
-1.1800611395167216e-05   -6.067266463914418e-07   1.2467488162197542e-05
-3.0302233317885353e-05   -1.005309107788263e-05   4.8971343358955705e-05
-3.0302233317885353e-05   -1.005309107788263e-05   4.8971343358955705e-05
-3.0302233317885353e-05   -1.005309107788263e-05   4.8971343358955705e-05
-3.0302233317885353e-05   -1.005309107788263e-05   4.8971343358955705e-05
-2.1648493734980902e-05   -6.41366549109342e-06   3.2364788702041486e-05
-2.1648493734980902e-05   -6.41366549109342e-06   3.2364788702041486e-05
-2.1648493734980902e-05   -6.41366549109342e-06   3.2364788702041486e-05
-2.1648493734980902e-05   -6.41366549109342e-06   3.2364788702041486e-05
-8.941850809049313e-06   -3.403116581656405e-06   9.435262393992541e-06
-8.941850809049313e-06   -3.403116581656405e-06   9.435262393992541e-06
-8.941850809049313e-06   -3.403116581656405e-06   9.435262393992541e-06
-8.941850809049313e-06   -3.403116581656405e-06   9.435262393992541e-06
-3.10780746345219e-06   -5.926619521513046e-06   1.7644566206073755e-05
-3.10780746345219e-06   -5.926619521513046e-06   1.7644566206073755e-05
-3.10780746345219e-06   -5.926619521513046e-06   1.7644566206073755e-05
-3.10780746345219e-06   -5.926619521513046e-06   1.7644566206073755e-05
-3.4813761322890547e-06   -2.792200132360062e-06   8.378642362789012e-06
-3.4813761322890547e-06   -2.792200132360062e-06   8.378642362789012e-06
-3.4813761322890547e-06   -2.792200132360062e-06   8.378642362789012e-06
-3.4813761322890547e-06   -2.792200132360062e-06   8.378642362789012e-06
-1.0511840312633111e-05   -7.828251735669631e-06   2.3117713625348094e-05
-1.0511840312633111e-05   -7.828251735669631e-06   2.3117713625348094e-05
-1.0511840312633111e-05   -7.828251735669631e-06   2.3117713625348094e-05
-1.0511840312633111e-05   -7.828251735669631e-06   2.3117713625348094e-05
-6.171067585836476e-06   -4.09080250754655e-06   1.3640622877146493e-05
-6.171067585836476e-06   -4.09080250754655e-06   1.3640622877146493e-05
-6.171067585836476e-06   -4.09080250754655e-06   1.3640622877146493e-05
-6.171067585836476e-06   -4.09080250754655e-06   1.3640622877146493e-05
-1.0511840312633084e-05   -2.792200132360062e-06   1.140027332477463e-05
-1.0511840312633084e-05   -2.792200132360062e-06   1.140027332477463e-05
-1.0511840312633084e-05   -2.792200132360062e-06   1.140027332477463e-05
-1.0511840312633084e-05   -2.792200132360062e-06   1.140027332477463e-05
-3.4813761322890547e-06   -7.828251735669631e-06   2.0096082663362367e-05
-3.4813761322890547e-06   -7.828251735669631e-06   2.0096082663362367e-05
-3.4813761322890547e-06   -7.828251735669631e-06   2.0096082663362367e-05
-3.4813761322890547e-06   -7.828251735669631e-06   2.0096082663362367e-05
-3.802171435037419e-06   -2.853628133498321e-06   9.422150595751072e-06
-3.802171435037419e-06   -2.853628133498321e-06   9.422150595751072e-06
-3.802171435037419e-06   -2.853628133498321e-06   9.422150595751072e-06
-3.802171435037419e-06   -2.853628133498321e-06   9.422150595751072e-06
-1.0757726692141899e-05   -7.175817085438563e-06   2.3608056062089285e-05
-1.0757726692141899e-05   -7.175817085438563e-06   2.3608056062089285e-05
-1.0757726692141899e-05   -7.175817085438563e-06   2.3608056062089285e-05
-1.0757726692141899e-05   -7.175817085438563e-06   2.3608056062089285e-05
-6.969520714141189e-06   -4.992141850710088e-06   1.598417429125111e-05
-6.969520714141189e-06   -4.992141850710088e-06   1.598417429125111e-05
-6.969520714141189e-06   -4.992141850710088e-06   1.598417429125111e-05
-6.969520714141189e-06   -4.992141850710088e-06   1.598417429125111e-05
-1.0757726692141899e-05   -2.853628133498321e-06   1.2015463966915193e-05
-1.0757726692141899e-05   -2.853628133498321e-06   1.2015463966915193e-05
-1.0757726692141899e-05   -2.853628133498321e-06   1.2015463966915193e-05
-1.0757726692141899e-05   -2.853628133498321e-06   1.2015463966915193e-05
-3.802171435037419e-06   -7.175817085438563e-06   2.1014742690925143e-05
-3.802171435037419e-06   -7.175817085438563e-06   2.1014742690925143e-05
-3.802171435037419e-06   -7.175817085438563e-06   2.1014742690925143e-05
-3.802171435037419e-06   -7.175817085438563e-06   2.1014742690925143e-05
-4.325611892570016e-06   -2.874241712700487e-06   1.0315632236743047e-05
-4.325611892570016e-06   -2.874241712700487e-06   1.0315632236743047e-05
-4.325611892570016e-06   -2.874241712700487e-06   1.0315632236743047e-05
-4.325611892570016e-06   -2.874241712700487e-06   1.0315632236743047e-05
-1.180061139516723e-05   -6.76257385442684e-06   2.5106964026107456e-05
-1.180061139516723e-05   -6.76257385442684e-06   2.5106964026107456e-05
-1.180061139516723e-05   -6.76257385442684e-06   2.5106964026107456e-05
-1.180061139516723e-05   -6.76257385442684e-06   2.5106964026107456e-05
-7.441184121391662e-06   -4.5595868398103155e-06   1.6519459694378316e-05
-7.441184121391662e-06   -4.5595868398103155e-06   1.6519459694378316e-05
-7.441184121391662e-06   -4.5595868398103155e-06   1.6519459694378316e-05
-7.441184121391662e-06   -4.5595868398103155e-06   1.6519459694378316e-05
-3.10780746345219e-06   -2.659118599811791e-06   5.108855777376161e-06
-3.10780746345219e-06   -2.659118599811791e-06   5.108855777376161e-06
-3.10780746345219e-06   -2.659118599811791e-06   5.108855777376161e-06
-3.10780746345219e-06   -2.659118599811791e-06   5.108855777376161e-06
-1.7382600404039668e-06   -1.6956108879558247e-06   7.969539442903518e-06
-1.7382600404039668e-06   -1.6956108879558247e-06   7.969539442903518e-06
-1.7382600404039668e-06   -1.6956108879558247e-06   7.969539442903518e-06
-1.7382600404039668e-06   -1.6956108879558247e-06   7.969539442903518e-06
-1.6758433271507882e-06   -2.6115909946017465e-06   5.840090835174355e-06
-1.6758433271507882e-06   -2.6115909946017465e-06   5.840090835174355e-06
-1.6758433271507882e-06   -2.6115909946017465e-06   5.840090835174355e-06
-1.6758433271507882e-06   -2.6115909946017465e-06   5.840090835174355e-06
-3.4813761322890547e-06   -2.206407103629689e-06   8.606201842488177e-06
-3.4813761322890547e-06   -2.206407103629689e-06   8.606201842488177e-06
-3.4813761322890547e-06   -2.206407103629689e-06   8.606201842488177e-06
-3.4813761322890547e-06   -2.206407103629689e-06   8.606201842488177e-06
-2.342086613317442e-06   -2.1641555323307228e-06   6.682035034756009e-06
-2.342086613317442e-06   -2.1641555323307228e-06   6.682035034756009e-06
-2.342086613317442e-06   -2.1641555323307228e-06   6.682035034756009e-06
-2.342086613317442e-06   -2.1641555323307228e-06   6.682035034756009e-06
-3.481376132289041e-06   -2.6115909946017465e-06   5.596980500591165e-06
-3.481376132289041e-06   -2.6115909946017465e-06   5.596980500591165e-06
-3.481376132289041e-06   -2.6115909946017465e-06   5.596980500591165e-06
-3.481376132289041e-06   -2.6115909946017465e-06   5.596980500591165e-06
-1.6758433271507882e-06   -2.2064071036296858e-06   8.849312177071394e-06
-1.6758433271507882e-06   -2.2064071036296858e-06   8.849312177071394e-06
-1.6758433271507882e-06   -2.2064071036296858e-06   8.849312177071394e-06
-1.6758433271507882e-06   -2.2064071036296858e-06   8.849312177071394e-06
-1.6840679848688258e-06   -2.690239403761995e-06   6.247712324200896e-06
-1.6840679848688258e-06   -2.690239403761995e-06   6.247712324200896e-06
-1.6840679848688258e-06   -2.690239403761995e-06   6.247712324200896e-06
-1.6840679848688258e-06   -2.690239403761995e-06   6.247712324200896e-06
-3.802171435037419e-06   -2.8177885604610226e-06   9.854414235167819e-06
-3.802171435037419e-06   -2.8177885604610226e-06   9.854414235167819e-06
-3.802171435037419e-06   -2.8177885604610226e-06   9.854414235167819e-06
-3.802171435037419e-06   -2.8177885604610226e-06   9.854414235167819e-06
-2.4901109734847874e-06   -2.3658916936575194e-06   7.396508679164744e-06
-2.4901109734847874e-06   -2.3658916936575194e-06   7.396508679164744e-06
-2.4901109734847874e-06   -2.3658916936575194e-06   7.396508679164744e-06
-2.4901109734847874e-06   -2.3658916936575194e-06   7.396508679164744e-06
-3.8021714350374054e-06   -2.690239403761995e-06   6.324241818220276e-06
-3.8021714350374054e-06   -2.690239403761995e-06   6.324241818220276e-06
-3.8021714350374054e-06   -2.690239403761995e-06   6.324241818220276e-06
-3.8021714350374054e-06   -2.690239403761995e-06   6.324241818220276e-06
-1.6840679848688258e-06   -2.8177885604610226e-06   9.77788474114841e-06
-1.6840679848688258e-06   -2.8177885604610226e-06   9.77788474114841e-06
-1.6840679848688258e-06   -2.8177885604610226e-06   9.77788474114841e-06
-1.6840679848688258e-06   -2.8177885604610226e-06   9.77788474114841e-06
-1.7194185549111772e-06   -2.7998667947464915e-06   6.8597494001276294e-06
-1.7194185549111772e-06   -2.7998667947464915e-06   6.8597494001276294e-06
-1.7194185549111772e-06   -2.7998667947464915e-06   6.8597494001276294e-06
-1.7194185549111772e-06   -2.7998667947464915e-06   6.8597494001276294e-06
-4.3256118925700295e-06   -3.3980124007803473e-06   1.1562292326512588e-05
-4.3256118925700295e-06   -3.3980124007803473e-06   1.1562292326512588e-05
-4.3256118925700295e-06   -3.3980124007803473e-06   1.1562292326512588e-05
-4.3256118925700295e-06   -3.3980124007803473e-06   1.1562292326512588e-05
-2.660035832649319e-06   -2.578683343011965e-06   8.29473479198374e-06
-2.660035832649319e-06   -2.578683343011965e-06   8.29473479198374e-06
-2.660035832649319e-06   -2.578683343011965e-06   8.29473479198374e-06
-2.660035832649319e-06   -2.578683343011965e-06   8.29473479198374e-06
-1.7382600404039668e-06   -1.093189124916653e-06   1.4989185395997465e-06
-1.7382600404039668e-06   -1.093189124916653e-06   1.4989185395997465e-06
-1.7382600404039668e-06   -1.093189124916653e-06   1.4989185395997465e-06
-1.7382600404039668e-06   -1.093189124916653e-06   1.4989185395997465e-06
-1.3010430355273376e-06   2.463024930405349e-07   3.0313085185017263e-06
-1.3010430355273376e-06   2.463024930405349e-07   3.0313085185017263e-06
-1.3010430355273376e-06   2.463024930405349e-07   3.0313085185017263e-06
-1.3010430355273376e-06   2.463024930405349e-07   3.0313085185017263e-06
-1.0573510707157386e-06   -1.2777511753029984e-06   2.4358075481453376e-06
-1.0573510707157386e-06   -1.2777511753029984e-06   2.4358075481453376e-06
-1.0573510707157386e-06   -1.2777511753029984e-06   2.4358075481453376e-06
-1.0573510707157386e-06   -1.2777511753029984e-06   2.4358075481453376e-06
-1.6758433271507882e-06   5.965262826253547e-08   2.664185693397657e-06
-1.6758433271507882e-06   5.965262826253547e-08   2.664185693397657e-06
-1.6758433271507882e-06   5.965262826253547e-08   2.664185693397657e-06
-1.6758433271507882e-06   5.965262826253547e-08   2.664185693397657e-06
-1.3536718848592983e-06   -5.273228393790129e-07   2.47941857016334e-06
-1.3536718848592983e-06   -5.273228393790129e-07   2.47941857016334e-06
-1.3536718848592983e-06   -5.273228393790129e-07   2.47941857016334e-06
-1.3536718848592983e-06   -5.273228393790129e-07   2.47941857016334e-06
-1.6758433271507882e-06   -1.2777511753029984e-06   1.633365266006016e-06
-1.6758433271507882e-06   -1.2777511753029984e-06   1.633365266006016e-06
-1.6758433271507882e-06   -1.2777511753029984e-06   1.633365266006016e-06
-1.6758433271507882e-06   -1.2777511753029984e-06   1.633365266006016e-06
-1.0573510707157386e-06   5.965262826253547e-08   3.4666279755370057e-06
-1.0573510707157386e-06   5.965262826253547e-08   3.4666279755370057e-06
-1.0573510707157386e-06   5.965262826253547e-08   3.4666279755370057e-06
-1.0573510707157386e-06   5.965262826253547e-08   3.4666279755370057e-06
-9.256230079059883e-07   -1.4193875317353069e-06   2.676339155000321e-06
-9.256230079059883e-07   -1.4193875317353069e-06   2.676339155000321e-06
-9.256230079059883e-07   -1.4193875317353069e-06   2.676339155000321e-06
-9.256230079059883e-07   -1.4193875317353069e-06   2.676339155000321e-06
-1.6840679848688258e-06   -2.3193491207683422e-07   3.2279425448099026e-06
-1.6840679848688258e-06   -2.3193491207683422e-07   3.2279425448099026e-06
-1.6840679848688258e-06   -2.3193491207683422e-07   3.2279425448099026e-06
-1.6840679848688258e-06   -2.3193491207683422e-07   3.2279425448099026e-06
-1.2312578339824246e-06   -6.724114836515512e-07   2.737544902944053e-06
-1.2312578339824246e-06   -6.724114836515512e-07   2.737544902944053e-06
-1.2312578339824246e-06   -6.724114836515512e-07   2.737544902944053e-06
-1.2312578339824246e-06   -6.724114836515512e-07   2.737544902944053e-06
-1.6840679848688258e-06   -1.4193875317353069e-06   1.9638675832051554e-06
-1.6840679848688258e-06   -1.4193875317353069e-06   1.9638675832051554e-06
-1.6840679848688258e-06   -1.4193875317353069e-06   1.9638675832051554e-06
-1.6840679848688258e-06   -1.4193875317353069e-06   1.9638675832051554e-06
-9.256230079059883e-07   -2.3193491207683422e-07   3.940414116605014e-06
-9.256230079059883e-07   -2.3193491207683422e-07   3.940414116605014e-06
-9.256230079059883e-07   -2.3193491207683422e-07   3.940414116605014e-06
-9.256230079059883e-07   -2.3193491207683422e-07   3.940414116605014e-06
-7.23855276395062e-07   -1.604661122981603e-06   2.9416763187005987e-06
-7.23855276395062e-07   -1.604661122981603e-06   2.9416763187005987e-06
-7.23855276395062e-07   -1.604661122981603e-06   2.9416763187005987e-06
-7.23855276395062e-07   -1.604661122981603e-06   2.9416763187005987e-06
-1.7194185549111772e-06   -8.254341635928808e-07   4.1334122739274766e-06
-1.7194185549111772e-06   -8.254341635928808e-07   4.1334122739274766e-06
-1.7194185549111772e-06   -8.254341635928808e-07   4.1334122739274766e-06
-1.7194185549111772e-06   -8.254341635928808e-07   4.1334122739274766e-06
-1.1337318231262187e-06   -8.922665130723306e-07   3.1973671306403722e-06
-1.1337318231262187e-06   -8.922665130723306e-07   3.1973671306403722e-06
-1.1337318231262187e-06   -8.922665130723306e-07   3.1973671306403722e-06
-1.1337318231262187e-06   -8.922665130723306e-07   3.1973671306403722e-06
-1.3010430355273376e-06   -1.1900547455942143e-07   -2.128477552781232e-06
-1.3010430355273376e-06   -1.1900547455942143e-07   -2.128477552781232e-06
-1.3010430355273376e-06   -1.1900547455942143e-07   -2.128477552781232e-06
-1.3010430355273376e-06   -1.1900547455942143e-07   -2.128477552781232e-06
-2.528030170063076e-07   1.819524185421249e-07   -2.008361193852671e-07
-2.528030170063076e-07   1.819524185421249e-07   -2.008361193852671e-07
-2.528030170063076e-07   1.819524185421249e-07   -2.008361193852671e-07
-2.528030170063076e-07   1.819524185421249e-07   -2.008361193852671e-07
-1.3901009140982433e-08   -1.6731504290615098e-07   -1.6619572268289666e-06
-1.3901009140982433e-08   -1.6731504290615098e-07   -1.6619572268289666e-06
-1.3901009140982433e-08   -1.6731504290615098e-07   -1.6619572268289666e-06
-1.3901009140982433e-08   -1.6731504290615098e-07   -1.6619572268289666e-06
-1.0573510707157386e-06   3.130685274070479e-07   -2.111039330591688e-07
-1.0573510707157386e-06   3.130685274070479e-07   -2.111039330591688e-07
-1.0573510707157386e-06   3.130685274070479e-07   -2.111039330591688e-07
-1.0573510707157386e-06   3.130685274070479e-07   -2.111039330591688e-07
-5.998095078357628e-07   8.543302817604396e-08   -8.370919049874239e-07
-5.998095078357628e-07   8.543302817604396e-08   -8.370919049874239e-07
-5.998095078357628e-07   8.543302817604396e-08   -8.370919049874239e-07
-5.998095078357628e-07   8.543302817604396e-08   -8.370919049874239e-07
-1.0573510707157386e-06   -1.673150429061781e-07   -1.9501873690170777e-06
-1.0573510707157386e-06   -1.673150429061781e-07   -1.9501873690170777e-06
-1.0573510707157386e-06   -1.673150429061781e-07   -1.9501873690170777e-06
-1.0573510707157386e-06   -1.673150429061781e-07   -1.9501873690170777e-06
-1.3901009140982433e-08   3.130685274070479e-07   7.712620912877968e-08
-1.3901009140982433e-08   3.130685274070479e-07   7.712620912877968e-08
-1.3901009140982433e-08   3.130685274070479e-07   7.712620912877968e-08
-1.3901009140982433e-08   3.130685274070479e-07   7.712620912877968e-08
1.0915210231618368e-07   -2.322511561900231e-07   -1.478095669601e-06
1.0915210231618368e-07   -2.322511561900231e-07   -1.478095669601e-06
1.0915210231618368e-07   -2.322511561900231e-07   -1.478095669601e-06
1.0915210231618368e-07   -2.322511561900231e-07   -1.478095669601e-06
-9.256230079059883e-07   2.6320398935285894e-07   -5.074357322320481e-08
-9.256230079059883e-07   2.6320398935285894e-07   -5.074357322320481e-08
-9.256230079059883e-07   2.6320398935285894e-07   -5.074357322320481e-08
-9.256230079059883e-07   2.6320398935285894e-07   -5.074357322320481e-08
-4.24338049083092e-07   5.540044130817657e-08   -7.61536375767642e-07
-4.24338049083092e-07   5.540044130817657e-08   -7.61536375767642e-07
-4.24338049083092e-07   5.540044130817657e-08   -7.61536375767642e-07
-4.24338049083092e-07   5.540044130817657e-08   -7.61536375767642e-07
-9.256230079059883e-07   -2.322511561900502e-07   -1.7753687569267435e-06
-9.256230079059883e-07   -2.322511561900502e-07   -1.7753687569267435e-06
-9.256230079059883e-07   -2.322511561900502e-07   -1.7753687569267435e-06
-9.256230079059883e-07   -2.322511561900502e-07   -1.7753687569267435e-06
1.0915210231618368e-07   2.6320398935285894e-07   2.4652951410251154e-07
1.0915210231618368e-07   2.6320398935285894e-07   2.4652951410251154e-07
1.0915210231618368e-07   2.6320398935285894e-07   2.4652951410251154e-07
1.0915210231618368e-07   2.6320398935285894e-07   2.4652951410251154e-07
2.6089923764634204e-07   -3.1261887731506995e-07   -1.2055224499330332e-06
2.6089923764634204e-07   -3.1261887731506995e-07   -1.2055224499330332e-06
2.6089923764634204e-07   -3.1261887731506995e-07   -1.2055224499330332e-06
2.6089923764634204e-07   -3.1261887731506995e-07   -1.2055224499330332e-06
-7.23855276395062e-07   2.1642934738956655e-07   1.1830613864645748e-07
-7.23855276395062e-07   2.1642934738956655e-07   1.1830613864645748e-07
-7.23855276395062e-07   2.1642934738956655e-07   1.1830613864645748e-07
-7.23855276395062e-07   2.1642934738956655e-07   1.1830613864645748e-07
-2.6600801508302324e-07   1.8120600056673345e-08   -5.257873818071334e-07
-2.6600801508302324e-07   1.8120600056673345e-08   -5.257873818071334e-07
-2.6600801508302324e-07   1.8120600056673345e-08   -5.257873818071334e-07
-2.6600801508302324e-07   1.8120600056673345e-08   -5.257873818071334e-07
              </DataArray>   
             <DataArray type="Float64" NumberOfComponents="3" Name="Stress" format="ascii">   
-1.983525873079168   -0.495881468269792   -0.495881468269792
-1.983525873079168   -0.495881468269792   -0.495881468269792
-1.983525873079168   -0.495881468269792   -0.495881468269792
-1.983525873079168   -0.495881468269792   -0.495881468269792
-1.1476733721819241   -0.036729960639968307   -0.023154986774507655
-1.1476733721819241   -0.036729960639968307   -0.023154986774507655
-1.1476733721819241   -0.036729960639968307   -0.023154986774507655
-1.1476733721819241   -0.036729960639968307   -0.023154986774507655
-1.2367449521463005   -0.30918623803657513   -0.30918623803657513
-1.2367449521463005   -0.30918623803657513   -0.30918623803657513
-1.2367449521463005   -0.30918623803657513   -0.30918623803657513
-1.2367449521463005   -0.30918623803657513   -0.30918623803657513
-1.91156521801003   -0.1572713120401426   -0.06023658549704246
-1.91156521801003   -0.1572713120401426   -0.06023658549704246
-1.91156521801003   -0.1572713120401426   -0.06023658549704246
-1.91156521801003   -0.1572713120401426   -0.06023658549704246
-1.499143409819176   -0.24594795697570218   -0.004159735362886779
-1.499143409819176   -0.24594795697570218   -0.004159735362886779
-1.499143409819176   -0.24594795697570218   -0.004159735362886779
-1.499143409819176   -0.24594795697570218   -0.004159735362886779
-2.0756262650028843   -0.5189065662507211   -0.5189065662507211
-2.0756262650028843   -0.5189065662507211   -0.5189065662507211
-2.0756262650028843   -0.5189065662507211   -0.5189065662507211
-2.0756262650028843   -0.5189065662507211   -0.5189065662507211
-1.1116211631379487   0.01351175818950373   -0.006265289220894171
-1.1116211631379487   0.01351175818950373   -0.006265289220894171
-1.1116211631379487   0.01351175818950373   -0.006265289220894171
-1.1116211631379487   0.01351175818950373   -0.006265289220894171
-1.2400339155597722   -0.31000847888994304   -0.31000847888994304
-1.2400339155597722   -0.31000847888994304   -0.31000847888994304
-1.2400339155597722   -0.31000847888994304   -0.31000847888994304
-1.2400339155597722   -0.31000847888994304   -0.31000847888994304
-1.9755859167618377   -0.1587173724631007   -0.08823945663274999
-1.9755859167618377   -0.1587173724631007   -0.08823945663274999
-1.9755859167618377   -0.1587173724631007   -0.08823945663274999
-1.9755859167618377   -0.1587173724631007   -0.08823945663274999
-1.5548446593589935   -0.23149202690099424   -0.08249586362800744
-1.5548446593589935   -0.23149202690099424   -0.08249586362800744
-1.5548446593589935   -0.23149202690099424   -0.08249586362800744
-1.5548446593589935   -0.23149202690099424   -0.08249586362800744
-2.1402161677140787   -0.5350540419285197   -0.5350540419285197
-2.1402161677140787   -0.5350540419285197   -0.5350540419285197
-2.1402161677140787   -0.5350540419285197   -0.5350540419285197
-2.1402161677140787   -0.5350540419285197   -0.5350540419285197
-1.1082047758084772   0.03352707937453084   0.005601661602047336
-1.1082047758084772   0.03352707937453084   0.005601661602047336
-1.1082047758084772   0.03352707937453084   0.005601661602047336
-1.1082047758084772   0.03352707937453084   0.005601661602047336
-1.239157937322642   -0.3097894843306605   -0.3097894843306605
-1.239157937322642   -0.3097894843306605   -0.3097894843306605
-1.239157937322642   -0.3097894843306605   -0.3097894843306605
-1.239157937322642   -0.3097894843306605   -0.3097894843306605
-2.0900251019780764   -0.1390689721036581   -0.053045649834265574
-2.0900251019780764   -0.1390689721036581   -0.053045649834265574
-2.0900251019780764   -0.1390689721036581   -0.053045649834265574
-2.0900251019780764   -0.1390689721036581   -0.053045649834265574
-1.5960952154747112   -0.2278289761735796   -0.1490553648673685
-1.5960952154747112   -0.2278289761735796   -0.1490553648673685
-1.5960952154747112   -0.2278289761735796   -0.1490553648673685
-1.5960952154747112   -0.2278289761735796   -0.1490553648673685
-1.2618848696655898   -0.31547121741639744   -0.31547121741639744
-1.2618848696655898   -0.31547121741639744   -0.31547121741639744
-1.2618848696655898   -0.31547121741639744   -0.31547121741639744
-1.2618848696655898   -0.31547121741639744   -0.31547121741639744
-0.5267572404838154   -0.03529242802483465   -0.011447467896564922
-0.5267572404838154   -0.03529242802483465   -0.011447467896564922
-0.5267572404838154   -0.03529242802483465   -0.011447467896564922
-0.5267572404838154   -0.03529242802483465   -0.011447467896564922
-0.5527360649632785   -0.13818401624081963   -0.13818401624081963
-0.5527360649632785   -0.13818401624081963   -0.13818401624081963
-0.5527360649632785   -0.13818401624081963   -0.13818401624081963
-0.5527360649632785   -0.13818401624081963   -0.13818401624081963
-1.1487351302546949   -0.13525168362837775   -0.04307168298674324
-1.1487351302546949   -0.13525168362837775   -0.04307168298674324
-1.1487351302546949   -0.13525168362837775   -0.04307168298674324
-1.1487351302546949   -0.13525168362837775   -0.04307168298674324
-0.8473836875776783   -0.16060945709601496   0.0065881221225722745
-0.8473836875776783   -0.16060945709601496   0.0065881221225722745
-0.8473836875776783   -0.16060945709601496   0.0065881221225722745
-0.8473836875776783   -0.16060945709601496   0.0065881221225722745
-1.2367449521462994   -0.30918623803657486   -0.30918623803657486
-1.2367449521462994   -0.30918623803657486   -0.30918623803657486
-1.2367449521462994   -0.30918623803657486   -0.30918623803657486
-1.2367449521462994   -0.30918623803657486   -0.30918623803657486
-0.4967984939248765   0.0036782873141735645   -0.0003584646038028126
-0.4967984939248765   0.0036782873141735645   -0.0003584646038028126
-0.4967984939248765   0.0036782873141735645   -0.0003584646038028126
-0.4967984939248765   0.0036782873141735645   -0.0003584646038028126
-0.5402072820125509   -0.13505182050313772   -0.13505182050313772
-0.5402072820125509   -0.13505182050313772   -0.13505182050313772
-0.5402072820125509   -0.13505182050313772   -0.13505182050313772
-0.5402072820125509   -0.13505182050313772   -0.13505182050313772
-1.1456534567737302   -0.1102838035531036   -0.037830860296571935
-1.1456534567737302   -0.1102838035531036   -0.037830860296571935
-1.1456534567737302   -0.1102838035531036   -0.037830860296571935
-1.1456534567737302   -0.1102838035531036   -0.037830860296571935
-0.8353942329633708   -0.13517207574026222   -0.043656562219182064
-0.8353942329633708   -0.13517207574026222   -0.043656562219182064
-0.8353942329633708   -0.13517207574026222   -0.043656562219182064
-0.8353942329633708   -0.13517207574026222   -0.043656562219182064
-1.2400339155597722   -0.31000847888994304   -0.31000847888994304
-1.2400339155597722   -0.31000847888994304   -0.31000847888994304
-1.2400339155597722   -0.31000847888994304   -0.31000847888994304
-1.2400339155597722   -0.31000847888994304   -0.31000847888994304
-0.47689091158966673   0.03360876647054453   0.012869444637605386
-0.47689091158966673   0.03360876647054453   0.012869444637605386
-0.47689091158966673   0.03360876647054453   0.012869444637605386
-0.47689091158966673   0.03360876647054453   0.012869444637605386
-0.5287659905490506   -0.13219149763726265   -0.13219149763726265
-0.5287659905490506   -0.13219149763726265   -0.13219149763726265
-0.5287659905490506   -0.13219149763726265   -0.13219149763726265
-0.5287659905490506   -0.13219149763726265   -0.13219149763726265
-1.1370257135358697   -0.08504158992427235   -0.023876259803191482
-1.1370257135358697   -0.08504158992427235   -0.023876259803191482
-1.1370257135358697   -0.08504158992427235   -0.023876259803191482
-1.1370257135358697   -0.08504158992427235   -0.023876259803191482
-0.8393199442692555   -0.11956440351286597   -0.09723552908856187
-0.8393199442692555   -0.11956440351286597   -0.09723552908856187
-0.8393199442692555   -0.11956440351286597   -0.09723552908856187
-0.8393199442692555   -0.11956440351286597   -0.09723552908856187
-0.5748991792217073   -0.14372479480542683   -0.14372479480542683
-0.5748991792217073   -0.14372479480542683   -0.14372479480542683
-0.5748991792217073   -0.14372479480542683   -0.14372479480542683
-0.5748991792217073   -0.14372479480542683   -0.14372479480542683
0.06757782405389448   0.004311672911562762   0.0005626968800735077
0.06757782405389448   0.004311672911562762   0.0005626968800735077
0.06757782405389448   0.004311672911562762   0.0005626968800735077
0.06757782405389448   0.004311672911562762   0.0005626968800735077
0.08824214740707062   0.022060536851767655   0.022060536851767655
0.08824214740707062   0.022060536851767655   0.022060536851767655
0.08824214740707062   0.022060536851767655   0.022060536851767655
0.08824214740707062   0.022060536851767655   0.022060536851767655
-0.5196073978029818   -0.08980473577060381   -0.02091996090955203
-0.5196073978029818   -0.08980473577060381   -0.02091996090955203
-0.5196073978029818   -0.08980473577060381   -0.02091996090955203
-0.5196073978029818   -0.08980473577060381   -0.02091996090955203
-0.2227647851128139   -0.05649692555287818   0.03765132157173833
-0.2227647851128139   -0.05649692555287818   0.03765132157173833
-0.2227647851128139   -0.05649692555287818   0.03765132157173833
-0.2227647851128139   -0.05649692555287818   0.03765132157173833
-0.5527360649632795   -0.13818401624081988   -0.13818401624081988
-0.5527360649632795   -0.13818401624081988   -0.13818401624081988
-0.5527360649632795   -0.13818401624081988   -0.13818401624081988
-0.5527360649632795   -0.13818401624081988   -0.13818401624081988
0.089844801502965   0.03891380425758105   0.01322053992542542
0.089844801502965   0.03891380425758105   0.01322053992542542
0.089844801502965   0.03891380425758105   0.01322053992542542
0.089844801502965   0.03891380425758105   0.01322053992542542
0.09950665214170781   0.024876663035426953   0.024876663035426953
0.09950665214170781   0.024876663035426953   0.024876663035426953
0.09950665214170781   0.024876663035426953   0.024876663035426953
0.09950665214170781   0.024876663035426953   0.024876663035426953
-0.501070620133465   -0.060393153585411974   -0.014027178025437508
-0.501070620133465   -0.060393153585411974   -0.014027178025437508
-0.501070620133465   -0.060393153585411974   -0.014027178025437508
-0.501070620133465   -0.060393153585411974   -0.014027178025437508
-0.2135165711334437   -0.034891835650789904   -0.012924841167894423
-0.2135165711334437   -0.034891835650789904   -0.012924841167894423
-0.2135165711334437   -0.034891835650789904   -0.012924841167894423
-0.2135165711334437   -0.034891835650789904   -0.012924841167894423
-0.5402072820125519   -0.13505182050313796   -0.13505182050313796
-0.5402072820125519   -0.13505182050313796   -0.13505182050313796
-0.5402072820125519   -0.13505182050313796   -0.13505182050313796
-0.5402072820125519   -0.13505182050313796   -0.13505182050313796
0.1077522901888992   0.06864430612125882   0.0223372101855513
0.1077522901888992   0.06864430612125882   0.0223372101855513
0.1077522901888992   0.06864430612125882   0.0223372101855513
0.1077522901888992   0.06864430612125882   0.0223372101855513
0.11459707891230707   0.028649269728076767   0.028649269728076767
0.11459707891230707   0.028649269728076767   0.028649269728076767
0.11459707891230707   0.028649269728076767   0.028649269728076767
0.11459707891230707   0.028649269728076767   0.028649269728076767
-0.4809001674123299   -0.025333099808239418   0.00027922021731596747
-0.4809001674123299   -0.025333099808239418   0.00027922021731596747
-0.4809001674123299   -0.025333099808239418   0.00027922021731596747
-0.4809001674123299   -0.025333099808239418   0.00027922021731596747
-0.2069471284014708   -0.01406354720254531   -0.06304913782926012
-0.2069471284014708   -0.01406354720254531   -0.06304913782926012
-0.2069471284014708   -0.01406354720254531   -0.06304913782926012
-0.2069471284014708   -0.01406354720254531   -0.06304913782926012
0.07400327788396373   0.018500819470990932   0.018500819470990932
0.07400327788396373   0.018500819470990932   0.018500819470990932
0.07400327788396373   0.018500819470990932   0.018500819470990932
0.07400327788396373   0.018500819470990932   0.018500819470990932
0.7183304933121281   0.06593335619610127   0.022260870092869728
0.7183304933121281   0.06593335619610127   0.022260870092869728
0.7183304933121281   0.06593335619610127   0.022260870092869728
0.7183304933121281   0.06593335619610127   0.022260870092869728
0.780168590231802   0.1950421475579505   0.1950421475579505
0.780168590231802   0.1950421475579505   0.1950421475579505
0.780168590231802   0.1950421475579505   0.1950421475579505
0.780168590231802   0.1950421475579505   0.1950421475579505
0.06720845236766379   -0.05056157454501245   -0.010485826948487771
0.06720845236766379   -0.05056157454501245   -0.010485826948487771
0.06720845236766379   -0.05056157454501245   -0.010485826948487771
0.06720845236766379   -0.05056157454501245   -0.010485826948487771
0.4094420404450504   0.05098670071707866   0.07433679824770031
0.4094420404450504   0.05098670071707866   0.07433679824770031
0.4094420404450504   0.05098670071707866   0.07433679824770031
0.4094420404450504   0.05098670071707866   0.07433679824770031
0.08824214740707093   0.02206053685176773   0.02206053685176773
0.08824214740707093   0.02206053685176773   0.02206053685176773
0.08824214740707093   0.02206053685176773   0.02206053685176773
0.08824214740707093   0.02206053685176773   0.02206053685176773
0.7270845962735268   0.09036973724230224   0.03429458808222269
0.7270845962735268   0.09036973724230224   0.03429458808222269
0.7270845962735268   0.09036973724230224   0.03429458808222269
0.7270845962735268   0.09036973724230224   0.03429458808222269
0.7770322834393473   0.19425807085983682   0.19425807085983682
0.7770322834393473   0.19425807085983682   0.19425807085983682
0.7770322834393473   0.19425807085983682   0.19425807085983682
0.7770322834393473   0.19425807085983682   0.19425807085983682
0.08522834309771034   -0.021793922118327085   0.00015570296919286027
0.08522834309771034   -0.021793922118327085   0.00015570296919286027
0.08522834309771034   -0.021793922118327085   0.00015570296919286027
0.08522834309771034   -0.021793922118327085   0.00015570296919286027
0.4066292224007047   0.06699357179802495   0.01928507080105775
0.4066292224007047   0.06699357179802495   0.01928507080105775
0.4066292224007047   0.06699357179802495   0.01928507080105775
0.4066292224007047   0.06699357179802495   0.01928507080105775
0.09950665214170788   0.02487666303542697   0.02487666303542697
0.09950665214170788   0.02487666303542697   0.02487666303542697
0.09950665214170788   0.02487666303542697   0.02487666303542697
0.09950665214170788   0.02487666303542697   0.02487666303542697
0.7310128528037453   0.11584636411447835   0.0425726244271851
0.7310128528037453   0.11584636411447835   0.0425726244271851
0.7310128528037453   0.11584636411447835   0.0425726244271851
0.7310128528037453   0.11584636411447835   0.0425726244271851
0.7922780789120537   0.19806951972801343   0.19806951972801343
0.7922780789120537   0.19806951972801343   0.19806951972801343
0.7922780789120537   0.19806951972801343   0.19806951972801343
0.7922780789120537   0.19806951972801343   0.19806951972801343
0.10879994162574566   0.016245811478897282   0.012067041544448284
0.10879994162574566   0.016245811478897282   0.012067041544448284
0.10879994162574566   0.016245811478897282   0.012067041544448284
0.10879994162574566   0.016245811478897282   0.012067041544448284
0.4131382553988999   0.09093457328944449   -0.031758941165907315
0.4131382553988999   0.09093457328944449   -0.031758941165907315
0.4131382553988999   0.09093457328944449   -0.031758941165907315
0.4131382553988999   0.09093457328944449   -0.031758941165907315
0.7785462756159266   0.19463656890398165   0.19463656890398165
0.7785462756159266   0.19463656890398165   0.19463656890398165
0.7785462756159266   0.19463656890398165   0.19463656890398165
0.7785462756159266   0.19463656890398165   0.19463656890398165
1.6162008822867162   0.12326245619986409   0.042523604232407725
1.6162008822867162   0.12326245619986409   0.042523604232407725
1.6162008822867162   0.12326245619986409   0.042523604232407725
1.6162008822867162   0.12326245619986409   0.042523604232407725
1.6522351356679368   0.4130587839169842   0.4130587839169842
1.6522351356679368   0.4130587839169842   0.4130587839169842
1.6522351356679368   0.4130587839169842   0.4130587839169842
1.6522351356679368   0.4130587839169842   0.4130587839169842
0.6935396510039226   -0.03931369284625344   -0.0037467081772424235
0.6935396510039226   -0.03931369284625344   -0.0037467081772424235
0.6935396510039226   -0.03931369284625344   -0.0037467081772424235
0.6935396510039226   -0.03931369284625344   -0.0037467081772424235
1.1524928517901638   0.163189197988034   0.13001688557409258
1.1524928517901638   0.163189197988034   0.13001688557409258
1.1524928517901638   0.163189197988034   0.13001688557409258
1.1524928517901638   0.163189197988034   0.13001688557409258
0.7801685902318012   0.1950421475579503   0.1950421475579503
0.7801685902318012   0.1950421475579503   0.1950421475579503
0.7801685902318012   0.1950421475579503   0.1950421475579503
0.7801685902318012   0.1950421475579503   0.1950421475579503
1.5312450988782769   0.1443418459510045   0.07682553793469088
1.5312450988782769   0.1443418459510045   0.07682553793469088
1.5312450988782769   0.1443418459510045   0.07682553793469088
1.5312450988782769   0.1443418459510045   0.07682553793469088
1.6031230653770596   0.4007807663442649   0.4007807663442649
1.6031230653770596   0.4007807663442649   0.4007807663442649
1.6031230653770596   0.4007807663442649   0.4007807663442649
1.6031230653770596   0.4007807663442649   0.4007807663442649
0.6961591968953914   -0.02157070979853376   0.005721418798428225
0.6961591968953914   -0.02157070979853376   0.005721418798428225
0.6961591968953914   -0.02157070979853376   0.005721418798428225
0.6961591968953914   -0.02157070979853376   0.005721418798428225
1.118540507390737   0.16796475862362067   0.06233155321012963
1.118540507390737   0.16796475862362067   0.06233155321012963
1.118540507390737   0.16796475862362067   0.06233155321012963
1.118540507390737   0.16796475862362067   0.06233155321012963
0.7770322834393473   0.19425807085983682   0.19425807085983682
0.7770322834393473   0.19425807085983682   0.19425807085983682
0.7770322834393473   0.19425807085983682   0.19425807085983682
0.7770322834393473   0.19425807085983682   0.19425807085983682
1.4821743413475288   0.14487634820032377   0.051941564340576625
1.4821743413475288   0.14487634820032377   0.051941564340576625
1.4821743413475288   0.14487634820032377   0.051941564340576625
1.4821743413475288   0.14487634820032377   0.051941564340576625
1.5298656940987625   0.3824664235246906   0.3824664235246906
1.5298656940987625   0.3824664235246906   0.3824664235246906
1.5298656940987625   0.3824664235246906   0.3824664235246906
1.5298656940987625   0.3824664235246906   0.3824664235246906
0.7221293951061788   0.0231408003015679   0.0222548201250899
0.7221293951061788   0.0231408003015679   0.0222548201250899
0.7221293951061788   0.0231408003015679   0.0222548201250899
0.7221293951061788   0.0231408003015679   0.0222548201250899
1.0712602130106073   0.18219518371411347   -0.01641456812182354
1.0712602130106073   0.18219518371411347   -0.01641456812182354
1.0712602130106073   0.18219518371411347   -0.01641456812182354
1.0712602130106073   0.18219518371411347   -0.01641456812182354
-1.565915660633049   -0.11216448260209982   0.017914691865961715
-1.565915660633049   -0.11216448260209982   0.017914691865961715
-1.565915660633049   -0.11216448260209982   0.017914691865961715
-1.565915660633049   -0.11216448260209982   0.017914691865961715
-0.9970111539229493   -0.023271871640609176   -0.006548225661863416
-0.9970111539229493   -0.023271871640609176   -0.006548225661863416
-0.9970111539229493   -0.023271871640609176   -0.006548225661863416
-0.9970111539229493   -0.023271871640609176   -0.006548225661863416
-1.0035394734082637   0.0406090739596483   0.02113959990014759
-1.0035394734082637   0.0406090739596483   0.02113959990014759
-1.0035394734082637   0.0406090739596483   0.02113959990014759
-1.0035394734082637   0.0406090739596483   0.02113959990014759
-1.5891151642194612   -0.10854281509975638   -0.01894355429760547
-1.5891151642194612   -0.10854281509975638   -0.01894355429760547
-1.5891151642194612   -0.10854281509975638   -0.01894355429760547
-1.5891151642194612   -0.10854281509975638   -0.01894355429760547
-1.2382047370003875   -0.04237166090266878   -0.005055443680910494
-1.2382047370003875   -0.04237166090266878   -0.005055443680910494
-1.2382047370003875   -0.04237166090266878   -0.005055443680910494
-1.2382047370003875   -0.04237166090266878   -0.005055443680910494
-1.5774336976351242   -0.07684458180074044   0.0077655453250641965
-1.5774336976351242   -0.07684458180074044   0.0077655453250641965
-1.5774336976351242   -0.07684458180074044   0.0077655453250641965
-1.5774336976351242   -0.07684458180074044   0.0077655453250641965
-1.016874584128179   0.007257196525058157   -0.012184076264818697
-1.016874584128179   0.007257196525058157   -0.012184076264818697
-1.016874584128179   0.007257196525058157   -0.012184076264818697
-1.016874584128179   0.007257196525058157   -0.012184076264818697
-1.0046046515165437   0.05793115021417167   0.02402189150831982
-1.0046046515165437   0.05793115021417167   0.02402189150831982
-1.0046046515165437   0.05793115021417167   0.02402189150831982
-1.0046046515165437   0.05793115021417167   0.02402189150831982
-1.5985643869780284   -0.09555861518863795   -0.02499434395245065
-1.5985643869780284   -0.09555861518863795   -0.02499434395245065
-1.5985643869780284   -0.09555861518863795   -0.02499434395245065
-1.5985643869780284   -0.09555861518863795   -0.02499434395245065
-1.2728120058021763   -0.0283126185195009   -0.012141648408668188
-1.2728120058021763   -0.0283126185195009   -0.012141648408668188
-1.2728120058021763   -0.0283126185195009   -0.012141648408668188
-1.2728120058021763   -0.0283126185195009   -0.012141648408668188
-1.5697206426114851   -0.04596939480679568   0.06963515749842444
-1.5697206426114851   -0.04596939480679568   0.06963515749842444
-1.5697206426114851   -0.04596939480679568   0.06963515749842444
-1.5697206426114851   -0.04596939480679568   0.06963515749842444
-1.0214675970432732   0.020322728672145463   -0.022684414583292803
-1.0214675970432732   0.020322728672145463   -0.022684414583292803
-1.0214675970432732   0.020322728672145463   -0.022684414583292803
-1.0214675970432732   0.020322728672145463   -0.022684414583292803
-0.9861842047920054   0.10100875967343323   0.04350211186512197
-0.9861842047920054   0.10100875967343323   0.04350211186512197
-0.9861842047920054   0.10100875967343323   0.04350211186512197
-0.9861842047920054   0.10100875967343323   0.04350211186512197
-1.5541109131384836   -0.07698972773083573   -0.04082174922734079
-1.5541109131384836   -0.07698972773083573   -0.04082174922734079
-1.5541109131384836   -0.07698972773083573   -0.04082174922734079
-1.5541109131384836   -0.07698972773083573   -0.04082174922734079
-1.2239304568454201   0.01153792562114464   0.02717020812248036
-1.2239304568454201   0.01153792562114464   0.02717020812248036
-1.2239304568454201   0.01153792562114464   0.02717020812248036
-1.2239304568454201   0.01153792562114464   0.02717020812248036
-1.0216984290024185   -0.13553538890767197   -0.017721083792147443
-1.0216984290024185   -0.13553538890767197   -0.017721083792147443
-1.0216984290024185   -0.13553538890767197   -0.017721083792147443
-1.0216984290024185   -0.13553538890767197   -0.017721083792147443
-0.47104552825476476   -0.010648576452761571   0.004957465540856416
-0.47104552825476476   -0.010648576452761571   0.004957465540856416
-0.47104552825476476   -0.010648576452761571   0.004957465540856416
-0.47104552825476476   -0.010648576452761571   0.004957465540856416
-0.47779676631714135   0.00899057110919678   0.00720122676357619
-0.47779676631714135   0.00899057110919678   0.00720122676357619
-0.47779676631714135   0.00899057110919678   0.00720122676357619
-0.47779676631714135   0.00899057110919678   0.00720122676357619
-1.0418662982281066   -0.09918380837053878   -0.030701641868880462
-1.0418662982281066   -0.09918380837053878   -0.030701641868880462
-1.0418662982281066   -0.09918380837053878   -0.030701641868880462
-1.0418662982281066   -0.09918380837053878   -0.030701641868880462
-0.7530940754920313   -0.061231002942621945   -0.01733591629521535
-0.7530940754920313   -0.061231002942621945   -0.01733591629521535
-0.7530940754920313   -0.061231002942621945   -0.01733591629521535
-0.7530940754920313   -0.061231002942621945   -0.01733591629521535
-1.0408584894256072   -0.10835941675883069   -0.016486989468093374
-1.0408584894256072   -0.10835941675883069   -0.016486989468093374
-1.0408584894256072   -0.10835941675883069   -0.016486989468093374
-1.0408584894256072   -0.10835941675883069   -0.016486989468093374
-0.4769507320975374   0.02002002251959069   0.0004019464511975865
-0.4769507320975374   0.02002002251959069   0.0004019464511975865
-0.4769507320975374   0.02002002251959069   0.0004019464511975865
-0.4769507320975374   0.02002002251959069   0.0004019464511975865
-0.4758804622545392   0.0331821502745156   0.009725914322333336
-0.4758804622545392   0.0331821502745156   0.009725914322333336
-0.4758804622545392   0.0331821502745156   0.009725914322333336
-0.4758804622545392   0.0331821502745156   0.009725914322333336
-1.0421618328603333   -0.07261658306682892   -0.03321628192962754
-1.0421618328603333   -0.07261658306682892   -0.03321628192962754
-1.0421618328603333   -0.07261658306682892   -0.03321628192962754
-1.0421618328603333   -0.07261658306682892   -0.03321628192962754
-0.7515167916813172   -0.0340486148632807   -0.008247064477420588
-0.7515167916813172   -0.0340486148632807   -0.008247064477420588
-0.7515167916813172   -0.0340486148632807   -0.008247064477420588
-0.7515167916813172   -0.0340486148632807   -0.008247064477420588
-1.0380641051928818   -0.08189050542454956   -0.003453721234649855
-1.0380641051928818   -0.08189050542454956   -0.003453721234649855
-1.0380641051928818   -0.08189050542454956   -0.003453721234649855
-1.0380641051928818   -0.08189050542454956   -0.003453721234649855
-0.47653419930810836   0.04590006324611928   -0.006260683917111459
-0.47653419930810836   0.04590006324611928   -0.006260683917111459
-0.47653419930810836   0.04590006324611928   -0.006260683917111459
-0.47653419930810836   0.04590006324611928   -0.006260683917111459
-0.4678005939415552   0.057470663468596056   0.019459887566837995
-0.4678005939415552   0.057470663468596056   0.019459887566837995
-0.4678005939415552   0.057470663468596056   0.019459887566837995
-0.4678005939415552   0.057470663468596056   0.019459887566837995
-1.0308726988371475   -0.04191801500887876   -0.03701358367827209
-1.0308726988371475   -0.04191801500887876   -0.03701358367827209
-1.0308726988371475   -0.04191801500887876   -0.03701358367827209
-1.0308726988371475   -0.04191801500887876   -0.03701358367827209
-0.7482511646833984   -0.008323195959935553   0.0037503278078222166
-0.7482511646833984   -0.008323195959935553   0.0037503278078222166
-0.7482511646833984   -0.008323195959935553   0.0037503278078222166
-0.7482511646833984   -0.008323195959935553   0.0037503278078222166
-0.4966619971554446   -0.11283626815781722   -0.02093718725748727
-0.4966619971554446   -0.11283626815781722   -0.02093718725748727
-0.4966619971554446   -0.11283626815781722   -0.02093718725748727
-0.4966619971554446   -0.11283626815781722   -0.02093718725748727
0.050820212097021554   0.011545030034519236   0.019347425777332766
0.050820212097021554   0.011545030034519236   0.019347425777332766
0.050820212097021554   0.011545030034519236   0.019347425777332766
0.050820212097021554   0.011545030034519236   0.019347425777332766
0.04859503348607241   0.028333857818704955   0.0015705757479375299
0.04859503348607241   0.028333857818704955   0.0015705757479375299
0.04859503348607241   0.028333857818704955   0.0015705757479375299
0.04859503348607241   0.028333857818704955   0.0015705757479375299
-0.4986507861023647   -0.07470369192936428   -0.013374609123983906
-0.4986507861023647   -0.07470369192936428   -0.013374609123983906
-0.4986507861023647   -0.07470369192936428   -0.013374609123983906
-0.4986507861023647   -0.07470369192936428   -0.013374609123983906
-0.226142608361593   -0.03745877039416428   -0.007191822510229887
-0.226142608361593   -0.03745877039416428   -0.007191822510229887
-0.226142608361593   -0.03745877039416428   -0.007191822510229887
-0.226142608361593   -0.03745877039416428   -0.007191822510229887
-0.5021039419101498   -0.08599072369048487   -0.019353356401789267
-0.5021039419101498   -0.08599072369048487   -0.019353356401789267
-0.5021039419101498   -0.08599072369048487   -0.019353356401789267
-0.5021039419101498   -0.08599072369048487   -0.019353356401789267
0.053956705192664094   0.04152940547863197   0.0151833866209686
0.053956705192664094   0.04152940547863197   0.0151833866209686
0.053956705192664094   0.04152940547863197   0.0151833866209686
0.053956705192664094   0.04152940547863197   0.0151833866209686
0.05261537557672273   0.054945687436921915   0.00898103137604514
0.05261537557672273   0.054945687436921915   0.00898103137604514
0.05261537557672273   0.054945687436921915   0.00898103137604514
0.05261537557672273   0.054945687436921915   0.00898103137604514
-0.4969048756603049   -0.04551759638892472   -0.016696406043058994
-0.4969048756603049   -0.04551759638892472   -0.016696406043058994
-0.4969048756603049   -0.04551759638892472   -0.016696406043058994
-0.4969048756603049   -0.04551759638892472   -0.016696406043058994
-0.22248268680831587   -0.00918609779880946   0.0026300249373481643
-0.22248268680831587   -0.00918609779880946   0.0026300249373481643
-0.22248268680831587   -0.00918609779880946   0.0026300249373481643
-0.22248268680831587   -0.00918609779880946   0.0026300249373481643
-0.4982488947188429   -0.0590084937019459   -0.009925604022728244
-0.4982488947188429   -0.0590084937019459   -0.009925604022728244
-0.4982488947188429   -0.0590084937019459   -0.009925604022728244
-0.4982488947188429   -0.0590084937019459   -0.009925604022728244
0.05601424771521059   0.07049143782989278   0.01042964167551308
0.05601424771521059   0.07049143782989278   0.01042964167551308
0.05601424771521059   0.07049143782989278   0.01042964167551308
0.05601424771521059   0.07049143782989278   0.01042964167551308
0.05397570973363172   0.08453837307452008   0.014760707485150055
0.05397570973363172   0.08453837307452008   0.014760707485150055
0.05397570973363172   0.08453837307452008   0.014760707485150055
0.05397570973363172   0.08453837307452008   0.014760707485150055
-0.4902624207695408   -0.014326868538227983   -0.02105171456626758
-0.4902624207695408   -0.014326868538227983   -0.02105171456626758
-0.4902624207695408   -0.014326868538227983   -0.02105171456626758
-0.4902624207695408   -0.014326868538227983   -0.02105171456626758
-0.21677838076763378   0.02038012862685825   0.013382866974527566
-0.21677838076763378   0.02038012862685825   0.013382866974527566
-0.21677838076763378   0.02038012862685825   0.013382866974527566
-0.21677838076763378   0.02038012862685825   0.013382866974527566
0.022935212427969053   -0.082753652088322   -0.025778890445088534
0.022935212427969053   -0.082753652088322   -0.025778890445088534
0.022935212427969053   -0.082753652088322   -0.025778890445088534
0.022935212427969053   -0.082753652088322   -0.025778890445088534
0.5901282529460877   0.0406505520034581   0.03555257139830633
0.5901282529460877   0.0406505520034581   0.03555257139830633
0.5901282529460877   0.0406505520034581   0.03555257139830633
0.5901282529460877   0.0406505520034581   0.03555257139830633
0.5895373540890029   0.054858838948706246   -0.005712661201234263
0.5895373540890029   0.054858838948706246   -0.005712661201234263
0.5895373540890029   0.054858838948706246   -0.005712661201234263
0.5895373540890029   0.054858838948706246   -0.005712661201234263
0.03341571365474688   -0.04962473805996623   0.003632572469980739
0.03341571365474688   -0.04962473805996623   0.003632572469980739
0.03341571365474688   -0.04962473805996623   0.003632572469980739
0.03341571365474688   -0.04962473805996623   0.003632572469980739
0.3051879213707307   -0.007149686420357015   0.0006019431298829002
0.3051879213707307   -0.007149686420357015   0.0006019431298829002
0.3051879213707307   -0.007149686420357015   0.0006019431298829002
0.3051879213707307   -0.007149686420357015   0.0006019431298829002
0.026672029509845655   -0.06042817582481382   -0.019282410489677423
0.026672029509845655   -0.06042817582481382   -0.019282410489677423
0.026672029509845655   -0.06042817582481382   -0.019282410489677423
0.026672029509845655   -0.06042817582481382   -0.019282410489677423
0.5997194399765073   0.06910067845615718   0.030955928728837356
0.5997194399765073   0.06910067845615718   0.030955928728837356
0.5997194399765073   0.06910067845615718   0.030955928728837356
0.5997194399765073   0.06910067845615718   0.030955928728837356
0.594376910485204   0.08118799110474248   0.005916701697046002
0.594376910485204   0.08118799110474248   0.005916701697046002
0.594376910485204   0.08118799110474248   0.005916701697046002
0.594376910485204   0.08118799110474248   0.005916701697046002
0.03479132359213053   -0.02353164192927438   -0.0016618991807195753
0.03479132359213053   -0.02353164192927438   -0.0016618991807195753
0.03479132359213053   -0.02353164192927438   -0.0016618991807195753
0.03479132359213053   -0.02353164192927438   -0.0016618991807195753
0.30944192241582097   0.01801194792618918   0.012674193344896167
0.30944192241582097   0.01801194792618918   0.012674193344896167
0.30944192241582097   0.01801194792618918   0.012674193344896167
0.30944192241582097   0.01801194792618918   0.012674193344896167
0.02986313523564707   -0.03572083405255011   -0.014113648839860913
0.02986313523564707   -0.03572083405255011   -0.014113648839860913
0.02986313523564707   -0.03572083405255011   -0.014113648839860913
0.02986313523564707   -0.03572083405255011   -0.014113648839860913
0.6017946307793256   0.0958667151656567   0.02832657910674464
0.6017946307793256   0.0958667151656567   0.02832657910674464
0.6017946307793256   0.0958667151656567   0.02832657910674464
0.6017946307793256   0.0958667151656567   0.02832657910674464
0.5849830995323508   0.11157136973055287   0.012511674896121124
0.5849830995323508   0.11157136973055287   0.012511674896121124
0.5849830995323508   0.11157136973055287   0.012511674896121124
0.5849830995323508   0.11157136973055287   0.012511674896121124
0.03462826461242786   0.008756414553893857   -0.006194559600243062
0.03462826461242786   0.008756414553893857   -0.006194559600243062
0.03462826461242786   0.008756414553893857   -0.006194559600243062
0.03462826461242786   0.008756414553893857   -0.006194559600243062
0.31419419804845206   0.04677224019643359   0.023857864413222067
0.31419419804845206   0.04677224019643359   0.023857864413222067
0.31419419804845206   0.04677224019643359   0.023857864413222067
0.31419419804845206   0.04677224019643359   0.023857864413222067
0.5434656033750563   -0.10934278776635671   -0.04776733668703606
0.5434656033750563   -0.10934278776635671   -0.04776733668703606
0.5434656033750563   -0.10934278776635671   -0.04776733668703606
0.5434656033750563   -0.10934278776635671   -0.04776733668703606
1.1197559519062252   0.07397016836096165   0.03476936690044902
1.1197559519062252   0.07397016836096165   0.03476936690044902
1.1197559519062252   0.07397016836096165   0.03476936690044902
1.1197559519062252   0.07397016836096165   0.03476936690044902
1.1326161787331344   0.034876863324355106   -0.07187045505341116
1.1326161787331344   0.034876863324355106   -0.07187045505341116
1.1326161787331344   0.034876863324355106   -0.07187045505341116
1.1326161787331344   0.034876863324355106   -0.07187045505341116
0.5794313037530254   -0.022222620909518348   0.020838546977098374
0.5794313037530254   -0.022222620909518348   0.020838546977098374
0.5794313037530254   -0.022222620909518348   0.020838546977098374
0.5794313037530254   -0.022222620909518348   0.020838546977098374
0.8018389616401796   -0.014158135192097354   -0.02017304183517673
0.8018389616401796   -0.014158135192097354   -0.02017304183517673
0.8018389616401796   -0.014158135192097354   -0.02017304183517673
0.8018389616401796   -0.014158135192097354   -0.02017304183517673
0.5589899761459721   -0.07182702381327538   -0.03176368815440366
0.5589899761459721   -0.07182702381327538   -0.03176368815440366
0.5589899761459721   -0.07182702381327538   -0.03176368815440366
0.5589899761459721   -0.07182702381327538   -0.03176368815440366
1.1633721526864909   0.09479591257441647   0.021990365463310867
1.1633721526864909   0.09479591257441647   0.021990365463310867
1.1633721526864909   0.09479591257441647   0.021990365463310867
1.1633721526864909   0.09479591257441647   0.021990365463310867
1.1453670610803264   0.06383634532890395   -0.016451169749320142
1.1453670610803264   0.06383634532890395   -0.016451169749320142
1.1453670610803264   0.06383634532890395   -0.016451169749320142
1.1453670610803264   0.06383634532890395   -0.016451169749320142
0.5772787668093019   -0.00919473665157236   0.010808711073850182
0.5772787668093019   -0.00919473665157236   0.010808711073850182
0.5772787668093019   -0.00919473665157236   0.010808711073850182
0.5772787668093019   -0.00919473665157236   0.010808711073850182
0.8441100284088023   0.021100905562794342   0.013899343092875306
0.8441100284088023   0.021100905562794342   0.013899343092875306
0.8441100284088023   0.021100905562794342   0.013899343092875306
0.8441100284088023   0.021100905562794342   0.013899343092875306
0.5608549543904513   -0.05489738299466754   -0.025607704677302494
0.5608549543904513   -0.05489738299466754   -0.025607704677302494
0.5608549543904513   -0.05489738299466754   -0.025607704677302494
0.5608549543904513   -0.05489738299466754   -0.025607704677302494
1.1604420445958439   0.10819016276866691   0.014569930388504494
1.1604420445958439   0.10819016276866691   0.014569930388504494
1.1604420445958439   0.10819016276866691   0.014569930388504494
1.1604420445958439   0.10819016276866691   0.014569930388504494
1.1437610750949603   0.0979926047544849   -0.025117837599105478
1.1437610750949603   0.0979926047544849   -0.025117837599105478
1.1437610750949603   0.0979926047544849   -0.025117837599105478
1.1437610750949603   0.0979926047544849   -0.025117837599105478
0.5655328180737794   0.020775636501091127   0.006056000832722116
0.5655328180737794   0.020775636501091127   0.006056000832722116
0.5655328180737794   0.020775636501091127   0.006056000832722116
0.5655328180737794   0.020775636501091127   0.006056000832722116
0.8227410152435857   0.03708708342881928   0.01039488400703937
0.8227410152435857   0.03708708342881928   0.01039488400703937
0.8227410152435857   0.03708708342881928   0.01039488400703937
0.8227410152435857   0.03708708342881928   0.01039488400703937
-1.229298968712471   -0.055702229063950004   0.06358780201095424
-1.229298968712471   -0.055702229063950004   0.06358780201095424
-1.229298968712471   -0.055702229063950004   0.06358780201095424
-1.229298968712471   -0.055702229063950004   0.06358780201095424
-0.8168698787168693   -0.03123151302891755   -0.016545611426060057
-0.8168698787168693   -0.03123151302891755   -0.016545611426060057
-0.8168698787168693   -0.03123151302891755   -0.016545611426060057
-0.8168698787168693   -0.03123151302891755   -0.016545611426060057
-0.7872450509270914   0.06628311694929731   0.053315992655289454
-0.7872450509270914   0.06628311694929731   0.053315992655289454
-0.7872450509270914   0.06628311694929731   0.053315992655289454
-0.7872450509270914   0.06628311694929731   0.053315992655289454
-1.2348995175251407   -0.08823299849044924   -0.02590681617230843
-1.2348995175251407   -0.08823299849044924   -0.02590681617230843
-1.2348995175251407   -0.08823299849044924   -0.02590681617230843
-1.2348995175251407   -0.08823299849044924   -0.02590681617230843
-0.9758115289151966   -0.015083992285065961   -0.0019372435039692326
-0.9758115289151966   -0.015083992285065961   -0.0019372435039692326
-0.9758115289151966   -0.015083992285065961   -0.0019372435039692326
-0.9758115289151966   -0.015083992285065961   -0.0019372435039692326
-1.200385287023838   -0.012768217693632206   0.07119955553738859
-1.200385287023838   -0.012768217693632206   0.07119955553738859
-1.200385287023838   -0.012768217693632206   0.07119955553738859
-1.200385287023838   -0.012768217693632206   0.07119955553738859
-0.8163263346395904   -0.0037487170587159058   -0.022058591899192223
-0.8163263346395904   -0.0037487170587159058   -0.022058591899192223
-0.8163263346395904   -0.0037487170587159058   -0.022058591899192223
-0.8163263346395904   -0.0037487170587159058   -0.022058591899192223
-0.7839602071543235   0.08224016826206465   0.04939539347735335
-0.7839602071543235   0.08224016826206465   0.04939539347735335
-0.7839602071543235   0.08224016826206465   0.04939539347735335
-0.7839602071543235   0.08224016826206465   0.04939539347735335
-1.2156136177585097   -0.07376040816528667   -0.035448979780355924
-1.2156136177585097   -0.07376040816528667   -0.035448979780355924
-1.2156136177585097   -0.07376040816528667   -0.035448979780355924
-1.2156136177585097   -0.07376040816528667   -0.035448979780355924
-0.9777562141265447   0.003662038526052541   0.01120232983583136
-0.9777562141265447   0.003662038526052541   0.01120232983583136
-0.9777562141265447   0.003662038526052541   0.01120232983583136
-0.9777562141265447   0.003662038526052541   0.01120232983583136
-1.1834820696482065   0.002288656324160032   0.04915969628171356
-1.1834820696482065   0.002288656324160032   0.04915969628171356
-1.1834820696482065   0.002288656324160032   0.04915969628171356
-1.1834820696482065   0.002288656324160032   0.04915969628171356
-0.8143021031833213   0.007980755853924298   -0.02805467425948964
-0.8143021031833213   0.007980755853924298   -0.02805467425948964
-0.8143021031833213   0.007980755853924298   -0.02805467425948964
-0.8143021031833213   0.007980755853924298   -0.02805467425948964
-0.7846517996938575   0.09290550482707283   0.039195300117575646
-0.7846517996938575   0.09290550482707283   0.039195300117575646
-0.7846517996938575   0.09290550482707283   0.039195300117575646
-0.7846517996938575   0.09290550482707283   0.039195300117575646
-1.190623280792499   -0.058341715238504566   -0.04518579405782713
-1.190623280792499   -0.058341715238504566   -0.04518579405782713
-1.190623280792499   -0.058341715238504566   -0.04518579405782713
-1.190623280792499   -0.058341715238504566   -0.04518579405782713
-0.9495427628248276   0.020468479849968524   0.02342768210731004
-0.9495427628248276   0.020468479849968524   0.02342768210731004
-0.9495427628248276   0.020468479849968524   0.02342768210731004
-0.9495427628248276   0.020468479849968524   0.02342768210731004
-0.8192167777118406   -0.07764720278192833   0.01813558335209449
-0.8192167777118406   -0.07764720278192833   0.01813558335209449
-0.8192167777118406   -0.07764720278192833   0.01813558335209449
-0.8192167777118406   -0.07764720278192833   0.01813558335209449
-0.41415101549169825   -0.015085988913061385   0.0007725504936340229
-0.41415101549169825   -0.015085988913061385   0.0007725504936340229
-0.41415101549169825   -0.015085988913061385   0.0007725504936340229
-0.41415101549169825   -0.015085988913061385   0.0007725504936340229
-0.4023166108524147   0.0406594274382828   0.0289648497995355
-0.4023166108524147   0.0406594274382828   0.0289648497995355
-0.4023166108524147   0.0406594274382828   0.0289648497995355
-0.4023166108524147   0.0406594274382828   0.0289648497995355
-0.83221611318211   -0.07657303829765105   -0.02868316337285487
-0.83221611318211   -0.07657303829765105   -0.02868316337285487
-0.83221611318211   -0.07657303829765105   -0.02868316337285487
-0.83221611318211   -0.07657303829765105   -0.02868316337285487
-0.6147992991442331   -0.03017111036934146   -0.012523412446398315
-0.6147992991442331   -0.03017111036934146   -0.012523412446398315
-0.6147992991442331   -0.03017111036934146   -0.012523412446398315
-0.6147992991442331   -0.03017111036934146   -0.012523412446398315
-0.8165528640242689   -0.044473986943546734   0.017534031062241974
-0.8165528640242689   -0.044473986943546734   0.017534031062241974
-0.8165528640242689   -0.044473986943546734   0.017534031062241974
-0.8165528640242689   -0.044473986943546734   0.017534031062241974
-0.4148109223179939   0.011729313776440181   -0.004576593866514753
-0.4148109223179939   0.011729313776440181   -0.004576593866514753
-0.4148109223179939   0.011729313776440181   -0.004576593866514753
-0.4148109223179939   0.011729313776440181   -0.004576593866514753
-0.4009745778102286   0.06727370717715185   0.02504791424017158
-0.4009745778102286   0.06727370717715185   0.02504791424017158
-0.4009745778102286   0.06727370717715185   0.02504791424017158
-0.4009745778102286   0.06727370717715185   0.02504791424017158
-0.8274109538642808   -0.05174366623165155   -0.03387450557871744
-0.8274109538642808   -0.05174366623165155   -0.03387450557871744
-0.8274109538642808   -0.05174366623165155   -0.03387450557871744
-0.8274109538642808   -0.05174366623165155   -0.03387450557871744
-0.6080135905317764   -0.0032651998471874277   -8.10007734054069e-05
-0.6080135905317764   -0.0032651998471874277   -8.10007734054069e-05
-0.6080135905317764   -0.0032651998471874277   -8.10007734054069e-05
-0.6080135905317764   -0.0032651998471874277   -8.10007734054069e-05
-0.8114293552852034   -0.017474055790728193   0.011763876875746246
-0.8114293552852034   -0.017474055790728193   0.011763876875746246
-0.8114293552852034   -0.017474055790728193   0.011763876875746246
-0.8114293552852034   -0.017474055790728193   0.011763876875746246
-0.41437621756625065   0.03558405555928554   -0.01027063292206977
-0.41437621756625065   0.03558405555928554   -0.01027063292206977
-0.41437621756625065   0.03558405555928554   -0.01027063292206977
-0.41437621756625065   0.03558405555928554   -0.01027063292206977
-0.4007896444906344   0.09525307862032303   0.018758830121223903
-0.4007896444906344   0.09525307862032303   0.018758830121223903
-0.4007896444906344   0.09525307862032303   0.018758830121223903
-0.4007896444906344   0.09525307862032303   0.018758830121223903
-0.8233482634042586   -0.02493454677741508   -0.036446966829945
-0.8233482634042586   -0.02493454677741508   -0.036446966829945
-0.8233482634042586   -0.02493454677741508   -0.036446966829945
-0.8233482634042586   -0.02493454677741508   -0.036446966829945
-0.6083279601199172   0.021431076811831262   0.009439306522270319
-0.6083279601199172   0.021431076811831262   0.009439306522270319
-0.6083279601199172   0.021431076811831262   0.009439306522270319
-0.6083279601199172   0.021431076811831262   0.009439306522270319
-0.4295404228581216   -0.08887389763523797   -0.002386577616310031
-0.4295404228581216   -0.08887389763523797   -0.002386577616310031
-0.4295404228581216   -0.08887389763523797   -0.002386577616310031
-0.4295404228581216   -0.08887389763523797   -0.002386577616310031
-0.015129536876610344   0.004249904336960557   0.018338219683956578
-0.015129536876610344   0.004249904336960557   0.018338219683956578
-0.015129536876610344   0.004249904336960557   0.018338219683956578
-0.015129536876610344   0.004249904336960557   0.018338219683956578
-0.01663568192991829   0.026128853044718715   0.008773011573984694
-0.01663568192991829   0.026128853044718715   0.008773011573984694
-0.01663568192991829   0.026128853044718715   0.008773011573984694
-0.01663568192991829   0.026128853044718715   0.008773011573984694
-0.4297623653914053   -0.056893311461202384   -0.010711183995935965
-0.4297623653914053   -0.056893311461202384   -0.010711183995935965
-0.4297623653914053   -0.056893311461202384   -0.010711183995935965
-0.4297623653914053   -0.056893311461202384   -0.010711183995935965
-0.2234538200613281   -0.02790538743469063   -0.007023819707311449
-0.2234538200613281   -0.02790538743469063   -0.007023819707311449
-0.2234538200613281   -0.02790538743469063   -0.007023819707311449
-0.2234538200613281   -0.02790538743469063   -0.007023819707311449
-0.4292989971436726   -0.05934661929710269   -0.005941034921368123
-0.4292989971436726   -0.05934661929710269   -0.005941034921368123
-0.4292989971436726   -0.05934661929710269   -0.005941034921368123
-0.4292989971436726   -0.05934661929710269   -0.005941034921368123
-0.014737855720217418   0.030943355338053286   0.013447640329154492
-0.014737855720217418   0.030943355338053286   0.013447640329154492
-0.014737855720217418   0.030943355338053286   0.013447640329154492
-0.014737855720217418   0.030943355338053286   0.013447640329154492
-0.014607784135729645   0.0551187756838696   0.0041883627963373755
-0.014607784135729645   0.0551187756838696   0.0041883627963373755
-0.014607784135729645   0.0551187756838696   0.0041883627963373755
-0.014607784135729645   0.0551187756838696   0.0041883627963373755
-0.42861166744279805   -0.030151017582300293   -0.01571280916322368
-0.42861166744279805   -0.030151017582300293   -0.01571280916322368
-0.42861166744279805   -0.030151017582300293   -0.01571280916322368
-0.42861166744279805   -0.030151017582300293   -0.01571280916322368
-0.2212179983891639   -0.001108607147233126   0.003032850707994741
-0.2212179983891639   -0.001108607147233126   0.003032850707994741
-0.2212179983891639   -0.001108607147233126   0.003032850707994741
-0.2212179983891639   -0.001108607147233126   0.003032850707994741
-0.4279685569799275   -0.03076725527539302   -0.011881019155777921
-0.4279685569799275   -0.03076725527539302   -0.011881019155777921
-0.4279685569799275   -0.03076725527539302   -0.011881019155777921
-0.4279685569799275   -0.03076725527539302   -0.011881019155777921
-0.013301732394137098   0.057684175581424205   0.00815322160674551
-0.013301732394137098   0.057684175581424205   0.00815322160674551
-0.013301732394137098   0.057684175581424205   0.00815322160674551
-0.013301732394137098   0.057684175581424205   0.00815322160674551
-0.014122295869731072   0.08497115461822655   -0.0007017236838084973
-0.014122295869731072   0.08497115461822655   -0.0007017236838084973
-0.014122295869731072   0.08497115461822655   -0.0007017236838084973
-0.014122295869731072   0.08497115461822655   -0.0007017236838084973
-0.42833777081828645   -0.002957473510313835   -0.020771249386396802
-0.42833777081828645   -0.002957473510313835   -0.020771249386396802
-0.42833777081828645   -0.002957473510313835   -0.020771249386396802
-0.42833777081828645   -0.002957473510313835   -0.020771249386396802
-0.2194661417230439   0.02571398743760403   0.012256232926220707
-0.2194661417230439   0.02571398743760403   0.012256232926220707
-0.2194661417230439   0.02571398743760403   0.012256232926220707
-0.2194661417230439   0.02571398743760403   0.012256232926220707
-0.04338885617710315   -0.0974208988309589   -0.021287573650587803
-0.04338885617710315   -0.0974208988309589   -0.021287573650587803
-0.04338885617710315   -0.0974208988309589   -0.021287573650587803
-0.04338885617710315   -0.0974208988309589   -0.021287573650587803
0.38227437868641556   0.02686467637032222   0.03487229869530439
0.38227437868641556   0.02686467637032222   0.03487229869530439
0.38227437868641556   0.02686467637032222   0.03487229869530439
0.38227437868641556   0.02686467637032222   0.03487229869530439
0.3697508550715574   0.01415122084785568   -0.013822774407720218
0.3697508550715574   0.01415122084785568   -0.013822774407720218
0.3697508550715574   0.01415122084785568   -0.013822774407720218
0.3697508550715574   0.01415122084785568   -0.013822774407720218
-0.029222588388250315   -0.0355852468226613   0.007552579149704596
-0.029222588388250315   -0.0355852468226613   0.007552579149704596
-0.029222588388250315   -0.0355852468226613   0.007552579149704596
-0.029222588388250315   -0.0355852468226613   0.007552579149704596
0.16744183666020113   -0.02264037201296769   -0.003978367490798135
0.16744183666020113   -0.02264037201296769   -0.003978367490798135
0.16744183666020113   -0.02264037201296769   -0.003978367490798135
0.16744183666020113   -0.02264037201296769   -0.003978367490798135
-0.043170125059121794   -0.07101874208516577   -0.02675160894214832
-0.043170125059121794   -0.07101874208516577   -0.02675160894214832
-0.043170125059121794   -0.07101874208516577   -0.02675160894214832
-0.043170125059121794   -0.07101874208516577   -0.02675160894214832
0.38638435589659453   0.05227068026452536   0.03122527030079302
0.38638435589659453   0.05227068026452536   0.03122527030079302
0.38638435589659453   0.05227068026452536   0.03122527030079302
0.38638435589659453   0.05227068026452536   0.03122527030079302
0.37583953527205094   0.041127440273121395   -0.019414699848661086
0.37583953527205094   0.041127440273121395   -0.019414699848661086
0.37583953527205094   0.041127440273121395   -0.019414699848661086
0.37583953527205094   0.041127440273121395   -0.019414699848661086
-0.028351561220676752   -0.011623312588317263   0.0022115656437888993
-0.028351561220676752   -0.011623312588317263   0.0022115656437888993
-0.028351561220676752   -0.011623312588317263   0.0022115656437888993
-0.028351561220676752   -0.011623312588317263   0.0022115656437888993
0.1690033206915162   0.0016161987536278122   0.006019978946280865
0.1690033206915162   0.0016161987536278122   0.006019978946280865
0.1690033206915162   0.0016161987536278122   0.006019978946280865
0.1690033206915162   0.0016161987536278122   0.006019978946280865
-0.04191829710337445   -0.044991892919862414   -0.03225353343815478
-0.04191829710337445   -0.044991892919862414   -0.03225353343815478
-0.04191829710337445   -0.044991892919862414   -0.03225353343815478
-0.04191829710337445   -0.044991892919862414   -0.03225353343815478
0.392333832803391   0.0774235822533084   0.026760645827849466
0.392333832803391   0.0774235822533084   0.026760645827849466
0.392333832803391   0.0774235822533084   0.026760645827849466
0.392333832803391   0.0774235822533084   0.026760645827849466
0.3796211190670047   0.07493500428238294   -0.020294465412374476
0.3796211190670047   0.07493500428238294   -0.020294465412374476
0.3796211190670047   0.07493500428238294   -0.020294465412374476
0.3796211190670047   0.07493500428238294   -0.020294465412374476
-0.02832768869808335   0.016359392969154937   -0.0031169261764979785
-0.02832768869808335   0.016359392969154937   -0.0031169261764979785
-0.02832768869808335   0.016359392969154937   -0.0031169261764979785
-0.02832768869808335   0.016359392969154937   -0.0031169261764979785
0.1749496411082147   0.02864322572941678   0.017884259392333655
0.1749496411082147   0.02864322572941678   0.017884259392333655
0.1749496411082147   0.02864322572941678   0.017884259392333655
0.1749496411082147   0.02864322572941678   0.017884259392333655
0.3422694026947728   -0.09678216319994612   -0.0415057416926375
0.3422694026947728   -0.09678216319994612   -0.0415057416926375
0.3422694026947728   -0.09678216319994612   -0.0415057416926375
0.3422694026947728   -0.09678216319994612   -0.0415057416926375
0.7533128307531852   0.05598074744750321   0.03887421031793331
0.7533128307531852   0.05598074744750321   0.03887421031793331
0.7533128307531852   0.05598074744750321   0.03887421031793331
0.7533128307531852   0.05598074744750321   0.03887421031793331
0.7474624493153159   -0.003834140260900898   -0.05525019534210497
0.7474624493153159   -0.003834140260900898   -0.05525019534210497
0.7474624493153159   -0.003834140260900898   -0.05525019534210497
0.7474624493153159   -0.003834140260900898   -0.05525019534210497
0.373318999214225   -0.00794926697777354   0.026118434131247134
0.373318999214225   -0.00794926697777354   0.026118434131247134
0.373318999214225   -0.00794926697777354   0.026118434131247134
0.373318999214225   -0.00794926697777354   0.026118434131247134
0.527189692849923   -0.01895166429883735   -0.017351198469104982
0.527189692849923   -0.01895166429883735   -0.017351198469104982
0.527189692849923   -0.01895166429883735   -0.017351198469104982
0.527189692849923   -0.01895166429883735   -0.017351198469104982
0.3426822158669116   -0.08395258149898271   -0.051062168084109766
0.3426822158669116   -0.08395258149898271   -0.051062168084109766
0.3426822158669116   -0.08395258149898271   -0.051062168084109766
0.3426822158669116   -0.08395258149898271   -0.051062168084109766
0.7802982157889621   0.07436815738664249   0.030726339378582587
0.7802982157889621   0.07436815738664249   0.030726339378582587
0.7802982157889621   0.07436815738664249   0.030726339378582587
0.7802982157889621   0.07436815738664249   0.030726339378582587
0.7659643019989243   0.011552657014338469   -0.07413985578621804
0.7659643019989243   0.011552657014338469   -0.07413985578621804
0.7659643019989243   0.011552657014338469   -0.07413985578621804
0.7659643019989243   0.011552657014338469   -0.07413985578621804
0.37615171859276264   0.0037908752007502072   0.019482781827271603
0.37615171859276264   0.0037908752007502072   0.019482781827271603
0.37615171859276264   0.0037908752007502072   0.019482781827271603
0.37615171859276264   0.0037908752007502072   0.019482781827271603
0.5511947149929858   -0.002303936002234608   -0.0052624787537733225
0.5511947149929858   -0.002303936002234608   -0.0052624787537733225
0.5511947149929858   -0.002303936002234608   -0.0052624787537733225
0.5511947149929858   -0.002303936002234608   -0.0052624787537733225
0.3466583406772725   -0.06859934216886218   -0.05559389038056956
0.3466583406772725   -0.06859934216886218   -0.05559389038056956
0.3466583406772725   -0.06859934216886218   -0.05559389038056956
0.3466583406772725   -0.06859934216886218   -0.05559389038056956
0.8003174448218353   0.08880263929137124   0.020375876051311723
0.8003174448218353   0.08880263929137124   0.020375876051311723
0.8003174448218353   0.08880263929137124   0.020375876051311723
0.8003174448218353   0.08880263929137124   0.020375876051311723
0.7953331557269326   0.05156929987226576   -0.06977601996455798
0.7953331557269326   0.05156929987226576   -0.06977601996455798
0.7953331557269326   0.05156929987226576   -0.06977601996455798
0.7953331557269326   0.05156929987226576   -0.06977601996455798
0.37747720438963694   0.02968030149061302   0.014240663992559575
0.37747720438963694   0.02968030149061302   0.014240663992559575
0.37747720438963694   0.02968030149061302   0.014240663992559575
0.37747720438963694   0.02968030149061302   0.014240663992559575
0.555421356503437   0.01671252854181926   0.008133719290487475
0.555421356503437   0.01671252854181926   0.008133719290487475
0.555421356503437   0.01671252854181926   0.008133719290487475
0.555421356503437   0.01671252854181926   0.008133719290487475
-0.8774197080718613   -0.028526257845225528   0.05753049384739221
-0.8774197080718613   -0.028526257845225528   0.05753049384739221
-0.8774197080718613   -0.028526257845225528   0.05753049384739221
-0.8774197080718613   -0.028526257845225528   0.05753049384739221
-0.6144721242213612   -0.04119240227025203   -0.021693785496564373
-0.6144721242213612   -0.04119240227025203   -0.021693785496564373
-0.6144721242213612   -0.04119240227025203   -0.021693785496564373
-0.6144721242213612   -0.04119240227025203   -0.021693785496564373
-0.5782701463587239   0.05808163177871496   0.04903696400709555
-0.5782701463587239   0.05808163177871496   0.04903696400709555
-0.5782701463587239   0.05808163177871496   0.04903696400709555
-0.5782701463587239   0.05808163177871496   0.04903696400709555
-0.8774814344258057   -0.07226077881650954   -0.031740250232821204
-0.8774814344258057   -0.07226077881650954   -0.031740250232821204
-0.8774814344258057   -0.07226077881650954   -0.031740250232821204
-0.8774814344258057   -0.07226077881650954   -0.031740250232821204
-0.706752723089358   -0.011230718771726211   -0.00167545696382973
-0.706752723089358   -0.011230718771726211   -0.00167545696382973
-0.706752723089358   -0.011230718771726211   -0.00167545696382973
-0.706752723089358   -0.011230718771726211   -0.00167545696382973
-0.8445474502250873   0.005960463829062845   0.05470842812519848
-0.8445474502250873   0.005960463829062845   0.05470842812519848
-0.8445474502250873   0.005960463829062845   0.05470842812519848
-0.8445474502250873   0.005960463829062845   0.05470842812519848
-0.6085219295203992   -0.017457409827813394   -0.02668291019474704
-0.6085219295203992   -0.017457409827813394   -0.02668291019474704
-0.6085219295203992   -0.017457409827813394   -0.02668291019474704
-0.6085219295203992   -0.017457409827813394   -0.02668291019474704
-0.5728188633745573   0.07017382064654845   0.04142740989486725
-0.5728188633745573   0.07017382064654845   0.04142740989486725
-0.5728188633745573   0.07017382064654845   0.04142740989486725
-0.5728188633745573   0.07017382064654845   0.04142740989486725
-0.856641219034927   -0.05877875905944607   -0.04010695334435751
-0.856641219034927   -0.05877875905944607   -0.04010695334435751
-0.856641219034927   -0.05877875905944607   -0.04010695334435751
-0.856641219034927   -0.05877875905944607   -0.04010695334435751
-0.7017608769859525   0.004711124072375228   0.007339242695951646
-0.7017608769859525   0.004711124072375228   0.007339242695951646
-0.7017608769859525   0.004711124072375228   0.007339242695951646
-0.7017608769859525   0.004711124072375228   0.007339242695951646
-0.8239991638127234   0.020430992767820372   0.04389357093939299
-0.8239991638127234   0.020430992767820372   0.04389357093939299
-0.8239991638127234   0.020430992767820372   0.04389357093939299
-0.8239991638127234   0.020430992767820372   0.04389357093939299
-0.6030386007580435   -0.00661361334199978   -0.03288384303400934
-0.6030386007580435   -0.00661361334199978   -0.03288384303400934
-0.6030386007580435   -0.00661361334199978   -0.03288384303400934
-0.6030386007580435   -0.00661361334199978   -0.03288384303400934
-0.5698028654725128   0.08198888652024539   0.035646799415936264
-0.5698028654725128   0.08198888652024539   0.035646799415936264
-0.5698028654725128   0.08198888652024539   0.035646799415936264
-0.5698028654725128   0.08198888652024539   0.035646799415936264
-0.8287491958749101   -0.040936436935503584   -0.048008485361053094
-0.8287491958749101   -0.040936436935503584   -0.048008485361053094
-0.8287491958749101   -0.040936436935503584   -0.048008485361053094
-0.8287491958749101   -0.040936436935503584   -0.048008485361053094
-0.675390640370696   0.019664990716587283   0.019964235457538393
-0.675390640370696   0.019664990716587283   0.019964235457538393
-0.675390640370696   0.019664990716587283   0.019964235457538393
-0.675390640370696   0.019664990716587283   0.019964235457538393
-0.6074764376839834   -0.04957261205519278   0.021664856975262093
-0.6074764376839834   -0.04957261205519278   0.021664856975262093
-0.6074764376839834   -0.04957261205519278   0.021664856975262093
-0.6074764376839834   -0.04957261205519278   0.021664856975262093
-0.3527779968685619   -0.026688400943170286   -0.003503514730319868
-0.3527779968685619   -0.026688400943170286   -0.003503514730319868
-0.3527779968685619   -0.026688400943170286   -0.003503514730319868
-0.3527779968685619   -0.026688400943170286   -0.003503514730319868
-0.3348403388070066   0.03392617289018493   0.026437118191221617
-0.3348403388070066   0.03392617289018493   0.026437118191221617
-0.3348403388070066   0.03392617289018493   0.026437118191221617
-0.3348403388070066   0.03392617289018493   0.026437118191221617
-0.6166392253907359   -0.05903172841488413   -0.025695070959366115
-0.6166392253907359   -0.05903172841488413   -0.025695070959366115
-0.6166392253907359   -0.05903172841488413   -0.025695070959366115
-0.6166392253907359   -0.05903172841488413   -0.025695070959366115
-0.47602692485868786   -0.023176469152532103   -0.00976947464681819
-0.47602692485868786   -0.023176469152532103   -0.00976947464681819
-0.47602692485868786   -0.023176469152532103   -0.00976947464681819
-0.47602692485868786   -0.023176469152532103   -0.00976947464681819
-0.6003367296138142   -0.020919494172791347   0.017705173683147918
-0.6003367296138142   -0.020919494172791347   0.017705173683147918
-0.6003367296138142   -0.020919494172791347   0.017705173683147918
-0.6003367296138142   -0.020919494172791347   0.017705173683147918
-0.34905086232917665   -0.0020940890971539866   -0.0085952374322899
-0.34905086232917665   -0.0020940890971539866   -0.0085952374322899
-0.34905086232917665   -0.0020940890971539866   -0.0085952374322899
-0.34905086232917665   -0.0020940890971539866   -0.0085952374322899
-0.3305835622354445   0.0587305378008339   0.021669122954873492
-0.3305835622354445   0.0587305378008339   0.021669122954873492
-0.3305835622354445   0.0587305378008339   0.021669122954873492
-0.3305835622354445   0.0587305378008339   0.021669122954873492
-0.6083229782493812   -0.03563975488143531   -0.030279588951267825
-0.6083229782493812   -0.03563975488143531   -0.030279588951267825
-0.6083229782493812   -0.03563975488143531   -0.030279588951267825
-0.6083229782493812   -0.03563975488143531   -0.030279588951267825
-0.4668823310082458   0.0011843701962069852   0.0006971620515685562
-0.4668823310082458   0.0011843701962069852   0.0006971620515685562
-0.4668823310082458   0.0011843701962069852   0.0006971620515685562
-0.4668823310082458   0.0011843701962069852   0.0006971620515685562
-0.5907870602966734   0.005590052319817129   0.016170193611018506
-0.5907870602966734   0.005590052319817129   0.016170193611018506
-0.5907870602966734   0.005590052319817129   0.016170193611018506
-0.5907870602966734   0.005590052319817129   0.016170193611018506
-0.34552167091538133   0.02009853987235266   -0.014389422516327743
-0.34552167091538133   0.02009853987235266   -0.014389422516327743
-0.34552167091538133   0.02009853987235266   -0.014389422516327743
-0.34552167091538133   0.02009853987235266   -0.014389422516327743
-0.3264701212879637   0.08517628130851987   0.017229031483434853
-0.3264701212879637   0.08517628130851987   0.017229031483434853
-0.3264701212879637   0.08517628130851987   0.017229031483434853
-0.3264701212879637   0.08517628130851987   0.017229031483434853
-0.6021044871113628   -0.010415103851499019   -0.03345731840657344
-0.6021044871113628   -0.010415103851499019   -0.03345731840657344
-0.6021044871113628   -0.010415103851499019   -0.03345731840657344
-0.6021044871113628   -0.010415103851499019   -0.03345731840657344
-0.463331686602129   0.02412821143357627   0.010672115871254127
-0.463331686602129   0.02412821143357627   0.010672115871254127
-0.463331686602129   0.02412821143357627   0.010672115871254127
-0.463331686602129   0.02412821143357627   0.010672115871254127
-0.36020287105149335   -0.06824638646036449   0.0009300998722143751
-0.36020287105149335   -0.06824638646036449   0.0009300998722143751
-0.36020287105149335   -0.06824638646036449   0.0009300998722143751
-0.36020287105149335   -0.06824638646036449   0.0009300998722143751
-0.09373434471850145   -0.008086284603618743   0.014674322930136725
-0.09373434471850145   -0.008086284603618743   0.014674322930136725
-0.09373434471850145   -0.008086284603618743   0.014674322930136725
-0.09373434471850145   -0.008086284603618743   0.014674322930136725
-0.09145764865285036   0.013910824977040721   0.005004781456724609
-0.09145764865285036   0.013910824977040721   0.005004781456724609
-0.09145764865285036   0.013910824977040721   0.005004781456724609
-0.09145764865285036   0.013910824977040721   0.005004781456724609
-0.3562542781393524   -0.0398710956537351   -0.006835309926591291
-0.3562542781393524   -0.0398710956537351   -0.006835309926591291
-0.3562542781393524   -0.0398710956537351   -0.006835309926591291
-0.3562542781393524   -0.0398710956537351   -0.006835309926591291
-0.2257991848609318   -0.024476849110644423   -0.0069497927976398055
-0.2257991848609318   -0.024476849110644423   -0.0069497927976398055
-0.2257991848609318   -0.024476849110644423   -0.0069497927976398055
-0.2257991848609318   -0.024476849110644423   -0.0069497927976398055
-0.3556696838430797   -0.04057435431011888   -0.0032090797888441117
-0.3556696838430797   -0.04057435431011888   -0.0032090797888441117
-0.3556696838430797   -0.04057435431011888   -0.0032090797888441117
-0.3556696838430797   -0.04057435431011888   -0.0032090797888441117
-0.0899448930879153   0.016711433494629696   0.009767950763810937
-0.0899448930879153   0.016711433494629696   0.009767950763810937
-0.0899448930879153   0.016711433494629696   0.009767950763810937
-0.0899448930879153   0.016711433494629696   0.009767950763810937
-0.08631602137376192   0.04170764655241527   0.0012848654413179887
-0.08631602137376192   0.04170764655241527   0.0012848654413179887
-0.08631602137376192   0.04170764655241527   0.0012848654413179887
-0.08631602137376192   0.04170764655241527   0.0012848654413179887
-0.35199222591811996   -0.014899137772518875   -0.011744519885151149
-0.35199222591811996   -0.014899137772518875   -0.011744519885151149
-0.35199222591811996   -0.014899137772518875   -0.011744519885151149
-0.35199222591811996   -0.014899137772518875   -0.011744519885151149
-0.2203066504782224   0.0004942325711426027   0.0029181601654349517
-0.2203066504782224   0.0004942325711426027   0.0029181601654349517
-0.2203066504782224   0.0004942325711426027   0.0029181601654349517
-0.2203066504782224   0.0004942325711426027   0.0029181601654349517
-0.35068119453558777   -0.012866717764346142   -0.007221782980663158
-0.35068119453558777   -0.012866717764346142   -0.007221782980663158
-0.35068119453558777   -0.012866717764346142   -0.007221782980663158
-0.35068119453558777   -0.012866717764346142   -0.007221782980663158
-0.08569047112240083   0.04161180817813576   0.00450845507240292
-0.08569047112240083   0.04161180817813576   0.00450845507240292
-0.08569047112240083   0.04161180817813576   0.00450845507240292
-0.08569047112240083   0.04161180817813576   0.00450845507240292
-0.0817011393089356   0.06990771217743322   -0.0030819524570123887
-0.0817011393089356   0.06990771217743322   -0.0030819524570123887
-0.0817011393089356   0.06990771217743322   -0.0030819524570123887
-0.0817011393089356   0.06990771217743322   -0.0030819524570123887
-0.3482558524488007   0.010360519821044037   -0.016883862833273335
-0.3482558524488007   0.010360519821044037   -0.016883862833273335
-0.3482558524488007   0.010360519821044037   -0.016883862833273335
-0.3482558524488007   0.010360519821044037   -0.016883862833273335
-0.21529241129424662   0.025585194167523015   0.012425047262514009
-0.21529241129424662   0.025585194167523015   0.012425047262514009
-0.21529241129424662   0.025585194167523015   0.012425047262514009
-0.21529241129424662   0.025585194167523015   0.012425047262514009
-0.11562731179148734   -0.08355456739333475   -0.019322229645077498
-0.11562731179148734   -0.08355456739333475   -0.019322229645077498
-0.11562731179148734   -0.08355456739333475   -0.019322229645077498
-0.11562731179148734   -0.08355456739333475   -0.019322229645077498
0.1617672942998218   0.01276314179803141   0.0318150568005017
0.1617672942998218   0.01276314179803141   0.0318150568005017
0.1617672942998218   0.01276314179803141   0.0318150568005017
0.1617672942998218   0.01276314179803141   0.0318150568005017
0.15035525866989347   -0.004746963913944129   -0.0178338533648533
0.15035525866989347   -0.004746963913944129   -0.0178338533648533
0.15035525866989347   -0.004746963913944129   -0.0178338533648533
0.15035525866989347   -0.004746963913944129   -0.0178338533648533
-0.09674763131994805   -0.019352691193579647   0.011818384291855605
-0.09674763131994805   -0.019352691193579647   0.011818384291855605
-0.09674763131994805   -0.019352691193579647   0.011818384291855605
-0.09674763131994805   -0.019352691193579647   0.011818384291855605
0.023916881333518165   -0.023063300444103006   -0.004951567998621312
0.023916881333518165   -0.023063300444103006   -0.004951567998621312
0.023916881333518165   -0.023063300444103006   -0.004951567998621312
0.023916881333518165   -0.023063300444103006   -0.004951567998621312
-0.11166882897993848   -0.058344224842729095   -0.023796070358946195
-0.11166882897993848   -0.058344224842729095   -0.023796070358946195
-0.11166882897993848   -0.058344224842729095   -0.023796070358946195
-0.11166882897993848   -0.058344224842729095   -0.023796070358946195
0.1677719417714554   0.03674005517677699   0.027762543052235317
0.1677719417714554   0.03674005517677699   0.027762543052235317
0.1677719417714554   0.03674005517677699   0.027762543052235317
0.1677719417714554   0.03674005517677699   0.027762543052235317
0.1599300475773092   0.02154869849930034   -0.020209987716109056
0.1599300475773092   0.02154869849930034   -0.020209987716109056
0.1599300475773092   0.02154869849930034   -0.020209987716109056
0.1599300475773092   0.02154869849930034   -0.020209987716109056
-0.09303804077267624   0.0029794837260234026   0.006402931273137488
-0.09303804077267624   0.0029794837260234026   0.006402931273137488
-0.09303804077267624   0.0029794837260234026   0.006402931273137488
-0.09303804077267624   0.0029794837260234026   0.006402931273137488
0.029015084553636498   -0.00040963611817709973   0.005090679305416625
0.029015084553636498   -0.00040963611817709973   0.005090679305416625
0.029015084553636498   -0.00040963611817709973   0.005090679305416625
0.029015084553636498   -0.00040963611817709973   0.005090679305416625
-0.10743796544269045   -0.03367195685971644   -0.02894525149119329
-0.10743796544269045   -0.03367195685971644   -0.02894525149119329
-0.10743796544269045   -0.03367195685971644   -0.02894525149119329
-0.10743796544269045   -0.03367195685971644   -0.02894525149119329
0.17649452421372308   0.06036469105144185   0.023796402913815063
0.17649452421372308   0.06036469105144185   0.023796402913815063
0.17649452421372308   0.06036469105144185   0.023796402913815063
0.17649452421372308   0.06036469105144185   0.023796402913815063
0.1676435665243056   0.05150479632625833   -0.02336116461337763
0.1676435665243056   0.05150479632625833   -0.02336116461337763
0.1676435665243056   0.05150479632625833   -0.02336116461337763
0.1676435665243056   0.05150479632625833   -0.02336116461337763
-0.08907428421618864   0.02870892030511454   0.0012511148790411153
-0.08907428421618864   0.02870892030511454   0.0012511148790411153
-0.08907428421618864   0.02870892030511454   0.0012511148790411153
-0.08907428421618864   0.02870892030511454   0.0012511148790411153
0.036873027337484564   0.024212707871726236   0.015482930199683437
0.036873027337484564   0.024212707871726236   0.015482930199683437
0.036873027337484564   0.024212707871726236   0.015482930199683437
0.036873027337484564   0.024212707871726236   0.015482930199683437
0.12833179034380413   -0.0844251391118934   -0.03817418206966102
0.12833179034380413   -0.0844251391118934   -0.03817418206966102
0.12833179034380413   -0.0844251391118934   -0.03817418206966102
0.12833179034380413   -0.0844251391118934   -0.03817418206966102
0.3884981606982659   0.038373091158347215   0.04127565327359174
0.3884981606982659   0.038373091158347215   0.04127565327359174
0.3884981606982659   0.038373091158347215   0.04127565327359174
0.3884981606982659   0.038373091158347215   0.04127565327359174
0.38458097329788005   -0.02097314699981004   -0.05026294006259036
0.38458097329788005   -0.02097314699981004   -0.05026294006259036
0.38458097329788005   -0.02097314699981004   -0.05026294006259036
0.38458097329788005   -0.02097314699981004   -0.05026294006259036
0.1624481466450007   0.00707085307233974   0.030812769524399146
0.1624481466450007   0.00707085307233974   0.030812769524399146
0.1624481466450007   0.00707085307233974   0.030812769524399146
0.1624481466450007   0.00707085307233974   0.030812769524399146
0.2520930234976045   -0.017531774363777064   -0.013386535932878259
0.2520930234976045   -0.017531774363777064   -0.013386535932878259
0.2520930234976045   -0.017531774363777064   -0.013386535932878259
0.2520930234976045   -0.017531774363777064   -0.013386535932878259
0.1319842216456421   -0.07027259149812515   -0.04416341090192794
0.1319842216456421   -0.07027259149812515   -0.04416341090192794
0.1319842216456421   -0.07027259149812515   -0.04416341090192794
0.1319842216456421   -0.07027259149812515   -0.04416341090192794
0.41758915742670427   0.058914556700123195   0.034890276881597515
0.41758915742670427   0.058914556700123195   0.034890276881597515
0.41758915742670427   0.058914556700123195   0.034890276881597515
0.41758915742670427   0.058914556700123195   0.034890276881597515
0.4057502246679543   -0.006247247931515917   -0.06030633990925065
0.4057502246679543   -0.006247247931515917   -0.06030633990925065
0.4057502246679543   -0.006247247931515917   -0.06030633990925065
0.4057502246679543   -0.006247247931515917   -0.06030633990925065
0.1680422624001885   0.017859323962464844   0.02404046093511912
0.1680422624001885   0.017859323962464844   0.02404046093511912
0.1680422624001885   0.017859323962464844   0.02404046093511912
0.1680422624001885   0.017859323962464844   0.02404046093511912
0.27343841541451047   -0.0026721902094887853   -0.0015658742856024012
0.27343841541451047   -0.0026721902094887853   -0.0015658742856024012
0.27343841541451047   -0.0026721902094887853   -0.0015658742856024012
0.27343841541451047   -0.0026721902094887853   -0.0015658742856024012
0.13781176655998262   -0.05802017535995702   -0.05123251894348454
0.13781176655998262   -0.05802017535995702   -0.05123251894348454
0.13781176655998262   -0.05802017535995702   -0.05123251894348454
0.13781176655998262   -0.05802017535995702   -0.05123251894348454
0.43863407499590285   0.07228560587864924   0.025580057920326818
0.43863407499590285   0.07228560587864924   0.025580057920326818
0.43863407499590285   0.07228560587864924   0.025580057920326818
0.43863407499590285   0.07228560587864924   0.025580057920326818
0.4382776974189445   0.026076819833806587   -0.06457723732078012
0.4382776974189445   0.026076819833806587   -0.06457723732078012
0.4382776974189445   0.026076819833806587   -0.06457723732078012
0.4382776974189445   0.026076819833806587   -0.06457723732078012
0.17376576003904484   0.0396474061816525   0.01910719310492155
0.17376576003904484   0.0396474061816525   0.01910719310492155
0.17376576003904484   0.0396474061816525   0.01910719310492155
0.17376576003904484   0.0396474061816525   0.01910719310492155
0.28414680944298454   0.01368658221945504   0.008623597083819295
0.28414680944298454   0.01368658221945504   0.008623597083819295
0.28414680944298454   0.01368658221945504   0.008623597083819295
0.28414680944298454   0.01368658221945504   0.008623597083819295
-0.5248817441196136   -0.008634583783589403   0.051504926835001234
-0.5248817441196136   -0.008634583783589403   0.051504926835001234
-0.5248817441196136   -0.008634583783589403   0.051504926835001234
-0.5248817441196136   -0.008634583783589403   0.051504926835001234
-0.4101305236862486   -0.05217543858053265   -0.025426487292724252
-0.4101305236862486   -0.05217543858053265   -0.025426487292724252
-0.4101305236862486   -0.05217543858053265   -0.025426487292724252
-0.4101305236862486   -0.05217543858053265   -0.025426487292724252
-0.37121153709117055   0.04414647205592341   0.044026106794708475
-0.37121153709117055   0.04414647205592341   0.044026106794708475
-0.37121153709117055   0.04414647205592341   0.044026106794708475
-0.37121153709117055   0.04414647205592341   0.044026106794708475
-0.5227000951185893   -0.05696579930758824   -0.03463050378960679
-0.5227000951185893   -0.05696579930758824   -0.03463050378960679
-0.5227000951185893   -0.05696579930758824   -0.03463050378960679
-0.5227000951185893   -0.05696579930758824   -0.03463050378960679
-0.43976487462801783   -0.012067310227658112   -0.006585247433052568
-0.43976487462801783   -0.012067310227658112   -0.006585247433052568
-0.43976487462801783   -0.012067310227658112   -0.006585247433052568
-0.43976487462801783   -0.012067310227658112   -0.006585247433052568
-0.490267427113019   0.02136956673228614   0.04919747019837051
-0.490267427113019   0.02136956673228614   0.04919747019837051
-0.490267427113019   0.02136956673228614   0.04919747019837051
-0.490267427113019   0.02136956673228614   0.04919747019837051
-0.4013844108563109   -0.03192909974352031   -0.030762690231545535
-0.4013844108563109   -0.03192909974352031   -0.030762690231545535
-0.4013844108563109   -0.03192909974352031   -0.030762690231545535
-0.4013844108563109   -0.03192909974352031   -0.030762690231545535
-0.3620401721577324   0.055608151701597955   0.0372265535836682
-0.3620401721577324   0.055608151701597955   0.0372265535836682
-0.3620401721577324   0.055608151701597955   0.0372265535836682
-0.3620401721577324   0.055608151701597955   0.0372265535836682
-0.4986695383983848   -0.043975943455356825   -0.0432491988329035
-0.4986695383983848   -0.043975943455356825   -0.0432491988329035
-0.4986695383983848   -0.043975943455356825   -0.0432491988329035
-0.4986695383983848   -0.043975943455356825   -0.0432491988329035
-0.42720174846438325   0.002927128339914001   0.002993895145964539
-0.42720174846438325   0.002927128339914001   0.002993895145964539
-0.42720174846438325   0.002927128339914001   0.002993895145964539
-0.42720174846438325   0.002927128339914001   0.002993895145964539
-0.4662218119848568   0.035274342479428206   0.03973914729994391
-0.4662218119848568   0.035274342479428206   0.03973914729994391
-0.4662218119848568   0.035274342479428206   0.03973914729994391
-0.4662218119848568   0.035274342479428206   0.03973914729994391
-0.39235128510922535   -0.021505520771152684   -0.03721533870104218
-0.39235128510922535   -0.021505520771152684   -0.03721533870104218
-0.39235128510922535   -0.021505520771152684   -0.03721533870104218
-0.39235128510922535   -0.021505520771152684   -0.03721533870104218
-0.3546230296656695   0.06991134598867518   0.032104263050600074
-0.3546230296656695   0.06991134598867518   0.032104263050600074
-0.3546230296656695   0.06991134598867518   0.032104263050600074
-0.3546230296656695   0.06991134598867518   0.032104263050600074
-0.46639053307622363   -0.023174038242396333   -0.050043744140266966
-0.46639053307622363   -0.023174038242396333   -0.050043744140266966
-0.46639053307622363   -0.023174038242396333   -0.050043744140266966
-0.46639053307622363   -0.023174038242396333   -0.050043744140266966
-0.4018734149026881   0.01772805365144163   0.014865651152270478
-0.4018734149026881   0.01772805365144163   0.014865651152270478
-0.4018734149026881   0.01772805365144163   0.014865651152270478
-0.4018734149026881   0.01772805365144163   0.014865651152270478
-0.39567598135223   -0.029694281445396466   0.024365067242232627
-0.39567598135223   -0.029694281445396466   0.024365067242232627
-0.39567598135223   -0.029694281445396466   0.024365067242232627
-0.39567598135223   -0.029694281445396466   0.024365067242232627
-0.2911226056434916   -0.03955012687871715   -0.007524030225366128
-0.2911226056434916   -0.03955012687871715   -0.007524030225366128
-0.2911226056434916   -0.03955012687871715   -0.007524030225366128
-0.2911226056434916   -0.03955012687871715   -0.007524030225366128
-0.2694499512646674   0.020046974497938887   0.022509169478680494
-0.2694499512646674   0.020046974497938887   0.022509169478680494
-0.2694499512646674   0.020046974497938887   0.022509169478680494
-0.2694499512646674   0.020046974497938887   0.022509169478680494
-0.40159010759676966   -0.04203079776552861   -0.021689475911827277
-0.40159010759676966   -0.04203079776552861   -0.021689475911827277
-0.40159010759676966   -0.04203079776552861   -0.021689475911827277
-0.40159010759676966   -0.04203079776552861   -0.021689475911827277
-0.3385377415209715   -0.020999308824763592   -0.009156119981408724
-0.3385377415209715   -0.020999308824763592   -0.009156119981408724
-0.3385377415209715   -0.020999308824763592   -0.009156119981408724
-0.3385377415209715   -0.020999308824763592   -0.009156119981408724
-0.38539892303198786   -0.0034979366016268804   0.020733585748172134
-0.38539892303198786   -0.0034979366016268804   0.020733585748172134
-0.38539892303198786   -0.0034979366016268804   0.020733585748172134
-0.38539892303198786   -0.0034979366016268804   0.020733585748172134
-0.2838187270973207   -0.01666347793383527   -0.012624257252809575
-0.2838187270973207   -0.01666347793383527   -0.012624257252809575
-0.2838187270973207   -0.01666347793383527   -0.012624257252809575
-0.2838187270973207   -0.01666347793383527   -0.012624257252809575
-0.26154557633658987   0.04337142792553252   0.017998923170764757
-0.26154557633658987   0.04337142792553252   0.017998923170764757
-0.26154557633658987   0.04337142792553252   0.017998923170764757
-0.26154557633658987   0.04337142792553252   0.017998923170764757
-0.3897258820120662   -0.019623899560335667   -0.025969944426059672
-0.3897258820120662   -0.019623899560335667   -0.025969944426059672
-0.3897258820120662   -0.019623899560335667   -0.025969944426059672
-0.3897258820120662   -0.019623899560335667   -0.025969944426059672
-0.3270893918050255   0.0014720525807190438   0.000908157960706639
-0.3270893918050255   0.0014720525807190438   0.000908157960706639
-0.3270893918050255   0.0014720525807190438   0.000908157960706639
-0.3270893918050255   0.0014720525807190438   0.000908157960706639
-0.3725836373651248   0.021322922446108672   0.018794456802195714
-0.3725836373651248   0.021322922446108672   0.018794456802195714
-0.3725836373651248   0.021322922446108672   0.018794456802195714
-0.3725836373651248   0.021322922446108672   0.018794456802195714
-0.2765840340914856   0.004528392811129489   -0.018350330489314563
-0.2765840340914856   0.004528392811129489   -0.018350330489314563
-0.2765840340914856   0.004528392811129489   -0.018350330489314563
-0.2765840340914856   0.004528392811129489   -0.018350330489314563
-0.25366568600797856   0.06870472223815519   0.013703010938313318
-0.25366568600797856   0.06870472223815519   0.013703010938313318
-0.25366568600797856   0.06870472223815519   0.013703010938313318
-0.25366568600797856   0.06870472223815519   0.013703010938313318
-0.3799450575172354   0.0048653823415524405   -0.02945991256010316
-0.3799450575172354   0.0048653823415524405   -0.02945991256010316
-0.3799450575172354   0.0048653823415524405   -0.02945991256010316
-0.3799450575172354   0.0048653823415524405   -0.02945991256010316
-0.31881626151568987   0.02352032071518649   0.010759254051146389
-0.31881626151568987   0.02352032071518649   0.010759254051146389
-0.31881626151568987   0.02352032071518649   0.010759254051146389
-0.31881626151568987   0.02352032071518649   0.010759254051146389
-0.2907543367512819   -0.04955975843734189   0.004326945794301443
-0.2907543367512819   -0.04955975843734189   0.004326945794301443
-0.2907543367512819   -0.04955975843734189   0.004326945794301443
-0.2907543367512819   -0.04955975843734189   0.004326945794301443
-0.1736733344809401   -0.02095629586664048   0.010662260307556893
-0.1736733344809401   -0.02095629586664048   0.010662260307556893
-0.1736733344809401   -0.02095629586664048   0.010662260307556893
-0.1736733344809401   -0.02095629586664048   0.010662260307556893
-0.16780386348649734   -0.0005400161649932247   0.001369672864263035
-0.16780386348649734   -0.0005400161649932247   0.001369672864263035
-0.16780386348649734   -0.0005400161649932247   0.001369672864263035
-0.16780386348649734   -0.0005400161649932247   0.001369672864263035
-0.2829737269002108   -0.022565420916775616   -0.002497313284321647
-0.2829737269002108   -0.022565420916775616   -0.002497313284321647
-0.2829737269002108   -0.022565420916775616   -0.002497313284321647
-0.2829737269002108   -0.022565420916775616   -0.002497313284321647
-0.22916659585521737   -0.0223084978235909   -0.006673649951285381
-0.22916659585521737   -0.0223084978235909   -0.006673649951285381
-0.22916659585521737   -0.0223084978235909   -0.006673649951285381
-0.22916659585521737   -0.0223084978235909   -0.006673649951285381
-0.28262892928542604   -0.02370559426922226   0.00036684814204656843
-0.28262892928542604   -0.02370559426922226   0.00036684814204656843
-0.28262892928542604   -0.02370559426922226   0.00036684814204656843
-0.28262892928542604   -0.02370559426922226   0.00036684814204656843
-0.16633583089442586   0.002412987394309278   0.0057568322653179065
-0.16633583089442586   0.002412987394309278   0.0057568322653179065
-0.16633583089442586   0.002412987394309278   0.0057568322653179065
-0.16633583089442586   0.002412987394309278   0.0057568322653179065
-0.15921268298067848   0.025541766676318883   -0.0023195405784038614
-0.15921268298067848   0.025541766676318883   -0.0023195405784038614
-0.15921268298067848   0.025541766676318883   -0.0023195405784038614
-0.15921268298067848   0.025541766676318883   -0.0023195405784038614
-0.2750542380783063   0.001138088541629001   -0.0073110461539138485
-0.2750542380783063   0.001138088541629001   -0.0073110461539138485
-0.2750542380783063   0.001138088541629001   -0.0073110461539138485
-0.2750542380783063   0.001138088541629001   -0.0073110461539138485
-0.2201016101493229   0.0011321359077341164   0.0030905683084988585
-0.2201016101493229   0.0011321359077341164   0.0030905683084988585
-0.2201016101493229   0.0011321359077341164   0.0030905683084988585
-0.2201016101493229   0.0011321359077341164   0.0030905683084988585
-0.2740931030952721   0.0022967785247142228   -0.0036640612218335686
-0.2740931030952721   0.0022967785247142228   -0.0036640612218335686
-0.2740931030952721   0.0022967785247142228   -0.0036640612218335686
-0.2740931030952721   0.0022967785247142228   -0.0036640612218335686
-0.15853406219643493   0.026022832460510507   0.0005924975586222951
-0.15853406219643493   0.026022832460510507   0.0005924975586222951
-0.15853406219643493   0.026022832460510507   0.0005924975586222951
-0.15853406219643493   0.026022832460510507   0.0005924975586222951
-0.1510972521006241   0.051864541568291934   -0.006522354445210498
-0.1510972521006241   0.051864541568291934   -0.006522354445210498
-0.1510972521006241   0.051864541568291934   -0.006522354445210498
-0.1510972521006241   0.051864541568291934   -0.006522354445210498
-0.2676347637491344   0.025023749544799592   -0.01246140507411031
-0.2676347637491344   0.025023749544799592   -0.01246140507411031
-0.2676347637491344   0.025023749544799592   -0.01246140507411031
-0.2676347637491344   0.025023749544799592   -0.01246140507411031
-0.2115305593445433   0.02465721722092623   0.01246135511319095
-0.2115305593445433   0.02465721722092623   0.01246135511319095
-0.2115305593445433   0.02465721722092623   0.01246135511319095
-0.2115305593445433   0.02465721722092623   0.01246135511319095
-0.18815916363998994   -0.066774831184082   -0.015948350170253624
-0.18815916363998994   -0.066774831184082   -0.015948350170253624
-0.18815916363998994   -0.066774831184082   -0.015948350170253624
-0.18815916363998994   -0.066774831184082   -0.015948350170253624
-0.05964730442719608   -0.001216902449413363   0.027945773224858403
-0.05964730442719608   -0.001216902449413363   0.027945773224858403
-0.05964730442719608   -0.001216902449413363   0.027945773224858403
-0.05964730442719608   -0.001216902449413363   0.027945773224858403
-0.06764760121009675   -0.020021325168959617   -0.020624815694880214
-0.06764760121009675   -0.020021325168959617   -0.020624815694880214
-0.06764760121009675   -0.020021325168959617   -0.020624815694880214
-0.06764760121009675   -0.020021325168959617   -0.020624815694880214
-0.1652737026979755   -0.0025441543296665647   0.01602461497154422
-0.1652737026979755   -0.0025441543296665647   0.01602461497154422
-0.1652737026979755   -0.0025441543296665647   0.01602461497154422
-0.1652737026979755   -0.0025441543296665647   0.01602461497154422
-0.12014630508527298   -0.021653483608459253   -0.004817854310813025
-0.12014630508527298   -0.021653483608459253   -0.004817854310813025
-0.12014630508527298   -0.021653483608459253   -0.004817854310813025
-0.12014630508527298   -0.021653483608459253   -0.004817854310813025
-0.1805087162252489   -0.04250625535992424   -0.02018835163456657
-0.1805087162252489   -0.04250625535992424   -0.02018835163456657
-0.1805087162252489   -0.04250625535992424   -0.02018835163456657
-0.1805087162252489   -0.04250625535992424   -0.02018835163456657
-0.05038217583375283   0.021971187710370894   0.02370979830750885
-0.05038217583375283   0.021971187710370894   0.02370979830750885
-0.05038217583375283   0.021971187710370894   0.02370979830750885
-0.05038217583375283   0.021971187710370894   0.02370979830750885
-0.05505698002300451   0.004650894950966499   -0.023221073351818763
-0.05505698002300451   0.004650894950966499   -0.023221073351818763
-0.05505698002300451   0.004650894950966499   -0.023221073351818763
-0.05505698002300451   0.004650894950966499   -0.023221073351818763
-0.157970634234256   0.018737663092946534   0.010694806737079328
-0.157970634234256   0.018737663092946534   0.010694806737079328
-0.157970634234256   0.018737663092946534   0.010694806737079328
-0.157970634234256   0.018737663092946534   0.010694806737079328
-0.11049113561101946   0.00018784877977410033   0.005136187390009151
-0.11049113561101946   0.00018784877977410033   0.005136187390009151
-0.11049113561101946   0.00018784877977410033   0.005136187390009151
-0.11049113561101946   0.00018784877977410033   0.005136187390009151
-0.17272161653162665   -0.019251921676466718   -0.025070519980362735
-0.17272161653162665   -0.019251921676466718   -0.025070519980362735
-0.17272161653162665   -0.019251921676466718   -0.025070519980362735
-0.17272161653162665   -0.019251921676466718   -0.025070519980362735
-0.038415620226571516   0.04453085721944208   0.020105763361872565
-0.038415620226571516   0.04453085721944208   0.020105763361872565
-0.038415620226571516   0.04453085721944208   0.020105763361872565
-0.038415620226571516   0.04453085721944208   0.020105763361872565
-0.04440925647986557   0.03218775478076006   -0.02601974047903902
-0.04440925647986557   0.03218775478076006   -0.02601974047903902
-0.04440925647986557   0.03218775478076006   -0.02601974047903902
-0.04440925647986557   0.03218775478076006   -0.02601974047903902
-0.15049391765304168   0.04280241615483002   0.005556443206164847
-0.15049391765304168   0.04280241615483002   0.005556443206164847
-0.15049391765304168   0.04280241615483002   0.005556443206164847
-0.15049391765304168   0.04280241615483002   0.005556443206164847
-0.10051039388871233   0.02293424227825224   0.015084293932478373
-0.10051039388871233   0.02293424227825224   0.015084293932478373
-0.10051039388871233   0.02293424227825224   0.015084293932478373
-0.10051039388871233   0.02293424227825224   0.015084293932478373
-0.08629028232895378   -0.07178077654040313   -0.03470524219294033
-0.08629028232895378   -0.07178077654040313   -0.03470524219294033
-0.08629028232895378   -0.07178077654040313   -0.03470524219294033
-0.08629028232895378   -0.07178077654040313   -0.03470524219294033
0.026007415872760703   0.021005316857264963   0.04268399174829113
0.026007415872760703   0.021005316857264963   0.04268399174829113
0.026007415872760703   0.021005316857264963   0.04268399174829113
0.026007415872760703   0.021005316857264963   0.04268399174829113
0.026157838267163447   -0.03554496708017087   -0.045976022860331985
0.026157838267163447   -0.03554496708017087   -0.045976022860331985
0.026157838267163447   -0.03554496708017087   -0.045976022860331985
0.026157838267163447   -0.03554496708017087   -0.045976022860331985
-0.04809299037450799   0.022189080657352773   0.03493783265674925
-0.04809299037450799   0.022189080657352773   0.03493783265674925
-0.04809299037450799   0.022189080657352773   0.03493783265674925
-0.04809299037450799   0.022189080657352773   0.03493783265674925
-0.021383516155065615   -0.015309316049238882   -0.008064501849386509
-0.021383516155065615   -0.015309316049238882   -0.008064501849386509
-0.021383516155065615   -0.015309316049238882   -0.008064501849386509
-0.021383516155065615   -0.015309316049238882   -0.008064501849386509
-0.07855407740229549   -0.05527320833913903   -0.03990531348569845
-0.07855407740229549   -0.05527320833913903   -0.03990531348569845
-0.07855407740229549   -0.05527320833913903   -0.03990531348569845
-0.07855407740229549   -0.05527320833913903   -0.03990531348569845
0.05878857421521317   0.04408697083658025   0.037545718963165484
0.05878857421521317   0.04408697083658025   0.037545718963165484
0.05878857421521317   0.04408697083658025   0.037545718963165484
0.05878857421521317   0.04408697083658025   0.037545718963165484
0.05030828867060478   -0.021422213137925278   -0.05463325083723246
0.05030828867060478   -0.021422213137925278   -0.05463325083723246
0.05030828867060478   -0.021422213137925278   -0.05463325083723246
0.05030828867060478   -0.021422213137925278   -0.05463325083723246
-0.03924954359563709   0.03243743043577253   0.028029573300212322
-0.03924954359563709   0.03243743043577253   0.028029573300212322
-0.03924954359563709   0.03243743043577253   0.028029573300212322
-0.03924954359563709   0.03243743043577253   0.028029573300212322
-0.0015701745370902064   -0.0007689106140133527   0.002711615617726602
-0.0015701745370902064   -0.0007689106140133527   0.002711615617726602
-0.0015701745370902064   -0.0007689106140133527   0.002711615617726602
-0.0015701745370902064   -0.0007689106140133527   0.002711615617726602
-0.06930678839309735   -0.0436520186945662   -0.04616720155675025
-0.06930678839309735   -0.0436520186945662   -0.04616720155675025
-0.06930678839309735   -0.0436520186945662   -0.04616720155675025
-0.06930678839309735   -0.0436520186945662   -0.04616720155675025
0.0825389574696789   0.05684065999402796   0.028257220026188808
0.0825389574696789   0.05684065999402796   0.028257220026188808
0.0825389574696789   0.05684065999402796   0.028257220026188808
0.0825389574696789   0.05684065999402796   0.028257220026188808
0.084192656062286   0.006206538913431469   -0.05852403925944009
0.084192656062286   0.006206538913431469   -0.05852403925944009
0.084192656062286   0.006206538913431469   -0.05852403925944009
0.084192656062286   0.006206538913431469   -0.05852403925944009
-0.030991263076639658   0.05047793164156674   0.02278004967628387
-0.030991263076639658   0.05047793164156674   0.02278004967628387
-0.030991263076639658   0.05047793164156674   0.02278004967628387
-0.030991263076639658   0.05047793164156674   0.02278004967628387
0.016353693504821055   0.014490576361333229   0.013260449824084681
0.016353693504821055   0.014490576361333229   0.013260449824084681
0.016353693504821055   0.014490576361333229   0.013260449824084681
0.016353693504821055   0.014490576361333229   0.013260449824084681
-0.17277472323157686   0.010136005269592928   0.048774931503231936
-0.17277472323157686   0.010136005269592928   0.048774931503231936
-0.17277472323157686   0.010136005269592928   0.048774931503231936
-0.17277472323157686   0.010136005269592928   0.048774931503231936
-0.2067190324647261   -0.06351791192308597   -0.028683605165744308
-0.2067190324647261   -0.06351791192308597   -0.028683605165744308
-0.2067190324647261   -0.06351791192308597   -0.028683605165744308
-0.2067190324647261   -0.06351791192308597   -0.028683605165744308
-0.16504072087347862   0.029476550517231775   0.03992187108938262
-0.16504072087347862   0.029476550517231775   0.03992187108938262
-0.16504072087347862   0.029476550517231775   0.03992187108938262
-0.16504072087347862   0.029476550517231775   0.03992187108938262
-0.16781446462115965   -0.04159615285835609   -0.03699134993305544
-0.16781446462115965   -0.04159615285835609   -0.03699134993305544
-0.16781446462115965   -0.04159615285835609   -0.03699134993305544
-0.16781446462115965   -0.04159615285835609   -0.03699134993305544
-0.17362750296809165   -0.013347912972918957   -0.013401929462673292
-0.17362750296809165   -0.013347912972918957   -0.013401929462673292
-0.17362750296809165   -0.013347912972918957   -0.013401929462673292
-0.17362750296809165   -0.013347912972918957   -0.013401929462673292
-0.13572434395544747   0.03644005982532549   0.045423040711820045
-0.13572434395544747   0.03644005982532549   0.045423040711820045
-0.13572434395544747   0.03644005982532549   0.045423040711820045
-0.13572434395544747   0.03644005982532549   0.045423040711820045
-0.1951106256095052   -0.04653944623676417   -0.03441165583675028
-0.1951106256095052   -0.04653944623676417   -0.03441165583675028
-0.1951106256095052   -0.04653944623676417   -0.03441165583675028
-0.1951106256095052   -0.04653944623676417   -0.03441165583675028
-0.1522482958692364   0.040675224333300244   0.033585397581233474
-0.1522482958692364   0.040675224333300244   0.033585397581233474
-0.1522482958692364   0.040675224333300244   0.033585397581233474
-0.1522482958692364   0.040675224333300244   0.033585397581233474
-0.14029566051907386   -0.02894019537571263   -0.04605654613134203
-0.14029566051907386   -0.02894019537571263   -0.04605654613134203
-0.14029566051907386   -0.02894019537571263   -0.04605654613134203
-0.14029566051907386   -0.02894019537571263   -0.04605654613134203
-0.15332845211512153   0.0009505891989376319   -0.002846030184273783
-0.15332845211512153   0.0009505891989376319   -0.002846030184273783
-0.15332845211512153   0.0009505891989376319   -0.002846030184273783
-0.15332845211512153   0.0009505891989376319   -0.002846030184273783
-0.10803007632119349   0.050056687185943624   0.03627449229640743
-0.10803007632119349   0.050056687185943624   0.03627449229640743
-0.10803007632119349   0.050056687185943624   0.03627449229640743
-0.10803007632119349   0.050056687185943624   0.03627449229640743
-0.1826116031512553   -0.036419381312493226   -0.04113653318306358
-0.1826116031512553   -0.036419381312493226   -0.04113653318306358
-0.1826116031512553   -0.036419381312493226   -0.04113653318306358
-0.1826116031512553   -0.036419381312493226   -0.04113653318306358
-0.14055431281841924   0.057803111061963314   0.02900578212374225
-0.14055431281841924   0.057803111061963314   0.02900578212374225
-0.14055431281841924   0.057803111061963314   0.02900578212374225
-0.14055431281841924   0.057803111061963314   0.02900578212374225
-0.10355848200888378   -0.00488527265352838   -0.05187684614067366
-0.10355848200888378   -0.00488527265352838   -0.05187684614067366
-0.10355848200888378   -0.00488527265352838   -0.05187684614067366
-0.10355848200888378   -0.00488527265352838   -0.05187684614067366
-0.12895124330942134   0.01590579602606828   0.008444551390846157
-0.12895124330942134   0.01590579602606828   0.008444551390846157
-0.12895124330942134   0.01590579602606828   0.008444551390846157
-0.12895124330942134   0.01590579602606828   0.008444551390846157
-0.1849725029811538   -0.011257561862808456   0.027788692191839534
-0.1849725029811538   -0.011257561862808456   0.027788692191839534
-0.1849725029811538   -0.011257561862808456   0.027788692191839534
-0.1849725029811538   -0.011257561862808456   0.027788692191839534
-0.23050112189398594   -0.051816918321824314   -0.011204782294226645
-0.23050112189398594   -0.051816918321824314   -0.011204782294226645
-0.23050112189398594   -0.051816918321824314   -0.011204782294226645
-0.23050112189398594   -0.051816918321824314   -0.011204782294226645
-0.20561604546318113   0.005207678417544201   0.01852884286994824
-0.20561604546318113   0.005207678417544201   0.01852884286994824
-0.20561604546318113   0.005207678417544201   0.01852884286994824
-0.20561604546318113   0.005207678417544201   0.01852884286994824
-0.1871772265688197   -0.02434370439011763   -0.01694040247996936
-0.1871772265688197   -0.02434370439011763   -0.01694040247996936
-0.1871772265688197   -0.02434370439011763   -0.01694040247996936
-0.1871772265688197   -0.02434370439011763   -0.01694040247996936
-0.20222506667336207   -0.01896940172867664   -0.009402023630280028
-0.20222506667336207   -0.01896940172867664   -0.009402023630280028
-0.20222506667336207   -0.01896940172867664   -0.009402023630280028
-0.20222506667336207   -0.01896940172867664   -0.009402023630280028
-0.17143235832071987   0.013188911788439735   0.02425132258196468
-0.17143235832071987   0.013188911788439735   0.02425132258196468
-0.17143235832071987   0.013188911788439735   0.02425132258196468
-0.17143235832071987   0.013188911788439735   0.02425132258196468
-0.21977756132800394   -0.03074158537773775   -0.0163294726588857
-0.21977756132800394   -0.03074158537773775   -0.0163294726588857
-0.21977756132800394   -0.03074158537773775   -0.0163294726588857
-0.21977756132800394   -0.03074158537773775   -0.0163294726588857
-0.19419879399146875   0.027502074916688893   0.014132839938465643
-0.19419879399146875   0.027502074916688893   0.014132839938465643
-0.19419879399146875   0.027502074916688893   0.014132839938465643
-0.19419879399146875   0.027502074916688893   0.014132839938465643
-0.17188155180887366   -0.002873088295314574   -0.02103256948833406
-0.17188155180887366   -0.002873088295314574   -0.02103256948833406
-0.17188155180887366   -0.002873088295314574   -0.02103256948833406
-0.17188155180887366   -0.002873088295314574   -0.02103256948833406
-0.18857336194194096   0.0018190417596013475   0.00033604030355459565
-0.18857336194194096   0.0018190417596013475   0.00033604030355459565
-0.18857336194194096   0.0018190417596013475   0.00033604030355459565
-0.18857336194194096   0.0018190417596013475   0.00033604030355459565
-0.15536955355729246   0.0368101847588989   0.021844148715354724
-0.15536955355729246   0.0368101847588989   0.021844148715354724
-0.15536955355729246   0.0368101847588989   0.021844148715354724
-0.15536955355729246   0.0368101847588989   0.021844148715354724
-0.2090227190931129   -0.010493124987591362   -0.021991585665478763
-0.2090227190931129   -0.010493124987591362   -0.021991585665478763
-0.2090227190931129   -0.010493124987591362   -0.021991585665478763
-0.2090227190931129   -0.010493124987591362   -0.021991585665478763
-0.1827246211474294   0.052192319619782816   0.009954337461227345
-0.1827246211474294   0.052192319619782816   0.009954337461227345
-0.1827246211474294   0.052192319619782816   0.009954337461227345
-0.1827246211474294   0.052192319619782816   0.009954337461227345
-0.1586968989119361   0.020971398992355346   -0.024875436274230417
-0.1586968989119361   0.020971398992355346   -0.024875436274230417
-0.1586968989119361   0.020971398992355346   -0.024875436274230417
-0.1586968989119361   0.020971398992355346   -0.024875436274230417
-0.17566506964670375   0.0233037908305853   0.010253180246683799
-0.17566506964670375   0.0233037908305853   0.010253180246683799
-0.17566506964670375   0.0233037908305853   0.010253180246683799
-0.17566506964670375   0.0233037908305853   0.010253180246683799
-0.22259185884333058   -0.03130627489432097   0.00783088953154493
-0.22259185884333058   -0.03130627489432097   0.00783088953154493
-0.22259185884333058   -0.03130627489432097   0.00783088953154493
-0.22259185884333058   -0.03130627489432097   0.00783088953154493
-0.2541629153279838   -0.03281241560027626   0.0067665063648034325
-0.2541629153279838   -0.03281241560027626   0.0067665063648034325
-0.2541629153279838   -0.03281241560027626   0.0067665063648034325
-0.2541629153279838   -0.03281241560027626   0.0067665063648034325
-0.24503057779937115   -0.01495928570448301   -0.0024097863236982077
-0.24503057779937115   -0.01495928570448301   -0.0024097863236982077
-0.24503057779937115   -0.01495928570448301   -0.0024097863236982077
-0.24503057779937115   -0.01495928570448301   -0.0024097863236982077
-0.21079995443754562   -0.004401548704796809   0.002218525120466922
-0.21079995443754562   -0.004401548704796809   0.002218525120466922
-0.21079995443754562   -0.004401548704796809   0.002218525120466922
-0.21079995443754562   -0.004401548704796809   0.002218525120466922
-0.23349626886410288   -0.019687319833003564   -0.006248598647812086
-0.23349626886410288   -0.019687319833003564   -0.006248598647812086
-0.23349626886410288   -0.019687319833003564   -0.006248598647812086
-0.23349626886410288   -0.019687319833003564   -0.006248598647812086
-0.21095900778032303   -0.006882227079648265   0.0039039367814273536
-0.21095900778032303   -0.006882227079648265   0.0039039367814273536
-0.21095900778032303   -0.006882227079648265   0.0039039367814273536
-0.21095900778032303   -0.006882227079648265   0.0039039367814273536
-0.24337746430199445   -0.010984547175032541   0.0018810426337371334
-0.24337746430199445   -0.010984547175032541   0.0018810426337371334
-0.24337746430199445   -0.010984547175032541   0.0018810426337371334
-0.24337746430199445   -0.010984547175032541   0.0018810426337371334
-0.23303187841880232   0.009783098708985055   -0.006108354976622234
-0.23303187841880232   0.009783098708985055   -0.006108354976622234
-0.23303187841880232   0.009783098708985055   -0.006108354976622234
-0.23303187841880232   0.009783098708985055   -0.006108354976622234
-0.19942104156165896   0.01802794052856089   -0.0025042635243573558
-0.19942104156165896   0.01802794052856089   -0.0025042635243573558
-0.19942104156165896   0.01802794052856089   -0.0025042635243573558
-0.19942104156165896   0.01802794052856089   -0.0025042635243573558
-0.22095799743364877   0.002422315559027305   0.0033702909949635436
-0.22095799743364877   0.002422315559027305   0.0033702909949635436
-0.22095799743364877   0.002422315559027305   0.0033702909949635436
-0.22095799743364877   0.002422315559027305   0.0033702909949635436
-0.1990086568597683   0.017772111765708302   -0.00018651125205533525
-0.1990086568597683   0.017772111765708302   -0.00018651125205533525
-0.1990086568597683   0.017772111765708302   -0.00018651125205533525
-0.1990086568597683   0.017772111765708302   -0.00018651125205533525
-0.23214021436423665   0.01134297622829588   -0.003209912223104676
-0.23214021436423665   0.01134297622829588   -0.003209912223104676
-0.23214021436423665   0.01134297622829588   -0.003209912223104676
-0.23214021436423665   0.01134297622829588   -0.003209912223104676
-0.22154226390192364   0.03467894653557115   -0.010277919967463321
-0.22154226390192364   0.03467894653557115   -0.010277919967463321
-0.22154226390192364   0.03467894653557115   -0.010277919967463321
-0.22154226390192364   0.03467894653557115   -0.010277919967463321
-0.1885831299088742   0.04054929675408406   -0.007695183480295936
-0.1885831299088742   0.04054929675408406   -0.007695183480295936
-0.1885831299088742   0.04054929675408406   -0.007695183480295936
-0.1885831299088742   0.04054929675408406   -0.007695183480295936
-0.20900388495082672   0.024573099581365672   0.012538558057613957
-0.20900388495082672   0.024573099581365672   0.012538558057613957
-0.20900388495082672   0.024573099581365672   0.012538558057613957
-0.20900388495082672   0.024573099581365672   0.012538558057613957
-0.26141759548761845   -0.04968664776099972   -0.012632662272651012
-0.26141759548761845   -0.04968664776099972   -0.012632662272651012
-0.26141759548761845   -0.04968664776099972   -0.012632662272651012
-0.26141759548761845   -0.04968664776099972   -0.012632662272651012
-0.2798938684506484   -0.014195858612958481   0.02393061567372179
-0.2798938684506484   -0.014195858612958481   0.02393061567372179
-0.2798938684506484   -0.014195858612958481   0.02393061567372179
-0.2798938684506484   -0.014195858612958481   0.02393061567372179
-0.2844610696912517   -0.03431382353150805   -0.02363636404437166
-0.2844610696912517   -0.03431382353150805   -0.02363636404437166
-0.2844610696912517   -0.03431382353150805   -0.02363636404437166
-0.2844610696912517   -0.03431382353150805   -0.02363636404437166
-0.23453872150371083   0.014863651000339893   0.0202265584497805
-0.23453872150371083   0.014863651000339893   0.0202265584497805
-0.23453872150371083   0.014863651000339893   0.0202265584497805
-0.23453872150371083   0.014863651000339893   0.0202265584497805
-0.26396739744566994   -0.01949110216249733   -0.003930966937937512
-0.26396739744566994   -0.01949110216249733   -0.003930966937937512
-0.26396739744566994   -0.01949110216249733   -0.003930966937937512
-0.26396739744566994   -0.01949110216249733   -0.003930966937937512
-0.25010555260943895   -0.026053530434979672   -0.016690415643542504
-0.25010555260943895   -0.026053530434979672   -0.016690415643542504
-0.25010555260943895   -0.026053530434979672   -0.016690415643542504
-0.25010555260943895   -0.026053530434979672   -0.016690415643542504
-0.2673278759104804   0.008169720578859507   0.019546060749117387
-0.2673278759104804   0.008169720578859507   0.019546060749117387
-0.2673278759104804   0.008169720578859507   0.019546060749117387
-0.2673278759104804   0.008169720578859507   0.019546060749117387
-0.2687089190045622   -0.010853034148200977   -0.02652039469836739
-0.2687089190045622   -0.010853034148200977   -0.02652039469836739
-0.2687089190045622   -0.010853034148200977   -0.02652039469836739
-0.2687089190045622   -0.010853034148200977   -0.02652039469836739
-0.22374412561829643   0.03509073994117424   0.015022767793718094
-0.22374412561829643   0.03509073994117424   0.015022767793718094
-0.22374412561829643   0.03509073994117424   0.015022767793718094
-0.22374412561829643   0.03509073994117424   0.015022767793718094
-0.24970203428601484   0.0018070852764363599   0.006001195996853769
-0.24970203428601484   0.0018070852764363599   0.006001195996853769
-0.24970203428601484   0.0018070852764363599   0.006001195996853769
-0.24970203428601484   0.0018070852764363599   0.006001195996853769
-0.23882770460080652   -0.0038613248027574917   -0.02144306237490563
-0.23882770460080652   -0.0038613248027574917   -0.02144306237490563
-0.23882770460080652   -0.0038613248027574917   -0.02144306237490563
-0.23882770460080652   -0.0038613248027574917   -0.02144306237490563
-0.25204241389822984   0.029681956719552177   0.016277139965541147
-0.25204241389822984   0.029681956719552177   0.016277139965541147
-0.25204241389822984   0.029681956719552177   0.016277139965541147
-0.25204241389822984   0.029681956719552177   0.016277139965541147
-0.25492856710564527   0.014982914720319929   -0.029106414513766617
-0.25492856710564527   0.014982914720319929   -0.029106414513766617
-0.25492856710564527   0.014982914720319929   -0.029106414513766617
-0.25492856710564527   0.014982914720319929   -0.029106414513766617
-0.2129201029214822   0.057621930542106334   0.00988990092820869
-0.2129201029214822   0.057621930542106334   0.00988990092820869
-0.2129201029214822   0.057621930542106334   0.00988990092820869
-0.2129201029214822   0.057621930542106334   0.00988990092820869
-0.23761180563642306   0.02292461407350295   0.01549201450906348
-0.23761180563642306   0.02292461407350295   0.01549201450906348
-0.23761180563642306   0.02292461407350295   0.01549201450906348
-0.23761180563642306   0.02292461407350295   0.01549201450906348
-0.29999378597721255   -0.05907057331400046   -0.03169425725806269
-0.29999378597721255   -0.05907057331400046   -0.03169425725806269
-0.29999378597721255   -0.05907057331400046   -0.03169425725806269
-0.29999378597721255   -0.05907057331400046   -0.03169425725806269
-0.33268194292534864   0.004349200050827909   0.043137900328456616
-0.33268194292534864   0.004349200050827909   0.043137900328456616
-0.33268194292534864   0.004349200050827909   0.043137900328456616
-0.33268194292534864   0.004349200050827909   0.043137900328456616
-0.3283399112724492   -0.04929705985836051   -0.042245949023875955
-0.3283399112724492   -0.04929705985836051   -0.042245949023875955
-0.3283399112724492   -0.04929705985836051   -0.042245949023875955
-0.3283399112724492   -0.04929705985836051   -0.042245949023875955
-0.25768468617097356   0.03726675514438369   0.038664974881125184
-0.25768468617097356   0.03726675514438369   0.038664974881125184
-0.25768468617097356   0.03726675514438369   0.038664974881125184
-0.25768468617097356   0.03726675514438369   0.038664974881125184
-0.2924469768687373   -0.012758129106396683   -0.0018747161777781813
-0.2924469768687373   -0.012758129106396683   -0.0018747161777781813
-0.2924469768687373   -0.012758129106396683   -0.0018747161777781813
-0.2924469768687373   -0.012758129106396683   -0.0018747161777781813
-0.2881311168253362   -0.04005516317785325   -0.036245260068452655
-0.2881311168253362   -0.04005516317785325   -0.036245260068452655
-0.2881311168253362   -0.04005516317785325   -0.036245260068452655
-0.2881311168253362   -0.04005516317785325   -0.036245260068452655
-0.29623814037460217   0.029680198707358663   0.03928564689962861
-0.29623814037460217   0.029680198707358663   0.03928564689962861
-0.29623814037460217   0.029680198707358663   0.03928564689962861
-0.29623814037460217   0.029680198707358663   0.03928564689962861
-0.3010782093120687   -0.03560752473904232   -0.05036653685741502
-0.3010782093120687   -0.03560752473904232   -0.05036653685741502
-0.3010782093120687   -0.03560752473904232   -0.05036653685741502
-0.3010782093120687   -0.03560752473904232   -0.05036653685741502
-0.24552126323742546   0.04690950901763061   0.03165534097148259
-0.24552126323742546   0.04690950901763061   0.03165534097148259
-0.24552126323742546   0.04690950901763061   0.03165534097148259
-0.24552126323742546   0.04690950901763061   0.03165534097148259
-0.27405466310833454   0.0015575666807076533   0.007646498169990306
-0.27405466310833454   0.0015575666807076533   0.007646498169990306
-0.27405466310833454   0.0015575666807076533   0.007646498169990306
-0.27405466310833454   0.0015575666807076533   0.007646498169990306
-0.27538133124523256   -0.028784949803480946   -0.04195054024644425
-0.27538133124523256   -0.028784949803480946   -0.04195054024644425
-0.27538133124523256   -0.028784949803480946   -0.04195054024644425
-0.27538133124523256   -0.028784949803480946   -0.04195054024644425
-0.2694825131000658   0.041822562286258774   0.030181857177294456
-0.2694825131000658   0.041822562286258774   0.030181857177294456
-0.2694825131000658   0.041822562286258774   0.030181857177294456
-0.2694825131000658   0.041822562286258774   0.030181857177294456
-0.2652542271852097   -0.011942271766791544   -0.05505800325695282
-0.2652542271852097   -0.011942271766791544   -0.05505800325695282
-0.2652542271852097   -0.011942271766791544   -0.05505800325695282
-0.2652542271852097   -0.011942271766791544   -0.05505800325695282
-0.23463708525369026   0.061260079263158185   0.02607383020317026
-0.23463708525369026   0.061260079263158185   0.02607383020317026
-0.23463708525369026   0.061260079263158185   0.02607383020317026
-0.23463708525369026   0.061260079263158185   0.02607383020317026
-0.24877296260565585   0.015845507319945773   0.018684557165926447
-0.24877296260565585   0.015845507319945773   0.018684557165926447
-0.24877296260565585   0.015845507319945773   0.018684557165926447
-0.24877296260565585   0.015845507319945773   0.018684557165926447
0.1816995505945567   0.029321523394032562   0.04709498836056556
0.1816995505945567   0.029321523394032562   0.04709498836056556
0.1816995505945567   0.029321523394032562   0.04709498836056556
0.1816995505945567   0.029321523394032562   0.04709498836056556
-0.004033074828579793   -0.07562932771386052   -0.031055104031296858
-0.004033074828579793   -0.07562932771386052   -0.031055104031296858
-0.004033074828579793   -0.07562932771386052   -0.031055104031296858
-0.004033074828579793   -0.07562932771386052   -0.031055104031296858
0.04033200698214895   0.01470567549017322   0.03637132020628254
0.04033200698214895   0.01470567549017322   0.03637132020628254
0.04033200698214895   0.01470567549017322   0.03637132020628254
0.04033200698214895   0.01470567549017322   0.03637132020628254
0.18940493394003188   -0.026312537193074775   -0.03889446788838906
0.18940493394003188   -0.026312537193074775   -0.03889446788838906
0.18940493394003188   -0.026312537193074775   -0.03889446788838906
0.18940493394003188   -0.026312537193074775   -0.03889446788838906
0.09275800148390995   -0.014624248559375573   -0.022469444607035528
0.09275800148390995   -0.014624248559375573   -0.022469444607035528
0.09275800148390995   -0.014624248559375573   -0.022469444607035528
0.09275800148390995   -0.014624248559375573   -0.022469444607035528
0.2213724930348343   0.05213805561496889   0.04249273477757553
0.2213724930348343   0.05213805561496889   0.04249273477757553
0.2213724930348343   0.05213805561496889   0.04249273477757553
0.2213724930348343   0.05213805561496889   0.04249273477757553
0.010339596329254314   -0.06176976887596266   -0.037115288692050906
0.010339596329254314   -0.06176976887596266   -0.037115288692050906
0.010339596329254314   -0.06176976887596266   -0.037115288692050906
0.010339596329254314   -0.06176976887596266   -0.037115288692050906
0.05644027254040152   0.025687065698507955   0.030343826180285485
0.05644027254040152   0.025687065698507955   0.030343826180285485
0.05644027254040152   0.025687065698507955   0.030343826180285485
0.05644027254040152   0.025687065698507955   0.030343826180285485
0.22034844177054677   -0.013909584461486213   -0.04863144344519575
0.22034844177054677   -0.013909584461486213   -0.04863144344519575
0.22034844177054677   -0.013909584461486213   -0.04863144344519575
0.22034844177054677   -0.013909584461486213   -0.04863144344519575
0.1206922122329312   -0.0009437500239436424   -0.010591235554710685
0.1206922122329312   -0.0009437500239436424   -0.010591235554710685
0.1206922122329312   -0.0009437500239436424   -0.010591235554710685
0.1206922122329312   -0.0009437500239436424   -0.010591235554710685
0.25265798337603107   0.06555264887810393   0.033454031242635775
0.25265798337603107   0.06555264887810393   0.033454031242635775
0.25265798337603107   0.06555264887810393   0.033454031242635775
0.25265798337603107   0.06555264887810393   0.033454031242635775
0.026058834507135482   -0.05184706406886389   -0.04402923421867286
0.026058834507135482   -0.05184706406886389   -0.04402923421867286
0.026058834507135482   -0.05184706406886389   -0.04402923421867286
0.026058834507135482   -0.05184706406886389   -0.04402923421867286
0.07206923793970614   0.04586702377484346   0.02625691605259566
0.07206923793970614   0.04586702377484346   0.02625691605259566
0.07206923793970614   0.04586702377484346   0.02625691605259566
0.07206923793970614   0.04586702377484346   0.02625691605259566
0.26143521366290273   0.01384525055066884   -0.05362378931113869
0.26143521366290273   0.01384525055066884   -0.05362378931113869
0.26143521366290273   0.01384525055066884   -0.05362378931113869
0.26143521366290273   0.01384525055066884   -0.05362378931113869
0.14408854443895044   0.01440248272231389   0.0006278638657375981
0.14408854443895044   0.01440248272231389   0.0006278638657375981
0.14408854443895044   0.01440248272231389   0.0006278638657375981
0.14408854443895044   0.01440248272231389   0.0006278638657375981
0.0253064700859564   0.007990179248761829   0.03202311357876175
0.0253064700859564   0.007990179248761829   0.03202311357876175
0.0253064700859564   0.007990179248761829   0.03202311357876175
0.0253064700859564   0.007990179248761829   0.03202311357876175
-0.17185092106528324   -0.06423611292193192   -0.014251432673914988
-0.17185092106528324   -0.06423611292193192   -0.014251432673914988
-0.17185092106528324   -0.06423611292193192   -0.014251432673914988
-0.17185092106528324   -0.06423611292193192   -0.014251432673914988
-0.1438950367230236   -0.009378356504275643   0.014604147103475174
-0.1438950367230236   -0.009378356504275643   0.014604147103475174
-0.1438950367230236   -0.009378356504275643   0.014604147103475174
-0.1438950367230236   -0.009378356504275643   0.014604147103475174
0.02641207265246354   -0.007235389133042794   -0.011287286818924644
0.02641207265246354   -0.007235389133042794   -0.011287286818924644
0.02641207265246354   -0.007235389133042794   -0.011287286818924644
0.02641207265246354   -0.007235389133042794   -0.011287286818924644
-0.06743184409646479   -0.016570411681491922   -0.010786909900891938
-0.06743184409646479   -0.016570411681491922   -0.010786909900891938
-0.06743184409646479   -0.016570411681491922   -0.010786909900891938
-0.06743184409646479   -0.016570411681491922   -0.010786909900891938
0.041906836478769964   0.030542847792755925   0.028408295386808766
0.041906836478769964   0.030542847792755925   0.028408295386808766
0.041906836478769964   0.030542847792755925   0.028408295386808766
0.041906836478769964   0.030542847792755925   0.028408295386808766
-0.15794926310646953   -0.04571605598720843   -0.019329285330819738
-0.15794926310646953   -0.04571605598720843   -0.019329285330819738
-0.15794926310646953   -0.04571605598720843   -0.019329285330819738
-0.15794926310646953   -0.04571605598720843   -0.019329285330819738
-0.1292121259726484   0.011930934444941546   0.010318118376721268
-0.1292121259726484   0.011930934444941546   0.010318118376721268
-0.1292121259726484   0.011930934444941546   0.010318118376721268
-0.1292121259726484   0.011930934444941546   0.010318118376721268
0.04477297085733619   0.012974202895590665   -0.015279819432123865
0.04477297085733619   0.012974202895590665   -0.015279819432123865
0.04477297085733619   0.012974202895590665   -0.015279819432123865
0.04477297085733619   0.012974202895590665   -0.015279819432123865
-0.05186616064694893   0.0022180906824242966   -0.001323105341059106
-0.05186616064694893   0.0022180906824242966   -0.001323105341059106
-0.05186616064694893   0.0022180906824242966   -0.001323105341059106
-0.05186616064694893   0.0022180906824242966   -0.001323105341059106
0.060921048981217786   0.05298408381412124   0.025450690268753545
0.060921048981217786   0.05298408381412124   0.025450690268753545
0.060921048981217786   0.05298408381412124   0.025450690268753545
0.060921048981217786   0.05298408381412124   0.025450690268753545
-0.14397282484434956   -0.026691567221413713   -0.024862874315429318
-0.14397282484434956   -0.026691567221413713   -0.024862874315429318
-0.14397282484434956   -0.026691567221413713   -0.024862874315429318
-0.14397282484434956   -0.026691567221413713   -0.024862874315429318
-0.11443952590539717   0.036044475460866476   0.006232573061755564
-0.11443952590539717   0.036044475460866476   0.006232573061755564
-0.11443952590539717   0.036044475460866476   0.006232573061755564
-0.11443952590539717   0.036044475460866476   0.006232573061755564
0.060924492464262334   0.035905751886412644   -0.01950553943619257
0.060924492464262334   0.035905751886412644   -0.01950553943619257
0.060924492464262334   0.035905751886412644   -0.01950553943619257
0.060924492464262334   0.035905751886412644   -0.01950553943619257
-0.03463593470510186   0.022977894990475096   0.008772183362848497
-0.03463593470510186   0.022977894990475096   0.008772183362848497
-0.03463593470510186   0.022977894990475096   0.008772183362848497
-0.03463593470510186   0.022977894990475096   0.008772183362848497
-0.15630220995643213   -0.012285311507698616   0.011541321456109255
-0.15630220995643213   -0.012285311507698616   0.011541321456109255
-0.15630220995643213   -0.012285311507698616   0.011541321456109255
-0.15630220995643213   -0.012285311507698616   0.011541321456109255
-0.3366165933295883   -0.0457340764979786   0.002934977791565381
-0.3366165933295883   -0.0457340764979786   0.002934977791565381
-0.3366165933295883   -0.0457340764979786   0.002934977791565381
-0.3366165933295883   -0.0457340764979786   0.002934977791565381
-0.323778478058622   -0.028708107359749317   -0.006335744533219187
-0.323778478058622   -0.028708107359749317   -0.006335744533219187
-0.323778478058622   -0.028708107359749317   -0.006335744533219187
-0.323778478058622   -0.028708107359749317   -0.006335744533219187
-0.1411233212640621   0.011952548352744528   0.007131819541264536
-0.1411233212640621   0.011952548352744528   0.007131819541264536
-0.1411233212640621   0.011952548352744528   0.007131819541264536
-0.1411233212640621   0.011952548352744528   0.007131819541264536
-0.23980436092451407   -0.017169185657619407   -0.006292102063816002
-0.23980436092451407   -0.017169185657619407   -0.006292102063816002
-0.23980436092451407   -0.017169185657619407   -0.006292102063816002
-0.23980436092451407   -0.017169185657619407   -0.006292102063816002
-0.14129769042516   0.010581419576076022   0.0076311025124454635
-0.14129769042516   0.010581419576076022   0.0076311025124454635
-0.14129769042516   0.010581419576076022   0.0076311025124454635
-0.14129769042516   0.010581419576076022   0.0076311025124454635
-0.32236605728454526   -0.0260989269700969   -0.0018828210524901752
-0.32236605728454526   -0.0260989269700969   -0.0018828210524901752
-0.32236605728454526   -0.0260989269700969   -0.0018828210524901752
-0.32236605728454526   -0.0260989269700969   -0.0018828210524901752
-0.3083348693080587   -0.005246539689938989   -0.009962836870457008
-0.3083348693080587   -0.005246539689938989   -0.009962836870457008
-0.3083348693080587   -0.005246539689938989   -0.009962836870457008
-0.3083348693080587   -0.005246539689938989   -0.009962836870457008
-0.12658663499960543   0.03274171349907062   0.0026347941878088928
-0.12658663499960543   0.03274171349907062   0.0026347941878088928
-0.12658663499960543   0.03274171349907062   0.0026347941878088928
-0.12658663499960543   0.03274171349907062   0.0026347941878088928
-0.22385600370254827   0.0034327475004629765   0.0032464489155525165
-0.22385600370254827   0.0034327475004629765   0.0032464489155525165
-0.22385600370254827   0.0034327475004629765   0.0032464489155525165
-0.22385600370254827   0.0034327475004629765   0.0032464489155525165
-0.12620087818097198   0.03386157022131593   0.0034437215587308813
-0.12620087818097198   0.03386157022131593   0.0034437215587308813
-0.12620087818097198   0.03386157022131593   0.0034437215587308813
-0.12620087818097198   0.03386157022131593   0.0034437215587308813
-0.3077294078958821   -0.005375178181374757   -0.0068068913181412866
-0.3077294078958821   -0.005375178181374757   -0.0068068913181412866
-0.3077294078958821   -0.005375178181374757   -0.0068068913181412866
-0.3077294078958821   -0.005375178181374757   -0.0068068913181412866
-0.2935135789963072   0.01828292453502199   -0.01409659548817319
-0.2935135789963072   0.01828292453502199   -0.01409659548817319
-0.2935135789963072   0.01828292453502199   -0.01409659548817319
-0.2935135789963072   0.01828292453502199   -0.01409659548817319
-0.11268631043186392   0.05359198656578146   -0.0025488606754931545
-0.11268631043186392   0.05359198656578146   -0.0025488606754931545
-0.11268631043186392   0.05359198656578146   -0.0025488606754931545
-0.11268631043186392   0.05359198656578146   -0.0025488606754931545
-0.20874378862922266   0.023979673363164235   0.012162469918214597
-0.20874378862922266   0.023979673363164235   0.012162469918214597
-0.20874378862922266   0.023979673363164235   0.012162469918214597
-0.20874378862922266   0.023979673363164235   0.012162469918214597
-0.3364079805167638   -0.03219667590782457   -0.009559358734462592
-0.3364079805167638   -0.03219667590782457   -0.009559358734462592
-0.3364079805167638   -0.03219667590782457   -0.009559358734462592
-0.3364079805167638   -0.03219667590782457   -0.009559358734462592
-0.499808111705453   -0.028340342722326037   0.01979822247215399
-0.499808111705453   -0.028340342722326037   0.01979822247215399
-0.499808111705453   -0.028340342722326037   0.01979822247215399
-0.499808111705453   -0.028340342722326037   0.01979822247215399
-0.5000775948317437   -0.04764877805333741   -0.026796713490573065
-0.5000775948317437   -0.04764877805333741   -0.026796713490573065
-0.5000775948317437   -0.04764877805333741   -0.026796713490573065
-0.5000775948317437   -0.04764877805333741   -0.026796713490573065
-0.30585152359684703   0.03029676114849529   0.024294159267408414
-0.30585152359684703   0.03029676114849529   0.024294159267408414
-0.30585152359684703   0.03029676114849529   0.024294159267408414
-0.30585152359684703   0.03029676114849529   0.024294159267408414
-0.4082354440788403   -0.017484648172780767   -0.0026584369566782264
-0.4082354440788403   -0.017484648172780767   -0.0026584369566782264
-0.4082354440788403   -0.017484648172780767   -0.0026584369566782264
-0.4082354440788403   -0.017484648172780767   -0.0026584369566782264
-0.32127758393884404   -0.009197757862877035   -0.013341623431201686
-0.32127758393884404   -0.009197757862877035   -0.013341623431201686
-0.32127758393884404   -0.009197757862877035   -0.013341623431201686
-0.32127758393884404   -0.009197757862877035   -0.013341623431201686
-0.4836249514320652   -0.00712767598428235   0.014945401438769039
-0.4836249514320652   -0.00712767598428235   0.014945401438769039
-0.4836249514320652   -0.00712767598428235   0.014945401438769039
-0.4836249514320652   -0.00712767598428235   0.014945401438769039
-0.48070639685382877   -0.025269776433063218   -0.02981754284193684
-0.48070639685382877   -0.025269776433063218   -0.02981754284193684
-0.48070639685382877   -0.025269776433063218   -0.02981754284193684
-0.48070639685382877   -0.025269776433063218   -0.02981754284193684
-0.2915829725631351   0.04921377156534003   0.019336335598879244
-0.2915829725631351   0.04921377156534003   0.019336335598879244
-0.2915829725631351   0.04921377156534003   0.019336335598879244
-0.2915829725631351   0.04921377156534003   0.019336335598879244
-0.38908210256090187   0.003285735631106443   0.007174157611516466
-0.38908210256090187   0.003285735631106443   0.007174157611516466
-0.38908210256090187   0.003285735631106443   0.007174157611516466
-0.38908210256090187   0.003285735631106443   0.007174157611516466
-0.3064965080760397   0.011943496509017867   -0.017961066909320502
-0.3064965080760397   0.011943496509017867   -0.017961066909320502
-0.3064965080760397   0.011943496509017867   -0.017961066909320502
-0.3064965080760397   0.011943496509017867   -0.017961066909320502
-0.4646390841361159   0.013154275828067469   0.012094968485497248
-0.4646390841361159   0.013154275828067469   0.012094968485497248
-0.4646390841361159   0.013154275828067469   0.012094968485497248
-0.4646390841361159   0.013154275828067469   0.012094968485497248
-0.4633800703885448   -0.0008681246585710845   -0.0321004076081465
-0.4633800703885448   -0.0008681246585710845   -0.0321004076081465
-0.4633800703885448   -0.0008681246585710845   -0.0321004076081465
-0.4633800703885448   -0.0008681246585710845   -0.0321004076081465
-0.2774636949398961   0.07009538534964473   0.014340363979259814
-0.2774636949398961   0.07009538534964473   0.014340363979259814
-0.2774636949398961   0.07009538534964473   0.014340363979259814
-0.2774636949398961   0.07009538534964473   0.014340363979259814
-0.3747807384232673   0.022645434223195704   0.01598316912611654
-0.3747807384232673   0.022645434223195704   0.01598316912611654
-0.3747807384232673   0.022645434223195704   0.01598316912611654
-0.3747807384232673   0.022645434223195704   0.01598316912611654
-0.5131644947125069   -0.04619974785781948   -0.029124287427622107
-0.5131644947125069   -0.04619974785781948   -0.029124287427622107
-0.5131644947125069   -0.04619974785781948   -0.029124287427622107
-0.5131644947125069   -0.04619974785781948   -0.029124287427622107
-0.6859463617277931   -0.012228328025688073   0.042993416154284245
-0.6859463617277931   -0.012228328025688073   0.042993416154284245
-0.6859463617277931   -0.012228328025688073   0.042993416154284245
-0.6859463617277931   -0.012228328025688073   0.042993416154284245
-0.6765479817846348   -0.06202075879717378   -0.03890929921300095
-0.6765479817846348   -0.06202075879717378   -0.03890929921300095
-0.6765479817846348   -0.06202075879717378   -0.03890929921300095
-0.6765479817846348   -0.06202075879717378   -0.03890929921300095
-0.4664647089794517   0.051236638463109024   0.04238229925444089
-0.4664647089794517   0.051236638463109024   0.04238229925444089
-0.4664647089794517   0.051236638463109024   0.04238229925444089
-0.4664647089794517   0.051236638463109024   0.04238229925444089
-0.5602772714657749   -0.00995904455076152   0.004702882933238808
-0.5602772714657749   -0.00995904455076152   0.004702882933238808
-0.5602772714657749   -0.00995904455076152   0.004702882933238808
-0.5602772714657749   -0.00995904455076152   0.004702882933238808
-0.496751554687237   -0.0248688930828075   -0.03294639773856734
-0.496751554687237   -0.0248688930828075   -0.03294639773856734
-0.496751554687237   -0.0248688930828075   -0.03294639773856734
-0.496751554687237   -0.0248688930828075   -0.03294639773856734
-0.645327287119119   0.015018621706471919   0.04015479361092277
-0.645327287119119   0.015018621706471919   0.04015479361092277
-0.645327287119119   0.015018621706471919   0.04015479361092277
-0.645327287119119   0.015018621706471919   0.04015479361092277
-0.6458404468573835   -0.04874954867535129   -0.046320763873468895
-0.6458404468573835   -0.04874954867535129   -0.046320763873468895
-0.6458404468573835   -0.04874954867535129   -0.046320763873468895
-0.6458404468573835   -0.04874954867535129   -0.046320763873468895
-0.4507068234066697   0.059963321433405326   0.03494722652738568
-0.4507068234066697   0.059963321433405326   0.03494722652738568
-0.4507068234066697   0.059963321433405326   0.03494722652738568
-0.4507068234066697   0.059963321433405326   0.03494722652738568
-0.5429474542682078   0.003976559160701457   0.01263689523895625
-0.5429474542682078   0.003976559160701457   0.01263689523895625
-0.5429474542682078   0.003976559160701457   0.01263689523895625
-0.5429474542682078   0.003976559160701457   0.01263689523895625
-0.4800899464231164   -0.013946924365076496   -0.03805814275636192
-0.4800899464231164   -0.013946924365076496   -0.03805814275636192
-0.4800899464231164   -0.013946924365076496   -0.03805814275636192
-0.4800899464231164   -0.013946924365076496   -0.03805814275636192
-0.6153172832444831   0.026300737719583328   0.03124476779608914
-0.6153172832444831   0.026300737719583328   0.03124476779608914
-0.6153172832444831   0.026300737719583328   0.03124476779608914
-0.6153172832444831   0.026300737719583328   0.03124476779608914
-0.6079698448202708   -0.028955482307907968   -0.05167121808557988
-0.6079698448202708   -0.028955482307907968   -0.05167121808557988
-0.6079698448202708   -0.028955482307907968   -0.05167121808557988
-0.6079698448202708   -0.028955482307907968   -0.05167121808557988
-0.43687251101479163   0.0704598638815834   0.029109400720464904
-0.43687251101479163   0.0704598638815834   0.029109400720464904
-0.43687251101479163   0.0704598638815834   0.029109400720464904
-0.43687251101479163   0.0704598638815834   0.029109400720464904
-0.5102828052888327   0.017016415662793105   0.023829869408864342
-0.5102828052888327   0.017016415662793105   0.023829869408864342
-0.5102828052888327   0.017016415662793105   0.023829869408864342
-0.5102828052888327   0.017016415662793105   0.023829869408864342
0.5429402055202105   0.049366008266044786   0.046948295519470176
0.5429402055202105   0.049366008266044786   0.046948295519470176
0.5429402055202105   0.049366008266044786   0.046948295519470176
0.5429402055202105   0.049366008266044786   0.046948295519470176
0.19867075383279326   -0.08995108962702221   -0.03089519317957136
0.19867075383279326   -0.08995108962702221   -0.03089519317957136
0.19867075383279326   -0.08995108962702221   -0.03089519317957136
0.19867075383279326   -0.08995108962702221   -0.03089519317957136
0.24507855441581622   -0.0006461479668430081   0.033763857766985456
0.24507855441581622   -0.0006461479668430081   0.033763857766985456
0.24507855441581622   -0.0006461479668430081   0.033763857766985456
0.24507855441581622   -0.0006461479668430081   0.033763857766985456
0.5526491210870376   -0.012252175182906083   -0.03945408398338375
0.5526491210870376   -0.012252175182906083   -0.03945408398338375
0.5526491210870376   -0.012252175182906083   -0.03945408398338375
0.5526491210870376   -0.012252175182906083   -0.03945408398338375
0.36116662144153133   -0.016207144083134895   -0.03479897615046422
0.36116662144153133   -0.016207144083134895   -0.03479897615046422
0.36116662144153133   -0.016207144083134895   -0.03479897615046422
0.36116662144153133   -0.016207144083134895   -0.03479897615046422
0.584896568436326   0.06872573233324296   0.04080524524690553
0.584896568436326   0.06872573233324296   0.04080524524690553
0.584896568436326   0.06872573233324296   0.04080524524690553
0.584896568436326   0.06872573233324296   0.04080524524690553
0.2151212160748801   -0.0793339464746397   -0.03733503542989443
0.2151212160748801   -0.0793339464746397   -0.03733503542989443
0.2151212160748801   -0.0793339464746397   -0.03733503542989443
0.2151212160748801   -0.0793339464746397   -0.03733503542989443
0.2633243908464377   0.009978144625048736   0.027831252911588056
0.2633243908464377   0.009978144625048736   0.027831252911588056
0.2633243908464377   0.009978144625048736   0.027831252911588056
0.2633243908464377   0.009978144625048736   0.027831252911588056
0.5860075777437499   -0.00018236003112477583   -0.04966679410129041
0.5860075777437499   -0.00018236003112477583   -0.04966679410129041
0.5860075777437499   -0.00018236003112477583   -0.04966679410129041
0.5860075777437499   -0.00018236003112477583   -0.04966679410129041
0.3960336544185665   -0.003179085657287889   -0.021097761654853737
0.3960336544185665   -0.003179085657287889   -0.021097761654853737
0.3960336544185665   -0.003179085657287889   -0.021097761654853737
0.3960336544185665   -0.003179085657287889   -0.021097761654853737
0.6186046577779237   0.0817459971972653   0.03139024884118481
0.6186046577779237   0.0817459971972653   0.03139024884118481
0.6186046577779237   0.0817459971972653   0.03139024884118481
0.6186046577779237   0.0817459971972653   0.03139024884118481
0.23315709746871185   -0.06952042594689398   -0.043506643405098355
0.23315709746871185   -0.06952042594689398   -0.043506643405098355
0.23315709746871185   -0.06952042594689398   -0.043506643405098355
0.23315709746871185   -0.06952042594689398   -0.043506643405098355
0.2815464942154505   0.033416465240373595   0.024121003584837257
0.2815464942154505   0.033416465240373595   0.024121003584837257
0.2815464942154505   0.033416465240373595   0.024121003584837257
0.2815464942154505   0.033416465240373595   0.024121003584837257
0.6298295832362231   0.03129130883690649   -0.05356571405801358
0.6298295832362231   0.03129130883690649   -0.05356571405801358
0.6298295832362231   0.03129130883690649   -0.05356571405801358
0.6298295832362231   0.03129130883690649   -0.05356571405801358
0.41746254685023476   0.012687020914521868   -0.00926514587255308
0.41746254685023476   0.012687020914521868   -0.00926514587255308
0.41746254685023476   0.012687020914521868   -0.00926514587255308
0.41746254685023476   0.012687020914521868   -0.00926514587255308
0.23589493774432016   0.027681893937488402   0.03759274281355253
0.23589493774432016   0.027681893937488402   0.03759274281355253
0.23589493774432016   0.027681893937488402   0.03759274281355253
0.23589493774432016   0.027681893937488402   0.03759274281355253
-0.11527379336254967   -0.08394165487863957   -0.016196729680047144
-0.11527379336254967   -0.08394165487863957   -0.016196729680047144
-0.11527379336254967   -0.08394165487863957   -0.016196729680047144
-0.11527379336254967   -0.08394165487863957   -0.016196729680047144
-0.08340282674732709   -0.024670656140003605   0.011351277546061914
-0.08340282674732709   -0.024670656140003605   0.011351277546061914
-0.08340282674732709   -0.024670656140003605   0.011351277546061914
-0.08340282674732709   -0.024670656140003605   0.011351277546061914
0.23765520059405593   0.0009241888277128976   -0.004923248136371799
0.23765520059405593   0.0009241888277128976   -0.004923248136371799
0.23765520059405593   0.0009241888277128976   -0.004923248136371799
0.23765520059405593   0.0009241888277128976   -0.004923248136371799
0.06561275896203   -0.01767701681646344   -0.01480194814552067
0.06561275896203   -0.01767701681646344   -0.01480194814552067
0.06561275896203   -0.01767701681646344   -0.01480194814552067
0.06561275896203   -0.01767701681646344   -0.01480194814552067
0.2546473470390809   0.04738454807613228   0.03357712484033339
0.2546473470390809   0.04738454807613228   0.03357712484033339
0.2546473470390809   0.04738454807613228   0.03357712484033339
0.2546473470390809   0.04738454807613228   0.03357712484033339
-0.09900935453213765   -0.06974539672820865   -0.021606620789785952
-0.09900935453213765   -0.06974539672820865   -0.021606620789785952
-0.09900935453213765   -0.06974539672820865   -0.021606620789785952
-0.09900935453213765   -0.06974539672820865   -0.021606620789785952
-0.06640948823661746   -0.004772863404850856   0.00716730815962219
-0.06640948823661746   -0.004772863404850856   0.00716730815962219
-0.06640948823661746   -0.004772863404850856   0.00716730815962219
-0.06640948823661746   -0.004772863404850856   0.00716730815962219
0.2576747648265418   0.018765669851492466   -0.00920440241433527
0.2576747648265418   0.018765669851492466   -0.00920440241433527
0.2576747648265418   0.018765669851492466   -0.00920440241433527
0.2576747648265418   0.018765669851492466   -0.00920440241433527
0.08202258409318258   -0.0019605538803815978   -0.0058825769436881906
0.08202258409318258   -0.0019605538803815978   -0.0058825769436881906
0.08202258409318258   -0.0019605538803815978   -0.0058825769436881906
0.08202258409318258   -0.0019605538803815978   -0.0058825769436881906
0.2753483415724044   0.06810922596526417   0.02981992520120615
0.2753483415724044   0.06810922596526417   0.02981992520120615
0.2753483415724044   0.06810922596526417   0.02981992520120615
0.2753483415724044   0.06810922596526417   0.02981992520120615
-0.08269535743239309   -0.05272871196854581   -0.02630618925556103
-0.08269535743239309   -0.05272871196854581   -0.02630618925556103
-0.08269535743239309   -0.05272871196854581   -0.02630618925556103
-0.08269535743239309   -0.05272871196854581   -0.02630618925556103
-0.04962584484002022   0.018297665977852616   0.0030043683252898197
-0.04962584484002022   0.018297665977852616   0.0030043683252898197
-0.04962584484002022   0.018297665977852616   0.0030043683252898197
-0.04962584484002022   0.018297665977852616   0.0030043683252898197
0.2754151591511666   0.04002644948585298   -0.013145655982058017
0.2754151591511666   0.04002644948585298   -0.013145655982058017
0.2754151591511666   0.04002644948585298   -0.013145655982058017
0.2754151591511666   0.04002644948585298   -0.013145655982058017
0.10233387735922977   0.01732925591346855   0.00453551725845439
0.10233387735922977   0.01732925591346855   0.00453551725845439
0.10233387735922977   0.01732925591346855   0.00453551725845439
0.10233387735922977   0.01732925591346855   0.00453551725845439
-0.09083784585280458   0.006035790030894359   0.016005562959146395
-0.09083784585280458   0.006035790030894359   0.016005562959146395
-0.09083784585280458   0.006035790030894359   0.016005562959146395
-0.09083784585280458   0.006035790030894359   0.016005562959146395
-0.42299416379311355   -0.07416201233601522   -0.0021684924830713266
-0.42299416379311355   -0.07416201233601522   -0.0021684924830713266
-0.42299416379311355   -0.07416201233601522   -0.0021684924830713266
-0.42299416379311355   -0.07416201233601522   -0.0021684924830713266
-0.4028634213647128   -0.043807656332095095   -0.009929103782282818
-0.4028634213647128   -0.043807656332095095   -0.009929103782282818
-0.4028634213647128   -0.043807656332095095   -0.009929103782282818
-0.4028634213647128   -0.043807656332095095   -0.009929103782282818
-0.07636611519282241   0.01124253520746284   0.01062164397111879
-0.07636611519282241   0.01124253520746284   0.01062164397111879
-0.07636611519282241   0.01124253520746284   0.01062164397111879
-0.07636611519282241   0.01124253520746284   0.01062164397111879
-0.24869959844037523   -0.022777665609668277   -0.009246766287375125
-0.24869959844037523   -0.022777665609668277   -0.009246766287375125
-0.24869959844037523   -0.022777665609668277   -0.009246766287375125
-0.24869959844037523   -0.022777665609668277   -0.009246766287375125
-0.07300032692470247   0.026574506180171622   0.012118614339009685
-0.07300032692470247   0.026574506180171622   0.012118614339009685
-0.07300032692470247   0.026574506180171622   0.012118614339009685
-0.07300032692470247   0.026574506180171622   0.012118614339009685
-0.4052978664242083   -0.05820828409617426   -0.007700701315680853
-0.4052978664242083   -0.05820828409617426   -0.007700701315680853
-0.4052978664242083   -0.05820828409617426   -0.007700701315680853
-0.4052978664242083   -0.05820828409617426   -0.007700701315680853
-0.3841304511373329   -0.021976241095675475   -0.013411162648163426
-0.3841304511373329   -0.021976241095675475   -0.013411162648163426
-0.3841304511373329   -0.021976241095675475   -0.013411162648163426
-0.3841304511373329   -0.021976241095675475   -0.013411162648163426
-0.05982823232279124   0.029268367771814827   0.006032356552087642
-0.05982823232279124   0.029268367771814827   0.006032356552087642
-0.05982823232279124   0.029268367771814827   0.006032356552087642
-0.05982823232279124   0.029268367771814827   0.006032356552087642
-0.22980246306029306   -0.00451418254880756   -0.00013822482366534182
-0.22980246306029306   -0.00451418254880756   -0.00013822482366534182
-0.22980246306029306   -0.00451418254880756   -0.00013822482366534182
-0.22980246306029306   -0.00451418254880756   -0.00013822482366534182
-0.0557642841642038   0.047919431543297586   0.007701033573542097
-0.0557642841642038   0.047919431543297586   0.007701033573542097
-0.0557642841642038   0.047919431543297586   0.007701033573542097
-0.0557642841642038   0.047919431543297586   0.007701033573542097
-0.38733055269374383   -0.03976345826497145   -0.011624453260921899
-0.38733055269374383   -0.03976345826497145   -0.011624453260921899
-0.38733055269374383   -0.03976345826497145   -0.011624453260921899
-0.38733055269374383   -0.03976345826497145   -0.011624453260921899
-0.3666905113964925   -0.00021239246712843884   -0.017566554875414093
-0.3666905113964925   -0.00021239246712843884   -0.017566554875414093
-0.3666905113964925   -0.00021239246712843884   -0.017566554875414093
-0.3666905113964925   -0.00021239246712843884   -0.017566554875414093
-0.044050966970654054   0.047673327016231094   0.0015030966337421584
-0.044050966970654054   0.047673327016231094   0.0015030966337421584
-0.044050966970654054   0.047673327016231094   0.0015030966337421584
-0.044050966970654054   0.047673327016231094   0.0015030966337421584
-0.21244808081714184   0.013681828414400653   0.008526777701518013
-0.21244808081714184   0.013681828414400653   0.008526777701518013
-0.21244808081714184   0.013681828414400653   0.008526777701518013
-0.21244808081714184   0.013681828414400653   0.008526777701518013
-0.41217930678771525   -0.016021225159689748   -0.006234994632402232
-0.41217930678771525   -0.016021225159689748   -0.006234994632402232
-0.41217930678771525   -0.016021225159689748   -0.006234994632402232
-0.41217930678771525   -0.016021225159689748   -0.006234994632402232
-0.7239074334622195   -0.06016700694765055   0.01383315688652242
-0.7239074334622195   -0.06016700694765055   0.01383315688652242
-0.7239074334622195   -0.06016700694765055   0.01383315688652242
-0.7239074334622195   -0.06016700694765055   0.01383315688652242
-0.714222701657289   -0.062207949699817036   -0.0298582169137114
-0.714222701657289   -0.062207949699817036   -0.0298582169137114
-0.714222701657289   -0.062207949699817036   -0.0298582169137114
-0.714222701657289   -0.062207949699817036   -0.0298582169137114
-0.3811695590733114   0.02808643367878376   0.026646117663848907
-0.3811695590733114   0.02808643367878376   0.026646117663848907
-0.3811695590733114   0.02808643367878376   0.026646117663848907
-0.3811695590733114   0.02808643367878376   0.026646117663848907
-0.5540109767764059   -0.024120812578664483   -0.003229596467535966
-0.5540109767764059   -0.024120812578664483   -0.003229596467535966
-0.5540109767764059   -0.024120812578664483   -0.003229596467535966
-0.5540109767764059   -0.024120812578664483   -0.003229596467535966
-0.3927905187651473   0.006146400698370122   -0.009518647814917191
-0.3927905187651473   0.006146400698370122   -0.009518647814917191
-0.3927905187651473   0.006146400698370122   -0.009518647814917191
-0.3927905187651473   0.006146400698370122   -0.009518647814917191
-0.7025367620804166   -0.04020293683436697   0.006566468105200441
-0.7025367620804166   -0.04020293683436697   0.006566468105200441
-0.7025367620804166   -0.04020293683436697   0.006566468105200441
-0.7025367620804166   -0.04020293683436697   0.006566468105200441
-0.6897239403067261   -0.04088693888648075   -0.033026248916602816
-0.6897239403067261   -0.04088693888648075   -0.033026248916602816
-0.6897239403067261   -0.04088693888648075   -0.033026248916602816
-0.6897239403067261   -0.04088693888648075   -0.033026248916602816
-0.3637390352020622   0.04526412848711267   0.021305547445405762
-0.3637390352020622   0.04526412848711267   0.021305547445405762
-0.3637390352020622   0.04526412848711267   0.021305547445405762
-0.3637390352020622   0.04526412848711267   0.021305547445405762
-0.5290673981337191   -0.003939271890624846   0.005912391191675102
-0.5290673981337191   -0.003939271890624846   0.005912391191675102
-0.5290673981337191   -0.003939271890624846   0.005912391191675102
-0.5290673981337191   -0.003939271890624846   0.005912391191675102
-0.37464854352743515   0.025948180928190318   -0.013926046622538494
-0.37464854352743515   0.025948180928190318   -0.013926046622538494
-0.37464854352743515   0.025948180928190318   -0.013926046622538494
-0.37464854352743515   0.025948180928190318   -0.013926046622538494
-0.6782196993266634   -0.020976258672863818   0.004584275770093835
-0.6782196993266634   -0.020976258672863818   0.004584275770093835
-0.6782196993266634   -0.020976258672863818   0.004584275770093835
-0.6782196993266634   -0.020976258672863818   0.004584275770093835
-0.6678197575756164   -0.017789900257244334   -0.03473000141946523
-0.6678197575756164   -0.017789900257244334   -0.03473000141946523
-0.6678197575756164   -0.017789900257244334   -0.03473000141946523
-0.6678197575756164   -0.017789900257244334   -0.03473000141946523
-0.34685736178751164   0.06413660344087212   0.017250197261493246
-0.34685736178751164   0.06413660344087212   0.017250197261493246
-0.34685736178751164   0.06413660344087212   0.017250197261493246
-0.34685736178751164   0.06413660344087212   0.017250197261493246
-0.5122517103369896   0.013301888694962849   0.013794279646576278
-0.5122517103369896   0.013301888694962849   0.013794279646576278
-0.5122517103369896   0.013301888694962849   0.013794279646576278
-0.5122517103369896   0.013301888694962849   0.013794279646576278
-0.7268812442647916   -0.03437880714895197   -0.026824096925036636
-0.7268812442647916   -0.03437880714895197   -0.026824096925036636
-0.7268812442647916   -0.03437880714895197   -0.026824096925036636
-0.7268812442647916   -0.03437880714895197   -0.026824096925036636
-1.0364121154275712   -0.03743431580786946   0.046458600569543415
-1.0364121154275712   -0.03743431580786946   0.046458600569543415
-1.0364121154275712   -0.03743431580786946   0.046458600569543415
-1.0364121154275712   -0.03743431580786946   0.046458600569543415
-1.016755342937861   -0.07441926153747849   -0.035606566790087425
-1.016755342937861   -0.07441926153747849   -0.035606566790087425
-1.016755342937861   -0.07441926153747849   -0.035606566790087425
-1.016755342937861   -0.07441926153747849   -0.035606566790087425
-0.6747920987146977   0.05783101906155402   0.04725582903786734
-0.6747920987146977   0.05783101906155402   0.04725582903786734
-0.6747920987146977   0.05783101906155402   0.04725582903786734
-0.6747920987146977   0.05783101906155402   0.04725582903786734
-0.82538639654236   -0.010197188636229093   0.009652813750440428
-0.82538639654236   -0.010197188636229093   0.009652813750440428
-0.82538639654236   -0.010197188636229093   0.009652813750440428
-0.82538639654236   -0.010197188636229093   0.009652813750440428
-0.7039135627800496   -0.01069473882780475   -0.02982573339953002
-0.7039135627800496   -0.01069473882780475   -0.02982573339953002
-0.7039135627800496   -0.01069473882780475   -0.02982573339953002
-0.7039135627800496   -0.01069473882780475   -0.02982573339953002
-0.9871393764893414   -0.0053990012649577646   0.04345300517998259
-0.9871393764893414   -0.0053990012649577646   0.04345300517998259
-0.9871393764893414   -0.0053990012649577646   0.04345300517998259
-0.9871393764893414   -0.0053990012649577646   0.04345300517998259
-0.9796145357997456   -0.061196815045819   -0.0419457434756603
-0.9796145357997456   -0.061196815045819   -0.0419457434756603
-0.9796145357997456   -0.061196815045819   -0.0419457434756603
-0.9796145357997456   -0.061196815045819   -0.0419457434756603
-0.6542522200171506   0.06598454146672256   0.03746087217807154
-0.6542522200171506   0.06598454146672256   0.03746087217807154
-0.6542522200171506   0.06598454146672256   0.03746087217807154
-0.6542522200171506   0.06598454146672256   0.03746087217807154
-0.8063465386817288   0.004240981761709783   0.01723852369185684
-0.8063465386817288   0.004240981761709783   0.01723852369185684
-0.8063465386817288   0.004240981761709783   0.01723852369185684
-0.8063465386817288   0.004240981761709783   0.01723852369185684
-0.6817383444522408   -2.4558156097781447e-05   -0.03396065037455886
-0.6817383444522408   -2.4558156097781447e-05   -0.03396065037455886
-0.6817383444522408   -2.4558156097781447e-05   -0.03396065037455886
-0.6817383444522408   -2.4558156097781447e-05   -0.03396065037455886
-0.9516325587529721   0.005308137188681644   0.03145918952368854
-0.9516325587529721   0.005308137188681644   0.03145918952368854
-0.9516325587529721   0.005308137188681644   0.03145918952368854
-0.9516325587529721   0.005308137188681644   0.03145918952368854
-0.9389812587791888   -0.045347292485773655   -0.047817633351923045
-0.9389812587791888   -0.045347292485773655   -0.047817633351923045
-0.9389812587791888   -0.045347292485773655   -0.047817633351923045
-0.9389812587791888   -0.045347292485773655   -0.047817633351923045
-0.6362193863900651   0.07358530346588385   0.031896650785163023
-0.6362193863900651   0.07358530346588385   0.031896650785163023
-0.6362193863900651   0.07358530346588385   0.031896650785163023
-0.6362193863900651   0.07358530346588385   0.031896650785163023
-0.765297014956843   0.016228783444528355   0.02873852347441963
-0.765297014956843   0.016228783444528355   0.02873852347441963
-0.765297014956843   0.016228783444528355   0.02873852347441963
-0.765297014956843   0.016228783444528355   0.02873852347441963
0.9097333153611535   0.06804489510016878   0.048022168928054054
0.9097333153611535   0.06804489510016878   0.048022168928054054
0.9097333153611535   0.06804489510016878   0.048022168928054054
0.9097333153611535   0.06804489510016878   0.048022168928054054
0.4010073004156346   -0.10681373228469851   -0.02214180400057969
0.4010073004156346   -0.10681373228469851   -0.02214180400057969
0.4010073004156346   -0.10681373228469851   -0.02214180400057969
0.4010073004156346   -0.10681373228469851   -0.02214180400057969
0.4468993211794189   -0.018919969504918144   0.032956744314174585
0.4468993211794189   -0.018919969504918144   0.032956744314174585
0.4468993211794189   -0.018919969504918144   0.032956744314174585
0.4468993211794189   -0.018919969504918144   0.032956744314174585
0.9196345722438006   -0.0013606882334580295   -0.03465355024868661
0.9196345722438006   -0.0013606882334580295   -0.03465355024868661
0.9196345722438006   -0.0013606882334580295   -0.03465355024868661
0.9196345722438006   -0.0013606882334580295   -0.03465355024868661
0.630129825776582   -0.01897311559382861   -0.04917069661118314
0.630129825776582   -0.01897311559382861   -0.04917069661118314
0.630129825776582   -0.01897311559382861   -0.04917069661118314
0.630129825776582   -0.01897311559382861   -0.04917069661118314
0.9515629609759646   0.08345579218940788   0.040171912989259054
0.9515629609759646   0.08345579218940788   0.040171912989259054
0.9515629609759646   0.08345579218940788   0.040171912989259054
0.9515629609759646   0.08345579218940788   0.040171912989259054
0.41804003092211317   -0.10066735145292688   -0.02959232502434344
0.41804003092211317   -0.10066735145292688   -0.02959232502434344
0.41804003092211317   -0.10066735145292688   -0.02959232502434344
0.41804003092211317   -0.10066735145292688   -0.02959232502434344
0.4647935140469359   -0.009165178394111129   0.026633177780622456
0.4647935140469359   -0.009165178394111129   0.026633177780622456
0.4647935140469359   -0.009165178394111129   0.026633177780622456
0.4647935140469359   -0.009165178394111129   0.026633177780622456
0.9509833313507159   0.009390305917752972   -0.04326498605805555
0.9509833313507159   0.009390305917752972   -0.04326498605805555
0.9509833313507159   0.009390305917752972   -0.04326498605805555
0.9509833313507159   0.009390305917752972   -0.04326498605805555
0.6695492053090693   -0.0074946293650466345   -0.033466746204187006
0.6695492053090693   -0.0074946293650466345   -0.033466746204187006
0.6695492053090693   -0.0074946293650466345   -0.033466746204187006
0.6695492053090693   -0.0074946293650466345   -0.033466746204187006
0.982720183411901   0.09504619662990169   0.029763383535721437
0.982720183411901   0.09504619662990169   0.029763383535721437
0.982720183411901   0.09504619662990169   0.029763383535721437
0.982720183411901   0.09504619662990169   0.029763383535721437
0.43573985247475255   -0.09213787861725808   -0.03566242985714743
0.43573985247475255   -0.09213787861725808   -0.03566242985714743
0.43573985247475255   -0.09213787861725808   -0.03566242985714743
0.43573985247475255   -0.09213787861725808   -0.03566242985714743
0.48101070710579463   0.01691073871328841   0.023350311454355056
0.48101070710579463   0.01691073871328841   0.023350311454355056
0.48101070710579463   0.01691073871328841   0.023350311454355056
0.48101070710579463   0.01691073871328841   0.023350311454355056
0.9895771322558597   0.04085798808527044   -0.0452954801831275
0.9895771322558597   0.04085798808527044   -0.0452954801831275
0.9895771322558597   0.04085798808527044   -0.0452954801831275
0.9895771322558597   0.04085798808527044   -0.0452954801831275
0.6841858047634003   0.007978708407650942   -0.022615015878578282
0.6841858047634003   0.007978708407650942   -0.022615015878578282
0.6841858047634003   0.007978708407650942   -0.022615015878578282
0.6841858047634003   0.007978708407650942   -0.022615015878578282
0.4435852651110906   0.03988030015875267   0.044053987033243085
0.4435852651110906   0.03988030015875267   0.044053987033243085
0.4435852651110906   0.03988030015875267   0.044053987033243085
0.4435852651110906   0.03988030015875267   0.044053987033243085
-0.05541365097185176   -0.13147724962716947   -0.012628219004962353
-0.05541365097185176   -0.13147724962716947   -0.012628219004962353
-0.05541365097185176   -0.13147724962716947   -0.012628219004962353
-0.05541365097185176   -0.13147724962716947   -0.012628219004962353
-0.015945987734415863   -0.046583298673380825   0.011140502686631368
-0.015945987734415863   -0.046583298673380825   0.011140502686631368
-0.015945987734415863   -0.046583298673380825   0.011140502686631368
-0.015945987734415863   -0.046583298673380825   0.011140502686631368
0.4397846313784777   -0.023760902370315237   0.0022242281748655716
0.4397846313784777   -0.023760902370315237   0.0022242281748655716
0.4397846313784777   -0.023760902370315237   0.0022242281748655716
0.4397846313784777   -0.023760902370315237   0.0022242281748655716
0.1974987639558258   -0.03650593615795428   -0.023373211661676083
0.1974987639558258   -0.03650593615795428   -0.023373211661676083
0.1974987639558258   -0.03650593615795428   -0.023373211661676083
0.1974987639558258   -0.03650593615795428   -0.023373211661676083
0.4628481038490285   0.05475296394786918   0.03902772420943703
0.4628481038490285   0.05475296394786918   0.03902772420943703
0.4628481038490285   0.05475296394786918   0.03902772420943703
0.4628481038490285   0.05475296394786918   0.03902772420943703
-0.03738619245747198   -0.12347389724407025   -0.019169922357959796
-0.03738619245747198   -0.12347389724407025   -0.019169922357959796
-0.03738619245747198   -0.12347389724407025   -0.019169922357959796
-0.03738619245747198   -0.12347389724407025   -0.019169922357959796
0.0022980769197972414   -0.029112498205986437   0.006781445205045471
0.0022980769197972414   -0.029112498205986437   0.006781445205045471
0.0022980769197972414   -0.029112498205986437   0.006781445205045471
0.0022980769197972414   -0.029112498205986437   0.006781445205045471
0.45848537225049285   -0.010585769273018367   -0.003486940322685806
0.45848537225049285   -0.010585769273018367   -0.003486940322685806
0.45848537225049285   -0.010585769273018367   -0.003486940322685806
0.45848537225049285   -0.010585769273018367   -0.003486940322685806
0.21332474651639477   -0.02577425525248346   -0.015139797022977144
0.21332474651639477   -0.02577425525248346   -0.015139797022977144
0.21332474651639477   -0.02577425525248346   -0.015139797022977144
0.21332474651639477   -0.02577425525248346   -0.015139797022977144
0.48278813231614554   0.07259786831566012   0.034843222416899196
0.48278813231614554   0.07259786831566012   0.034843222416899196
0.48278813231614554   0.07259786831566012   0.034843222416899196
0.48278813231614554   0.07259786831566012   0.034843222416899196
-0.021033918587857754   -0.1113253712366624   -0.027665659302555462
-0.021033918587857754   -0.1113253712366624   -0.027665659302555462
-0.021033918587857754   -0.1113253712366624   -0.027665659302555462
-0.021033918587857754   -0.1113253712366624   -0.027665659302555462
0.01662253576176236   -0.008627414208556464   0.0023776489352683133
0.01662253576176236   -0.008627414208556464   0.0023776489352683133
0.01662253576176236   -0.008627414208556464   0.0023776489352683133
0.01662253576176236   -0.008627414208556464   0.0023776489352683133
0.472477307763562   0.006234513777005943   -0.00864046032053312
0.472477307763562   0.006234513777005943   -0.00864046032053312
0.472477307763562   0.006234513777005943   -0.00864046032053312
0.472477307763562   0.006234513777005943   -0.00864046032053312
0.23277112966767527   -0.009712601213385047   -0.0062908133805091564
0.23277112966767527   -0.009712601213385047   -0.0062908133805091564
0.23277112966767527   -0.009712601213385047   -0.0062908133805091564
0.23277112966767527   -0.009712601213385047   -0.0062908133805091564
-0.019959263915082015   0.011259966222118837   0.02190650042959807
-0.019959263915082015   0.011259966222118837   0.02190650042959807
-0.019959263915082015   0.011259966222118837   0.02190650042959807
-0.019959263915082015   0.011259966222118837   0.02190650042959807
-0.5082856733199032   -0.164869087001284   -0.010118787103152366
-0.5082856733199032   -0.164869087001284   -0.010118787103152366
-0.5082856733199032   -0.164869087001284   -0.010118787103152366
-0.5082856733199032   -0.164869087001284   -0.010118787103152366
-0.4684328653813402   -0.07143740592830555   -0.010711311519174722
-0.4684328653813402   -0.07143740592830555   -0.010711311519174722
-0.4684328653813402   -0.07143740592830555   -0.010711311519174722
-0.4684328653813402   -0.07143740592830555   -0.010711311519174722
-0.018090218710110705   -0.05607989019836952   0.00991593933314585
-0.018090218710110705   -0.05607989019836952   0.00991593933314585
-0.018090218710110705   -0.05607989019836952   0.00991593933314585
-0.018090218710110705   -0.05607989019836952   0.00991593933314585
-0.25483399582621213   -0.06651209663468341   -0.02086265899295807
-0.25483399582621213   -0.06651209663468341   -0.02086265899295807
-0.25483399582621213   -0.06651209663468341   -0.02086265899295807
-0.25483399582621213   -0.06651209663468341   -0.02086265899295807
0.00030723465717134597   0.02801461631455751   0.01780869965662908
0.00030723465717134597   0.02801461631455751   0.01780869965662908
0.00030723465717134597   0.02801461631455751   0.01780869965662908
0.00030723465717134597   0.02801461631455751   0.01780869965662908
-0.48565578804375054   -0.15435738173636088   -0.013905949023171056
-0.48565578804375054   -0.15435738173636088   -0.013905949023171056
-0.48565578804375054   -0.15435738173636088   -0.013905949023171056
-0.48565578804375054   -0.15435738173636088   -0.013905949023171056
-0.44579885679214076   -0.052045913485909326   -0.014568425267214354
-0.44579885679214076   -0.052045913485909326   -0.014568425267214354
-0.44579885679214076   -0.052045913485909326   -0.014568425267214354
-0.44579885679214076   -0.052045913485909326   -0.014568425267214354
-0.001098666438194668   -0.04341427673801012   0.004099506947107694
-0.001098666438194668   -0.04341427673801012   0.004099506947107694
-0.001098666438194668   -0.04341427673801012   0.004099506947107694
-0.001098666438194668   -0.04341427673801012   0.004099506947107694
-0.23286176890631888   -0.05256239163866329   -0.011564117341006298
-0.23286176890631888   -0.05256239163866329   -0.011564117341006298
-0.23286176890631888   -0.05256239163866329   -0.011564117341006298
-0.23286176890631888   -0.05256239163866329   -0.011564117341006298
0.018850921564036692   0.04657030106901658   0.01386286915123779
0.018850921564036692   0.04657030106901658   0.01386286915123779
0.018850921564036692   0.04657030106901658   0.01386286915123779
0.018850921564036692   0.04657030106901658   0.01386286915123779
-0.4657425910617916   -0.14202463756035555   -0.024308372541022444
-0.4657425910617916   -0.14202463756035555   -0.024308372541022444
-0.4657425910617916   -0.14202463756035555   -0.024308372541022444
-0.4657425910617916   -0.14202463756035555   -0.024308372541022444
-0.4298011964310603   -0.033552621118419675   -0.018876414579074838
-0.4298011964310603   -0.033552621118419675   -0.018876414579074838
-0.4298011964310603   -0.033552621118419675   -0.018876414579074838
-0.4298011964310603   -0.033552621118419675   -0.018876414579074838
0.010050663669605652   -0.03327121427528449   -0.005837911458787194
0.010050663669605652   -0.03327121427528449   -0.005837911458787194
0.010050663669605652   -0.03327121427528449   -0.005837911458787194
0.010050663669605652   -0.03327121427528449   -0.005837911458787194
-0.21674917722296952   -0.039540493957797095   -0.0057266827495182915
-0.21674917722296952   -0.039540493957797095   -0.0057266827495182915
-0.21674917722296952   -0.039540493957797095   -0.0057266827495182915
-0.21674917722296952   -0.039540493957797095   -0.0057266827495182915
-0.4761227230238366   -0.01350943396841088   -0.0006636886556927804
-0.4761227230238366   -0.01350943396841088   -0.0006636886556927804
-0.4761227230238366   -0.01350943396841088   -0.0006636886556927804
-0.4761227230238366   -0.01350943396841088   -0.0006636886556927804
-0.9633762037216588   -0.17725393216630725   -0.008101379185231444
-0.9633762037216588   -0.17725393216630725   -0.008101379185231444
-0.9633762037216588   -0.17725393216630725   -0.008101379185231444
-0.9633762037216588   -0.17725393216630725   -0.008101379185231444
-0.920651449137005   -0.09149543420677682   -0.031781331700260304
-0.920651449137005   -0.09149543420677682   -0.031781331700260304
-0.920651449137005   -0.09149543420677682   -0.031781331700260304
-0.920651449137005   -0.09149543420677682   -0.031781331700260304
-0.45946762085832027   -0.05828427968483466   0.02096178485245409
-0.45946762085832027   -0.05828427968483466   0.02096178485245409
-0.45946762085832027   -0.05828427968483466   0.02096178485245409
-0.45946762085832027   -0.05828427968483466   0.02096178485245409
-0.6987499304589804   -0.08003108812393141   -0.01469543517818692
-0.6987499304589804   -0.08003108812393141   -0.01469543517818692
-0.6987499304589804   -0.08003108812393141   -0.01469543517818692
-0.6987499304589804   -0.08003108812393141   -0.01469543517818692
-0.4511168991161951   0.008044970760905226   -0.0036138568826600236
-0.4511168991161951   0.008044970760905226   -0.0036138568826600236
-0.4511168991161951   0.008044970760905226   -0.0036138568826600236
-0.4511168991161951   0.008044970760905226   -0.0036138568826600236
-0.9293517942749511   -0.1581743080483362   -0.00860418354842288
-0.9293517942749511   -0.1581743080483362   -0.00860418354842288
-0.9293517942749511   -0.1581743080483362   -0.00860418354842288
-0.9293517942749511   -0.1581743080483362   -0.00860418354842288
-0.8882763061056328   -0.07126313109298996   -0.03679347955156741
-0.8882763061056328   -0.07126313109298996   -0.03679347955156741
-0.8882763061056328   -0.07126313109298996   -0.03679347955156741
-0.8882763061056328   -0.07126313109298996   -0.03679347955156741
-0.43750218888252496   -0.0431060386344904   0.01797503942944815
-0.43750218888252496   -0.0431060386344904   0.01797503942944815
-0.43750218888252496   -0.0431060386344904   0.01797503942944815
-0.43750218888252496   -0.0431060386344904   0.01797503942944815
-0.6654447744230325   -0.06061840485274063   -0.004781189429234844
-0.6654447744230325   -0.06061840485274063   -0.004781189429234844
-0.6654447744230325   -0.06061840485274063   -0.004781189429234844
-0.6654447744230325   -0.06061840485274063   -0.004781189429234844
-0.4284329947768858   0.026756017789752284   -0.006541046466603251
-0.4284329947768858   0.026756017789752284   -0.006541046466603251
-0.4284329947768858   0.026756017789752284   -0.006541046466603251
-0.4284329947768858   0.026756017789752284   -0.006541046466603251
-0.8988870311001775   -0.14266671840613773   -0.018443517211135997
-0.8988870311001775   -0.14266671840613773   -0.018443517211135997
-0.8988870311001775   -0.14266671840613773   -0.018443517211135997
-0.8988870311001775   -0.14266671840613773   -0.018443517211135997
-0.862045277008573   -0.04994597568956444   -0.037974783169628205
-0.862045277008573   -0.04994597568956444   -0.037974783169628205
-0.862045277008573   -0.04994597568956444   -0.037974783169628205
-0.862045277008573   -0.04994597568956444   -0.037974783169628205
-0.4248915476213694   -0.033456296090141065   0.005575504441104889
-0.4248915476213694   -0.033456296090141065   0.005575504441104889
-0.4248915476213694   -0.033456296090141065   0.005575504441104889
-0.4248915476213694   -0.033456296090141065   0.005575504441104889
-0.6471666514435112   -0.048790978098222595   -0.0015348350824570638
-0.6471666514435112   -0.048790978098222595   -0.0015348350824570638
-0.6471666514435112   -0.048790978098222595   -0.0015348350824570638
-0.6471666514435112   -0.048790978098222595   -0.0015348350824570638
-0.9372267037981028   -0.031508763285530095   -0.0230990484482282
-0.9372267037981028   -0.031508763285530095   -0.0230990484482282
-0.9372267037981028   -0.031508763285530095   -0.0230990484482282
-0.9372267037981028   -0.031508763285530095   -0.0230990484482282
-1.413304100835977   -0.12017512601973848   0.05307257324948462
-1.413304100835977   -0.12017512601973848   0.05307257324948462
-1.413304100835977   -0.12017512601973848   0.05307257324948462
-1.413304100835977   -0.12017512601973848   0.05307257324948462
-1.3652196180010445   -0.09590506037500432   -0.030997048858577465
-1.3652196180010445   -0.09590506037500432   -0.030997048858577465
-1.3652196180010445   -0.09590506037500432   -0.030997048858577465
-1.3652196180010445   -0.09590506037500432   -0.030997048858577465
-0.8811400773328196   0.025402883823403333   0.04887720929047811
-0.8811400773328196   0.025402883823403333   0.04887720929047811
-0.8811400773328196   0.025402883823403333   0.04887720929047811
-0.8811400773328196   0.025402883823403333   0.04887720929047811
-1.0977682115989083   -0.037614858162051235   0.00545615022149025
-1.0977682115989083   -0.037614858162051235   0.00545615022149025
-1.0977682115989083   -0.037614858162051235   0.00545615022149025
-1.0977682115989083   -0.037614858162051235   0.00545615022149025
-0.9015365841492538   -0.0020912766888217804   -0.025611164279455652
-0.9015365841492538   -0.0020912766888217804   -0.025611164279455652
-0.9015365841492538   -0.0020912766888217804   -0.025611164279455652
-0.9015365841492538   -0.0020912766888217804   -0.025611164279455652
-1.3415350082414954   -0.06512279691966374   0.0566437364838182
-1.3415350082414954   -0.06512279691966374   0.0566437364838182
-1.3415350082414954   -0.06512279691966374   0.0566437364838182
-1.3415350082414954   -0.06512279691966374   0.0566437364838182
-1.3136122493639426   -0.08076249236108266   -0.03691426761416227
-1.3136122493639426   -0.08076249236108266   -0.03691426761416227
-1.3136122493639426   -0.08076249236108266   -0.03691426761416227
-1.3136122493639426   -0.08076249236108266   -0.03691426761416227
-0.8491386487376233   0.04046530752231653   0.0471663686731732
-0.8491386487376233   0.04046530752231653   0.0471663686731732
-0.8491386487376233   0.04046530752231653   0.0471663686731732
-0.8491386487376233   0.04046530752231653   0.0471663686731732
-1.067483190784489   -0.015170569257955985   0.021920597462799722
-1.067483190784489   -0.015170569257955985   0.021920597462799722
-1.067483190784489   -0.015170569257955985   0.021920597462799722
-1.067483190784489   -0.015170569257955985   0.021920597462799722
-0.8702482381950977   0.00975825764761995   -0.02767452873949438
-0.8702482381950977   0.00975825764761995   -0.02767452873949438
-0.8702482381950977   0.00975825764761995   -0.02767452873949438
-0.8702482381950977   0.00975825764761995   -0.02767452873949438
-1.2918254761499806   -0.0493782587298951   0.040635364824472
-1.2918254761499806   -0.0493782587298951   0.040635364824472
-1.2918254761499806   -0.0493782587298951   0.040635364824472
-1.2918254761499806   -0.0493782587298951   0.040635364824472
-1.2602207929098022   -0.06651908848351964   -0.04462390244211736
-1.2602207929098022   -0.06651908848351964   -0.04462390244211736
-1.2602207929098022   -0.06651908848351964   -0.04462390244211736
-1.2602207929098022   -0.06651908848351964   -0.04462390244211736
-0.8254927302569874   0.05839440688334374   0.036447568015398335
-0.8254927302569874   0.05839440688334374   0.036447568015398335
-0.8254927302569874   0.05839440688334374   0.036447568015398335
-0.8254927302569874   0.05839440688334374   0.036447568015398335
-1.009974624797758   0.003993621545953729   0.03847407958261198
-1.009974624797758   0.003993621545953729   0.03847407958261198
-1.009974624797758   0.003993621545953729   0.03847407958261198
-1.009974624797758   0.003993621545953729   0.03847407958261198
1.240925522551919   0.0745558629527146   0.04478795005017115
1.240925522551919   0.0745558629527146   0.04478795005017115
1.240925522551919   0.0745558629527146   0.04478795005017115
1.240925522551919   0.0745558629527146   0.04478795005017115
0.5911751330003217   -0.11048552308270684   0.009819868642114454
0.5911751330003217   -0.11048552308270684   0.009819868642114454
0.5911751330003217   -0.11048552308270684   0.009819868642114454
0.5911751330003217   -0.11048552308270684   0.009819868642114454
0.6236199789585282   -0.04675437625811832   0.03439260291331504
0.6236199789585282   -0.04675437625811832   0.03439260291331504
0.6236199789585282   -0.04675437625811832   0.03439260291331504
0.6236199789585282   -0.04675437625811832   0.03439260291331504
1.2473575864089181   0.010987431187381269   -0.01013593916639545
1.2473575864089181   0.010987431187381269   -0.01013593916639545
1.2473575864089181   0.010987431187381269   -0.01013593916639545
1.2473575864089181   0.010987431187381269   -0.01013593916639545
0.8722258965970503   -0.02362021447276627   -0.0578264085446803
0.8722258965970503   -0.02362021447276627   -0.0578264085446803
0.8722258965970503   -0.02362021447276627   -0.0578264085446803
0.8722258965970503   -0.02362021447276627   -0.0578264085446803
1.2708479294096244   0.08289444554528452   0.03540876147923282
1.2708479294096244   0.08289444554528452   0.03540876147923282
1.2708479294096244   0.08289444554528452   0.03540876147923282
1.2708479294096244   0.08289444554528452   0.03540876147923282
0.6057526720344577   -0.11303835453938563   0.011340046574230336
0.6057526720344577   -0.11303835453938563   0.011340046574230336
0.6057526720344577   -0.11303835453938563   0.011340046574230336
0.6057526720344577   -0.11303835453938563   0.011340046574230336
0.6358665491406098   -0.03974871201111346   0.02615670650771855
0.6358665491406098   -0.03974871201111346   0.02615670650771855
0.6358665491406098   -0.03974871201111346   0.02615670650771855
0.6358665491406098   -0.03974871201111346   0.02615670650771855
1.2690738033527125   0.01887835167751073   -0.0032566616224925238
1.2690738033527125   0.01887835167751073   -0.0032566616224925238
1.2690738033527125   0.01887835167751073   -0.0032566616224925238
1.2690738033527125   0.01887835167751073   -0.0032566616224925238
0.9080637356966546   -0.018650335302678817   -0.039543399952797355
0.9080637356966546   -0.018650335302678817   -0.039543399952797355
0.9080637356966546   -0.018650335302678817   -0.039543399952797355
0.9080637356966546   -0.018650335302678817   -0.039543399952797355
1.288961664992973   0.09054264125756634   0.024518356998754334
1.288961664992973   0.09054264125756634   0.024518356998754334
1.288961664992973   0.09054264125756634   0.024518356998754334
1.288961664992973   0.09054264125756634   0.024518356998754334
0.6198898263422494   -0.10750186274926893   0.014026243254072451
0.6198898263422494   -0.10750186274926893   0.014026243254072451
0.6198898263422494   -0.10750186274926893   0.014026243254072451
0.6198898263422494   -0.10750186274926893   0.014026243254072451
0.6539102520657964   -0.012433798707508353   0.02391246604301127
0.6539102520657964   -0.012433798707508353   0.02391246604301127
0.6539102520657964   -0.012433798707508353   0.02391246604301127
0.6539102520657964   -0.012433798707508353   0.02391246604301127
1.2916909144021649   0.03703177405430366   -0.0007050762587288914
1.2916909144021649   0.03703177405430366   -0.0007050762587288914
1.2916909144021649   0.03703177405430366   -0.0007050762587288914
1.2916909144021649   0.03703177405430366   -0.0007050762587288914
0.9123867884150513   -0.008517762098209397   -0.029612224852803827
0.9123867884150513   -0.008517762098209397   -0.029612224852803827
0.9123867884150513   -0.008517762098209397   -0.029612224852803827
0.9123867884150513   -0.008517762098209397   -0.029612224852803827
0.623995461748663   0.016347845481790718   0.04708814381932383
0.623995461748663   0.016347845481790718   0.04708814381932383
0.623995461748663   0.016347845481790718   0.04708814381932383
0.623995461748663   0.016347845481790718   0.04708814381932383
0.03187929122183447   -0.2195027219001134   0.02234354472520489
0.03187929122183447   -0.2195027219001134   0.02234354472520489
0.03187929122183447   -0.2195027219001134   0.02234354472520489
0.03187929122183447   -0.2195027219001134   0.02234354472520489
0.07408249105020663   -0.0931592543812145   0.020934608448640323
0.07408249105020663   -0.0931592543812145   0.020934608448640323
0.07408249105020663   -0.0931592543812145   0.020934608448640323
0.07408249105020663   -0.0931592543812145   0.020934608448640323
0.6080407307130801   -0.10462342281104853   0.01436540823899743
0.6080407307130801   -0.10462342281104853   0.01436540823899743
0.6080407307130801   -0.10462342281104853   0.01436540823899743
0.6080407307130801   -0.10462342281104853   0.01436540823899743
0.32365613201700194   -0.09810128321157856   -0.03683171218471938
0.32365613201700194   -0.09810128321157856   -0.03683171218471938
0.32365613201700194   -0.09810128321157856   -0.03683171218471938
0.32365613201700194   -0.09810128321157856   -0.03683171218471938
0.6386499442529974   0.023437437662603464   0.03935061546493947
0.6386499442529974   0.023437437662603464   0.03935061546493947
0.6386499442529974   0.023437437662603464   0.03935061546493947
0.6386499442529974   0.023437437662603464   0.03935061546493947
0.05155637620055098   -0.2131370161646036   0.028281795983751107
0.05155637620055098   -0.2131370161646036   0.028281795983751107
0.05155637620055098   -0.2131370161646036   0.028281795983751107
0.05155637620055098   -0.2131370161646036   0.028281795983751107
0.09102255828424288   -0.08035377349363723   0.015135852540469782
0.09102255828424288   -0.08035377349363723   0.015135852540469782
0.09102255828424288   -0.08035377349363723   0.015135852540469782
0.09102255828424288   -0.08035377349363723   0.015135852540469782
0.6225527090417825   -0.0978907757342534   0.017729569736722114
0.6225527090417825   -0.0978907757342534   0.017729569736722114
0.6225527090417825   -0.0978907757342534   0.017729569736722114
0.6225527090417825   -0.0978907757342534   0.017729569736722114
0.3380457999684015   -0.09317901406689684   -0.01841974712302935
0.3380457999684015   -0.09317901406689684   -0.01841974712302935
0.3380457999684015   -0.09317901406689684   -0.01841974712302935
0.3380457999684015   -0.09317901406689684   -0.01841974712302935
0.6523254224105358   0.035516750827312135   0.033185610018923645
0.6523254224105358   0.035516750827312135   0.033185610018923645
0.6523254224105358   0.035516750827312135   0.033185610018923645
0.6523254224105358   0.035516750827312135   0.033185610018923645
0.0690238502382371   -0.20598729473245483   0.030775833549260292
0.0690238502382371   -0.20598729473245483   0.030775833549260292
0.0690238502382371   -0.20598729473245483   0.030775833549260292
0.0690238502382371   -0.20598729473245483   0.030775833549260292
0.11704206813122611   -0.06112658294545401   0.009989295699502996
0.11704206813122611   -0.06112658294545401   0.009989295699502996
0.11704206813122611   -0.06112658294545401   0.009989295699502996
0.11704206813122611   -0.06112658294545401   0.009989295699502996
0.6384206361594855   -0.08766849163618412   0.021699079440136243
0.6384206361594855   -0.08766849163618412   0.021699079440136243
0.6384206361594855   -0.08766849163618412   0.021699079440136243
0.6384206361594855   -0.08766849163618412   0.021699079440136243
0.36338356321200765   -0.08128941072156512   0.003018935775704494
0.36338356321200765   -0.08128941072156512   0.003018935775704494
0.36338356321200765   -0.08128941072156512   0.003018935775704494
0.36338356321200765   -0.08128941072156512   0.003018935775704494
0.06911285356262048   -0.041303247748620396   0.030311882277641915
0.06911285356262048   -0.041303247748620396   0.030311882277641915
0.06911285356262048   -0.041303247748620396   0.030311882277641915
0.06911285356262048   -0.041303247748620396   0.030311882277641915
-0.5318702185720012   -0.37660709057018327   0.032514022832507
-0.5318702185720012   -0.37660709057018327   0.032514022832507
-0.5318702185720012   -0.37660709057018327   0.032514022832507
-0.5318702185720012   -0.37660709057018327   0.032514022832507
-0.465226500660194   -0.14708016821792302   0.00205083118546167
-0.465226500660194   -0.14708016821792302   0.00205083118546167
-0.465226500660194   -0.14708016821792302   0.00205083118546167
-0.465226500660194   -0.14708016821792302   0.00205083118546167
0.03644837268836548   -0.27296095261692804   0.012565714875148154
0.03644837268836548   -0.27296095261692804   0.012565714875148154
0.03644837268836548   -0.27296095261692804   0.012565714875148154
0.03644837268836548   -0.27296095261692804   0.012565714875148154
-0.22977443547718918   -0.21097954675622724   -0.04418745822429073
-0.22977443547718918   -0.21097954675622724   -0.04418745822429073
-0.22977443547718918   -0.21097954675622724   -0.04418745822429073
-0.22977443547718918   -0.21097954675622724   -0.04418745822429073
0.08685187283507165   -0.03229183929801002   0.02391410228976098
0.08685187283507165   -0.03229183929801002   0.02391410228976098
0.08685187283507165   -0.03229183929801002   0.02391410228976098
0.08685187283507165   -0.03229183929801002   0.02391410228976098
-0.5039083684279899   -0.3760276491579302   0.03758897328649281
-0.5039083684279899   -0.3760276491579302   0.03758897328649281
-0.5039083684279899   -0.3760276491579302   0.03758897328649281
-0.5039083684279899   -0.3760276491579302   0.03758897328649281
-0.4395155190408049   -0.13195711710731453   -0.0001978422967734393
-0.4395155190408049   -0.13195711710731453   -0.0001978422967734393
-0.4395155190408049   -0.13195711710731453   -0.0001978422967734393
-0.4395155190408049   -0.13195711710731453   -0.0001978422967734393
0.05431465284858773   -0.26684858556476715   0.018091137433325757
0.05431465284858773   -0.26684858556476715   0.018091137433325757
0.05431465284858773   -0.26684858556476715   0.018091137433325757
0.05431465284858773   -0.26684858556476715   0.018091137433325757
-0.2037129715327602   -0.20367210244269643   -0.016414738290659085
-0.2037129715327602   -0.20367210244269643   -0.016414738290659085
-0.2037129715327602   -0.20367210244269643   -0.016414738290659085
-0.2037129715327602   -0.20367210244269643   -0.016414738290659085
0.10307120103390552   -0.020329288394985094   0.015354581190132655
0.10307120103390552   -0.020329288394985094   0.015354581190132655
0.10307120103390552   -0.020329288394985094   0.015354581190132655
0.10307120103390552   -0.020329288394985094   0.015354581190132655
-0.47771376620088113   -0.3679181132518436   0.04477191804738152
-0.47771376620088113   -0.3679181132518436   0.04477191804738152
-0.47771376620088113   -0.3679181132518436   0.04477191804738152
-0.47771376620088113   -0.3679181132518436   0.04477191804738152
-0.3970820815190238   -0.1145463017138944   -0.005080603463176665
-0.3970820815190238   -0.1145463017138944   -0.005080603463176665
-0.3970820815190238   -0.1145463017138944   -0.005080603463176665
-0.3970820815190238   -0.1145463017138944   -0.005080603463176665
0.08219779073260763   -0.24997229569472434   0.024613621455680884
0.08219779073260763   -0.24997229569472434   0.024613621455680884
0.08219779073260763   -0.24997229569472434   0.024613621455680884
0.08219779073260763   -0.24997229569472434   0.024613621455680884
-0.169915067541072   -0.1874693239003184   0.012590340061584666
-0.169915067541072   -0.1874693239003184   0.012590340061584666
-0.169915067541072   -0.1874693239003184   0.012590340061584666
-0.169915067541072   -0.1874693239003184   0.012590340061584666
-0.47518129742269544   -0.0751036395564157   0.01445517756526284
-0.47518129742269544   -0.0751036395564157   0.01445517756526284
-0.47518129742269544   -0.0751036395564157   0.01445517756526284
-0.47518129742269544   -0.0751036395564157   0.01445517756526284
-1.1813136662688217   -0.5856174175858285   -0.02711849561553499
-1.1813136662688217   -0.5856174175858285   -0.02711849561553499
-1.1813136662688217   -0.5856174175858285   -0.02711849561553499
-1.1813136662688217   -0.5856174175858285   -0.02711849561553499
-1.0714163775791568   -0.19137303490019458   -0.03253323450350892
-1.0714163775791568   -0.19137303490019458   -0.03253323450350892
-1.0714163775791568   -0.19137303490019458   -0.03253323450350892
-1.0714163775791568   -0.19137303490019458   -0.03253323450350892
-0.5319895471872141   -0.48888012074255205   0.010035551074989893
-0.5319895471872141   -0.48888012074255205   0.010035551074989893
-0.5319895471872141   -0.48888012074255205   0.010035551074989893
-0.5319895471872141   -0.48888012074255205   0.010035551074989893
-0.8140724598570089   -0.3464280725298603   -0.04646493431318265
-0.8140724598570089   -0.3464280725298603   -0.04646493431318265
-0.8140724598570089   -0.3464280725298603   -0.04646493431318265
-0.8140724598570089   -0.3464280725298603   -0.04646493431318265
-0.4448247112682271   -0.05679344395986017   0.013773053887233376
-0.4448247112682271   -0.05679344395986017   0.013773053887233376
-0.4448247112682271   -0.05679344395986017   0.013773053887233376
-0.4448247112682271   -0.05679344395986017   0.013773053887233376
-1.1558060980813902   -0.6206845962661264   -0.025170275648736473
-1.1558060980813902   -0.6206845962661264   -0.025170275648736473
-1.1558060980813902   -0.6206845962661264   -0.025170275648736473
-1.1558060980813902   -0.6206845962661264   -0.025170275648736473
-1.0371322541336427   -0.17326264828406507   -0.03317794356730739
-1.0371322541336427   -0.17326264828406507   -0.03317794356730739
-1.0371322541336427   -0.17326264828406507   -0.03317794356730739
-1.0371322541336427   -0.17326264828406507   -0.03317794356730739
-0.5070233273357748   -0.4848879268462125   0.015193925967279018
-0.5070233273357748   -0.4848879268462125   0.015193925967279018
-0.5070233273357748   -0.4848879268462125   0.015193925967279018
-0.5070233273357748   -0.4848879268462125   0.015193925967279018
-0.7780067896981954   -0.3368808188188392   -0.03234714178905951
-0.7780067896981954   -0.3368808188188392   -0.03234714178905951
-0.7780067896981954   -0.3368808188188392   -0.03234714178905951
-0.7780067896981954   -0.3368808188188392   -0.03234714178905951
-0.42063712338900505   -0.04240052470891131   0.004637543563823709
-0.42063712338900505   -0.04240052470891131   0.004637543563823709
-0.42063712338900505   -0.04240052470891131   0.004637543563823709
-0.42063712338900505   -0.04240052470891131   0.004637543563823709
-1.1233772936130746   -0.6156088859540271   -0.022056903294494196
-1.1233772936130746   -0.6156088859540271   -0.022056903294494196
-1.1233772936130746   -0.6156088859540271   -0.022056903294494196
-1.1233772936130746   -0.6156088859540271   -0.022056903294494196
-0.9835975252509829   -0.15383650726697154   -0.037619573813464605
-0.9835975252509829   -0.15383650726697154   -0.037619573813464605
-0.9835975252509829   -0.15383650726697154   -0.037619573813464605
-0.9835975252509829   -0.15383650726697154   -0.037619573813464605
-0.4530005888127057   -0.43543134818405294   0.036211906538574326
-0.4530005888127057   -0.43543134818405294   0.036211906538574326
-0.4530005888127057   -0.43543134818405294   0.036211906538574326
-0.4530005888127057   -0.43543134818405294   0.036211906538574326
-0.7378505943330026   -0.30502810616716197   -0.017691264144474084
-0.7378505943330026   -0.30502810616716197   -0.017691264144474084
-0.7378505943330026   -0.30502810616716197   -0.017691264144474084
-0.7378505943330026   -0.30502810616716197   -0.017691264144474084
-1.0731028075067446   -0.06423808823499219   -0.007443531155985568
-1.0731028075067446   -0.06423808823499219   -0.007443531155985568
-1.0731028075067446   -0.06423808823499219   -0.007443531155985568
-1.0731028075067446   -0.06423808823499219   -0.007443531155985568
-1.8913962908832591   -0.37441265769905097   0.019333002388004283
-1.8913962908832591   -0.37441265769905097   0.019333002388004283
-1.8913962908832591   -0.37441265769905097   0.019333002388004283
-1.8913962908832591   -0.37441265769905097   0.019333002388004283
-1.8172694970894594   -0.17951618556819454   -0.039588717910902266
-1.8172694970894594   -0.17951618556819454   -0.039588717910902266
-1.8172694970894594   -0.17951618556819454   -0.039588717910902266
-1.8172694970894594   -0.17951618556819454   -0.039588717910902266
-1.050075770455075   -0.19454650070639484   0.07734326692310073
-1.050075770455075   -0.19454650070639484   0.07734326692310073
-1.050075770455075   -0.19454650070639484   0.07734326692310073
-1.050075770455075   -0.19454650070639484   0.07734326692310073
-1.3989548967485081   -0.21697475357984908   0.01972090435294137
-1.3989548967485081   -0.21697475357984908   0.01972090435294137
-1.3989548967485081   -0.21697475357984908   0.01972090435294137
-1.3989548967485081   -0.21697475357984908   0.01972090435294137
-1.02938444456821   -0.013975626959631005   0.00022902261066634622
-1.02938444456821   -0.013975626959631005   0.00022902261066634622
-1.02938444456821   -0.013975626959631005   0.00022902261066634622
-1.02938444456821   -0.013975626959631005   0.00022902261066634622
-1.8449503089996466   -0.3670765453382826   0.00956758230823368
-1.8449503089996466   -0.3670765453382826   0.00956758230823368
-1.8449503089996466   -0.3670765453382826   0.00956758230823368
-1.8449503089996466   -0.3670765453382826   0.00956758230823368
-1.7766496582969722   -0.16452197390922574   -0.05025902892518924
-1.7766496582969722   -0.16452197390922574   -0.05025902892518924
-1.7766496582969722   -0.16452197390922574   -0.05025902892518924
-1.7766496582969722   -0.16452197390922574   -0.05025902892518924
-1.0147912999535316   -0.1849211868173897   0.09018536586658299
-1.0147912999535316   -0.1849211868173897   0.09018536586658299
-1.0147912999535316   -0.1849211868173897   0.09018536586658299
-1.0147912999535316   -0.1849211868173897   0.09018536586658299
-1.3776925464982126   -0.17876916449760472   0.019033417377464782
-1.3776925464982126   -0.17876916449760472   0.019033417377464782
-1.3776925464982126   -0.17876916449760472   0.019033417377464782
-1.3776925464982126   -0.17876916449760472   0.019033417377464782
-0.997958207452263   -0.0007049580367824437   -0.009865400407682023
-0.997958207452263   -0.0007049580367824437   -0.009865400407682023
-0.997958207452263   -0.0007049580367824437   -0.009865400407682023
-0.997958207452263   -0.0007049580367824437   -0.009865400407682023
-1.795986515435026   -0.3512419673266209   0.039776678801921705
-1.795986515435026   -0.3512419673266209   0.039776678801921705
-1.795986515435026   -0.3512419673266209   0.039776678801921705
-1.795986515435026   -0.3512419673266209   0.039776678801921705
-1.6922777465181418   -0.13350833070062829   -0.056281103643307295
-1.6922777465181418   -0.13350833070062829   -0.056281103643307295
-1.6922777465181418   -0.13350833070062829   -0.056281103643307295
-1.6922777465181418   -0.13350833070062829   -0.056281103643307295
-0.9598569176446288   -0.1721016601155475   0.09934861706689124
-0.9598569176446288   -0.1721016601155475   0.09934861706689124
-0.9598569176446288   -0.1721016601155475   0.09934861706689124
-0.9598569176446288   -0.1721016601155475   0.09934861706689124
-1.2957605300467872   -0.1367198085999124   0.039322915501068964
-1.2957605300467872   -0.1367198085999124   0.039322915501068964
-1.2957605300467872   -0.1367198085999124   0.039322915501068964
-1.2957605300467872   -0.1367198085999124   0.039322915501068964
1.3592406539115067   0.04497108853170473   0.019037405802986962
1.3592406539115067   0.04497108853170473   0.019037405802986962
1.3592406539115067   0.04497108853170473   0.019037405802986962
1.3592406539115067   0.04497108853170473   0.019037405802986962
0.6933796047608367   -0.03678860673546508   0.013834790878703929
0.6933796047608367   -0.03678860673546508   0.013834790878703929
0.6933796047608367   -0.03678860673546508   0.013834790878703929
0.6933796047608367   -0.03678860673546508   0.013834790878703929
0.6664905061670416   -0.09766957025970308   0.027446133840059214
0.6664905061670416   -0.09766957025970308   0.027446133840059214
0.6664905061670416   -0.09766957025970308   0.027446133840059214
0.6664905061670416   -0.09766957025970308   0.027446133840059214
1.3493997719246562   0.07599879170929769   0.009948867814836712
1.3493997719246562   0.07599879170929769   0.009948867814836712
1.3493997719246562   0.07599879170929769   0.009948867814836712
1.3493997719246562   0.07599879170929769   0.009948867814836712
0.9629228879199977   -0.01356267448031731   -0.03559548342833654
0.9629228879199977   -0.01356267448031731   -0.03559548342833654
0.9629228879199977   -0.01356267448031731   -0.03559548342833654
0.9629228879199977   -0.01356267448031731   -0.03559548342833654
1.3420936025526826   0.03487098731855537   0.014545825345710403
1.3420936025526826   0.03487098731855537   0.014545825345710403
1.3420936025526826   0.03487098731855537   0.014545825345710403
1.3420936025526826   0.03487098731855537   0.014545825345710403
0.6716078516021634   -0.058730589805812694   0.014093880561777655
0.6716078516021634   -0.058730589805812694   0.014093880561777655
0.6716078516021634   -0.058730589805812694   0.014093880561777655
0.6716078516021634   -0.058730589805812694   0.014093880561777655
0.6493103112449294   -0.09988663057781985   0.022681919208637824
0.6493103112449294   -0.09988663057781985   0.022681919208637824
0.6493103112449294   -0.09988663057781985   0.022681919208637824
0.6493103112449294   -0.09988663057781985   0.022681919208637824
1.3337263064236555   0.07275333273818527   0.01733067965390212
1.3337263064236555   0.07275333273818527   0.01733067965390212
1.3337263064236555   0.07275333273818527   0.01733067965390212
1.3337263064236555   0.07275333273818527   0.01733067965390212
0.9602005384643334   -0.01870138027569679   -0.04110757756487883
0.9602005384643334   -0.01870138027569679   -0.04110757756487883
0.9602005384643334   -0.01870138027569679   -0.04110757756487883
0.9602005384643334   -0.01870138027569679   -0.04110757756487883
1.3228064792117804   0.03114432870030792   0.004340547632395109
1.3228064792117804   0.03114432870030792   0.004340547632395109
1.3228064792117804   0.03114432870030792   0.004340547632395109
1.3228064792117804   0.03114432870030792   0.004340547632395109
0.6562847333911898   -0.0622230316055537   0.019890430967673213
0.6562847333911898   -0.0622230316055537   0.019890430967673213
0.6562847333911898   -0.0622230316055537   0.019890430967673213
0.6562847333911898   -0.0622230316055537   0.019890430967673213
0.6312043751571732   -0.09100688898913203   0.019588147769084206
0.6312043751571732   -0.09100688898913203   0.019588147769084206
0.6312043751571732   -0.09100688898913203   0.019588147769084206
0.6312043751571732   -0.09100688898913203   0.019588147769084206
1.3095957250618577   0.07370642405114125   0.02501396798047628
1.3095957250618577   0.07370642405114125   0.02501396798047628
1.3095957250618577   0.07370642405114125   0.02501396798047628
1.3095957250618577   0.07370642405114125   0.02501396798047628
0.924264682980611   -0.018793390044855945   -0.05541487973356817
0.924264682980611   -0.018793390044855945   -0.05541487973356817
0.924264682980611   -0.018793390044855945   -0.05541487973356817
0.924264682980611   -0.018793390044855945   -0.05541487973356817
0.6875600359160627   -0.08603801160202909   0.03398635152139823
0.6875600359160627   -0.08603801160202909   0.03398635152139823
0.6875600359160627   -0.08603801160202909   0.03398635152139823
0.6875600359160627   -0.08603801160202909   0.03398635152139823
0.13199746416864777   -0.0818474959538481   0.007087076238707933
0.13199746416864777   -0.0818474959538481   0.007087076238707933
0.13199746416864777   -0.0818474959538481   0.007087076238707933
0.13199746416864777   -0.0818474959538481   0.007087076238707933
0.08561074999145205   -0.2047754421159827   0.03603529243595455
0.08561074999145205   -0.2047754421159827   0.03603529243595455
0.08561074999145205   -0.2047754421159827   0.03603529243595455
0.08561074999145205   -0.2047754421159827   0.03603529243595455
0.6912168210527189   0.02720681877047368   0.0262013192382681
0.6912168210527189   0.02720681877047368   0.0262013192382681
0.6912168210527189   0.02720681877047368   0.0262013192382681
0.6912168210527189   0.02720681877047368   0.0262013192382681
0.3929548538906696   -0.08671313560012725   -0.00154046936618666
0.3929548538906696   -0.08671313560012725   -0.00154046936618666
0.3929548538906696   -0.08671313560012725   -0.00154046936618666
0.3929548538906696   -0.08671313560012725   -0.00154046936618666
0.6682870295215642   -0.0897461738554639   0.028505354208436348
0.6682870295215642   -0.0897461738554639   0.028505354208436348
0.6682870295215642   -0.0897461738554639   0.028505354208436348
0.6682870295215642   -0.0897461738554639   0.028505354208436348
0.10274578467006175   -0.09361720634259452   0.010552230055614821
0.10274578467006175   -0.09361720634259452   0.010552230055614821
0.10274578467006175   -0.09361720634259452   0.010552230055614821
0.10274578467006175   -0.09361720634259452   0.010552230055614821
0.06480796743346792   -0.20653514011521842   0.03225248944021153
0.06480796743346792   -0.20653514011521842   0.03225248944021153
0.06480796743346792   -0.20653514011521842   0.03225248944021153
0.06480796743346792   -0.20653514011521842   0.03225248944021153
0.6753762812619656   0.022109545217582044   0.031015593498417038
0.6753762812619656   0.022109545217582044   0.031015593498417038
0.6753762812619656   0.022109545217582044   0.031015593498417038
0.6753762812619656   0.022109545217582044   0.031015593498417038
0.36467743566097927   -0.09239582987827627   -0.018763054202330813
0.36467743566097927   -0.09239582987827627   -0.018763054202330813
0.36467743566097927   -0.09239582987827627   -0.018763054202330813
0.36467743566097927   -0.09239582987827627   -0.018763054202330813
0.6512795647557175   -0.09096917275155528   0.023610728936308417
0.6512795647557175   -0.09096917275155528   0.023610728936308417
0.6512795647557175   -0.09096917275155528   0.023610728936308417
0.6512795647557175   -0.09096917275155528   0.023610728936308417
0.08260408795157477   -0.09975701813422838   0.014454970049755732
0.08260408795157477   -0.09975701813422838   0.014454970049755732
0.08260408795157477   -0.09975701813422838   0.014454970049755732
0.08260408795157477   -0.09975701813422838   0.014454970049755732
0.041537064495611745   -0.20634357790368835   0.025207219766488917
0.041537064495611745   -0.20634357790368835   0.025207219766488917
0.041537064495611745   -0.20634357790368835   0.025207219766488917
0.041537064495611745   -0.20634357790368835   0.025207219766488917
0.6573985641197901   0.02249533346544577   0.037056870127593206
0.6573985641197901   0.02249533346544577   0.037056870127593206
0.6573985641197901   0.02249533346544577   0.037056870127593206
0.6573985641197901   0.02249533346544577   0.037056870127593206
0.34745470213841173   -0.09161049502051204   -0.03339160671394523
0.34745470213841173   -0.09161049502051204   -0.03339160671394523
0.34745470213841173   -0.09161049502051204   -0.03339160671394523
0.34745470213841173   -0.09161049502051204   -0.03339160671394523
0.10303626996813374   -0.2500348963101668   0.03046850559245444
0.10303626996813374   -0.2500348963101668   0.03046850559245444
0.10303626996813374   -0.2500348963101668   0.03046850559245444
0.10303626996813374   -0.2500348963101668   0.03046850559245444
-0.4077965076186724   -0.1267811281930754   0.0002924059777008898
-0.4077965076186724   -0.1267811281930754   0.0002924059777008898
-0.4077965076186724   -0.1267811281930754   0.0002924059777008898
-0.4077965076186724   -0.1267811281930754   0.0002924059777008898
-0.4917152423727388   -0.3728474285071868   0.041296950484958794
-0.4917152423727388   -0.3728474285071868   0.041296950484958794
-0.4917152423727388   -0.3728474285071868   0.041296950484958794
-0.4917152423727388   -0.3728474285071868   0.041296950484958794
0.11852921088466228   -0.020758974988880928   0.016611129774903876
0.11852921088466228   -0.020758974988880928   0.016611129774903876
0.11852921088466228   -0.020758974988880928   0.016611129774903876
0.11852921088466228   -0.020758974988880928   0.016611129774903876
-0.1672492447783427   -0.18988773731388378   0.0071752204997812125
-0.1672492447783427   -0.18988773731388378   0.0071752204997812125
-0.1672492447783427   -0.18988773731388378   0.0071752204997812125
-0.1672492447783427   -0.18988773731388378   0.0071752204997812125
0.07090813154354489   -0.26419399350402883   0.021940751584464846
0.07090813154354489   -0.26419399350402883   0.021940751584464846
0.07090813154354489   -0.26419399350402883   0.021940751584464846
0.07090813154354489   -0.26419399350402883   0.021940751584464846
-0.4522178002470894   -0.13753604720750756   0.0034727798135224495
-0.4522178002470894   -0.13753604720750756   0.0034727798135224495
-0.4522178002470894   -0.13753604720750756   0.0034727798135224495
-0.4522178002470894   -0.13753604720750756   0.0034727798135224495
-0.5206664429131937   -0.37872339016622375   0.03369821018779334
-0.5206664429131937   -0.37872339016622375   0.03369821018779334
-0.5206664429131937   -0.37872339016622375   0.03369821018779334
-0.5206664429131937   -0.37872339016622375   0.03369821018779334
0.09903170516351371   -0.02641401453966834   0.023250052514890453
0.09903170516351371   -0.02641401453966834   0.023250052514890453
0.09903170516351371   -0.02641401453966834   0.023250052514890453
0.09903170516351371   -0.02641401453966834   0.023250052514890453
-0.2034395472000215   -0.20136794919331824   -0.01698142934828508
-0.2034395472000215   -0.20136794919331824   -0.01698142934828508
-0.2034395472000215   -0.20136794919331824   -0.01698142934828508
-0.2034395472000215   -0.20136794919331824   -0.01698142934828508
0.048749102528010374   -0.26874609846333375   0.014169123261039168
0.048749102528010374   -0.26874609846333375   0.014169123261039168
0.048749102528010374   -0.26874609846333375   0.014169123261039168
0.048749102528010374   -0.26874609846333375   0.014169123261039168
-0.4800680825276277   -0.14607554849249632   0.004042170441891976
-0.4800680825276277   -0.14607554849249632   0.004042170441891976
-0.4800680825276277   -0.14607554849249632   0.004042170441891976
-0.4800680825276277   -0.14607554849249632   0.004042170441891976
-0.5520710511947449   -0.3760958037828495   0.028264922942407594
-0.5520710511947449   -0.3760958037828495   0.028264922942407594
-0.5520710511947449   -0.3760958037828495   0.028264922942407594
-0.5520710511947449   -0.3760958037828495   0.028264922942407594
0.07734492682794308   -0.029542989939515166   0.027445943463972423
0.07734492682794308   -0.029542989939515166   0.027445943463972423
0.07734492682794308   -0.029542989939515166   0.027445943463972423
0.07734492682794308   -0.029542989939515166   0.027445943463972423
-0.232824260177685   -0.20570424097518386   -0.04115726635007933
-0.232824260177685   -0.20570424097518386   -0.04115726635007933
-0.232824260177685   -0.20570424097518386   -0.04115726635007933
-0.232824260177685   -0.20570424097518386   -0.04115726635007933
-0.4610323759028904   -0.42889256093068984   0.036224497294227484
-0.4610323759028904   -0.42889256093068984   0.036224497294227484
-0.4610323759028904   -0.42889256093068984   0.036224497294227484
-0.4610323759028904   -0.42889256093068984   0.036224497294227484
-1.0207216333301403   -0.1577739290909375   -0.023527276484928313
-1.0207216333301403   -0.1577739290909375   -0.023527276484928313
-1.0207216333301403   -0.1577739290909375   -0.023527276484928313
-1.0207216333301403   -0.1577739290909375   -0.023527276484928313
-1.1674384789059857   -0.6243968877358944   -0.03209935217298099
-1.1674384789059857   -0.6243968877358944   -0.03209935217298099
-1.1674384789059857   -0.6243968877358944   -0.03209935217298099
-1.1674384789059857   -0.6243968877358944   -0.03209935217298099
-0.4294916188989213   -0.03478497501117565   0.014352614358031077
-0.4294916188989213   -0.03478497501117565   0.014352614358031077
-0.4294916188989213   -0.03478497501117565   0.014352614358031077
-0.4294916188989213   -0.03478497501117565   0.014352614358031077
-0.7622576286041888   -0.29923735862062095   -0.025454298914420484
-0.7622576286041888   -0.29923735862062095   -0.025454298914420484
-0.7622576286041888   -0.29923735862062095   -0.025454298914420484
-0.7622576286041888   -0.29923735862062095   -0.025454298914420484
-0.5201482588304437   -0.48605173779028354   0.01233617747953103
-0.5201482588304437   -0.48605173779028354   0.01233617747953103
-0.5201482588304437   -0.48605173779028354   0.01233617747953103
-0.5201482588304437   -0.48605173779028354   0.01233617747953103
-1.0745210410049943   -0.1708693269873183   -0.021039723416609007
-1.0745210410049943   -0.1708693269873183   -0.021039723416609007
-1.0745210410049943   -0.1708693269873183   -0.021039723416609007
-1.0745210410049943   -0.1708693269873183   -0.021039723416609007
-1.2019028055192083   -0.6343261950551771   -0.037117936894110165
-1.2019028055192083   -0.6343261950551771   -0.037117936894110165
-1.2019028055192083   -0.6343261950551771   -0.037117936894110165
-1.2019028055192083   -0.6343261950551771   -0.037117936894110165
-0.45620880652260315   -0.04409898835450218   0.021361990329020766
-0.45620880652260315   -0.04409898835450218   0.021361990329020766
-0.45620880652260315   -0.04409898835450218   0.021361990329020766
-0.45620880652260315   -0.04409898835450218   0.021361990329020766
-0.8044067887055488   -0.33167670431753876   -0.036302563729034155
-0.8044067887055488   -0.33167670431753876   -0.036302563729034155
-0.8044067887055488   -0.33167670431753876   -0.036302563729034155
-0.8044067887055488   -0.33167670431753876   -0.036302563729034155
-0.5497970500846151   -0.4955142497971208   0.00483603396157814
-0.5497970500846151   -0.4955142497971208   0.00483603396157814
-0.5497970500846151   -0.4955142497971208   0.00483603396157814
-0.5497970500846151   -0.4955142497971208   0.00483603396157814
-1.108562074256533   -0.18315844591189706   -0.021582029724023802
-1.108562074256533   -0.18315844591189706   -0.021582029724023802
-1.108562074256533   -0.18315844591189706   -0.021582029724023802
-1.108562074256533   -0.18315844591189706   -0.021582029724023802
-1.2312633280966616   -0.6066966082798336   -0.041851654656372986
-1.2312633280966616   -0.6066966082798336   -0.041851654656372986
-1.2312633280966616   -0.6066966082798336   -0.041851654656372986
-1.2312633280966616   -0.6066966082798336   -0.041851654656372986
-0.4899945943744494   -0.05726714542499591   0.019818548686027733
-0.4899945943744494   -0.05726714542499591   0.019818548686027733
-0.4899945943744494   -0.05726714542499591   0.019818548686027733
-0.4899945943744494   -0.05726714542499591   0.019818548686027733
-0.8432970043615277   -0.3426875140573853   -0.046728290947009664
-0.8432970043615277   -0.3426875140573853   -0.046728290947009664
-0.8432970043615277   -0.3426875140573853   -0.046728290947009664
-0.8432970043615277   -0.3426875140573853   -0.046728290947009664
-1.0032160688067946   -0.18283157529432492   0.08905819233516998
-1.0032160688067946   -0.18283157529432492   0.08905819233516998
-1.0032160688067946   -0.18283157529432492   0.08905819233516998
-1.0032160688067946   -0.18283157529432492   0.08905819233516998
-1.76358664324889   -0.13161904482508568   -0.030996461162677874
-1.76358664324889   -0.13161904482508568   -0.030996461162677874
-1.76358664324889   -0.13161904482508568   -0.030996461162677874
-1.76358664324889   -0.13161904482508568   -0.030996461162677874
-1.8710963374543272   -0.369337669341818   0.02440799074523725
-1.8710963374543272   -0.369337669341818   0.02440799074523725
-1.8710963374543272   -0.369337669341818   0.02440799074523725
-1.8710963374543272   -0.369337669341818   0.02440799074523725
-1.0313167153069738   0.015170070956903592   0.008942507129272456
-1.0313167153069738   0.015170070956903592   0.008942507129272456
-1.0313167153069738   0.015170070956903592   0.008942507129272456
-1.0313167153069738   0.015170070956903592   0.008942507129272456
-1.3498140202350561   -0.1297169372169563   0.02705824663358323
-1.3498140202350561   -0.1297169372169563   0.02705824663358323
-1.3498140202350561   -0.1297169372169563   0.02705824663358323
-1.3498140202350561   -0.1297169372169563   0.02705824663358323
-1.0595636279100185   -0.19611426880651156   0.07899228387746049
-1.0595636279100185   -0.19611426880651156   0.07899228387746049
-1.0595636279100185   -0.19611426880651156   0.07899228387746049
-1.0595636279100185   -0.19611426880651156   0.07899228387746049
-1.838202777713261   -0.15340668244037936   -0.027055197450854843
-1.838202777713261   -0.15340668244037936   -0.027055197450854843
-1.838202777713261   -0.15340668244037936   -0.027055197450854843
-1.838202777713261   -0.15340668244037936   -0.027055197450854843
-1.9165236786664457   -0.3849698877549823   -0.008325760108466085
-1.9165236786664457   -0.3849698877549823   -0.008325760108466085
-1.9165236786664457   -0.3849698877549823   -0.008325760108466085
-1.9165236786664457   -0.3849698877549823   -0.008325760108466085
-1.0634184746008577   0.004685722817310556   0.01629179982514408
-1.0634184746008577   0.004685722817310556   0.01629179982514408
-1.0634184746008577   0.004685722817310556   0.01629179982514408
-1.0634184746008577   0.004685722817310556   0.01629179982514408
-1.4301153154591306   -0.1711475934607799   0.011075821188446702
-1.4301153154591306   -0.1711475934607799   0.011075821188446702
-1.4301153154591306   -0.1711475934607799   0.011075821188446702
-1.4301153154591306   -0.1711475934607799   0.011075821188446702
-1.0957543288606857   -0.20607601291956185   0.06537426426287657
-1.0957543288606857   -0.20607601291956185   0.06537426426287657
-1.0957543288606857   -0.20607601291956185   0.06537426426287657
-1.0957543288606857   -0.20607601291956185   0.06537426426287657
-1.8747937895617266   -0.16481411717321606   -0.01983208516662003
-1.8747937895617266   -0.16481411717321606   -0.01983208516662003
-1.8747937895617266   -0.16481411717321606   -0.01983208516662003
-1.8747937895617266   -0.16481411717321606   -0.01983208516662003
-1.955854199849165   -0.3912088884301556   -0.00019024230161301947
-1.955854199849165   -0.3912088884301556   -0.00019024230161301947
-1.955854199849165   -0.3912088884301556   -0.00019024230161301947
-1.955854199849165   -0.3912088884301556   -0.00019024230161301947
-1.108536277983698   -0.04163985923692498   0.0067268468655376085
-1.108536277983698   -0.04163985923692498   0.0067268468655376085
-1.108536277983698   -0.04163985923692498   0.0067268468655376085
-1.108536277983698   -0.04163985923692498   0.0067268468655376085
-1.447217759785836   -0.20667140863517802   0.01745983200903645
-1.447217759785836   -0.20667140863517802   0.01745983200903645
-1.447217759785836   -0.20667140863517802   0.01745983200903645
-1.447217759785836   -0.20667140863517802   0.01745983200903645
1.192196589188854   0.05507242349954261   -0.02567704237427479
1.192196589188854   0.05507242349954261   -0.02567704237427479
1.192196589188854   0.05507242349954261   -0.02567704237427479
1.192196589188854   0.05507242349954261   -0.02567704237427479
0.5995954980931957   -0.012381060155602391   0.012545331043700578
0.5995954980931957   -0.012381060155602391   0.012545331043700578
0.5995954980931957   -0.012381060155602391   0.012545331043700578
0.5995954980931957   -0.012381060155602391   0.012545331043700578
0.561690562409819   -0.08808529479741506   -0.022762355203889625
0.561690562409819   -0.08808529479741506   -0.022762355203889625
0.561690562409819   -0.08808529479741506   -0.022762355203889625
0.561690562409819   -0.08808529479741506   -0.022762355203889625
1.1784588308295183   0.08594012875387372   0.014677838579022905
1.1784588308295183   0.08594012875387372   0.014677838579022905
1.1784588308295183   0.08594012875387372   0.014677838579022905
1.1784588308295183   0.08594012875387372   0.014677838579022905
0.8367022294041325   0.0020585312103784115   -0.032312475253014825
0.8367022294041325   0.0020585312103784115   -0.032312475253014825
0.8367022294041325   0.0020585312103784115   -0.032312475253014825
0.8367022294041325   0.0020585312103784115   -0.032312475253014825
1.1593068791763002   0.030801734508352108   -0.02594352544153518
1.1593068791763002   0.030801734508352108   -0.02594352544153518
1.1593068791763002   0.030801734508352108   -0.02594352544153518
1.1593068791763002   0.030801734508352108   -0.02594352544153518
0.5797858945010399   -0.03400352011388941   0.013632530568685679
0.5797858945010399   -0.03400352011388941   0.013632530568685679
0.5797858945010399   -0.03400352011388941   0.013632530568685679
0.5797858945010399   -0.03400352011388941   0.013632530568685679
0.5412709235127526   -0.09296808041017099   -0.018821003176976166
0.5412709235127526   -0.09296808041017099   -0.018821003176976166
0.5412709235127526   -0.09296808041017099   -0.018821003176976166
0.5412709235127526   -0.09296808041017099   -0.018821003176976166
1.1501135784344962   0.07900508875791809   0.021510955123845342
1.1501135784344962   0.07900508875791809   0.021510955123845342
1.1501135784344962   0.07900508875791809   0.021510955123845342
1.1501135784344962   0.07900508875791809   0.021510955123845342
0.8256642089817934   -0.008295920795333173   -0.038492884950217
0.8256642089817934   -0.008295920795333173   -0.038492884950217
0.8256642089817934   -0.008295920795333173   -0.038492884950217
0.8256642089817934   -0.008295920795333173   -0.038492884950217
1.1308158200869791   0.024592124974087498   -0.0205648728299102
1.1308158200869791   0.024592124974087498   -0.0205648728299102
1.1308158200869791   0.024592124974087498   -0.0205648728299102
1.1308158200869791   0.024592124974087498   -0.0205648728299102
0.5590944754232295   -0.040029323063380584   0.01735799902861842
0.5590944754232295   -0.040029323063380584   0.01735799902861842
0.5590944754232295   -0.040029323063380584   0.01735799902861842
0.5590944754232295   -0.040029323063380584   0.01735799902861842
0.5215100314271214   -0.09149738426324311   -0.012919379956678342
0.5215100314271214   -0.09149738426324311   -0.012919379956678342
0.5215100314271214   -0.09149738426324311   -0.012919379956678342
0.5215100314271214   -0.09149738426324311   -0.012919379956678342
1.1150317200990822   0.07438716151080241   0.028040664634314545
1.1150317200990822   0.07438716151080241   0.028040664634314545
1.1150317200990822   0.07438716151080241   0.028040664634314545
1.1150317200990822   0.07438716151080241   0.028040664634314545
0.785014431028676   -0.014453696630861046   -0.05050796729461868
0.785014431028676   -0.014453696630861046   -0.05050796729461868
0.785014431028676   -0.014453696630861046   -0.05050796729461868
0.785014431028676   -0.014453696630861046   -0.05050796729461868
0.6030841008057262   0.012061560846646724   0.005545723604103783
0.6030841008057262   0.012061560846646724   0.005545723604103783
0.6030841008057262   0.012061560846646724   0.005545723604103783
0.6030841008057262   0.012061560846646724   0.005545723604103783
0.0571445848514542   -0.03629612588369589   -0.0014674259913520556
0.0571445848514542   -0.03629612588369589   -0.0014674259913520556
0.0571445848514542   -0.03629612588369589   -0.0014674259913520556
0.0571445848514542   -0.03629612588369589   -0.0014674259913520556
0.021423903775761262   -0.11637880818999752   -0.021933898287099643
0.021423903775761262   -0.11637880818999752   -0.021933898287099643
0.021423903775761262   -0.11637880818999752   -0.021933898287099643
0.021423903775761262   -0.11637880818999752   -0.021933898287099643
0.6037579041672111   0.06969586208002344   0.029793196705628824
0.6037579041672111   0.06969586208002344   0.029793196705628824
0.6037579041672111   0.06969586208002344   0.029793196705628824
0.6037579041672111   0.06969586208002344   0.029793196705628824
0.3154570926314666   -0.016214964176844038   -0.012438315645758088
0.3154570926314666   -0.016214964176844038   -0.012438315645758088
0.3154570926314666   -0.016214964176844038   -0.012438315645758088
0.3154570926314666   -0.016214964176844038   -0.012438315645758088
0.586300552376416   0.0028531342949078276   0.009349165536772286
0.586300552376416   0.0028531342949078276   0.009349165536772286
0.586300552376416   0.0028531342949078276   0.009349165536772286
0.586300552376416   0.0028531342949078276   0.009349165536772286
0.03954933943326336   -0.04886799653817433   0.0011824683485876925
0.03954933943326336   -0.04886799653817433   0.0011824683485876925
0.03954933943326336   -0.04886799653817433   0.0011824683485876925
0.03954933943326336   -0.04886799653817433   0.0011824683485876925
0.001734681435450143   -0.1218825034499606   -0.015303050012780713
0.001734681435450143   -0.1218825034499606   -0.015303050012780713
0.001734681435450143   -0.1218825034499606   -0.015303050012780713
0.001734681435450143   -0.1218825034499606   -0.015303050012780713
0.5821462109086587   0.059735046266162994   0.03285230712621991
0.5821462109086587   0.059735046266162994   0.03285230712621991
0.5821462109086587   0.059735046266162994   0.03285230712621991
0.5821462109086587   0.059735046266162994   0.03285230712621991
0.29276891044504527   -0.025396441335263822   -0.01760969655465237
0.29276891044504527   -0.025396441335263822   -0.01760969655465237
0.29276891044504527   -0.025396441335263822   -0.01760969655465237
0.29276891044504527   -0.025396441335263822   -0.01760969655465237
0.565673394943549   -0.003324580027014107   0.01354785359385298
0.565673394943549   -0.003324580027014107   0.01354785359385298
0.565673394943549   -0.003324580027014107   0.01354785359385298
0.565673394943549   -0.003324580027014107   0.01354785359385298
0.01811752595435396   -0.05891284860298864   0.003641517734766432
0.01811752595435396   -0.05891284860298864   0.003641517734766432
0.01811752595435396   -0.05891284860298864   0.003641517734766432
0.01811752595435396   -0.05891284860298864   0.003641517734766432
-0.01939302962313275   -0.1223676763295057   -0.010466585104241234
-0.01939302962313275   -0.1223676763295057   -0.010466585104241234
-0.01939302962313275   -0.1223676763295057   -0.010466585104241234
-0.01939302962313275   -0.1223676763295057   -0.010466585104241234
0.5603402779911364   0.053434537037734015   0.03629993156242308
0.5603402779911364   0.053434537037734015   0.03629993156242308
0.5603402779911364   0.053434537037734015   0.03629993156242308
0.5603402779911364   0.053434537037734015   0.03629993156242308
0.2750710401066288   -0.029011113121072102   -0.022034153582666114
0.2750710401066288   -0.029011113121072102   -0.022034153582666114
0.2750710401066288   -0.029011113121072102   -0.022034153582666114
0.2750710401066288   -0.029011113121072102   -0.022034153582666114
0.05849054323242098   -0.033157459343704884   0.00212369937349083
0.05849054323242098   -0.033157459343704884   0.00212369937349083
0.05849054323242098   -0.033157459343704884   0.00212369937349083
0.05849054323242098   -0.033157459343704884   0.00212369937349083
-0.4672972513299691   -0.05394846359734283   -0.0146863838861369
-0.4672972513299691   -0.05394846359734283   -0.0146863838861369
-0.4672972513299691   -0.05394846359734283   -0.0146863838861369
-0.4672972513299691   -0.05394846359734283   -0.0146863838861369
-0.5070100515548065   -0.1541956967353516   -0.025033216517980784
-0.5070100515548065   -0.1541956967353516   -0.025033216517980784
-0.5070100515548065   -0.1541956967353516   -0.025033216517980784
-0.5070100515548065   -0.1541956967353516   -0.025033216517980784
0.06274097315564861   0.051134636313428   0.017138004108911604
0.06274097315564861   0.051134636313428   0.017138004108911604
0.06274097315564861   0.051134636313428   0.017138004108911604
0.06274097315564861   0.051134636313428   0.017138004108911604
-0.21388891676576802   -0.04526811091089964   -0.0123252897664887
-0.21388891676576802   -0.04526811091089964   -0.0123252897664887
-0.21388891676576802   -0.04526811091089964   -0.0123252897664887
-0.21388891676576802   -0.04526811091089964   -0.0123252897664887
0.0436903476539032   -0.03703755917274283   0.010057072086353449
0.0436903476539032   -0.03703755917274283   0.010057072086353449
0.0436903476539032   -0.03703755917274283   0.010057072086353449
0.0436903476539032   -0.03703755917274283   0.010057072086353449
-0.486495952796345   -0.06456002799246499   -0.01209839146855978
-0.486495952796345   -0.06456002799246499   -0.01209839146855978
-0.486495952796345   -0.06456002799246499   -0.01209839146855978
-0.486495952796345   -0.06456002799246499   -0.01209839146855978
-0.5300928318492748   -0.16021659985238207   -0.016638337035889548
-0.5300928318492748   -0.16021659985238207   -0.016638337035889548
-0.5300928318492748   -0.16021659985238207   -0.016638337035889548
-0.5300928318492748   -0.16021659985238207   -0.016638337035889548
0.04114082181388578   0.04047565358090821   0.019369494848528686
0.04114082181388578   0.04047565358090821   0.019369494848528686
0.04114082181388578   0.04047565358090821   0.019369494848528686
0.04114082181388578   0.04047565358090821   0.019369494848528686
-0.2329920098255856   -0.05159731819474812   -0.014777497973133684
-0.2329920098255856   -0.05159731819474812   -0.014777497973133684
-0.2329920098255856   -0.05159731819474812   -0.014777497973133684
-0.2329920098255856   -0.05159731819474812   -0.014777497973133684
0.02325065514525858   -0.043451143357531065   0.013845458443831959
0.02325065514525858   -0.043451143357531065   0.013845458443831959
0.02325065514525858   -0.043451143357531065   0.013845458443831959
0.02325065514525858   -0.043451143357531065   0.013845458443831959
-0.5118916916368289   -0.07597882937012398   -0.009870406455917661
-0.5118916916368289   -0.07597882937012398   -0.009870406455917661
-0.5118916916368289   -0.07597882937012398   -0.009870406455917661
-0.5118916916368289   -0.07597882937012398   -0.009870406455917661
-0.5556972807042262   -0.16459826253930115   -0.014788212002788292
-0.5556972807042262   -0.16459826253930115   -0.014788212002788292
-0.5556972807042262   -0.16459826253930115   -0.014788212002788292
-0.5556972807042262   -0.16459826253930115   -0.014788212002788292
0.01777591298042462   0.03137890560288309   0.02163154598115491
0.01777591298042462   0.03137890560288309   0.02163154598115491
0.01777591298042462   0.03137890560288309   0.02163154598115491
0.01777591298042462   0.03137890560288309   0.02163154598115491
-0.25780131160646264   -0.059174012478566136   -0.020694944807198874
-0.25780131160646264   -0.059174012478566136   -0.020694944807198874
-0.25780131160646264   -0.059174012478566136   -0.020694944807198874
-0.25780131160646264   -0.059174012478566136   -0.020694944807198874
-0.45999926147804276   -0.03946081589024782   0.007315917666391952
-0.45999926147804276   -0.03946081589024782   0.007315917666391952
-0.45999926147804276   -0.03946081589024782   0.007315917666391952
-0.45999926147804276   -0.03946081589024782   0.007315917666391952
-0.9794419607670789   -0.06315359582694088   -0.02582293816644675
-0.9794419607670789   -0.06315359582694088   -0.02582293816644675
-0.9794419607670789   -0.06315359582694088   -0.02582293816644675
-0.9794419607670789   -0.06315359582694088   -0.02582293816644675
-1.024559817004685   -0.16168454477527555   -0.025077036356704857
-1.024559817004685   -0.16168454477527555   -0.025077036356704857
-1.024559817004685   -0.16168454477527555   -0.025077036356704857
-1.024559817004685   -0.16168454477527555   -0.025077036356704857
-0.46235489236170085   0.03912925173767243   0.004917630974519423
-0.46235489236170085   0.03912925173767243   0.004917630974519423
-0.46235489236170085   0.03912925173767243   0.004917630974519423
-0.46235489236170085   0.03912925173767243   0.004917630974519423
-0.7255751364779174   -0.05368737182130186   -0.010313716011632886
-0.7255751364779174   -0.05368737182130186   -0.010313716011632886
-0.7255751364779174   -0.05368737182130186   -0.010313716011632886
-0.7255751364779174   -0.05368737182130186   -0.010313716011632886
-0.4763863056708655   -0.043547060003246846   0.017436876169619364
-0.4763863056708655   -0.043547060003246846   0.017436876169619364
-0.4763863056708655   -0.043547060003246846   0.017436876169619364
-0.4763863056708655   -0.043547060003246846   0.017436876169619364
-1.007669130729943   -0.0761489600687848   -0.026159189689493913
-1.007669130729943   -0.0761489600687848   -0.026159189689493913
-1.007669130729943   -0.0761489600687848   -0.026159189689493913
-1.007669130729943   -0.0761489600687848   -0.026159189689493913
-1.0564745509258577   -0.17195400760585497   -0.017647361524488606
-1.0564745509258577   -0.17195400760585497   -0.017647361524488606
-1.0564745509258577   -0.17195400760585497   -0.017647361524488606
-1.0564745509258577   -0.17195400760585497   -0.017647361524488606
-0.48803229941508874   0.02745115039706228   0.005996574885596927
-0.48803229941508874   0.02745115039706228   0.005996574885596927
-0.48803229941508874   0.02745115039706228   0.005996574885596927
-0.48803229941508874   0.02745115039706228   0.005996574885596927
-0.7457031036529777   -0.059342440528198426   -0.010323631849983694
-0.7457031036529777   -0.059342440528198426   -0.010323631849983694
-0.7457031036529777   -0.059342440528198426   -0.010323631849983694
-0.7457031036529777   -0.059342440528198426   -0.010323631849983694
-0.5018739184323194   -0.0538804023024573   0.01812003249896145
-0.5018739184323194   -0.0538804023024573   0.01812003249896145
-0.5018739184323194   -0.0538804023024573   0.01812003249896145
-0.5018739184323194   -0.0538804023024573   0.01812003249896145
-1.0407146843672954   -0.08870420736500526   -0.022097828972534157
-1.0407146843672954   -0.08870420736500526   -0.022097828972534157
-1.0407146843672954   -0.08870420736500526   -0.022097828972534157
-1.0407146843672954   -0.08870420736500526   -0.022097828972534157
-1.0925718792074135   -0.1855174712866233   -0.01885579578914514
-1.0925718792074135   -0.1855174712866233   -0.01885579578914514
-1.0925718792074135   -0.1855174712866233   -0.01885579578914514
-1.0925718792074135   -0.1855174712866233   -0.01885579578914514
-0.5157860042483423   0.013019509034599974   0.007150398702724083
-0.5157860042483423   0.013019509034599974   0.007150398702724083
-0.5157860042483423   0.013019509034599974   0.007150398702724083
-0.5157860042483423   0.013019509034599974   0.007150398702724083
-0.7815888763624513   -0.07328764335623722   -0.016836981383092864
-0.7815888763624513   -0.07328764335623722   -0.016836981383092864
-0.7815888763624513   -0.07328764335623722   -0.016836981383092864
-0.7815888763624513   -0.07328764335623722   -0.016836981383092864
-0.9464214455047475   0.04436541284994361   0.031760629468326085
-0.9464214455047475   0.04436541284994361   0.031760629468326085
-0.9464214455047475   0.04436541284994361   0.031760629468326085
-0.9464214455047475   0.04436541284994361   0.031760629468326085
-1.4671852702747832   -0.07307551660711176   -0.019543207235727306
-1.4671852702747832   -0.07307551660711176   -0.019543207235727306
-1.4671852702747832   -0.07307551660711176   -0.019543207235727306
-1.4671852702747832   -0.07307551660711176   -0.019543207235727306
-1.5029559137977997   -0.07443288690479649   0.03256691631159801
-1.5029559137977997   -0.07443288690479649   0.03256691631159801
-1.5029559137977997   -0.07443288690479649   0.03256691631159801
-1.5029559137977997   -0.07443288690479649   0.03256691631159801
-0.9826236248906893   0.030623276053141385   -0.0077038966151520005
-0.9826236248906893   0.030623276053141385   -0.0077038966151520005
-0.9826236248906893   0.030623276053141385   -0.0077038966151520005
-0.9826236248906893   0.030623276053141385   -0.0077038966151520005
-1.1676984369273673   0.0008082750796117866   0.029677452555503803
-1.1676984369273673   0.0008082750796117866   0.029677452555503803
-1.1676984369273673   0.0008082750796117866   0.029677452555503803
-1.1676984369273673   0.0008082750796117866   0.029677452555503803
-0.9725407612052338   0.03316958327037986   0.040164114594883144
-0.9725407612052338   0.03316958327037986   0.040164114594883144
-0.9725407612052338   0.03316958327037986   0.040164114594883144
-0.9725407612052338   0.03316958327037986   0.040164114594883144
-1.5123659728090026   -0.07630638944777784   -0.012609876201434861
-1.5123659728090026   -0.07630638944777784   -0.012609876201434861
-1.5123659728090026   -0.07630638944777784   -0.012609876201434861
-1.5123659728090026   -0.07630638944777784   -0.012609876201434861
-1.5480758999584123   -0.086639395105824   0.04432363556702564
-1.5480758999584123   -0.086639395105824   0.04432363556702564
-1.5480758999584123   -0.086639395105824   0.04432363556702564
-1.5480758999584123   -0.086639395105824   0.04432363556702564
-1.015703677593078   0.022324420484926916   -0.008071422951378526
-1.015703677593078   0.022324420484926916   -0.008071422951378526
-1.015703677593078   0.022324420484926916   -0.008071422951378526
-1.015703677593078   0.022324420484926916   -0.008071422951378526
-1.2260687508036778   -0.013460051884661761   0.016360772801036955
-1.2260687508036778   -0.013460051884661761   0.016360772801036955
-1.2260687508036778   -0.013460051884661761   0.016360772801036955
-1.2260687508036778   -0.013460051884661761   0.016360772801036955
-1.0064844378658429   0.020736674527691096   0.03961252164203185
-1.0064844378658429   0.020736674527691096   0.03961252164203185
-1.0064844378658429   0.020736674527691096   0.03961252164203185
-1.0064844378658429   0.020736674527691096   0.03961252164203185
-1.559031707380473   -0.08678821684341198   -0.010306579805677812
-1.559031707380473   -0.08678821684341198   -0.010306579805677812
-1.559031707380473   -0.08678821684341198   -0.010306579805677812
-1.559031707380473   -0.08678821684341198   -0.010306579805677812
-1.6122619115144763   -0.13604472139655593   0.038428169598161324
-1.6122619115144763   -0.13604472139655593   0.038428169598161324
-1.6122619115144763   -0.13604472139655593   0.038428169598161324
-1.6122619115144763   -0.13604472139655593   0.038428169598161324
-1.0538457171136837   -0.0031327187985986382   -0.007609737808530477
-1.0538457171136837   -0.0031327187985986382   -0.007609737808530477
-1.0538457171136837   -0.0031327187985986382   -0.007609737808530477
-1.0538457171136837   -0.0031327187985986382   -0.007609737808530477
-1.2506642527758418   -0.031471056983751716   0.00471364953610421
-1.2506642527758418   -0.031471056983751716   0.00471364953610421
-1.2506642527758418   -0.031471056983751716   0.00471364953610421
-1.2506642527758418   -0.031471056983751716   0.00471364953610421
0.9679250180953225   0.051929570512873446   -0.03423103561601615
0.9679250180953225   0.051929570512873446   -0.03423103561601615
0.9679250180953225   0.051929570512873446   -0.03423103561601615
0.9679250180953225   0.051929570512873446   -0.03423103561601615
0.4794204933660859   -0.0007879532616469481   0.012325716253291347
0.4794204933660859   -0.0007879532616469481   0.012325716253291347
0.4794204933660859   -0.0007879532616469481   0.012325716253291347
0.4794204933660859   -0.0007879532616469481   0.012325716253291347
0.4384691488532767   -0.07128554240813723   -0.03146083525479019
0.4384691488532767   -0.07128554240813723   -0.03146083525479019
0.4384691488532767   -0.07128554240813723   -0.03146083525479019
0.4384691488532767   -0.07128554240813723   -0.03146083525479019
0.949843284602462   0.07812809356569059   0.015468001418564574
0.949843284602462   0.07812809356569059   0.015468001418564574
0.949843284602462   0.07812809356569059   0.015468001418564574
0.949843284602462   0.07812809356569059   0.015468001418564574
0.6722643353008502   0.005924326666546714   -0.022132376783838253
0.6722643353008502   0.005924326666546714   -0.022132376783838253
0.6722643353008502   0.005924326666546714   -0.022132376783838253
0.6722643353008502   0.005924326666546714   -0.022132376783838253
0.9298600774944347   0.026684018549898214   -0.033003959105770954
0.9298600774944347   0.026684018549898214   -0.033003959105770954
0.9298600774944347   0.026684018549898214   -0.033003959105770954
0.9298600774944347   0.026684018549898214   -0.033003959105770954
0.45760165250268453   -0.020692170850964156   0.01360831143506832
0.45760165250268453   -0.020692170850964156   0.01360831143506832
0.45760165250268453   -0.020692170850964156   0.01360831143506832
0.45760165250268453   -0.020692170850964156   0.01360831143506832
0.4179900057767369   -0.07719479732196705   -0.027364902617790447
0.4179900057767369   -0.07719479732196705   -0.027364902617790447
0.4179900057767369   -0.07719479732196705   -0.027364902617790447
0.4179900057767369   -0.07719479732196705   -0.027364902617790447
0.919220690239995   0.06999146796452285   0.02119173417248279
0.919220690239995   0.06999146796452285   0.02119173417248279
0.919220690239995   0.06999146796452285   0.02119173417248279
0.919220690239995   0.06999146796452285   0.02119173417248279
0.6563516227738591   -0.0047579659936276275   -0.02898264404678587
0.6563516227738591   -0.0047579659936276275   -0.02898264404678587
0.6563516227738591   -0.0047579659936276275   -0.02898264404678587
0.6563516227738591   -0.0047579659936276275   -0.02898264404678587
0.8996592415580418   0.01940601841942441   -0.026030059692168768
0.8996592415580418   0.01940601841942441   -0.026030059692168768
0.8996592415580418   0.01940601841942441   -0.026030059692168768
0.8996592415580418   0.01940601841942441   -0.026030059692168768
0.43678306181981075   -0.027377740415740842   0.01678332069134856
0.43678306181981075   -0.027377740415740842   0.01678332069134856
0.43678306181981075   -0.027377740415740842   0.01678332069134856
0.43678306181981075   -0.027377740415740842   0.01678332069134856
0.39930441391807814   -0.07883881498355044   -0.022361911656445473
0.39930441391807814   -0.07883881498355044   -0.022361911656445473
0.39930441391807814   -0.07883881498355044   -0.022361911656445473
0.39930441391807814   -0.07883881498355044   -0.022361911656445473
0.8846989683277019   0.06294039687737774   0.026413144359435536
0.8846989683277019   0.06294039687737774   0.026413144359435536
0.8846989683277019   0.06294039687737774   0.026413144359435536
0.8846989683277019   0.06294039687737774   0.026413144359435536
0.6189038342884651   -0.012079347689569253   -0.03931958483303437
0.6189038342884651   -0.012079347689569253   -0.03931958483303437
0.6189038342884651   -0.012079347689569253   -0.03931958483303437
0.6189038342884651   -0.012079347689569253   -0.03931958483303437
0.4878118469087499   0.05069143155586059   0.0028030991491040103
0.4878118469087499   0.05069143155586059   0.0028030991491040103
0.4878118469087499   0.05069143155586059   0.0028030991491040103
0.4878118469087499   0.05069143155586059   0.0028030991491040103
0.016063631060427484   -0.01619665552119754   -0.0020696962442491758
0.016063631060427484   -0.01619665552119754   -0.0020696962442491758
0.016063631060427484   -0.01619665552119754   -0.0020696962442491758
0.016063631060427484   -0.01619665552119754   -0.0020696962442491758
-0.014807512349385904   -0.06426623397435206   -0.021451867049651695
-0.014807512349385904   -0.06426623397435206   -0.021451867049651695
-0.014807512349385904   -0.06426623397435206   -0.021451867049651695
-0.014807512349385904   -0.06426623397435206   -0.021451867049651695
0.47847148825361757   0.07080984454636877   0.026455474792400846
0.47847148825361757   0.07080984454636877   0.026455474792400846
0.47847148825361757   0.07080984454636877   0.026455474792400846
0.47847148825361757   0.07080984454636877   0.026455474792400846
0.23811325747114226   0.010090760113847463   -0.0026923682046407996
0.23811325747114226   0.010090760113847463   -0.0026923682046407996
0.23811325747114226   0.010090760113847463   -0.0026923682046407996
0.23811325747114226   0.010090760113847463   -0.0026923682046407996
0.4676487208722678   0.03762140213859465   0.005530080293428077
0.4676487208722678   0.03762140213859465   0.005530080293428077
0.4676487208722678   0.03762140213859465   0.005530080293428077
0.4676487208722678   0.03762140213859465   0.005530080293428077
-0.003790443737761046   -0.030883490336302513   0.0002507323704230499
-0.003790443737761046   -0.030883490336302513   0.0002507323704230499
-0.003790443737761046   -0.030883490336302513   0.0002507323704230499
-0.003790443737761046   -0.030883490336302513   0.0002507323704230499
-0.03420613308612775   -0.07381759304955146   -0.018558545457565957
-0.03420613308612775   -0.07381759304955146   -0.018558545457565957
-0.03420613308612775   -0.07381759304955146   -0.018558545457565957
-0.03420613308612775   -0.07381759304955146   -0.018558545457565957
0.45649459138325393   0.05869824559287382   0.0292649824999498
0.45649459138325393   0.05869824559287382   0.0292649824999498
0.45649459138325393   0.05869824559287382   0.0292649824999498
0.45649459138325393   0.05869824559287382   0.0292649824999498
0.214389723722916   -0.0018561841562440354   -0.009476721593808695
0.214389723722916   -0.0018561841562440354   -0.009476721593808695
0.214389723722916   -0.0018561841562440354   -0.009476721593808695
0.214389723722916   -0.0018561841562440354   -0.009476721593808695
0.44608002618738607   0.027607856932801808   0.008282545180686565
0.44608002618738607   0.027607856932801808   0.008282545180686565
0.44608002618738607   0.027607856932801808   0.008282545180686565
0.44608002618738607   0.027607856932801808   0.008282545180686565
-0.023773642778095176   -0.04270927927731916   0.0024955923103646225
-0.023773642778095176   -0.04270927927731916   0.0024955923103646225
-0.023773642778095176   -0.04270927927731916   0.0024955923103646225
-0.023773642778095176   -0.04270927927731916   0.0024955923103646225
-0.053403844767470954   -0.07953157412945024   -0.014786501514890872
-0.053403844767470954   -0.07953157412945024   -0.014786501514890872
-0.053403844767470954   -0.07953157412945024   -0.014786501514890872
-0.053403844767470954   -0.07953157412945024   -0.014786501514890872
0.43559141082157304   0.048511432752186334   0.03172282512528645
0.43559141082157304   0.048511432752186334   0.03172282512528645
0.43559141082157304   0.048511432752186334   0.03172282512528645
0.43559141082157304   0.048511432752186334   0.03172282512528645
0.19689367267930402   -0.009459186157026234   -0.01446426700078674
0.19689367267930402   -0.009459186157026234   -0.01446426700078674
0.19689367267930402   -0.009459186157026234   -0.01446426700078674
0.19689367267930402   -0.009459186157026234   -0.01446426700078674
0.032132986476400546   0.05107578817003515   0.011004637144383421
0.032132986476400546   0.05107578817003515   0.011004637144383421
0.032132986476400546   0.05107578817003515   0.011004637144383421
0.032132986476400546   0.05107578817003515   0.011004637144383421
-0.4330042804357154   -0.028179367786746817   -0.014877780371541627
-0.4330042804357154   -0.028179367786746817   -0.014877780371541627
-0.4330042804357154   -0.028179367786746817   -0.014877780371541627
-0.4330042804357154   -0.028179367786746817   -0.014877780371541627
-0.45708766383182425   -0.05898921524922587   -0.01365261671688491
-0.45708766383182425   -0.05898921524922587   -0.01365261671688491
-0.45708766383182425   -0.05898921524922587   -0.01365261671688491
-0.45708766383182425   -0.05898921524922587   -0.01365261671688491
0.01650731243226665   0.05799804312491738   0.01285797975934164
0.01650731243226665   0.05799804312491738   0.01285797975934164
0.01650731243226665   0.05799804312491738   0.01285797975934164
0.01650731243226665   0.05799804312491738   0.01285797975934164
-0.21009719885969136   0.006442486872025463   0.0008191001384532555
-0.21009719885969136   0.006442486872025463   0.0008191001384532555
-0.21009719885969136   0.006442486872025463   0.0008191001384532555
-0.21009719885969136   0.006442486872025463   0.0008191001384532555
0.013208186681040342   0.040560464185291266   0.013799929942836207
0.013208186681040342   0.040560464185291266   0.013799929942836207
0.013208186681040342   0.040560464185291266   0.013799929942836207
0.013208186681040342   0.040560464185291266   0.013799929942836207
-0.45325806391313206   -0.0410211621421339   -0.012472670230516094
-0.45325806391313206   -0.0410211621421339   -0.012472670230516094
-0.45325806391313206   -0.0410211621421339   -0.012472670230516094
-0.45325806391313206   -0.0410211621421339   -0.012472670230516094
-0.4779029944687939   -0.06947975779817156   -0.01136374576419051
-0.4779029944687939   -0.06947975779817156   -0.01136374576419051
-0.4779029944687939   -0.06947975779817156   -0.01136374576419051
-0.4779029944687939   -0.06947975779817156   -0.01136374576419051
-0.0035041304111642427   0.04554098480391434   0.01559289006378578
-0.0035041304111642427   0.04554098480391434   0.01559289006378578
-0.0035041304111642427   0.04554098480391434   0.01559289006378578
-0.0035041304111642427   0.04554098480391434   0.01559289006378578
-0.23004232044262055   -0.0038404403250371782   -0.004271656116106583
-0.23004232044262055   -0.0038404403250371782   -0.004271656116106583
-0.23004232044262055   -0.0038404403250371782   -0.004271656116106583
-0.23004232044262055   -0.0038404403250371782   -0.004271656116106583
-0.006319291396082883   0.030434454964858436   0.016623614978248477
-0.006319291396082883   0.030434454964858436   0.016623614978248477
-0.006319291396082883   0.030434454964858436   0.016623614978248477
-0.006319291396082883   0.030434454964858436   0.016623614978248477
-0.47463428550154607   -0.05391967997678651   -0.010580278749336584
-0.47463428550154607   -0.05391967997678651   -0.010580278749336584
-0.47463428550154607   -0.05391967997678651   -0.010580278749336584
-0.47463428550154607   -0.05391967997678651   -0.010580278749336584
-0.4985736322447257   -0.077728664978194   -0.007556761699111012
-0.4985736322447257   -0.077728664978194   -0.007556761699111012
-0.4985736322447257   -0.077728664978194   -0.007556761699111012
-0.4985736322447257   -0.077728664978194   -0.007556761699111012
-0.024237828560755844   0.03380616198328176   0.017705843405952673
-0.024237828560755844   0.03380616198328176   0.017705843405952673
-0.024237828560755844   0.03380616198328176   0.017705843405952673
-0.024237828560755844   0.03380616198328176   0.017705843405952673
-0.2515044624434905   -0.014297104310758833   -0.009839030945232438
-0.2515044624434905   -0.014297104310758833   -0.009839030945232438
-0.2515044624434905   -0.014297104310758833   -0.009839030945232438
-0.2515044624434905   -0.014297104310758833   -0.009839030945232438
-0.40836368337698375   0.0602131789262077   0.019932658209170277
-0.40836368337698375   0.0602131789262077   0.019932658209170277
-0.40836368337698375   0.0602131789262077   0.019932658209170277
-0.40836368337698375   0.0602131789262077   0.019932658209170277
-0.8674437568637007   -0.03870573688991291   -0.02434591644123691
-0.8674437568637007   -0.03870573688991291   -0.02434591644123691
-0.8674437568637007   -0.03870573688991291   -0.02434591644123691
-0.8674437568637007   -0.03870573688991291   -0.02434591644123691
-0.8862123998525723   -0.04743233054067006   -0.004032772926290874
-0.8862123998525723   -0.04743233054067006   -0.004032772926290874
-0.8862123998525723   -0.04743233054067006   -0.004032772926290874
-0.8862123998525723   -0.04743233054067006   -0.004032772926290874
-0.433903478062002   0.04391736935204393   -0.0006382724690400174
-0.433903478062002   0.04391736935204393   -0.0006382724690400174
-0.433903478062002   0.04391736935204393   -0.0006382724690400174
-0.433903478062002   0.04391736935204393   -0.0006382724690400174
-0.6442899151504933   0.006466991653132775   0.004711294877786369
-0.6442899151504933   0.006466991653132775   0.004711294877786369
-0.6442899151504933   0.006466991653132775   0.004711294877786369
-0.6442899151504933   0.006466991653132775   0.004711294877786369
-0.42819657806947403   0.04945008980861379   0.02236350703703017
-0.42819657806947403   0.04945008980861379   0.02236350703703017
-0.42819657806947403   0.04945008980861379   0.02236350703703017
-0.42819657806947403   0.04945008980861379   0.02236350703703017
-0.8912047227186187   -0.05225047387075843   -0.024176243926435075
-0.8912047227186187   -0.05225047387075843   -0.024176243926435075
-0.8912047227186187   -0.05225047387075843   -0.024176243926435075
-0.8912047227186187   -0.05225047387075843   -0.024176243926435075
-0.9118424175002515   -0.0592322908365098   -0.00361051319710063
-0.9118424175002515   -0.0592322908365098   -0.00361051319710063
-0.9118424175002515   -0.0592322908365098   -0.00361051319710063
-0.9118424175002515   -0.0592322908365098   -0.00361051319710063
-0.4549691873663064   0.0320301620356698   0.001795369914409782
-0.4549691873663064   0.0320301620356698   0.001795369914409782
-0.4549691873663064   0.0320301620356698   0.001795369914409782
-0.4549691873663064   0.0320301620356698   0.001795369914409782
-0.6621975482719715   -0.0029178183484462883   0.0005390450808415923
-0.6621975482719715   -0.0029178183484462883   0.0005390450808415923
-0.6621975482719715   -0.0029178183484462883   0.0005390450808415923
-0.6621975482719715   -0.0029178183484462883   0.0005390450808415923
-0.4487153283269039   0.03927849588916486   0.025816331257925103
-0.4487153283269039   0.03927849588916486   0.025816331257925103
-0.4487153283269039   0.03927849588916486   0.025816331257925103
-0.4487153283269039   0.03927849588916486   0.025816331257925103
-0.9166365351147275   -0.06502088326507877   -0.021792508840911835
-0.9166365351147275   -0.06502088326507877   -0.021792508840911835
-0.9166365351147275   -0.06502088326507877   -0.021792508840911835
-0.9166365351147275   -0.06502088326507877   -0.021792508840911835
-0.9354325907206594   -0.07187500182755144   0.0023244308642841535
-0.9354325907206594   -0.07187500182755144   0.0023244308642841535
-0.9354325907206594   -0.07187500182755144   0.0023244308642841535
-0.9354325907206594   -0.07187500182755144   0.0023244308642841535
-0.47729404108597756   0.01786735248941726   0.0032451766270178775
-0.47729404108597756   0.01786735248941726   0.0032451766270178775
-0.47729404108597756   0.01786735248941726   0.0032451766270178775
-0.47729404108597756   0.01786735248941726   0.0032451766270178775
-0.6902506072497027   -0.016138785186341015   -0.005088225517416778
-0.6902506072497027   -0.016138785186341015   -0.005088225517416778
-0.6902506072497027   -0.016138785186341015   -0.005088225517416778
-0.6902506072497027   -0.016138785186341015   -0.005088225517416778
-0.8367687090951471   0.062484295148569236   0.02783929036304164
-0.8367687090951471   0.062484295148569236   0.02783929036304164
-0.8367687090951471   0.062484295148569236   0.02783929036304164
-0.8367687090951471   0.062484295148569236   0.02783929036304164
-1.2807253602388398   -0.05927895248041645   -0.022342909637970358
-1.2807253602388398   -0.05927895248041645   -0.022342909637970358
-1.2807253602388398   -0.05927895248041645   -0.022342909637970358
-1.2807253602388398   -0.05927895248041645   -0.022342909637970358
-1.298126423104423   -0.026208094961064132   0.023642046527553834
-1.298126423104423   -0.026208094961064132   0.023642046527553834
-1.298126423104423   -0.026208094961064132   0.023642046527553834
-1.298126423104423   -0.026208094961064132   0.023642046527553834
-0.8731213924743622   0.026441858007896835   -0.012451924583807242
-0.8731213924743622   0.026441858007896835   -0.012451924583807242
-0.8731213924743622   0.026441858007896835   -0.012451924583807242
-0.8731213924743622   0.026441858007896835   -0.012451924583807242
-1.0247752188446533   0.012929784564999242   0.023616066810403714
-1.0247752188446533   0.012929784564999242   0.023616066810403714
-1.0247752188446533   0.012929784564999242   0.023616066810403714
-1.0247752188446533   0.012929784564999242   0.023616066810403714
-0.8567734188367083   0.06373338075786447   0.03199642085448248
-0.8567734188367083   0.06373338075786447   0.03199642085448248
-0.8567734188367083   0.06373338075786447   0.03199642085448248
-0.8567734188367083   0.06373338075786447   0.03199642085448248
-1.3135103046773107   -0.06253552564626635   -0.016949930651674674
-1.3135103046773107   -0.06253552564626635   -0.016949930651674674
-1.3135103046773107   -0.06253552564626635   -0.016949930651674674
-1.3135103046773107   -0.06253552564626635   -0.016949930651674674
-1.3299658580477385   -0.0323827563413136   0.03265487337211043
-1.3299658580477385   -0.0323827563413136   0.03265487337211043
-1.3299658580477385   -0.0323827563413136   0.03265487337211043
-1.3299658580477385   -0.0323827563413136   0.03265487337211043
-0.8975667469737275   0.019611752168595453   -0.01107620356958567
-0.8975667469737275   0.019611752168595453   -0.01107620356958567
-0.8975667469737275   0.019611752168595453   -0.01107620356958567
-0.8975667469737275   0.019611752168595453   -0.01107620356958567
-1.0687205422244992   0.006393343716302485   0.015255079681272384
-1.0687205422244992   0.006393343716302485   0.015255079681272384
-1.0687205422244992   0.006393343716302485   0.015255079681272384
-1.0687205422244992   0.006393343716302485   0.015255079681272384
-0.8795083435573277   0.059119404182123636   0.039708161498885536
-0.8795083435573277   0.059119404182123636   0.039708161498885536
-0.8795083435573277   0.059119404182123636   0.039708161498885536
-0.8795083435573277   0.059119404182123636   0.039708161498885536
-1.34708951034452   -0.07095565723522126   -0.01439048721787698
-1.34708951034452   -0.07095565723522126   -0.01439048721787698
-1.34708951034452   -0.07095565723522126   -0.01439048721787698
-1.34708951034452   -0.07095565723522126   -0.01439048721787698
-1.373156426439817   -0.05898717619988145   0.032428684511158275
-1.373156426439817   -0.05898717619988145   0.032428684511158275
-1.373156426439817   -0.05898717619988145   0.032428684511158275
-1.373156426439817   -0.05898717619988145   0.032428684511158275
-0.9237983401621858   -0.000965520811259446   -0.010413797359639612
-0.9237983401621858   -0.000965520811259446   -0.010413797359639612
-0.9237983401621858   -0.000965520811259446   -0.010413797359639612
-0.9237983401621858   -0.000965520811259446   -0.010413797359639612
-1.0813232940213164   -0.0030579157393935685   0.012526829446087379
-1.0813232940213164   -0.0030579157393935685   0.012526829446087379
-1.0813232940213164   -0.0030579157393935685   0.012526829446087379
-1.0813232940213164   -0.0030579157393935685   0.012526829446087379
0.7354330272332618   0.04098070469525755   -0.03484352782936208
0.7354330272332618   0.04098070469525755   -0.03484352782936208
0.7354330272332618   0.04098070469525755   -0.03484352782936208
0.7354330272332618   0.04098070469525755   -0.03484352782936208
0.3494552143452729   0.006759845883607188   0.013225344443550568
0.3494552143452729   0.006759845883607188   0.013225344443550568
0.3494552143452729   0.006759845883607188   0.013225344443550568
0.3494552143452729   0.006759845883607188   0.013225344443550568
0.3107732780928508   -0.05940493255182272   -0.03312712265939081
0.3107732780928508   -0.05940493255182272   -0.03312712265939081
0.3107732780928508   -0.05940493255182272   -0.03312712265939081
0.3107732780928508   -0.05940493255182272   -0.03312712265939081
0.719654399254401   0.06746285114747995   0.01636274923631186
0.719654399254401   0.06746285114747995   0.01636274923631186
0.719654399254401   0.06746285114747995   0.01636274923631186
0.719654399254401   0.06746285114747995   0.01636274923631186
0.5015171674042708   0.006772331698280343   -0.014836907852997065
0.5015171674042708   0.006772331698280343   -0.014836907852997065
0.5015171674042708   0.006772331698280343   -0.014836907852997065
0.5015171674042708   0.006772331698280343   -0.014836907852997065
0.6999922932232338   0.018472757543107704   -0.0329576873151523
0.6999922932232338   0.018472757543107704   -0.0329576873151523
0.6999922932232338   0.018472757543107704   -0.0329576873151523
0.6999922932232338   0.018472757543107704   -0.0329576873151523
0.33004991845270937   -0.01080030461875467   0.014651451206830448
0.33004991845270937   -0.01080030461875467   0.014651451206830448
0.33004991845270937   -0.01080030461875467   0.014651451206830448
0.33004991845270937   -0.01080030461875467   0.014651451206830448
0.2927141053541776   -0.06520244647085319   -0.02827125311861068
0.2927141053541776   -0.06520244647085319   -0.02827125311861068
0.2927141053541776   -0.06520244647085319   -0.02827125311861068
0.2927141053541776   -0.06520244647085319   -0.02827125311861068
0.691570990703051   0.05916802595219103   0.021554915068498832
0.691570990703051   0.05916802595219103   0.021554915068498832
0.691570990703051   0.05916802595219103   0.021554915068498832
0.691570990703051   0.05916802595219103   0.021554915068498832
0.4854345689254125   -0.003302727345001824   -0.020762277565785105
0.4854345689254125   -0.003302727345001824   -0.020762277565785105
0.4854345689254125   -0.003302727345001824   -0.020762277565785105
0.4854345689254125   -0.003302727345001824   -0.020762277565785105
0.6723610734433614   0.011096557262629286   -0.026423202540382072
0.6723610734433614   0.011096557262629286   -0.026423202540382072
0.6723610734433614   0.011096557262629286   -0.026423202540382072
0.6723610734433614   0.011096557262629286   -0.026423202540382072
0.31143235277500936   -0.017622647620148868   0.01774018513484083
0.31143235277500936   -0.017622647620148868   0.01774018513484083
0.31143235277500936   -0.017622647620148868   0.01774018513484083
0.31143235277500936   -0.017622647620148868   0.01774018513484083
0.2764498189739661   -0.06870168523353863   -0.023548116841379925
0.2764498189739661   -0.06870168523353863   -0.023548116841379925
0.2764498189739661   -0.06870168523353863   -0.023548116841379925
0.2764498189739661   -0.06870168523353863   -0.023548116841379925
0.6598917723024468   0.05023972578752761   0.02563524878124672
0.6598917723024468   0.05023972578752761   0.02563524878124672
0.6598917723024468   0.05023972578752761   0.02563524878124672
0.6598917723024468   0.05023972578752761   0.02563524878124672
0.45338867261096105   -0.010890636622994943   -0.0295740443942172
0.45338867261096105   -0.010890636622994943   -0.0295740443942172
0.45338867261096105   -0.010890636622994943   -0.0295740443942172
0.45338867261096105   -0.010890636622994943   -0.0295740443942172
0.3553990196853715   0.051687670715148806   -0.0019834536874921782
0.3553990196853715   0.051687670715148806   -0.0019834536874921782
0.3553990196853715   0.051687670715148806   -0.0019834536874921782
0.3553990196853715   0.051687670715148806   -0.0019834536874921782
-0.023486767670235557   -0.0052208680732255845   -0.0002527987846241462
-0.023486767670235557   -0.0052208680732255845   -0.0002527987846241462
-0.023486767670235557   -0.0052208680732255845   -0.0002527987846241462
-0.023486767670235557   -0.0052208680732255845   -0.0002527987846241462
-0.05073823178828867   -0.04454306454421177   -0.021099350618595636
-0.05073823178828867   -0.04454306454421177   -0.021099350618595636
-0.05073823178828867   -0.04454306454421177   -0.021099350618595636
-0.05073823178828867   -0.04454306454421177   -0.021099350618595636
0.3462516774357505   0.061356061348630975   0.023503880154650856
0.3462516774357505   0.061356061348630975   0.023503880154650856
0.3462516774357505   0.061356061348630975   0.023503880154650856
0.3462516774357505   0.061356061348630975   0.023503880154650856
0.15443559672265147   0.015107361944112083   0.0011199719108067286
0.15443559672265147   0.015107361944112083   0.0011199719108067286
0.15443559672265147   0.015107361944112083   0.0011199719108067286
0.15443559672265147   0.015107361944112083   0.0011199719108067286
0.3369915621061835   0.03744553110791051   0.0011138337475436171
0.3369915621061835   0.03744553110791051   0.0011138337475436171
0.3369915621061835   0.03744553110791051   0.0011138337475436171
0.3369915621061835   0.03744553110791051   0.0011138337475436171
-0.04132089539244172   -0.020475313237210156   0.0019195800536375074
-0.04132089539244172   -0.020475313237210156   0.0019195800536375074
-0.04132089539244172   -0.020475313237210156   0.0019195800536375074
-0.04132089539244172   -0.020475313237210156   0.0019195800536375074
-0.06774601580199661   -0.05549542618667197   -0.017462769212497956
-0.06774601580199661   -0.05549542618667197   -0.017462769212497956
-0.06774601580199661   -0.05549542618667197   -0.017462769212497956
-0.06774601580199661   -0.05549542618667197   -0.017462769212497956
0.3261971504143157   0.048250472656933996   0.025691053054289443
0.3261971504143157   0.048250472656933996   0.025691053054289443
0.3261971504143157   0.048250472656933996   0.025691053054289443
0.3261971504143157   0.048250472656933996   0.025691053054289443
0.13345038034491366   0.002139813510102638   -0.005387583132236148
0.13345038034491366   0.002139813510102638   -0.005387583132236148
0.13345038034491366   0.002139813510102638   -0.005387583132236148
0.13345038034491366   0.002139813510102638   -0.005387583132236148
0.31724554675417854   0.025693451374309083   0.0034900560362321077
0.31724554675417854   0.025693451374309083   0.0034900560362321077
0.31724554675417854   0.025693451374309083   0.0034900560362321077
0.31724554675417854   0.025693451374309083   0.0034900560362321077
-0.05892738800391857   -0.033071380766105565   0.004206324357325869
-0.05892738800391857   -0.033071380766105565   0.004206324357325869
-0.05892738800391857   -0.033071380766105565   0.004206324357325869
-0.05892738800391857   -0.033071380766105565   0.004206324357325869
-0.08452785367634782   -0.06466631664085369   -0.014046657341992813
-0.08452785367634782   -0.06466631664085369   -0.014046657341992813
-0.08452785367634782   -0.06466631664085369   -0.014046657341992813
-0.08452785367634782   -0.06466631664085369   -0.014046657341992813
0.3076807503364597   0.03615871713865637   0.027746137598891947
0.3076807503364597   0.03615871713865637   0.027746137598891947
0.3076807503364597   0.03615871713865637   0.027746137598891947
0.3076807503364597   0.03615871713865637   0.027746137598891947
0.1173928342219475   -0.007655054301112706   -0.010797422470777345
0.1173928342219475   -0.007655054301112706   -0.010797422470777345
0.1173928342219475   -0.007655054301112706   -0.010797422470777345
0.1173928342219475   -0.007655054301112706   -0.010797422470777345
-0.008392828936680967   0.061431403291127215   0.008564623518794084
-0.008392828936680967   0.061431403291127215   0.008564623518794084
-0.008392828936680967   0.061431403291127215   0.008564623518794084
-0.008392828936680967   0.061431403291127215   0.008564623518794084
-0.38850425600911076   -0.017029867311558547   -0.01288392490917073
-0.38850425600911076   -0.017029867311558547   -0.01288392490917073
-0.38850425600911076   -0.017029867311558547   -0.01288392490917073
-0.38850425600911076   -0.017029867311558547   -0.01288392490917073
-0.4060643432445967   -0.031102778997413802   -0.0100744751754509
-0.4060643432445967   -0.031102778997413802   -0.0100744751754509
-0.4060643432445967   -0.031102778997413802   -0.0100744751754509
-0.4060643432445967   -0.031102778997413802   -0.0100744751754509
-0.025646703208688282   0.04954653334405342   0.010268694391141111
-0.025646703208688282   0.04954653334405342   0.010268694391141111
-0.025646703208688282   0.04954653334405342   0.010268694391141111
-0.025646703208688282   0.04954653334405342   0.010268694391141111
-0.20665995101152082   0.015808130257569344   0.004050155393875293
-0.20665995101152082   0.015808130257569344   0.004050155393875293
-0.20665995101152082   0.015808130257569344   0.004050155393875293
-0.20665995101152082   0.015808130257569344   0.004050155393875293
-0.02531346976418813   0.04946547477108096   0.012015920186614328
-0.02531346976418813   0.04946547477108096   0.012015920186614328
-0.02531346976418813   0.04946547477108096   0.012015920186614328
-0.02531346976418813   0.04946547477108096   0.012015920186614328
-0.4060707358773783   -0.03069487961272279   -0.010514337724049859
-0.4060707358773783   -0.03069487961272279   -0.010514337724049859
-0.4060707358773783   -0.03069487961272279   -0.010514337724049859
-0.4060707358773783   -0.03069487961272279   -0.010514337724049859
-0.423486355440043   -0.04295505982928424   -0.0069051080733283435
-0.423486355440043   -0.04295505982928424   -0.0069051080733283435
-0.423486355440043   -0.04295505982928424   -0.0069051080733283435
-0.423486355440043   -0.04295505982928424   -0.0069051080733283435
-0.04338120412316261   0.036052735033387136   0.01281312796161298
-0.04338120412316261   0.036052735033387136   0.01281312796161298
-0.04338120412316261   0.036052735033387136   0.01281312796161298
-0.04338120412316261   0.036052735033387136   0.01281312796161298
-0.22426145165982134   0.004100311899092289   -0.0012233949463868014
-0.22426145165982134   0.004100311899092289   -0.0012233949463868014
-0.22426145165982134   0.004100311899092289   -0.0012233949463868014
-0.22426145165982134   0.004100311899092289   -0.0012233949463868014
-0.04269502702605917   0.03753631430356805   0.014760434176949265
-0.04269502702605917   0.03753631430356805   0.014760434176949265
-0.04269502702605917   0.03753631430356805   0.014760434176949265
-0.04269502702605917   0.03753631430356805   0.014760434176949265
-0.4240793714833033   -0.044345478045621105   -0.00847977007328751
-0.4240793714833033   -0.044345478045621105   -0.00847977007328751
-0.4240793714833033   -0.044345478045621105   -0.00847977007328751
-0.4240793714833033   -0.044345478045621105   -0.00847977007328751
-0.44069875779024126   -0.05378024998557242   -0.003765287208832794
-0.44069875779024126   -0.05378024998557242   -0.003765287208832794
-0.44069875779024126   -0.05378024998557242   -0.003765287208832794
-0.44069875779024126   -0.05378024998557242   -0.003765287208832794
-0.0611911882766628   0.023002093799650566   0.014968259215928056
-0.0611911882766628   0.023002093799650566   0.014968259215928056
-0.0611911882766628   0.023002093799650566   0.014968259215928056
-0.0611911882766628   0.023002093799650566   0.014968259215928056
-0.24267258755429427   -0.007704172504445467   -0.007098829109068996
-0.24267258755429427   -0.007704172504445467   -0.007098829109068996
-0.24267258755429427   -0.007704172504445467   -0.007098829109068996
-0.24267258755429427   -0.007704172504445467   -0.007098829109068996
-0.36474301200439707   0.0704017341089683   0.01849069369386546
-0.36474301200439707   0.0704017341089683   0.01849069369386546
-0.36474301200439707   0.0704017341089683   0.01849069369386546
-0.36474301200439707   0.0704017341089683   0.01849069369386546
-0.7453749557975629   -0.029107306642599695   -0.023186262294004653
-0.7453749557975629   -0.029107306642599695   -0.023186262294004653
-0.7453749557975629   -0.029107306642599695   -0.023186262294004653
-0.7453749557975629   -0.029107306642599695   -0.023186262294004653
-0.7549627303165474   -0.01977972849564777   0.0019354905470467879
-0.7549627303165474   -0.01977972849564777   0.0019354905470467879
-0.7549627303165474   -0.01977972849564777   0.0019354905470467879
-0.7549627303165474   -0.01977972849564777   0.0019354905470467879
-0.3912893435354582   0.03561059443746513   -0.002912850064635479
-0.3912893435354582   0.03561059443746513   -0.002912850064635479
-0.3912893435354582   0.03561059443746513   -0.002912850064635479
-0.3912893435354582   0.03561059443746513   -0.002912850064635479
-0.5604182291616713   0.014983628213806416   0.006859729900517961
-0.5604182291616713   0.014983628213806416   0.006859729900517961
-0.5604182291616713   0.014983628213806416   0.006859729900517961
-0.5604182291616713   0.014983628213806416   0.006859729900517961
-0.38169629866702953   0.05884921122320064   0.02181375749177094
-0.38169629866702953   0.05884921122320064   0.02181375749177094
-0.38169629866702953   0.05884921122320064   0.02181375749177094
-0.38169629866702953   0.05884921122320064   0.02181375749177094
-0.7644721062772657   -0.042934676373674374   -0.02245644137852556
-0.7644721062772657   -0.042934676373674374   -0.02245644137852556
-0.7644721062772657   -0.042934676373674374   -0.02245644137852556
-0.7644721062772657   -0.042934676373674374   -0.02245644137852556
-0.7752531564760488   -0.031763409322827646   0.003111482231665068
-0.7752531564760488   -0.031763409322827646   0.003111482231665068
-0.7752531564760488   -0.031763409322827646   0.003111482231665068
-0.7752531564760488   -0.031763409322827646   0.003111482231665068
-0.40895808323309774   0.023111687003973702   -0.00033049387185444395
-0.40895808323309774   0.023111687003973702   -0.00033049387185444395
-0.40895808323309774   0.023111687003973702   -0.00033049387185444395
-0.40895808323309774   0.023111687003973702   -0.00033049387185444395
-0.575267706467517   0.004559749420877723   0.001955662714638387
-0.575267706467517   0.004559749420877723   0.001955662714638387
-0.575267706467517   0.004559749420877723   0.001955662714638387
-0.575267706467517   0.004559749420877723   0.001955662714638387
-0.3989616243238076   0.047854415164167996   0.02490907251440202
-0.3989616243238076   0.047854415164167996   0.02490907251440202
-0.3989616243238076   0.047854415164167996   0.02490907251440202
-0.3989616243238076   0.047854415164167996   0.02490907251440202
-0.7847372818786519   -0.05599380397633538   -0.02007875012784594
-0.7847372818786519   -0.05599380397633538   -0.02007875012784594
-0.7847372818786519   -0.05599380397633538   -0.02007875012784594
-0.7847372818786519   -0.05599380397633538   -0.02007875012784594
-0.7936473879784937   -0.044677554965228544   0.006873986246304982
-0.7936473879784937   -0.044677554965228544   0.006873986246304982
-0.7936473879784937   -0.044677554965228544   0.006873986246304982
-0.7936473879784937   -0.044677554965228544   0.006873986246304982
-0.42712346059492623   0.008792034223882972   0.0015389145582887266
-0.42712346059492623   0.008792034223882972   0.0015389145582887266
-0.42712346059492623   0.008792034223882972   0.0015389145582887266
-0.42712346059492623   0.008792034223882972   0.0015389145582887266
-0.5979791556432749   -0.008555745625317177   -0.0042875258177166135
-0.5979791556432749   -0.008555745625317177   -0.0042875258177166135
-0.5979791556432749   -0.008555745625317177   -0.0042875258177166135
-0.5979791556432749   -0.008555745625317177   -0.0042875258177166135
-0.7170684122879268   0.06314070729972948   0.026098441311846333
-0.7170684122879268   0.06314070729972948   0.026098441311846333
-0.7170684122879268   0.06314070729972948   0.026098441311846333
-0.7170684122879268   0.06314070729972948   0.026098441311846333
-1.0851655055078715   -0.05012372130724446   -0.02543390991453784
-1.0851655055078715   -0.05012372130724446   -0.02543390991453784
-1.0851655055078715   -0.05012372130724446   -0.02543390991453784
-1.0851655055078715   -0.05012372130724446   -0.02543390991453784
-1.0970980419306515   -0.011057727148593294   0.024026799090031567
-1.0970980419306515   -0.011057727148593294   0.024026799090031567
-1.0970980419306515   -0.011057727148593294   0.024026799090031567
-1.0970980419306515   -0.011057727148593294   0.024026799090031567
-0.7507360607605869   0.018105109824409354   -0.014815999993207235
-0.7507360607605869   0.018105109824409354   -0.014815999993207235
-0.7507360607605869   0.018105109824409354   -0.014815999993207235
-0.7507360607605869   0.018105109824409354   -0.014815999993207235
-0.87212168253477   0.014114456116282426   0.02141840519564317
-0.87212168253477   0.014114456116282426   0.02141840519564317
-0.87212168253477   0.014114456116282426   0.02141840519564317
-0.87212168253477   0.014114456116282426   0.02141840519564317
-0.7326400594712041   0.06315194398409352   0.03061717229401824
-0.7326400594712041   0.06315194398409352   0.03061717229401824
-0.7326400594712041   0.06315194398409352   0.03061717229401824
-0.7326400594712041   0.06315194398409352   0.03061717229401824
-1.1148938269040811   -0.05580434499232312   -0.02020550793337511
-1.1148938269040811   -0.05580434499232312   -0.02020550793337511
-1.1148938269040811   -0.05580434499232312   -0.02020550793337511
-1.1148938269040811   -0.05580434499232312   -0.02020550793337511
-1.1236727561805113   -0.01738465846194029   0.030047752484550362
-1.1236727561805113   -0.01738465846194029   0.030047752484550362
-1.1236727561805113   -0.01738465846194029   0.030047752484550362
-1.1236727561805113   -0.01738465846194029   0.030047752484550362
-0.7698092520378224   0.011253775296559576   -0.012686180196589729
-0.7698092520378224   0.011253775296559576   -0.012686180196589729
-0.7698092520378224   0.011253775296559576   -0.012686180196589729
-0.7698092520378224   0.011253775296559576   -0.012686180196589729
-0.9093739368216808   0.007063722441234155   0.013098196971969851
-0.9093739368216808   0.007063722441234155   0.013098196971969851
-0.9093739368216808   0.007063722441234155   0.013098196971969851
-0.9093739368216808   0.007063722441234155   0.013098196971969851
-0.750614379755266   0.05843821469062929   0.03610374182212208
-0.750614379755266   0.05843821469062929   0.03610374182212208
-0.750614379755266   0.05843821469062929   0.03610374182212208
-0.750614379755266   0.05843821469062929   0.03610374182212208
-1.1423664022570705   -0.06406787165000641   -0.016737264710171278
-1.1423664022570705   -0.06406787165000641   -0.016737264710171278
-1.1423664022570705   -0.06406787165000641   -0.016737264710171278
-1.1423664022570705   -0.06406787165000641   -0.016737264710171278
-1.1587500038210268   -0.03997852600450691   0.029472840332964143
-1.1587500038210268   -0.03997852600450691   0.029472840332964143
-1.1587500038210268   -0.03997852600450691   0.029472840332964143
-1.1587500038210268   -0.03997852600450691   0.029472840332964143
-0.7899622690140102   -0.00787748928071283   -0.01150048461579311
-0.7899622690140102   -0.00787748928071283   -0.01150048461579311
-0.7899622690140102   -0.00787748928071283   -0.01150048461579311
-0.7899622690140102   -0.00787748928071283   -0.01150048461579311
-0.9188087752588853   -0.001739154201365778   0.010352861126804142
-0.9188087752588853   -0.001739154201365778   0.010352861126804142
-0.9188087752588853   -0.001739154201365778   0.010352861126804142
-0.9188087752588853   -0.001739154201365778   0.010352861126804142
0.5068033667193084   0.028796252051733043   -0.03394077708985567
0.5068033667193084   0.028796252051733043   -0.03394077708985567
0.5068033667193084   0.028796252051733043   -0.03394077708985567
0.5068033667193084   0.028796252051733043   -0.03394077708985567
0.21646215769154115   0.013576690030726986   0.014513661468842332
0.21646215769154115   0.013576690030726986   0.014513661468842332
0.21646215769154115   0.013576690030726986   0.014513661468842332
0.21646215769154115   0.013576690030726986   0.014513661468842332
0.181519314035057   -0.04977028823197295   -0.031667862441608643
0.181519314035057   -0.04977028823197295   -0.031667862441608643
0.181519314035057   -0.04977028823197295   -0.031667862441608643
0.181519314035057   -0.04977028823197295   -0.031667862441608643
0.49505722576471634   0.05740000484535342   0.017640201225914733
0.49505722576471634   0.05740000484535342   0.017640201225914733
0.49505722576471634   0.05740000484535342   0.017640201225914733
0.49505722576471634   0.05740000484535342   0.017640201225914733
0.33143285607321316   0.0073350697695034744   -0.009050603677565477
0.33143285607321316   0.0073350697695034744   -0.009050603677565477
0.33143285607321316   0.0073350697695034744   -0.009050603677565477
0.33143285607321316   0.0073350697695034744   -0.009050603677565477
0.47551757538573364   0.009026106134795361   -0.03168415195844375
0.47551757538573364   0.009026106134795361   -0.03168415195844375
0.47551757538573364   0.009026106134795361   -0.03168415195844375
0.47551757538573364   0.009026106134795361   -0.03168415195844375
0.20069142832972117   -0.001763925605733345   0.01618634640547608
0.20069142832972117   -0.001763925605733345   0.01618634640547608
0.20069142832972117   -0.001763925605733345   0.01618634640547608
0.20069142832972117   -0.001763925605733345   0.01618634640547608
0.16664984518416473   -0.05552175694782449   -0.026972853912692635
0.16664984518416473   -0.05552175694782449   -0.026972853912692635
0.16664984518416473   -0.05552175694782449   -0.026972853912692635
0.16664984518416473   -0.05552175694782449   -0.026972853912692635
0.4705836649173072   0.049236109598371595   0.022765517104374196
0.4705836649173072   0.049236109598371595   0.022765517104374196
0.4705836649173072   0.049236109598371595   0.022765517104374196
0.4705836649173072   0.049236109598371595   0.022765517104374196
0.3161250518208183   -0.002167914734878748   -0.014674326380694117
0.3161250518208183   -0.002167914734878748   -0.014674326380694117
0.3161250518208183   -0.002167914734878748   -0.014674326380694117
0.3161250518208183   -0.002167914734878748   -0.014674326380694117
0.45135698674115793   0.001656574425426452   -0.025788338603431098
0.45135698674115793   0.001656574425426452   -0.025788338603431098
0.45135698674115793   0.001656574425426452   -0.025788338603431098
0.45135698674115793   0.001656574425426452   -0.025788338603431098
0.18533094801478195   -0.008487797120411839   0.019398700412982292
0.18533094801478195   -0.008487797120411839   0.019398700412982292
0.18533094801478195   -0.008487797120411839   0.019398700412982292
0.18533094801478195   -0.008487797120411839   0.019398700412982292
0.15336754192100033   -0.060689395361872144   -0.022486126584305627
0.15336754192100033   -0.060689395361872144   -0.022486126584305627
0.15336754192100033   -0.060689395361872144   -0.022486126584305627
0.15336754192100033   -0.060689395361872144   -0.022486126584305627
0.4419974139564194   0.03854245578205225   0.02600813251890593
0.4419974139564194   0.03854245578205225   0.02600813251890593
0.4419974139564194   0.03854245578205225   0.02600813251890593
0.4419974139564194   0.03854245578205225   0.02600813251890593
0.29003745424733784   -0.009942818608782218   -0.022428862292129582
0.29003745424733784   -0.009942818608782218   -0.022428862292129582
0.29003745424733784   -0.009942818608782218   -0.022428862292129582
0.29003745424733784   -0.009942818608782218   -0.022428862292129582
0.21802381310612035   0.04192627796121895   -0.006027649388757402
0.21802381310612035   0.04192627796121895   -0.006027649388757402
0.21802381310612035   0.04192627796121895   -0.006027649388757402
0.21802381310612035   0.04192627796121895   -0.006027649388757402
-0.06662637790001717   0.003462267170786456   0.0019138583986764391
-0.06662637790001717   0.003462267170786456   0.0019138583986764391
-0.06662637790001717   0.003462267170786456   0.0019138583986764391
-0.06662637790001717   0.003462267170786456   0.0019138583986764391
-0.0905158897191949   -0.03460533128046091   -0.01953551583586308
-0.0905158897191949   -0.03460533128046091   -0.01953551583586308
-0.0905158897191949   -0.03460533128046091   -0.01953551583586308
-0.0905158897191949   -0.03460533128046091   -0.01953551583586308
0.21208088116635057   0.05037301402102563   0.020996670961863948
0.21208088116635057   0.05037301402102563   0.020996670961863948
0.21208088116635057   0.05037301402102563   0.020996670961863948
0.21208088116635057   0.05037301402102563   0.020996670961863948
0.06674669533472766   0.014543306827755276   0.0025677394393714328
0.06674669533472766   0.014543306827755276   0.0025677394393714328
0.06674669533472766   0.014543306827755276   0.0025677394393714328
0.06674669533472766   0.014543306827755276   0.0025677394393714328
0.20262062637491193   0.027285631092226464   -0.0032172200665330055
0.20262062637491193   0.027285631092226464   -0.0032172200665330055
0.20262062637491193   0.027285631092226464   -0.0032172200665330055
0.20262062637491193   0.027285631092226464   -0.0032172200665330055
-0.08119833651841477   -0.011660649942325536   0.0041075688299041
-0.08119833651841477   -0.011660649942325536   0.0041075688299041
-0.08119833651841477   -0.011660649942325536   0.0041075688299041
-0.08119833651841477   -0.011660649942325536   0.0041075688299041
-0.10434247130714623   -0.046159996661029726   -0.01582167181406731
-0.10434247130714623   -0.046159996661029726   -0.01582167181406731
-0.10434247130714623   -0.046159996661029726   -0.01582167181406731
-0.10434247130714623   -0.046159996661029726   -0.01582167181406731
0.19511836694289433   0.037019565569895885   0.022828432363236555
0.19511836694289433   0.037019565569895885   0.022828432363236555
0.19511836694289433   0.037019565569895885   0.022828432363236555
0.19511836694289433   0.037019565569895885   0.022828432363236555
0.0496760747577265   0.0014486135361961843   -0.0037221861975232726
0.0496760747577265   0.0014486135361961843   -0.0037221861975232726
0.0496760747577265   0.0014486135361961843   -0.0037221861975232726
0.0496760747577265   0.0014486135361961843   -0.0037221861975232726
0.1859572626367099   0.01489398314249702   -0.0008515067402896891
0.1859572626367099   0.01489398314249702   -0.0008515067402896891
0.1859572626367099   0.01489398314249702   -0.0008515067402896891
0.1859572626367099   0.01489398314249702   -0.0008515067402896891
-0.09553909032729566   -0.024392137559965218   0.006427373984121047
-0.09553909032729566   -0.024392137559965218   0.006427373984121047
-0.09553909032729566   -0.024392137559965218   0.006427373984121047
-0.09553909032729566   -0.024392137559965218   0.006427373984121047
-0.1179826212558085   -0.057001327007856095   -0.012390711541402224
-0.1179826212558085   -0.057001327007856095   -0.012390711541402224
-0.1179826212558085   -0.057001327007856095   -0.012390711541402224
-0.1179826212558085   -0.057001327007856095   -0.012390711541402224
0.1798114211286908   0.024209599693693358   0.024834274398585113
0.1798114211286908   0.024209599693693358   0.024834274398585113
0.1798114211286908   0.024209599693693358   0.024834274398585113
0.1798114211286908   0.024209599693693358   0.024834274398585113
0.0360006685117044   -0.009391909200455448   -0.009269273981460237
0.0360006685117044   -0.009391909200455448   -0.009269273981460237
0.0360006685117044   -0.009391909200455448   -0.009269273981460237
0.0360006685117044   -0.009391909200455448   -0.009269273981460237
-0.05613053189429769   0.052993944677374935   0.0048614109206835295
-0.05613053189429769   0.052993944677374935   0.0048614109206835295
-0.05613053189429769   0.052993944677374935   0.0048614109206835295
-0.05613053189429769   0.052993944677374935   0.0048614109206835295
-0.3454863266247672   -0.008887089157245398   -0.010522549501250783
-0.3454863266247672   -0.008887089157245398   -0.010522549501250783
-0.3454863266247672   -0.008887089157245398   -0.010522549501250783
-0.3454863266247672   -0.008887089157245398   -0.010522549501250783
-0.35914001054145317   -0.02075717444936808   -0.007756537243201507
-0.35914001054145317   -0.02075717444936808   -0.007756537243201507
-0.35914001054145317   -0.02075717444936808   -0.007756537243201507
-0.35914001054145317   -0.02075717444936808   -0.007756537243201507
-0.07037722996145056   0.03840101426680434   0.00815143740559334
-0.07037722996145056   0.03840101426680434   0.00815143740559334
-0.07037722996145056   0.03840101426680434   0.00815143740559334
-0.07037722996145056   0.03840101426680434   0.00815143740559334
-0.20727486591382388   0.015190093117060176   0.004112680263261488
-0.20727486591382388   0.015190093117060176   0.004112680263261488
-0.20727486591382388   0.015190093117060176   0.004112680263261488
-0.20727486591382388   0.015190093117060176   0.004112680263261488
-0.06995831230460649   0.04029990053164276   0.008347139424975331
-0.06995831230460649   0.04029990053164276   0.008347139424975331
-0.06995831230460649   0.04029990053164276   0.008347139424975331
-0.06995831230460649   0.04029990053164276   0.008347139424975331
-0.359601370032502   -0.02269850254840096   -0.008122006599412427
-0.359601370032502   -0.02269850254840096   -0.008122006599412427
-0.359601370032502   -0.02269850254840096   -0.008122006599412427
-0.359601370032502   -0.02269850254840096   -0.008122006599412427
-0.37311156159875813   -0.03334652858667791   -0.004452832663116647
-0.37311156159875813   -0.03334652858667791   -0.004452832663116647
-0.37311156159875813   -0.03334652858667791   -0.004452832663116647
-0.37311156159875813   -0.03334652858667791   -0.004452832663116647
-0.08488755865603904   0.024659200324660468   0.010633694455776443
-0.08488755865603904   0.024659200324660468   0.010633694455776443
-0.08488755865603904   0.024659200324660468   0.010633694455776443
-0.08488755865603904   0.024659200324660468   0.010633694455776443
-0.22163823875680275   0.002923117482895893   -0.0012897847337418802
-0.22163823875680275   0.002923117482895893   -0.0012897847337418802
-0.22163823875680275   0.002923117482895893   -0.0012897847337418802
-0.22163823875680275   0.002923117482895893   -0.0012897847337418802
-0.08417003390874436   0.02759037265610887   0.011290145860803404
-0.08417003390874436   0.02759037265610887   0.011290145860803404
-0.08417003390874436   0.02759037265610887   0.011290145860803404
-0.08417003390874436   0.02759037265610887   0.011290145860803404
-0.3740572469595372   -0.03650586153161542   -0.0060219265220742
-0.3740572469595372   -0.03650586153161542   -0.0060219265220742
-0.3740572469595372   -0.03650586153161542   -0.0060219265220742
-0.3740572469595372   -0.03650586153161542   -0.0060219265220742
-0.3868434215756351   -0.0453694808331827   -0.0012373806492659966
-0.3868434215756351   -0.0453694808331827   -0.0012373806492659966
-0.3868434215756351   -0.0453694808331827   -0.0012373806492659966
-0.3868434215756351   -0.0453694808331827   -0.0012373806492659966
-0.09927875698267585   0.011307845542804312   0.012819437273598727
-0.09927875698267585   0.011307845542804312   0.012819437273598727
-0.09927875698267585   0.011307845542804312   0.012819437273598727
-0.09927875698267585   0.011307845542804312   0.012819437273598727
-0.2365970949097255   -0.009355962037972447   -0.007148060972767958
-0.2365970949097255   -0.009355962037972447   -0.007148060972767958
-0.2365970949097255   -0.009355962037972447   -0.007148060972767958
-0.2365970949097255   -0.009355962037972447   -0.007148060972767958
-0.32599715523377815   0.06251062465686819   0.015525593639580754
-0.32599715523377815   0.06251062465686819   0.015525593639580754
-0.32599715523377815   0.06251062465686819   0.015525593639580754
-0.32599715523377815   0.06251062465686819   0.015525593639580754
-0.6195728720583431   -0.021191770576739766   -0.021365696820881963
-0.6195728720583431   -0.021191770576739766   -0.021365696820881963
-0.6195728720583431   -0.021191770576739766   -0.021365696820881963
-0.6195728720583431   -0.021191770576739766   -0.021365696820881963
-0.6246920398650841   -0.009513560803469434   0.004869070060317539
-0.6246920398650841   -0.009513560803469434   0.004869070060317539
-0.6246920398650841   -0.009513560803469434   0.004869070060317539
-0.6246920398650841   -0.009513560803469434   0.004869070060317539
-0.3493299803826212   0.02504191793579634   -0.0045054788342132265
-0.3493299803826212   0.02504191793579634   -0.0045054788342132265
-0.3493299803826212   0.02504191793579634   -0.0045054788342132265
-0.3493299803826212   0.02504191793579634   -0.0045054788342132265
-0.47703671790616736   0.014345946190510994   0.005960983674469095
-0.47703671790616736   0.014345946190510994   0.005960983674469095
-0.47703671790616736   0.014345946190510994   0.005960983674469095
-0.47703671790616736   0.014345946190510994   0.005960983674469095
-0.3395720150778619   0.05033490272249072   0.018991362902896124
-0.3395720150778619   0.05033490272249072   0.018991362902896124
-0.3395720150778619   0.05033490272249072   0.018991362902896124
-0.3395720150778619   0.05033490272249072   0.018991362902896124
-0.6348818053600538   -0.03523834578037435   -0.020354972437634018
-0.6348818053600538   -0.03523834578037435   -0.020354972437634018
-0.6348818053600538   -0.03523834578037435   -0.020354972437634018
-0.6348818053600538   -0.03523834578037435   -0.020354972437634018
-0.6411681152470562   -0.021985377295829944   0.006394216643085614
-0.6411681152470562   -0.021985377295829944   0.006394216643085614
-0.6411681152470562   -0.021985377295829944   0.006394216643085614
-0.6411681152470562   -0.021985377295829944   0.006394216643085614
-0.3634523589698603   0.012374296476576063   -0.0018776445818888716
-0.3634523589698603   0.012374296476576063   -0.0018776445818888716
-0.3634523589698603   0.012374296476576063   -0.0018776445818888716
-0.3634523589698603   0.012374296476576063   -0.0018776445818888716
-0.48910306264946873   0.003237260760981242   0.0005487372975238811
-0.48910306264946873   0.003237260760981242   0.0005487372975238811
-0.48910306264946873   0.003237260760981242   0.0005487372975238811
-0.48910306264946873   0.003237260760981242   0.0005487372975238811
-0.3533422653160368   0.03875864449543208   0.022288475668376433
-0.3533422653160368   0.03875864449543208   0.022288475668376433
-0.3533422653160368   0.03875864449543208   0.022288475668376433
-0.3533422653160368   0.03875864449543208   0.022288475668376433
-0.6513187888799828   -0.048410305293784095   -0.017934223523597755
-0.6513187888799828   -0.048410305293784095   -0.017934223523597755
-0.6513187888799828   -0.048410305293784095   -0.017934223523597755
-0.6513187888799828   -0.048410305293784095   -0.017934223523597755
-0.655827724102941   -0.03528772598423445   0.00984437702571642
-0.655827724102941   -0.03528772598423445   0.00984437702571642
-0.655827724102941   -0.03528772598423445   0.00984437702571642
-0.655827724102941   -0.03528772598423445   0.00984437702571642
-0.377823699326703   -0.0016951712905093619   0.00018692105271346168
-0.377823699326703   -0.0016951712905093619   0.00018692105271346168
-0.377823699326703   -0.0016951712905093619   0.00018692105271346168
-0.377823699326703   -0.0016951712905093619   0.00018692105271346168
-0.5072872944618524   -0.009691295607697811   -0.005746864301077372
-0.5072872944618524   -0.009691295607697811   -0.005746864301077372
-0.5072872944618524   -0.009691295607697811   -0.005746864301077372
-0.5072872944618524   -0.009691295607697811   -0.005746864301077372
-0.5945942117622248   0.05795373853448854   0.024382095548480615
-0.5945942117622248   0.05795373853448854   0.024382095548480615
-0.5945942117622248   0.05795373853448854   0.024382095548480615
-0.5945942117622248   0.05795373853448854   0.024382095548480615
-0.8778027110842387   -0.0404852454209175   -0.02762938402964598
-0.8778027110842387   -0.0404852454209175   -0.02762938402964598
-0.8778027110842387   -0.0404852454209175   -0.02762938402964598
-0.8778027110842387   -0.0404852454209175   -0.02762938402964598
-0.886178674321491   -0.0011901799711381278   0.024150164589959527
-0.886178674321491   -0.0011901799711381278   0.024150164589959527
-0.886178674321491   -0.0011901799711381278   0.024150164589959527
-0.886178674321491   -0.0011901799711381278   0.024150164589959527
-0.6253357795306245   0.008680612607604304   -0.016543801678469437
-0.6253357795306245   0.008680612607604304   -0.016543801678469437
-0.6253357795306245   0.008680612607604304   -0.016543801678469437
-0.6253357795306245   0.008680612607604304   -0.016543801678469437
-0.7131264021580399   0.013360513580217614   0.01810921919969627
-0.7131264021580399   0.013360513580217614   0.01810921919969627
-0.7131264021580399   0.013360513580217614   0.01810921919969627
-0.7131264021580399   0.013360513580217614   0.01810921919969627
-0.606892258260828   0.05558996148218959   0.028764455795935145
-0.606892258260828   0.05558996148218959   0.028764455795935145
-0.606892258260828   0.05558996148218959   0.028764455795935145
-0.606892258260828   0.05558996148218959   0.028764455795935145
-0.9049926322530613   -0.048469965507499796   -0.022639839531522328
-0.9049926322530613   -0.048469965507499796   -0.022639839531522328
-0.9049926322530613   -0.048469965507499796   -0.022639839531522328
-0.9049926322530613   -0.048469965507499796   -0.022639839531522328
-0.909474306703751   -0.008056402683622038   0.0304279845684308
-0.909474306703751   -0.008056402683622038   0.0304279845684308
-0.909474306703751   -0.008056402683622038   0.0304279845684308
-0.909474306703751   -0.008056402683622038   0.0304279845684308
-0.6405204071564162   0.001735336201062837   -0.014087956400619057
-0.6405204071564162   0.001735336201062837   -0.014087956400619057
-0.6405204071564162   0.001735336201062837   -0.014087956400619057
-0.6405204071564162   0.001735336201062837   -0.014087956400619057
-0.7446468782113639   0.005478183945004517   0.009561872070804854
-0.7446468782113639   0.005478183945004517   0.009561872070804854
-0.7446468782113639   0.005478183945004517   0.009561872070804854
-0.7446468782113639   0.005478183945004517   0.009561872070804854
-0.621216445466509   0.0502858419167814   0.033881346333205976
-0.621216445466509   0.0502858419167814   0.033881346333205976
-0.621216445466509   0.0502858419167814   0.033881346333205976
-0.621216445466509   0.0502858419167814   0.033881346333205976
-0.9290450299303719   -0.05687366993605236   -0.018608364312239452
-0.9290450299303719   -0.05687366993605236   -0.018608364312239452
-0.9290450299303719   -0.05687366993605236   -0.018608364312239452
-0.9290450299303719   -0.05687366993605236   -0.018608364312239452
-0.9406383702826872   -0.02961273896702951   0.030499368221300595
-0.9406383702826872   -0.02961273896702951   0.030499368221300595
-0.9406383702826872   -0.02961273896702951   0.030499368221300595
-0.9406383702826872   -0.02961273896702951   0.030499368221300595
-0.6564176098342066   -0.01593404246597685   -0.012458735148881274
-0.6564176098342066   -0.01593404246597685   -0.012458735148881274
-0.6564176098342066   -0.01593404246597685   -0.012458735148881274
-0.6564176098342066   -0.01593404246597685   -0.012458735148881274
-0.7534221462515662   -0.0035419448915720853   0.005522621929368608
-0.7534221462515662   -0.0035419448915720853   0.005522621929368608
-0.7534221462515662   -0.0035419448915720853   0.005522621929368608
-0.7534221462515662   -0.0035419448915720853   0.005522621929368608
0.28083235719170774   0.016886503068166976   -0.03330747284412429
0.28083235719170774   0.016886503068166976   -0.03330747284412429
0.28083235719170774   0.016886503068166976   -0.03330747284412429
0.28083235719170774   0.016886503068166976   -0.03330747284412429
0.08226451214334635   0.019918930916885465   0.015882205146659854
0.08226451214334635   0.019918930916885465   0.015882205146659854
0.08226451214334635   0.019918930916885465   0.015882205146659854
0.08226451214334635   0.019918930916885465   0.015882205146659854
0.05128983349779125   -0.04075910638376981   -0.029387962652807006
0.05128983349779125   -0.04075910638376981   -0.029387962652807006
0.05128983349779125   -0.04075910638376981   -0.029387962652807006
0.05128983349779125   -0.04075910638376981   -0.029387962652807006
0.2732307204681212   0.04751722438894211   0.019107007564377526
0.2732307204681212   0.04751722438894211   0.019107007564377526
0.2732307204681212   0.04751722438894211   0.019107007564377526
0.2732307204681212   0.04751722438894211   0.019107007564377526
0.1618895397052356   0.007937470786819084   -0.0037259028095573393
0.1618895397052356   0.007937470786819084   -0.0037259028095573393
0.1618895397052356   0.007937470786819084   -0.0037259028095573393
0.1618895397052356   0.007937470786819084   -0.0037259028095573393
0.2536904383217491   -0.0005140238701097644   -0.030563154908433886
0.2536904383217491   -0.0005140238701097644   -0.030563154908433886
0.2536904383217491   -0.0005140238701097644   -0.030563154908433886
0.2536904383217491   -0.0005140238701097644   -0.030563154908433886
0.07022065732066524   0.0066626835517783825   0.017844366526014774
0.07022065732066524   0.0066626835517783825   0.017844366526014774
0.07022065732066524   0.0066626835517783825   0.017844366526014774
0.07022065732066524   0.0066626835517783825   0.017844366526014774
0.039603651884938015   -0.04650904289734378   -0.024980232341802834
0.039603651884938015   -0.04650904289734378   -0.024980232341802834
0.039603651884938015   -0.04650904289734378   -0.024980232341802834
0.039603651884938015   -0.04650904289734378   -0.024980232341802834
0.2522228447405515   0.039585654785920764   0.024574590118060978
0.2522228447405515   0.039585654785920764   0.024574590118060978
0.2522228447405515   0.039585654785920764   0.024574590118060978
0.2522228447405515   0.039585654785920764   0.024574590118060978
0.14728225279499493   -0.001055916727215403   -0.009543062676706958
0.14728225279499493   -0.001055916727215403   -0.009543062676706958
0.14728225279499493   -0.001055916727215403   -0.009543062676706958
0.14728225279499493   -0.001055916727215403   -0.009543062676706958
0.23278600411229516   -0.007901098025810079   -0.025122860211491488
0.23278600411229516   -0.007901098025810079   -0.025122860211491488
0.23278600411229516   -0.007901098025810079   -0.025122860211491488
0.23278600411229516   -0.007901098025810079   -0.025122860211491488
0.058221921097154974   0.00015913849834750526   0.02144293232359118
0.058221921097154974   0.00015913849834750526   0.02144293232359118
0.058221921097154974   0.00015913849834750526   0.02144293232359118
0.058221921097154974   0.00015913849834750526   0.02144293232359118
0.02916059840705082   -0.05338968317551976   -0.020815746719585516
0.02916059840705082   -0.05338968317551976   -0.020815746719585516
0.02916059840705082   -0.05338968317551976   -0.020815746719585516
0.02916059840705082   -0.05338968317551976   -0.020815746719585516
0.2261928882412399   0.02693456202825723   0.027307603680210814
0.2261928882412399   0.02693456202825723   0.027307603680210814
0.2261928882412399   0.02693456202825723   0.027307603680210814
0.2261928882412399   0.02693456202825723   0.027307603680210814
0.12694548252011295   -0.009041599029376315   -0.016680981740986978
0.12694548252011295   -0.009041599029376315   -0.016680981740986978
0.12694548252011295   -0.009041599029376315   -0.016680981740986978
0.12694548252011295   -0.009041599029376315   -0.016680981740986978
0.07925772297721852   0.030341461427561098   -0.00957427119465537
0.07925772297721852   0.030341461427561098   -0.00957427119465537
0.07925772297721852   0.030341461427561098   -0.00957427119465537
0.07925772297721852   0.030341461427561098   -0.00957427119465537
-0.11249160787586403   0.009616830931156027   0.003815756144328169
-0.11249160787586403   0.009616830931156027   0.003815756144328169
-0.11249160787586403   0.009616830931156027   0.003815756144328169
-0.11249160787586403   0.009616830931156027   0.003815756144328169
-0.13245069565476772   -0.026168049221726004   -0.01717706843077597
-0.13245069565476772   -0.026168049221726004   -0.01717706843077597
-0.13245069565476772   -0.026168049221726004   -0.01717706843077597
-0.13245069565476772   -0.026168049221726004   -0.01717706843077597
0.07650098258018023   0.03763580277059876   0.018272873604769292
0.07650098258018023   0.03763580277059876   0.018272873604769292
0.07650098258018023   0.03763580277059876   0.018272873604769292
0.07650098258018023   0.03763580277059876   0.018272873604769292
-0.02297217795173764   0.012310713173591139   0.0031627875349421047
-0.02297217795173764   0.012310713173591139   0.0031627875349421047
-0.02297217795173764   0.012310713173591139   0.0031627875349421047
-0.02297217795173764   0.012310713173591139   0.0031627875349421047
0.06706537185457992   0.015763918763143352   -0.007033296015776834
0.06706537185457992   0.015763918763143352   -0.007033296015776834
0.06706537185457992   0.015763918763143352   -0.007033296015776834
0.06706537185457992   0.015763918763143352   -0.007033296015776834
-0.12353746714020976   -0.00481854742531293   0.006039572345600833
-0.12353746714020976   -0.00481854742531293   0.006039572345600833
-0.12353746714020976   -0.00481854742531293   0.006039572345600833
-0.12353746714020976   -0.00481854742531293   0.006039572345600833
-0.1429025146084801   -0.03784429643016156   -0.013469996085676174
-0.1429025146084801   -0.03784429643016156   -0.013469996085676174
-0.1429025146084801   -0.03784429643016156   -0.013469996085676174
-0.1429025146084801   -0.03784429643016156   -0.013469996085676174
0.06278848860726703   0.024507926916266243   0.0199269814562327
0.06278848860726703   0.024507926916266243   0.0199269814562327
0.06278848860726703   0.024507926916266243   0.0199269814562327
0.06278848860726703   0.024507926916266243   0.0199269814562327
-0.03589875681668335   -0.0003076100244799422   -0.0028864808575373513
-0.03589875681668335   -0.0003076100244799422   -0.0028864808575373513
-0.03589875681668335   -0.0003076100244799422   -0.0028864808575373513
-0.03589875681668335   -0.0003076100244799422   -0.0028864808575373513
0.05362952879829092   0.0032367777782095616   -0.00459666845059163
0.05362952879829092   0.0032367777782095616   -0.00459666845059163
0.05362952879829092   0.0032367777782095616   -0.00459666845059163
0.05362952879829092   0.0032367777782095616   -0.00459666845059163
-0.1344200887522242   -0.01724968124482225   0.00834751801026613
-0.1344200887522242   -0.01724968124482225   0.00834751801026613
-0.1344200887522242   -0.01724968124482225   0.00834751801026613
-0.1344200887522242   -0.01724968124482225   0.00834751801026613
-0.15327291620375208   -0.04939824519619554   -0.010120612718416489
-0.15327291620375208   -0.04939824519619554   -0.010120612718416489
-0.15327291620375208   -0.04939824519619554   -0.010120612718416489
-0.15327291620375208   -0.04939824519619554   -0.010120612718416489
0.050781835750870065   0.011648057724438533   0.022252699099552405
0.050781835750870065   0.011648057724438533   0.022252699099552405
0.050781835750870065   0.011648057724438533   0.022252699099552405
0.050781835750870065   0.011648057724438533   0.022252699099552405
-0.04706172746902111   -0.011572902518423226   -0.008589894601690866
-0.04706172746902111   -0.011572902518423226   -0.008589894601690866
-0.04706172746902111   -0.011572902518423226   -0.008589894601690866
-0.04706172746902111   -0.011572902518423226   -0.008589894601690866
-0.10662531515315625   0.04128536097927631   0.0014786897097467874
-0.10662531515315625   0.04128536097927631   0.0014786897097467874
-0.10662531515315625   0.04128536097927631   0.0014786897097467874
-0.10662531515315625   0.04128536097927631   0.0014786897097467874
-0.30458756158688916   -0.0037856668055671755   -0.008409347331520812
-0.30458756158688916   -0.0037856668055671755   -0.008409347331520812
-0.30458756158688916   -0.0037856668055671755   -0.008409347331520812
-0.30458756158688916   -0.0037856668055671755   -0.008409347331520812
-0.31401197719965424   -0.012964869811365458   -0.0050432357470519985
-0.31401197719965424   -0.012964869811365458   -0.0050432357470519985
-0.31401197719965424   -0.012964869811365458   -0.0050432357470519985
-0.31401197719965424   -0.012964869811365458   -0.0050432357470519985
-0.11766141701604493   0.02478570617587275   0.005815569365235331
-0.11766141701604493   0.02478570617587275   0.005815569365235331
-0.11766141701604493   0.02478570617587275   0.005815569365235331
-0.11766141701604493   0.02478570617587275   0.005815569365235331
-0.21021761105698913   0.012062573436663289   0.0032673797026640094
-0.21021761105698913   0.012062573436663289   0.0032673797026640094
-0.21021761105698913   0.012062573436663289   0.0032673797026640094
-0.21021761105698913   0.012062573436663289   0.0032673797026640094
-0.11711143044362089   0.028411773641586816   0.0049394347616453435
-0.11711143044362089   0.028411773641586816   0.0049394347616453435
-0.11711143044362089   0.028411773641586816   0.0049394347616453435
-0.11711143044362089   0.028411773641586816   0.0049394347616453435
-0.31502048616488654   -0.017049459669882666   -0.006001190714700157
-0.31502048616488654   -0.017049459669882666   -0.006001190714700157
-0.31502048616488654   -0.017049459669882666   -0.006001190714700157
-0.31502048616488654   -0.017049459669882666   -0.006001190714700157
-0.3244204779181822   -0.025711820783642828   -0.0016884918235968473
-0.3244204779181822   -0.025711820783642828   -0.0016884918235968473
-0.3244204779181822   -0.025711820783642828   -0.0016884918235968473
-0.3244204779181822   -0.025711820783642828   -0.0016884918235968473
-0.1286920669486322   0.011471319928685837   0.0082666258547161
-0.1286920669486322   0.011471319928685837   0.0082666258547161
-0.1286920669486322   0.011471319928685837   0.0082666258547161
-0.1286920669486322   0.011471319928685837   0.0082666258547161
-0.22107467454632976   -5.021162003913948e-05   -0.0021519303136026367
-0.22107467454632976   -5.021162003913948e-05   -0.0021519303136026367
-0.22107467454632976   -5.021162003913948e-05   -0.0021519303136026367
-0.22107467454632976   -5.021162003913948e-05   -0.0021519303136026367
-0.12795417547082386   0.015503848920864451   0.007923554251581155
-0.12795417547082386   0.015503848920864451   0.007923554251581155
-0.12795417547082386   0.015503848920864451   0.007923554251581155
-0.12795417547082386   0.015503848920864451   0.007923554251581155
-0.3258097646643343   -0.03039574504416491   -0.003951001293835448
-0.3258097646643343   -0.03039574504416491   -0.003951001293835448
-0.3258097646643343   -0.03039574504416491   -0.003951001293835448
-0.3258097646643343   -0.03039574504416491   -0.003951001293835448
-0.33462540363930654   -0.038012758701654936   0.001563062707963827
-0.33462540363930654   -0.038012758701654936   0.001563062707963827
-0.33462540363930654   -0.038012758701654936   0.001563062707963827
-0.33462540363930654   -0.038012758701654936   0.001563062707963827
-0.1395385033807738   -0.0013504709443677744   0.010503677144647006
-0.1395385033807738   -0.0013504709443677744   0.010503677144647006
-0.1395385033807738   -0.0013504709443677744   0.010503677144647006
-0.1395385033807738   -0.0013504709443677744   0.010503677144647006
-0.23250140339230657   -0.012189813378354883   -0.008037707917478999
-0.23250140339230657   -0.012189813378354883   -0.008037707917478999
-0.23250140339230657   -0.012189813378354883   -0.008037707917478999
-0.23250140339230657   -0.012189813378354883   -0.008037707917478999
-0.2892350439398971   0.05171870769225029   0.012848866405622383
-0.2892350439398971   0.05171870769225029   0.012848866405622383
-0.2892350439398971   0.05171870769225029   0.012848866405622383
-0.2892350439398971   0.05171870769225029   0.012848866405622383
-0.4926327924080926   -0.01483221868709761   -0.019129039461907013
-0.4926327924080926   -0.01483221868709761   -0.019129039461907013
-0.4926327924080926   -0.01483221868709761   -0.019129039461907013
-0.4926327924080926   -0.01483221868709761   -0.019129039461907013
-0.4935600875233654   -0.0013416300887618693   0.007806888183709327
-0.4935600875233654   -0.0013416300887618693   0.007806888183709327
-0.4935600875233654   -0.0013416300887618693   0.007806888183709327
-0.4935600875233654   -0.0013416300887618693   0.007806888183709327
-0.3090565057764423   0.01276271197163012   -0.005993460413991975
-0.3090565057764423   0.01276271197163012   -0.005993460413991975
-0.3090565057764423   0.01276271197163012   -0.005993460413991975
-0.3090565057764423   0.01276271197163012   -0.005993460413991975
-0.39408424385106955   0.012046280709840124   0.004280647230799656
-0.39408424385106955   0.012046280709840124   0.004280647230799656
-0.39408424385106955   0.012046280709840124   0.004280647230799656
-0.39408424385106955   0.012046280709840124   0.004280647230799656
-0.29930401295998654   0.039212125262625075   0.016319590377295863
-0.29930401295998654   0.039212125262625075   0.016319590377295863
-0.29930401295998654   0.039212125262625075   0.016319590377295863
-0.29930401295998654   0.039212125262625075   0.016319590377295863
-0.5041910127376497   -0.028669475777590478   -0.01801989219888755
-0.5041910127376497   -0.028669475777590478   -0.01801989219888755
-0.5041910127376497   -0.028669475777590478   -0.01801989219888755
-0.5041910127376497   -0.028669475777590478   -0.01801989219888755
-0.5063782120716218   -0.013913189741840443   0.009610777427759558
-0.5063782120716218   -0.013913189741840443   0.009610777427759558
-0.5063782120716218   -0.013913189741840443   0.009610777427759558
-0.5063782120716218   -0.013913189741840443   0.009610777427759558
-0.3195197069877793   0.0004955708250612423   -0.0033920287802901225
-0.3195197069877793   0.0004955708250612423   -0.0033920287802901225
-0.3195197069877793   0.0004955708250612423   -0.0033920287802901225
-0.3195197069877793   0.0004955708250612423   -0.0033920287802901225
-0.4032928744359112   0.0007679908744399749   -0.001397915169336992
-0.4032928744359112   0.0007679908744399749   -0.001397915169336992
-0.4032928744359112   0.0007679908744399749   -0.001397915169336992
-0.4032928744359112   0.0007679908744399749   -0.001397915169336992
-0.3095085192288478   0.02747540792420171   0.0196840729152269
-0.3095085192288478   0.02747540792420171   0.0196840729152269
-0.3095085192288478   0.02747540792420171   0.0196840729152269
-0.3095085192288478   0.02747540792420171   0.0196840729152269
-0.516937656146489   -0.041441283156919737   -0.015658349531500693
-0.516937656146489   -0.041441283156919737   -0.015658349531500693
-0.516937656146489   -0.041441283156919737   -0.015658349531500693
-0.516937656146489   -0.041441283156919737   -0.015658349531500693
-0.5174412670071143   -0.02703270901582057   0.013116800106568832
-0.5174412670071143   -0.02703270901582057   0.013116800106568832
-0.5174412670071143   -0.02703270901582057   0.013116800106568832
-0.5174412670071143   -0.02703270901582057   0.013116800106568832
-0.3301161549039198   -0.012641934986534722   -0.0012615173302265963
-0.3301161549039198   -0.012641934986534722   -0.0012615173302265963
-0.3301161549039198   -0.012641934986534722   -0.0012615173302265963
-0.3301161549039198   -0.012641934986534722   -0.0012615173302265963
-0.41704296883545383   -0.011551431348416796   -0.007598679862501123
-0.41704296883545383   -0.011551431348416796   -0.007598679862501123
-0.41704296883545383   -0.011551431348416796   -0.007598679862501123
-0.41704296883545383   -0.011551431348416796   -0.007598679862501123
-0.4711038216125513   0.050930940370904135   0.022752655457805346
-0.4711038216125513   0.050930940370904135   0.022752655457805346
-0.4711038216125513   0.050930940370904135   0.022752655457805346
-0.4711038216125513   0.050930940370904135   0.022752655457805346
-0.6638718339740272   -0.030643299867922663   -0.028907422940366113
-0.6638718339740272   -0.030643299867922663   -0.028907422940366113
-0.6638718339740272   -0.030643299867922663   -0.028907422940366113
-0.6638718339740272   -0.030643299867922663   -0.028907422940366113
-0.6686832972466457   0.008102269754686448   0.023912001772993234
-0.6686832972466457   0.008102269754686448   0.023912001772993234
-0.6686832972466457   0.008102269754686448   0.023912001772993234
-0.6686832972466457   0.008102269754686448   0.023912001772993234
-0.4986484651630257   -0.0013424165232396312   -0.01763421358012221
-0.4986484651630257   -0.0013424165232396312   -0.01763421358012221
-0.4986484651630257   -0.0013424165232396312   -0.01763421358012221
-0.4986484651630257   -0.0013424165232396312   -0.01763421358012221
-0.5508062158924006   0.012120700056314021   0.013409377601532858
-0.5508062158924006   0.012120700056314021   0.013409377601532858
-0.5508062158924006   0.012120700056314021   0.013409377601532858
-0.5508062158924006   0.012120700056314021   0.013409377601532858
-0.480190824980429   0.04640056501271289   0.026911005796908798
-0.480190824980429   0.04640056501271289   0.026911005796908798
-0.480190824980429   0.04640056501271289   0.026911005796908798
-0.480190824980429   0.04640056501271289   0.026911005796908798
-0.6880774710814845   -0.04057724543350835   -0.024379352213006883
-0.6880774710814845   -0.04057724543350835   -0.024379352213006883
-0.6880774710814845   -0.04057724543350835   -0.024379352213006883
-0.6880774710814845   -0.04057724543350835   -0.024379352213006883
-0.6886645952938387   0.0010292104646526523   0.030525603054752486
-0.6886645952938387   0.0010292104646526523   0.030525603054752486
-0.6886645952938387   0.0010292104646526523   0.030525603054752486
-0.6886645952938387   0.0010292104646526523   0.030525603054752486
-0.5101793518410154   -0.008187038580845032   -0.015121072580211597
-0.5101793518410154   -0.008187038580845032   -0.015121072580211597
-0.5101793518410154   -0.008187038580845032   -0.015121072580211597
-0.5101793518410154   -0.008187038580845032   -0.015121072580211597
-0.5764196355128994   0.0037665278014814563   0.004930098652430201
-0.5764196355128994   0.0037665278014814563   0.004930098652430201
-0.5764196355128994   0.0037665278014814563   0.004930098652430201
-0.5764196355128994   0.0037665278014814563   0.004930098652430201
-0.4909450872809966   0.04086719482007081   0.03199601681897047
-0.4909450872809966   0.04086719482007081   0.03199601681897047
-0.4909450872809966   0.04086719482007081   0.03199601681897047
-0.4909450872809966   0.04086719482007081   0.03199601681897047
-0.7087820078543129   -0.048908170936712875   -0.02012407834623793
-0.7087820078543129   -0.048908170936712875   -0.02012407834623793
-0.7087820078543129   -0.048908170936712875   -0.02012407834623793
-0.7087820078543129   -0.048908170936712875   -0.02012407834623793
-0.71628128246102   -0.01911583971644676   0.03149595122555188
-0.71628128246102   -0.01911583971644676   0.03149595122555188
-0.71628128246102   -0.01911583971644676   0.03149595122555188
-0.71628128246102   -0.01911583971644676   0.03149595122555188
-0.5220835224083135   -0.023939933135643993   -0.013187252779610446
-0.5220835224083135   -0.023939933135643993   -0.013187252779610446
-0.5220835224083135   -0.023939933135643993   -0.013187252779610446
-0.5220835224083135   -0.023939933135643993   -0.013187252779610446
-0.5846581456041952   -0.0051419599576345565   -8.896731846609607e-05
-0.5846581456041952   -0.0051419599576345565   -8.896731846609607e-05
-0.5846581456041952   -0.0051419599576345565   -8.896731846609607e-05
-0.5846581456041952   -0.0051419599576345565   -8.896731846609607e-05
0.05408976911042304   0.004440224754144492   -0.03333658263412171
0.05408976911042304   0.004440224754144492   -0.03333658263412171
0.05408976911042304   0.004440224754144492   -0.03333658263412171
0.05408976911042304   0.004440224754144492   -0.03333658263412171
-0.05222866084071272   0.024911486623423476   0.016997586918520297
-0.05222866084071272   0.024911486623423476   0.016997586918520297
-0.05222866084071272   0.024911486623423476   0.016997586918520297
-0.05222866084071272   0.024911486623423476   0.016997586918520297
-0.0794017329469732   -0.032205868560321343   -0.026876003766845416
-0.0794017329469732   -0.032205868560321343   -0.026876003766845416
-0.0794017329469732   -0.032205868560321343   -0.026876003766845416
-0.0794017329469732   -0.032205868560321343   -0.026876003766845416
0.04997329800221876   0.035632242570935786   0.020841752868360663
0.04997329800221876   0.035632242570935786   0.020841752868360663
0.04997329800221876   0.035632242570935786   0.020841752868360663
0.04997329800221876   0.035632242570935786   0.020841752868360663
-0.008175763147893554   0.007825144249316478   0.0028761014703409865
-0.008175763147893554   0.007825144249316478   0.0028761014703409865
-0.008175763147893554   0.007825144249316478   0.0028761014703409865
-0.008175763147893554   0.007825144249316478   0.0028761014703409865
0.030549045736846345   -0.010808304373084564   -0.029838961514481066
0.030549045736846345   -0.010808304373084564   -0.029838961514481066
0.030549045736846345   -0.010808304373084564   -0.029838961514481066
0.030549045736846345   -0.010808304373084564   -0.029838961514481066
-0.06111803523059406   0.013094123834705738   0.019242492420023242
-0.06111803523059406   0.013094123834705738   0.019242492420023242
-0.06111803523059406   0.013094123834705738   0.019242492420023242
-0.06111803523059406   0.013094123834705738   0.019242492420023242
-0.08837291168567125   -0.038010199291729885   -0.022808923843954183
-0.08837291168567125   -0.038010199291729885   -0.022808923843954183
-0.08837291168567125   -0.038010199291729885   -0.022808923843954183
-0.08837291168567125   -0.038010199291729885   -0.022808923843954183
0.03154665923446695   0.02776073245019834   0.028618229661056153
0.03154665923446695   0.02776073245019834   0.028618229661056153
0.03154665923446695   0.02776073245019834   0.028618229661056153
0.03154665923446695   0.02776073245019834   0.028618229661056153
-0.022655970452017116   -0.0008754588232128312   -0.003813058793177476
-0.022655970452017116   -0.0008754588232128312   -0.003813058793177476
-0.022655970452017116   -0.0008754588232128312   -0.003813058793177476
-0.022655970452017116   -0.0008754588232128312   -0.003813058793177476
0.011664374635936316   -0.018372874529081054   -0.024659586352317606
0.011664374635936316   -0.018372874529081054   -0.024659586352317606
0.011664374635936316   -0.018372874529081054   -0.024659586352317606
0.011664374635936316   -0.018372874529081054   -0.024659586352317606
-0.07007685857352394   0.006537176201166114   0.024123966223885903
-0.07007685857352394   0.006537176201166114   0.024123966223885903
-0.07007685857352394   0.006537176201166114   0.024123966223885903
-0.07007685857352394   0.006537176201166114   0.024123966223885903
-0.09658764330899468   -0.046867944447177526   -0.018924397146743755
-0.09658764330899468   -0.046867944447177526   -0.018924397146743755
-0.09658764330899468   -0.046867944447177526   -0.018924397146743755
-0.09658764330899468   -0.046867944447177526   -0.018924397146743755
0.0059542777666324485   0.011303907687092024   0.03265855379427027
0.0059542777666324485   0.011303907687092024   0.03265855379427027
0.0059542777666324485   0.011303907687092024   0.03265855379427027
0.0059542777666324485   0.011303907687092024   0.03265855379427027
-0.038344346780567494   -0.009608493981883097   -0.01155255776611175
-0.038344346780567494   -0.009608493981883097   -0.01155255776611175
-0.038344346780567494   -0.009608493981883097   -0.01155255776611175
-0.038344346780567494   -0.009608493981883097   -0.01155255776611175
-0.05990121788453588   0.01673417947093467   -0.013187891148106748
-0.05990121788453588   0.01673417947093467   -0.013187891148106748
-0.05990121788453588   0.01673417947093467   -0.013187891148106748
-0.05990121788453588   0.01673417947093467   -0.013187891148106748
-0.1591668644456813   0.006709054648238753   0.004406380924654818
-0.1591668644456813   0.006709054648238753   0.004406380924654818
-0.1591668644456813   0.006709054648238753   0.004406380924654818
-0.1591668644456813   0.006709054648238753   0.004406380924654818
-0.17321992311672307   -0.018764174695573635   -0.014006108029189383
-0.17321992311672307   -0.018764174695573635   -0.014006108029189383
-0.17321992311672307   -0.018764174695573635   -0.014006108029189383
-0.17321992311672307   -0.018764174695573635   -0.014006108029189383
-0.06164302842885089   0.016316028489364087   0.013395621774080784
-0.06164302842885089   0.016316028489364087   0.013395621774080784
-0.06164302842885089   0.016316028489364087   0.013395621774080784
-0.06164302842885089   0.016316028489364087   0.013395621774080784
-0.11326387552644045   0.0049159179731558394   0.0026427551994075973
-0.11326387552644045   0.0049159179731558394   0.0026427551994075973
-0.11326387552644045   0.0049159179731558394   0.0026427551994075973
-0.11326387552644045   0.0049159179731558394   0.0026427551994075973
-0.06922019556695115   0.0026684627790060297   -0.010842648206062976
-0.06922019556695115   0.0026684627790060297   -0.010842648206062976
-0.06922019556695115   0.0026684627790060297   -0.010842648206062976
-0.06922019556695115   0.0026684627790060297   -0.010842648206062976
-0.16658446858918094   -0.006058321595773776   0.0064653115087215125
-0.16658446858918094   -0.006058321595773776   0.0064653115087215125
-0.16658446858918094   -0.006058321595773776   0.0064653115087215125
-0.16658446858918094   -0.006058321595773776   0.0064653115087215125
-0.18021226018585768   -0.030149952593016043   -0.01036166729706937
-0.18021226018585768   -0.030149952593016043   -0.01036166729706937
-0.18021226018585768   -0.030149952593016043   -0.01036166729706937
-0.18021226018585768   -0.030149952593016043   -0.01036166729706937
-0.0724419776829363   0.0037305564294804576   0.015104990448509738
-0.0724419776829363   0.0037305564294804576   0.015104990448509738
-0.0724419776829363   0.0037305564294804576   0.015104990448509738
-0.0724419776829363   0.0037305564294804576   0.015104990448509738
-0.12209516942236433   -0.00653046691025683   -0.003107863255464421
-0.12209516942236433   -0.00653046691025683   -0.003107863255464421
-0.12209516942236433   -0.00653046691025683   -0.003107863255464421
-0.12209516942236433   -0.00653046691025683   -0.003107863255464421
-0.07975133192391036   -0.009606398622157276   -0.008104825704722842
-0.07975133192391036   -0.009606398622157276   -0.008104825704722842
-0.07975133192391036   -0.009606398622157276   -0.008104825704722842
-0.07975133192391036   -0.009606398622157276   -0.008104825704722842
-0.17391495335100468   -0.01782504494749971   0.008799959231677295
-0.17391495335100468   -0.01782504494749971   0.008799959231677295
-0.17391495335100468   -0.01782504494749971   0.008799959231677295
-0.17391495335100468   -0.01782504494749971   0.008799959231677295
-0.18725064626718804   -0.04183615619566251   -0.007135888482894692
-0.18725064626718804   -0.04183615619566251   -0.007135888482894692
-0.18725064626718804   -0.04183615619566251   -0.007135888482894692
-0.18725064626718804   -0.04183615619566251   -0.007135888482894692
-0.08147829187851294   -0.008984857303473696   0.018739272861960143
-0.08147829187851294   -0.008984857303473696   0.018739272861960143
-0.08147829187851294   -0.008984857303473696   0.018739272861960143
-0.08147829187851294   -0.008984857303473696   0.018739272861960143
-0.13089503649162998   -0.01781460994828907   -0.008946350607942685
-0.13089503649162998   -0.01781460994828907   -0.008946350607942685
-0.13089503649162998   -0.01781460994828907   -0.008946350607942685
-0.13089503649162998   -0.01781460994828907   -0.008946350607942685
-0.15620982770268163   0.02729322774596374   -0.0013926084580738116
-0.15620982770268163   0.02729322774596374   -0.0013926084580738116
-0.15620982770268163   0.02729322774596374   -0.0013926084580738116
-0.15620982770268163   0.02729322774596374   -0.0013926084580738116
-0.2650022679314819   -0.009155158214790286   -0.007534926982876838
-0.2650022679314819   -0.009155158214790286   -0.007534926982876838
-0.2650022679314819   -0.009155158214790286   -0.007534926982876838
-0.2650022679314819   -0.009155158214790286   -0.007534926982876838
-0.26781652510195325   -0.006737531926083312   -0.0016455130586366593
-0.26781652510195325   -0.006737531926083312   -0.0016455130586366593
-0.26781652510195325   -0.006737531926083312   -0.0016455130586366593
-0.26781652510195325   -0.006737531926083312   -0.0016455130586366593
-0.16589691411017435   0.0017718352048934419   0.0020729271030871434
-0.16589691411017435   0.0017718352048934419   0.0020729271030871434
-0.16589691411017435   0.0017718352048934419   0.0020729271030871434
-0.16589691411017435   0.0017718352048934419   0.0020729271030871434
-0.21327960464124054   0.003076765744901677   0.0009423114269972131
-0.21327960464124054   0.003076765744901677   0.0009423114269972131
-0.21327960464124054   0.003076765744901677   0.0009423114269972131
-0.21327960464124054   0.003076765744901677   0.0009423114269972131
-0.16327717092287275   0.014906780975298219   0.0020366972691904656
-0.16327717092287275   0.014906780975298219   0.0020366972691904656
-0.16327717092287275   0.014906780975298219   0.0020366972691904656
-0.16327717092287275   0.014906780975298219   0.0020366972691904656
-0.27134402882104497   -0.0207802382282782   -0.005240325351900438
-0.27134402882104497   -0.0207802382282782   -0.005240325351900438
-0.27134402882104497   -0.0207802382282782   -0.005240325351900438
-0.27134402882104497   -0.0207802382282782   -0.005240325351900438
-0.2743772824000848   -0.018970395768857937   0.0017432628184651366
-0.2743772824000848   -0.018970395768857937   0.0017432628184651366
-0.2743772824000848   -0.018970395768857937   0.0017432628184651366
-0.2743772824000848   -0.018970395768857937   0.0017432628184651366
-0.17330537043095912   -0.010258305479262698   0.0042811343636680885
-0.17330537043095912   -0.010258305479262698   0.0042811343636680885
-0.17330537043095912   -0.010258305479262698   0.0042811343636680885
-0.17330537043095912   -0.010258305479262698   0.0042811343636680885
-0.22038550493968723   -0.008049023075249143   -0.004337995353944489
-0.22038550493968723   -0.008049023075249143   -0.004337995353944489
-0.22038550493968723   -0.008049023075249143   -0.004337995353944489
-0.22038550493968723   -0.008049023075249143   -0.004337995353944489
-0.17061162907617208   0.0024436578865830796   0.005047877771757523
-0.17061162907617208   0.0024436578865830796   0.005047877771757523
-0.17061162907617208   0.0024436578865830796   0.005047877771757523
-0.17061162907617208   0.0024436578865830796   0.005047877771757523
-0.27816603433697995   -0.03276736971681184   -0.0034035229180567677
-0.27816603433697995   -0.03276736971681184   -0.0034035229180567677
-0.27816603433697995   -0.03276736971681184   -0.0034035229180567677
-0.27816603433697995   -0.03276736971681184   -0.0034035229180567677
-0.28076494796653334   -0.030696951124521425   0.004997720829653642
-0.28076494796653334   -0.030696951124521425   0.004997720829653642
-0.28076494796653334   -0.030696951124521425   0.004997720829653642
-0.28076494796653334   -0.030696951124521425   0.004997720829653642
-0.18042714986534403   -0.021597576323040373   0.00674301365370129
-0.18042714986534403   -0.021597576323040373   0.00674301365370129
-0.18042714986534403   -0.021597576323040373   0.00674301365370129
-0.18042714986534403   -0.021597576323040373   0.00674301365370129
-0.2280318657881487   -0.019239713395062863   -0.010076424635394142
-0.2280318657881487   -0.019239713395062863   -0.010076424635394142
-0.2280318657881487   -0.019239713395062863   -0.010076424635394142
-0.2280318657881487   -0.019239713395062863   -0.010076424635394142
-0.2516309882038678   0.039356010611841866   0.010810302828565474
-0.2516309882038678   0.039356010611841866   0.010810302828565474
-0.2516309882038678   0.039356010611841866   0.010810302828565474
-0.2516309882038678   0.039356010611841866   0.010810302828565474
-0.3667979680213378   -0.015299771916040067   -0.01687339922003943
-0.3667979680213378   -0.015299771916040067   -0.01687339922003943
-0.3667979680213378   -0.015299771916040067   -0.01687339922003943
-0.3667979680213378   -0.015299771916040067   -0.01687339922003943
-0.36194498161299304   0.005602814764609221   0.011095529387454273
-0.36194498161299304   0.005602814764609221   0.011095529387454273
-0.36194498161299304   0.005602814764609221   0.011095529387454273
-0.36194498161299304   0.005602814764609221   0.011095529387454273
-0.26866800547792247   -0.005169503346132642   -0.007470943518433422
-0.26866800547792247   -0.005169503346132642   -0.007470943518433422
-0.26866800547792247   -0.005169503346132642   -0.007470943518433422
-0.26866800547792247   -0.005169503346132642   -0.007470943518433422
-0.3111576787202663   0.006157733691779563   0.001547031075608208
-0.3111576787202663   0.006157733691779563   0.001547031075608208
-0.3111576787202663   0.006157733691779563   0.001547031075608208
-0.3111576787202663   0.006157733691779563   0.001547031075608208
-0.25788171132168514   0.027045473107253422   0.014245550809367336
-0.25788171132168514   0.027045473107253422   0.014245550809367336
-0.25788171132168514   0.027045473107253422   0.014245550809367336
-0.25788171132168514   0.027045473107253422   0.014245550809367336
-0.37405752347127236   -0.02793840939082011   -0.01592595574852084
-0.37405752347127236   -0.02793840939082011   -0.01592595574852084
-0.37405752347127236   -0.02793840939082011   -0.01592595574852084
-0.37405752347127236   -0.02793840939082011   -0.01592595574852084
-0.3707296064683346   -0.006444527575927048   0.013117378695308352
-0.3707296064683346   -0.006444527575927048   0.013117378695308352
-0.3707296064683346   -0.006444527575927048   0.013117378695308352
-0.3707296064683346   -0.006444527575927048   0.013117378695308352
-0.27517122733106686   -0.01612261683087856   -0.005074240774424888
-0.27517122733106686   -0.01612261683087856   -0.005074240774424888
-0.27517122733106686   -0.01612261683087856   -0.005074240774424888
-0.27517122733106686   -0.01612261683087856   -0.005074240774424888
-0.3171194758332791   -0.004560387239482155   -0.004176198396925117
-0.3171194758332791   -0.004560387239482155   -0.004176198396925117
-0.3171194758332791   -0.004560387239482155   -0.004176198396925117
-0.3171194758332791   -0.004560387239482155   -0.004176198396925117
-0.26426650128152285   0.015741643542380855   0.01758512910003611
-0.26426650128152285   0.015741643542380855   0.01758512910003611
-0.26426650128152285   0.015741643542380855   0.01758512910003611
-0.26426650128152285   0.015741643542380855   0.01758512910003611
-0.3826816471701608   -0.03935610260146734   -0.013731249788290243
-0.3826816471701608   -0.03935610260146734   -0.013731249788290243
-0.3826816471701608   -0.03935610260146734   -0.013731249788290243
-0.3826816471701608   -0.03935610260146734   -0.013731249788290243
-0.37786819126697213   -0.018595082060353547   0.01672478366371629
-0.37786819126697213   -0.018595082060353547   0.01672478366371629
-0.37786819126697213   -0.018595082060353547   0.01672478366371629
-0.37786819126697213   -0.018595082060353547   0.01672478366371629
-0.2817011123151614   -0.027352489556400662   -0.003027562481610924
-0.2817011123151614   -0.027352489556400662   -0.003027562481610924
-0.2817011123151614   -0.027352489556400662   -0.003027562481610924
-0.2817011123151614   -0.027352489556400662   -0.003027562481610924
-0.32611298801782995   -0.015516861660041195   -0.010051362092059486
-0.32611298801782995   -0.015516861660041195   -0.010051362092059486
-0.32611298801782995   -0.015516861660041195   -0.010051362092059486
-0.32611298801782995   -0.015516861660041195   -0.010051362092059486
-0.34754911691788903   0.042680787506342535   0.02139029687482174
-0.34754911691788903   0.042680787506342535   0.02139029687482174
-0.34754911691788903   0.042680787506342535   0.02139029687482174
-0.34754911691788903   0.042680787506342535   0.02139029687482174
-0.44852807919338195   -0.022530227978511008   -0.028102532516305987
-0.44852807919338195   -0.022530227978511008   -0.028102532516305987
-0.44852807919338195   -0.022530227978511008   -0.028102532516305987
-0.44852807919338195   -0.022530227978511008   -0.028102532516305987
-0.44891900034563736   0.016846541570879947   0.023581112073071987
-0.44891900034563736   0.016846541570879947   0.023581112073071987
-0.44891900034563736   0.016846541570879947   0.023581112073071987
-0.44891900034563736   0.016846541570879947   0.023581112073071987
-0.37121205827033954   -0.012450646873367374   -0.01718639226130534
-0.37121205827033954   -0.012450646873367374   -0.01718639226130534
-0.37121205827033954   -0.012450646873367374   -0.01718639226130534
-0.37121205827033954   -0.012450646873367374   -0.01718639226130534
-0.3876641965176208   0.010032309152863239   0.007590456163452643
-0.3876641965176208   0.010032309152863239   0.007590456163452643
-0.3876641965176208   0.010032309152863239   0.007590456163452643
-0.3876641965176208   0.010032309152863239   0.007590456163452643
-0.3529645214011296   0.036367786656202106   0.025232858555174993
-0.3529645214011296   0.036367786656202106   0.025232858555174993
-0.3529645214011296   0.036367786656202106   0.025232858555174993
-0.3529645214011296   0.036367786656202106   0.025232858555174993
-0.46854770843229554   -0.03335306317613773   -0.024362823613201183
-0.46854770843229554   -0.03335306317613773   -0.024362823613201183
-0.46854770843229554   -0.03335306317613773   -0.024362823613201183
-0.46854770843229554   -0.03335306317613773   -0.024362823613201183
-0.4648928914848946   0.009967781838566656   0.030366569160726112
-0.4648928914848946   0.009967781838566656   0.030366569160726112
-0.4648928914848946   0.009967781838566656   0.030366569160726112
-0.4648928914848946   0.009967781838566656   0.030366569160726112
-0.3788224561101841   -0.01875011390977596   -0.015041283180094362
-0.3788224561101841   -0.01875011390977596   -0.015041283180094362
-0.3788224561101841   -0.01875011390977596   -0.015041283180094362
-0.3788224561101841   -0.01875011390977596   -0.015041283180094362
-0.40671865492405135   0.0016798852965753397   -0.00037702848049783397
-0.40671865492405135   0.0016798852965753397   -0.00037702848049783397
-0.40671865492405135   0.0016798852965753397   -0.00037702848049783397
-0.40671865492405135   0.0016798852965753397   -0.00037702848049783397
-0.3598239505934052   0.030957068569603452   0.030244061924420685
-0.3598239505934052   0.030957068569603452   0.030244061924420685
-0.3598239505934052   0.030957068569603452   0.030244061924420685
-0.3598239505934052   0.030957068569603452   0.030244061924420685
-0.4852942863549504   -0.04114228999408964   -0.0205303333568965
-0.4852942863549504   -0.04114228999408964   -0.0205303333568965
-0.4852942863549504   -0.04114228999408964   -0.0205303333568965
-0.4852942863549504   -0.04114228999408964   -0.0205303333568965
-0.4884535518298622   -0.0081581656821174   0.03209161390957131
-0.4884535518298622   -0.0081581656821174   0.03209161390957131
-0.4884535518298622   -0.0081581656821174   0.03209161390957131
-0.4884535518298622   -0.0081581656821174   0.03209161390957131
-0.38646690729646294   -0.03187233104236175   -0.012991547501729558
-0.38646690729646294   -0.03187233104236175   -0.012991547501729558
-0.38646690729646294   -0.03187233104236175   -0.012991547501729558
-0.38646690729646294   -0.03187233104236175   -0.012991547501729558
-0.4139726923691512   -0.00661475822892138   -0.00601196551051535
-0.4139726923691512   -0.00661475822892138   -0.00601196551051535
-0.4139726923691512   -0.00661475822892138   -0.00601196551051535
-0.4139726923691512   -0.00661475822892138   -0.00601196551051535
-0.18411531678284385   -0.011964422572161057   -0.035495303117271226
-0.18411531678284385   -0.011964422572161057   -0.035495303117271226
-0.18411531678284385   -0.011964422572161057   -0.035495303117271226
-0.18411531678284385   -0.011964422572161057   -0.035495303117271226
-0.18448940534154631   0.027034627207315323   0.015931370307286658
-0.18448940534154631   0.027034627207315323   0.015931370307286658
-0.18448940534154631   0.027034627207315323   0.015931370307286658
-0.18448940534154631   0.027034627207315323   0.015931370307286658
-0.2079691107905255   -0.024949114417198538   -0.024122623279566668
-0.2079691107905255   -0.024949114417198538   -0.024122623279566668
-0.2079691107905255   -0.024949114417198538   -0.024122623279566668
-0.2079691107905255   -0.024949114417198538   -0.024122623279566668
-0.18808523999354246   0.014533041189607042   0.02383927935765921
-0.18808523999354246   0.014533041189607042   0.02383927935765921
-0.18808523999354246   0.014533041189607042   0.02383927935765921
-0.18808523999354246   0.014533041189607042   0.02383927935765921
-0.18155767146433868   0.004651251173144057   0.016255848617757467
-0.18155767146433868   0.004651251173144057   0.016255848617757467
-0.18155767146433868   0.004651251173144057   0.016255848617757467
-0.18155767146433868   0.004651251173144057   0.016255848617757467
-0.20689245352528945   -0.025868339775442648   -0.029795407336023295
-0.20689245352528945   -0.025868339775442648   -0.029795407336023295
-0.20689245352528945   -0.025868339775442648   -0.029795407336023295
-0.20689245352528945   -0.025868339775442648   -0.029795407336023295
-0.19147365722996573   0.013140506576664407   0.02026502352936933
-0.19147365722996573   0.013140506576664407   0.02026502352936933
-0.19147365722996573   0.013140506576664407   0.02026502352936933
-0.19147365722996573   0.013140506576664407   0.02026502352936933
-0.21510008208828663   -0.03138209384401551   -0.020449160487259522
-0.21510008208828663   -0.03138209384401551   -0.020449160487259522
-0.21510008208828663   -0.03138209384401551   -0.020449160487259522
-0.21510008208828663   -0.03138209384401551   -0.020449160487259522
-0.20629578293500053   0.005800394563994955   0.04442731082348377
-0.20629578293500053   0.005800394563994955   0.04442731082348377
-0.20629578293500053   0.005800394563994955   0.04442731082348377
-0.20629578293500053   0.005800394563994955   0.04442731082348377
-0.19827741819821157   -0.006390523580266511   0.006542376372164989
-0.19827741819821157   -0.006390523580266511   0.006542376372164989
-0.19827741819821157   -0.006390523580266511   0.006542376372164989
-0.19827741819821157   -0.006390523580266511   0.006542376372164989
-0.22789739574315682   -0.03450649684016225   -0.023273861813138393
-0.22789739574315682   -0.03450649684016225   -0.023273861813138393
-0.22789739574315682   -0.03450649684016225   -0.023273861813138393
-0.22789739574315682   -0.03450649684016225   -0.023273861813138393
-0.1990053615154634   0.0034179053248115307   0.025224443208029537
-0.1990053615154634   0.0034179053248115307   0.025224443208029537
-0.1990053615154634   0.0034179053248115307   0.025224443208029537
-0.1990053615154634   0.0034179053248115307   0.025224443208029537
-0.22095164247467136   -0.04383403362431056   -0.016125232521438843
-0.22095164247467136   -0.04383403362431056   -0.016125232521438843
-0.22095164247467136   -0.04383403362431056   -0.016125232521438843
-0.22095164247467136   -0.04383403362431056   -0.016125232521438843
-0.2345708690334351   -0.02305983887226275   0.04155860489613784
-0.2345708690334351   -0.02305983887226275   0.04155860489613784
-0.2345708690334351   -0.02305983887226275   0.04155860489613784
-0.2345708690334351   -0.02305983887226275   0.04155860489613784
-0.21290585874381818   -0.01943039112094742   -0.00890369126869289
-0.21290585874381818   -0.01943039112094742   -0.00890369126869289
-0.21290585874381818   -0.01943039112094742   -0.00890369126869289
-0.21290585874381818   -0.01943039112094742   -0.00890369126869289
-0.19783562396206794   -0.005549160464642329   -0.018215935123363912
-0.19783562396206794   -0.005549160464642329   -0.018215935123363912
-0.19783562396206794   -0.005549160464642329   -0.018215935123363912
-0.19783562396206794   -0.005549160464642329   -0.018215935123363912
-0.20220709179889043   -0.024912357190071448   -0.0010705548404292102
-0.20220709179889043   -0.024912357190071448   -0.0010705548404292102
-0.20220709179889043   -0.024912357190071448   -0.0010705548404292102
-0.20220709179889043   -0.024912357190071448   -0.0010705548404292102
-0.20379968435515938   -0.016632110258428624   -0.009188416038574279
-0.20379968435515938   -0.016632110258428624   -0.009188416038574279
-0.20379968435515938   -0.016632110258428624   -0.009188416038574279
-0.20379968435515938   -0.016632110258428624   -0.009188416038574279
-0.20491947927857482   -0.03355167517952472   -0.0002719049574870561
-0.20491947927857482   -0.03355167517952472   -0.0002719049574870561
-0.20491947927857482   -0.03355167517952472   -0.0002719049574870561
-0.20491947927857482   -0.03355167517952472   -0.0002719049574870561
-0.20047760671837728   -0.02104026833737881   -0.0006125297036757996
-0.20047760671837728   -0.02104026833737881   -0.0006125297036757996
-0.20047760671837728   -0.02104026833737881   -0.0006125297036757996
-0.20047760671837728   -0.02104026833737881   -0.0006125297036757996
-0.20494618569032547   -0.01817929146408314   -0.015777820731680763
-0.20494618569032547   -0.01817929146408314   -0.015777820731680763
-0.20494618569032547   -0.01817929146408314   -0.015777820731680763
-0.20494618569032547   -0.01817929146408314   -0.015777820731680763
-0.20507171863552628   -0.033303234665987544   0.0011225369671502513
-0.20507171863552628   -0.033303234665987544   0.0011225369671502513
-0.20507171863552628   -0.033303234665987544   0.0011225369671502513
-0.20507171863552628   -0.033303234665987544   0.0011225369671502513
-0.20732222717058288   -0.02745896534941112   -0.005962368958286253
-0.20732222717058288   -0.02745896534941112   -0.005962368958286253
-0.20732222717058288   -0.02745896534941112   -0.005962368958286253
-0.20732222717058288   -0.02745896534941112   -0.005962368958286253
-0.21250973452370892   -0.04359101938639519   0.004711502878008774
-0.21250973452370892   -0.04359101938639519   0.004711502878008774
-0.21250973452370892   -0.04359101938639519   0.004711502878008774
-0.21250973452370892   -0.04359101938639519   0.004711502878008774
-0.20521768949513963   -0.029805233222881103   -0.00565127248193994
-0.20521768949513963   -0.029805233222881103   -0.00565127248193994
-0.20521768949513963   -0.029805233222881103   -0.00565127248193994
-0.20521768949513963   -0.029805233222881103   -0.00565127248193994
-0.21302929675372398   -0.029752809171728706   -0.011724518486733069
-0.21302929675372398   -0.029752809171728706   -0.011724518486733069
-0.21302929675372398   -0.029752809171728706   -0.011724518486733069
-0.21302929675372398   -0.029752809171728706   -0.011724518486733069
-0.20846204333831553   -0.04295655396182563   0.0038361388154631837
-0.20846204333831553   -0.04295655396182563   0.0038361388154631837
-0.20846204333831553   -0.04295655396182563   0.0038361388154631837
-0.20846204333831553   -0.04295655396182563   0.0038361388154631837
-0.21049930067667671   -0.03909093112946863   -0.002770087469850753
-0.21049930067667671   -0.03909093112946863   -0.002770087469850753
-0.21049930067667671   -0.03909093112946863   -0.002770087469850753
-0.21049930067667671   -0.03909093112946863   -0.002770087469850753
-0.21833374803591446   -0.056287482325786835   0.009417688373819654
-0.21833374803591446   -0.056287482325786835   0.009417688373819654
-0.21833374803591446   -0.056287482325786835   0.009417688373819654
-0.21833374803591446   -0.056287482325786835   0.009417688373819654
-0.2116799819708222   -0.040342983376467474   -0.012038162123740233
-0.2116799819708222   -0.040342983376467474   -0.012038162123740233
-0.2116799819708222   -0.040342983376467474   -0.012038162123740233
-0.2116799819708222   -0.040342983376467474   -0.012038162123740233
-0.19660883719970498   0.005360154601021801   -0.003351793635593311
-0.19660883719970498   0.005360154601021801   -0.003351793635593311
-0.19660883719970498   0.005360154601021801   -0.003351793635593311
-0.19660883719970498   0.005360154601021801   -0.003351793635593311
-0.22386590205703047   -0.042518623985833774   -0.010767645929064358
-0.22386590205703047   -0.042518623985833774   -0.010767645929064358
-0.22386590205703047   -0.042518623985833774   -0.010767645929064358
-0.22386590205703047   -0.042518623985833774   -0.010767645929064358
-0.21483560081809483   -0.007879791604954507   0.0027534797617678377
-0.21483560081809483   -0.007879791604954507   0.0027534797617678377
-0.21483560081809483   -0.007879791604954507   0.0027534797617678377
-0.21483560081809483   -0.007879791604954507   0.0027534797617678377
-0.2090890363044671   -0.045669011450009435   -0.006598274593532077
-0.2090890363044671   -0.045669011450009435   -0.006598274593532077
-0.2090890363044671   -0.045669011450009435   -0.006598274593532077
-0.2090890363044671   -0.045669011450009435   -0.006598274593532077
-0.2109513536399543   -0.023399212821871195   -0.004713629053479262
-0.2109513536399543   -0.023399212821871195   -0.004713629053479262
-0.2109513536399543   -0.023399212821871195   -0.004713629053479262
-0.2109513536399543   -0.023399212821871195   -0.004713629053479262
-0.19972550395305885   -0.005415327534667419   -3.42967518327051e-05
-0.19972550395305885   -0.005415327534667419   -3.42967518327051e-05
-0.19972550395305885   -0.005415327534667419   -3.42967518327051e-05
-0.19972550395305885   -0.005415327534667419   -3.42967518327051e-05
-0.2253806022437195   -0.04931494459451356   -0.008536374376800325
-0.2253806022437195   -0.04931494459451356   -0.008536374376800325
-0.2253806022437195   -0.04931494459451356   -0.008536374376800325
-0.2253806022437195   -0.04931494459451356   -0.008536374376800325
-0.21739679789332172   -0.01874144182146757   0.005956880115006343
-0.21739679789332172   -0.01874144182146757   0.005956880115006343
-0.21739679789332172   -0.01874144182146757   0.005956880115006343
-0.21739679789332172   -0.01874144182146757   0.005956880115006343
-0.2123870098113832   -0.05422114431406436   -0.004524103197636498
-0.2123870098113832   -0.05422114431406436   -0.004524103197636498
-0.2123870098113832   -0.05422114431406436   -0.004524103197636498
-0.2123870098113832   -0.05422114431406436   -0.004524103197636498
-0.21366073692567877   -0.031664033368301925   -0.009035114153501334
-0.21366073692567877   -0.031664033368301925   -0.009035114153501334
-0.21366073692567877   -0.031664033368301925   -0.009035114153501334
-0.21366073692567877   -0.031664033368301925   -0.009035114153501334
-0.2032937057251662   -0.016473287355800743   0.0031945602751849303
-0.2032937057251662   -0.016473287355800743   0.0031945602751849303
-0.2032937057251662   -0.016473287355800743   0.0031945602751849303
-0.2032937057251662   -0.016473287355800743   0.0031945602751849303
-0.22781002638227976   -0.05780922318247221   -0.007041480968779177
-0.22781002638227976   -0.05780922318247221   -0.007041480968779177
-0.22781002638227976   -0.05780922318247221   -0.007041480968779177
-0.22781002638227976   -0.05780922318247221   -0.007041480968779177
-0.21950019832988504   -0.028941838647233223   0.009094750497278026
-0.21950019832988504   -0.028941838647233223   0.009094750497278026
-0.21950019832988504   -0.028941838647233223   0.009094750497278026
-0.21950019832988504   -0.028941838647233223   0.009094750497278026
-0.21487432007033558   -0.06240092485753163   -0.0013351907100820279
-0.21487432007033558   -0.06240092485753163   -0.0013351907100820279
-0.21487432007033558   -0.06240092485753163   -0.0013351907100820279
-0.21487432007033558   -0.06240092485753163   -0.0013351907100820279
-0.2168759039570138   -0.04030292032925342   -0.013781788876892603
-0.2168759039570138   -0.04030292032925342   -0.013781788876892603
-0.2168759039570138   -0.04030292032925342   -0.013781788876892603
-0.2168759039570138   -0.04030292032925342   -0.013781788876892603
-0.20669542569933064   0.02217386563924119   0.010392246234359713
-0.20669542569933064   0.02217386563924119   0.010392246234359713
-0.20669542569933064   0.02217386563924119   0.010392246234359713
-0.20669542569933064   0.02217386563924119   0.010392246234359713
-0.2455441044526283   -0.03188757066785531   -0.015060636433751884
-0.2455441044526283   -0.03188757066785531   -0.015060636433751884
-0.2455441044526283   -0.03188757066785531   -0.015060636433751884
-0.2455441044526283   -0.03188757066785531   -0.015060636433751884
-0.2324720685258393   0.00643147891711187   0.014338030845690656
-0.2324720685258393   0.00643147891711187   0.014338030845690656
-0.2324720685258393   0.00643147891711187   0.014338030845690656
-0.2324720685258393   0.00643147891711187   0.014338030845690656
-0.22268149334123252   -0.03527394589178083   -0.009081828567094326
-0.22268149334123252   -0.03527394589178083   -0.009081828567094326
-0.22268149334123252   -0.03527394589178083   -0.009081828567094326
-0.22268149334123252   -0.03527394589178083   -0.009081828567094326
-0.22680829773716094   -0.009406338887638276   -0.0028135697961484338
-0.22680829773716094   -0.009406338887638276   -0.0028135697961484338
-0.22680829773716094   -0.009406338887638276   -0.0028135697961484338
-0.22680829773716094   -0.009406338887638276   -0.0028135697961484338
-0.208888483135202   0.01100203761696135   0.013607238954316071
-0.208888483135202   0.01100203761696135   0.013607238954316071
-0.208888483135202   0.01100203761696135   0.013607238954316071
-0.208888483135202   0.01100203761696135   0.013607238954316071
-0.24783700257628735   -0.04141642843605037   -0.014638732053387202
-0.24783700257628735   -0.04141642843605037   -0.014638732053387202
-0.24783700257628735   -0.04141642843605037   -0.014638732053387202
-0.24783700257628735   -0.04141642843605037   -0.014638732053387202
-0.2368441635499091   -0.004189037809349733   0.016266590552046083
-0.2368441635499091   -0.004189037809349733   0.016266590552046083
-0.2368441635499091   -0.004189037809349733   0.016266590552046083
-0.2368441635499091   -0.004189037809349733   0.016266590552046083
-0.22492321819610006   -0.043195628809982706   -0.007221034410370264
-0.22492321819610006   -0.043195628809982706   -0.007221034410370264
-0.22492321819610006   -0.043195628809982706   -0.007221034410370264
-0.22492321819610006   -0.043195628809982706   -0.007221034410370264
-0.2290506550295139   -0.018373732903589297   -0.007884982977759162
-0.2290506550295139   -0.018373732903589297   -0.007884982977759162
-0.2290506550295139   -0.018373732903589297   -0.007884982977759162
-0.2290506550295139   -0.018373732903589297   -0.007884982977759162
-0.21129164097921957   0.0010136609726567325   0.016727561891388913
-0.21129164097921957   0.0010136609726567325   0.016727561891388913
-0.21129164097921957   0.0010136609726567325   0.016727561891388913
-0.21129164097921957   0.0010136609726567325   0.016727561891388913
-0.25183724946277264   -0.04975983628797283   -0.0131280405336484
-0.25183724946277264   -0.04975983628797283   -0.0131280405336484
-0.25183724946277264   -0.04975983628797283   -0.0131280405336484
-0.25183724946277264   -0.04975983628797283   -0.0131280405336484
-0.23976141683980126   -0.014389827713949387   0.019846051255285345
-0.23976141683980126   -0.014389827713949387   0.019846051255285345
-0.23976141683980126   -0.014389827713949387   0.019846051255285345
-0.23976141683980126   -0.014389827713949387   0.019846051255285345
-0.22686682747954504   -0.051157697788764285   -0.005522536109490737
-0.22686682747954504   -0.051157697788764285   -0.005522536109490737
-0.22686682747954504   -0.051157697788764285   -0.005522536109490737
-0.22686682747954504   -0.051157697788764285   -0.005522536109490737
-0.2329313754501541   -0.02684574460746925   -0.01280624505543405
-0.2329313754501541   -0.02684574460746925   -0.01280624505543405
-0.2329313754501541   -0.02684574460746925   -0.01280624505543405
-0.2329313754501541   -0.02684574460746925   -0.01280624505543405
-0.22563216916621243   0.03182646199689877   0.02078500733357341
-0.22563216916621243   0.03182646199689877   0.02078500733357341
-0.22563216916621243   0.03182646199689877   0.02078500733357341
-0.22563216916621243   0.03182646199689877   0.02078500733357341
-0.24265382531852922   -0.019396634775143834   -0.021776513838933968
-0.24265382531852922   -0.019396634775143834   -0.021776513838933968
-0.24265382531852922   -0.019396634775143834   -0.021776513838933968
-0.24265382531852922   -0.019396634775143834   -0.021776513838933968
-0.23738317368648293   0.02237386180397616   0.023107266541571067
-0.23738317368648293   0.02237386180397616   0.023107266541571067
-0.23738317368648293   0.02237386180397616   0.023107266541571067
-0.23738317368648293   0.02237386180397616   0.023107266541571067
-0.24419037804326274   -0.02450805067167245   -0.013313987152642197
-0.24419037804326274   -0.02450805067167245   -0.013313987152642197
-0.24419037804326274   -0.02450805067167245   -0.013313987152642197
-0.24419037804326274   -0.02450805067167245   -0.013313987152642197
-0.22934074116583164   0.00560021967511469   0.0010090345253359456
-0.22934074116583164   0.00560021967511469   0.0010090345253359456
-0.22934074116583164   0.00560021967511469   0.0010090345253359456
-0.22934074116583164   0.00560021967511469   0.0010090345253359456
-0.22688933551576107   0.02465650924370355   0.024026665569486155
-0.22688933551576107   0.02465650924370355   0.024026665569486155
-0.22688933551576107   0.02465650924370355   0.024026665569486155
-0.22688933551576107   0.02465650924370355   0.024026665569486155
-0.25597212596815216   -0.02807860786556806   -0.01938502519723083
-0.25597212596815216   -0.02807860786556806   -0.01938502519723083
-0.25597212596815216   -0.02807860786556806   -0.01938502519723083
-0.25597212596815216   -0.02807860786556806   -0.01938502519723083
-0.2478336593917678   0.016402106079117275   0.02973102004595547
-0.2478336593917678   0.016402106079117275   0.02973102004595547
-0.2478336593917678   0.016402106079117275   0.02973102004595547
-0.2478336593917678   0.016402106079117275   0.02973102004595547
-0.2475214995547495   -0.02918065126636656   -0.012128476015142872
-0.2475214995547495   -0.02918065126636656   -0.012128476015142872
-0.2475214995547495   -0.02918065126636656   -0.012128476015142872
-0.2475214995547495   -0.02918065126636656   -0.012128476015142872
-0.24061475220613276   -0.0016247600814317045   -0.005009001191536857
-0.24061475220613276   -0.0016247600814317045   -0.005009001191536857
-0.24061475220613276   -0.0016247600814317045   -0.005009001191536857
-0.24061475220613276   -0.0016247600814317045   -0.005009001191536857
-0.22953882285540977   0.019863100516863005   0.02874115569832612
-0.22953882285540977   0.019863100516863005   0.02874115569832612
-0.22953882285540977   0.019863100516863005   0.02874115569832612
-0.22953882285540977   0.019863100516863005   0.02874115569832612
-0.2674857195013354   -0.03431102911434142   -0.017816145308431272
-0.2674857195013354   -0.03431102911434142   -0.017816145308431272
-0.2674857195013354   -0.03431102911434142   -0.017816145308431272
-0.2674857195013354   -0.03431102911434142   -0.017816145308431272
-0.26614187501908904   0.0011424023909142114   0.03175708738727636
-0.26614187501908904   0.0011424023909142114   0.03175708738727636
-0.26614187501908904   0.0011424023909142114   0.03175708738727636
-0.26614187501908904   0.0011424023909142114   0.03175708738727636
-0.2505713631787672   -0.03805884344520421   -0.010534664708293699
-0.2505713631787672   -0.03805884344520421   -0.010534664708293699
-0.2505713631787672   -0.03805884344520421   -0.010534664708293699
-0.2505713631787672   -0.03805884344520421   -0.010534664708293699
-0.2459526230506363   -0.008292482635292961   -0.010415010009622985
-0.2459526230506363   -0.008292482635292961   -0.010415010009622985
-0.2459526230506363   -0.008292482635292961   -0.010415010009622985
-0.2459526230506363   -0.008292482635292961   -0.010415010009622985
-0.4763752624665048   -0.043618630160525695   -0.04544905940695988
-0.4763752624665048   -0.043618630160525695   -0.04544905940695988
-0.4763752624665048   -0.043618630160525695   -0.04544905940695988
-0.4763752624665048   -0.043618630160525695   -0.04544905940695988
-0.3032781300418599   0.025480844859439702   0.010680221952430811
-0.3032781300418599   0.025480844859439702   0.010680221952430811
-0.3032781300418599   0.025480844859439702   0.010680221952430811
-0.3032781300418599   0.025480844859439702   0.010680221952430811
-0.31858307925755197   -0.02040962553979396   -0.020376215025336295
-0.31858307925755197   -0.02040962553979396   -0.020376215025336295
-0.31858307925755197   -0.02040962553979396   -0.020376215025336295
-0.31858307925755197   -0.02040962553979396   -0.020376215025336295
-0.5070221198929539   -0.057689019173324266   0.05069114170507838
-0.5070221198929539   -0.057689019173324266   0.05069114170507838
-0.5070221198929539   -0.057689019173324266   0.05069114170507838
-0.5070221198929539   -0.057689019173324266   0.05069114170507838
-0.36880062981342443   -0.014230489198181713   0.049286114118834455
-0.36880062981342443   -0.014230489198181713   0.049286114118834455
-0.36880062981342443   -0.014230489198181713   0.049286114118834455
-0.36880062981342443   -0.014230489198181713   0.049286114118834455
-0.5251615432729873   -0.06432422850957945   -0.03337076585882838
-0.5251615432729873   -0.06432422850957945   -0.03337076585882838
-0.5251615432729873   -0.06432422850957945   -0.03337076585882838
-0.5251615432729873   -0.06432422850957945   -0.03337076585882838
-0.31321656939194126   -0.026547329717961213   0.012594038480880986
-0.31321656939194126   -0.026547329717961213   0.012594038480880986
-0.31321656939194126   -0.026547329717961213   0.012594038480880986
-0.31321656939194126   -0.026547329717961213   0.012594038480880986
-0.32366274660497885   -0.02949858277801113   -0.01470061221656835
-0.32366274660497885   -0.02949858277801113   -0.01470061221656835
-0.32366274660497885   -0.02949858277801113   -0.01470061221656835
-0.32366274660497885   -0.02949858277801113   -0.01470061221656835
-0.5234355887819091   -0.08053294820360525   0.001101557623072888
-0.5234355887819091   -0.08053294820360525   0.001101557623072888
-0.5234355887819091   -0.08053294820360525   0.001101557623072888
-0.5234355887819091   -0.08053294820360525   0.001101557623072888
-0.4087118223234165   -0.04858790425865937   0.011441148278780258
-0.4087118223234165   -0.04858790425865937   0.011441148278780258
-0.4087118223234165   -0.04858790425865937   0.011441148278780258
-0.4087118223234165   -0.04858790425865937   0.011441148278780258
-0.5274828908887885   -0.07271339117870357   -0.026954509936220908
-0.5274828908887885   -0.07271339117870357   -0.026954509936220908
-0.5274828908887885   -0.07271339117870357   -0.026954509936220908
-0.5274828908887885   -0.07271339117870357   -0.026954509936220908
-0.3234658443796632   -0.04116853968447637   -0.002046144183528553
-0.3234658443796632   -0.04116853968447637   -0.002046144183528553
-0.3234658443796632   -0.04116853968447637   -0.002046144183528553
-0.3234658443796632   -0.04116853968447637   -0.002046144183528553
-0.32405677337331457   -0.05141940079704875   -0.010753300387912702
-0.32405677337331457   -0.05141940079704875   -0.010753300387912702
-0.32405677337331457   -0.05141940079704875   -0.010753300387912702
-0.32405677337331457   -0.05141940079704875   -0.010753300387912702
-0.5362995433718871   -0.1228612456122806   0.007845135774876957
-0.5362995433718871   -0.1228612456122806   0.007845135774876957
-0.5362995433718871   -0.1228612456122806   0.007845135774876957
-0.5362995433718871   -0.1228612456122806   0.007845135774876957
-0.4084868809828095   -0.0667453877847551   0.0009239200548681612
-0.4084868809828095   -0.0667453877847551   0.0009239200548681612
-0.4084868809828095   -0.0667453877847551   0.0009239200548681612
-0.4084868809828095   -0.0667453877847551   0.0009239200548681612
-0.32746552098472576   -0.05558759136636991   -0.029188296536086195
-0.32746552098472576   -0.05558759136636991   -0.029188296536086195
-0.32746552098472576   -0.05558759136636991   -0.029188296536086195
-0.32746552098472576   -0.05558759136636991   -0.029188296536086195
-0.22587093282257206   -0.14698414778772076   -0.027508809811650405
-0.22587093282257206   -0.14698414778772076   -0.027508809811650405
-0.22587093282257206   -0.14698414778772076   -0.027508809811650405
-0.22587093282257206   -0.14698414778772076   -0.027508809811650405
-0.19833800692091821   -0.032545680210270884   -0.001823402468874536
-0.19833800692091821   -0.032545680210270884   -0.001823402468874536
-0.19833800692091821   -0.032545680210270884   -0.001823402468874536
-0.19833800692091821   -0.032545680210270884   -0.001823402468874536
-0.34846756370415993   -0.1556286908718804   -0.03457957192629321
-0.34846756370415993   -0.1556286908718804   -0.03457957192629321
-0.34846756370415993   -0.1556286908718804   -0.03457957192629321
-0.34846756370415993   -0.1556286908718804   -0.03457957192629321
-0.27186601687333667   -0.10362042027122834   -0.007951275681224005
-0.27186601687333667   -0.10362042027122834   -0.007951275681224005
-0.27186601687333667   -0.10362042027122834   -0.007951275681224005
-0.27186601687333667   -0.10362042027122834   -0.007951275681224005
-0.32730149701399586   -0.06237440300381813   -0.02200352634353311
-0.32730149701399586   -0.06237440300381813   -0.02200352634353311
-0.32730149701399586   -0.06237440300381813   -0.02200352634353311
-0.32730149701399586   -0.06237440300381813   -0.02200352634353311
-0.22082625774910877   -0.1271221522163596   -0.019688184603740517
-0.22082625774910877   -0.1271221522163596   -0.019688184603740517
-0.22082625774910877   -0.1271221522163596   -0.019688184603740517
-0.22082625774910877   -0.1271221522163596   -0.019688184603740517
-0.20074957974981478   -0.04213725694970843   0.00022016028754842437
-0.20074957974981478   -0.04213725694970843   0.00022016028754842437
-0.20074957974981478   -0.04213725694970843   0.00022016028754842437
-0.20074957974981478   -0.04213725694970843   0.00022016028754842437
-0.3498618023053858   -0.15480744278200212   -0.020387030714616117
-0.3498618023053858   -0.15480744278200212   -0.020387030714616117
-0.3498618023053858   -0.15480744278200212   -0.020387030714616117
-0.3498618023053858   -0.15480744278200212   -0.020387030714616117
-0.26895270417662825   -0.09712538788823766   -0.008449538113731862
-0.26895270417662825   -0.09712538788823766   -0.008449538113731862
-0.26895270417662825   -0.09712538788823766   -0.008449538113731862
-0.26895270417662825   -0.09712538788823766   -0.008449538113731862
-0.3324947413987075   -0.071835129274701   -0.016524039688521692
-0.3324947413987075   -0.071835129274701   -0.016524039688521692
-0.3324947413987075   -0.071835129274701   -0.016524039688521692
-0.3324947413987075   -0.071835129274701   -0.016524039688521692
-0.22087009948559727   -0.1278630292861137   -0.014656666054962623
-0.22087009948559727   -0.1278630292861137   -0.014656666054962623
-0.22087009948559727   -0.1278630292861137   -0.014656666054962623
-0.22087009948559727   -0.1278630292861137   -0.014656666054962623
-0.2008493023483731   -0.05404597010612409   0.003140803784592026
-0.2008493023483731   -0.05404597010612409   0.003140803784592026
-0.2008493023483731   -0.05404597010612409   0.003140803784592026
-0.2008493023483731   -0.05404597010612409   0.003140803784592026
-0.34915256677372475   -0.1572515728846428   -0.030400095302374155
-0.34915256677372475   -0.1572515728846428   -0.030400095302374155
-0.34915256677372475   -0.1572515728846428   -0.030400095302374155
-0.34915256677372475   -0.1572515728846428   -0.030400095302374155
-0.2731803471393288   -0.10443599040234731   -0.01571341310148146
-0.2731803471393288   -0.10443599040234731   -0.01571341310148146
-0.2731803471393288   -0.10443599040234731   -0.01571341310148146
-0.2731803471393288   -0.10443599040234731   -0.01571341310148146
-0.19864665128945633   -0.03582962886105382   -0.002541921072738697
-0.19864665128945633   -0.03582962886105382   -0.002541921072738697
-0.19864665128945633   -0.03582962886105382   -0.002541921072738697
-0.19864665128945633   -0.03582962886105382   -0.002541921072738697
-0.167492501787304   -0.11264006855036479   -0.019442559091151466
-0.167492501787304   -0.11264006855036479   -0.019442559091151466
-0.167492501787304   -0.11264006855036479   -0.019442559091151466
-0.167492501787304   -0.11264006855036479   -0.019442559091151466
-0.14438315490984532   -0.029876723534240424   0.007657283590691193
-0.14438315490984532   -0.029876723534240424   0.007657283590691193
-0.14438315490984532   -0.029876723534240424   0.007657283590691193
-0.14438315490984532   -0.029876723534240424   0.007657283590691193
-0.22019516121588234   -0.12223169018433289   -0.021423163969635013
-0.22019516121588234   -0.12223169018433289   -0.021423163969635013
-0.22019516121588234   -0.12223169018433289   -0.021423163969635013
-0.22019516121588234   -0.12223169018433289   -0.021423163969635013
-0.18188621803546468   -0.07616426548525501   -0.008954445732586466
-0.18188621803546468   -0.07616426548525501   -0.008954445732586466
-0.18188621803546468   -0.07616426548525501   -0.008954445732586466
-0.18188621803546468   -0.07616426548525501   -0.008954445732586466
-0.199886328662031   -0.04244246106646503   0.0003317696817538106
-0.199886328662031   -0.04244246106646503   0.0003317696817538106
-0.199886328662031   -0.04244246106646503   0.0003317696817538106
-0.199886328662031   -0.04244246106646503   0.0003317696817538106
-0.16587019900057864   -0.11084416418899028   -0.018810496208225592
-0.16587019900057864   -0.11084416418899028   -0.018810496208225592
-0.16587019900057864   -0.11084416418899028   -0.018810496208225592
-0.16587019900057864   -0.11084416418899028   -0.018810496208225592
-0.1445722001481323   -0.03776635703087804   0.00993502355504422
-0.1445722001481323   -0.03776635703087804   0.00993502355504422
-0.1445722001481323   -0.03776635703087804   0.00993502355504422
-0.1445722001481323   -0.03776635703087804   0.00993502355504422
-0.22102692205739982   -0.1241666009816352   -0.019137207218453894
-0.22102692205739982   -0.1241666009816352   -0.019137207218453894
-0.22102692205739982   -0.1241666009816352   -0.019137207218453894
-0.22102692205739982   -0.1241666009816352   -0.019137207218453894
-0.1816790813517468   -0.07911280074006619   -0.011623506213192768
-0.1816790813517468   -0.07911280074006619   -0.011623506213192768
-0.1816790813517468   -0.07911280074006619   -0.011623506213192768
-0.1816790813517468   -0.07911280074006619   -0.011623506213192768
-0.20171769586286026   -0.05044499694192563   0.0036873197145342465
-0.20171769586286026   -0.05044499694192563   0.0036873197145342465
-0.20171769586286026   -0.05044499694192563   0.0036873197145342465
-0.20171769586286026   -0.05044499694192563   0.0036873197145342465
-0.1645315030364854   -0.11213803776440115   -0.015489810153198006
-0.1645315030364854   -0.11213803776440115   -0.015489810153198006
-0.1645315030364854   -0.11213803776440115   -0.015489810153198006
-0.1645315030364854   -0.11213803776440115   -0.015489810153198006
-0.14302588360960894   -0.045279959353041695   0.012421200351641001
-0.14302588360960894   -0.045279959353041695   0.012421200351641001
-0.14302588360960894   -0.045279959353041695   0.012421200351641001
-0.14302588360960894   -0.045279959353041695   0.012421200351641001
-0.21856092970228136   -0.12570089737499723   -0.013762405716076218
-0.21856092970228136   -0.12570089737499723   -0.013762405716076218
-0.21856092970228136   -0.12570089737499723   -0.013762405716076218
-0.21856092970228136   -0.12570089737499723   -0.013762405716076218
-0.18128932689246258   -0.0830211803054399   -0.013497369283275036
-0.18128932689246258   -0.0830211803054399   -0.013497369283275036
-0.18128932689246258   -0.0830211803054399   -0.013497369283275036
-0.18128932689246258   -0.0830211803054399   -0.013497369283275036
-0.13932257451307606   -0.004898113039391479   0.013665121769014986
-0.13932257451307606   -0.004898113039391479   0.013665121769014986
-0.13932257451307606   -0.004898113039391479   0.013665121769014986
-0.13932257451307606   -0.004898113039391479   0.013665121769014986
-0.13260586290936438   -0.05980219277539671   -0.011718839791916588
-0.13260586290936438   -0.05980219277539671   -0.011718839791916588
-0.13260586290936438   -0.05980219277539671   -0.011718839791916588
-0.13260586290936438   -0.05980219277539671   -0.011718839791916588
-0.11447449611920636   -0.008656271729850045   0.015799545020533465
-0.11447449611920636   -0.008656271729850045   0.015799545020533465
-0.11447449611920636   -0.008656271729850045   0.015799545020533465
-0.11447449611920636   -0.008656271729850045   0.015799545020533465
-0.15537040860256518   -0.06888798471918131   -0.008267723687967082
-0.15537040860256518   -0.06888798471918131   -0.008267723687967082
-0.15537040860256518   -0.06888798471918131   -0.008267723687967082
-0.15537040860256518   -0.06888798471918131   -0.008267723687967082
-0.1358884151613356   -0.03521828308403302   -0.0048663988341784955
-0.1358884151613356   -0.03521828308403302   -0.0048663988341784955
-0.1358884151613356   -0.03521828308403302   -0.0048663988341784955
-0.1358884151613356   -0.03521828308403302   -0.0048663988341784955
-0.1395210039455031   -0.013672682769653072   0.015763997647815057
-0.1395210039455031   -0.013672682769653072   0.015763997647815057
-0.1395210039455031   -0.013672682769653072   0.015763997647815057
-0.1395210039455031   -0.013672682769653072   0.015763997647815057
-0.1315865886492905   -0.06513426155240032   -0.01328292780733682
-0.1315865886492905   -0.06513426155240032   -0.01328292780733682
-0.1315865886492905   -0.06513426155240032   -0.01328292780733682
-0.1315865886492905   -0.06513426155240032   -0.01328292780733682
-0.1147713908770152   -0.016322417988912725   0.016993192375894754
-0.1147713908770152   -0.016322417988912725   0.016993192375894754
-0.1147713908770152   -0.016322417988912725   0.016993192375894754
-0.1147713908770152   -0.016322417988912725   0.016993192375894754
-0.1554611179250787   -0.07309672933769837   -0.009179193022867236
-0.1554611179250787   -0.07309672933769837   -0.009179193022867236
-0.1554611179250787   -0.07309672933769837   -0.009179193022867236
-0.1554611179250787   -0.07309672933769837   -0.009179193022867236
-0.13541534505172395   -0.041361506677260684   -0.008273267702341422
-0.13541534505172395   -0.041361506677260684   -0.008273267702341422
-0.13541534505172395   -0.041361506677260684   -0.008273267702341422
-0.13541534505172395   -0.041361506677260684   -0.008273267702341422
-0.13964115087677212   -0.021108521573208017   0.01793243445417519
-0.13964115087677212   -0.021108521573208017   0.01793243445417519
-0.13964115087677212   -0.021108521573208017   0.01793243445417519
-0.13964115087677212   -0.021108521573208017   0.01793243445417519
-0.13135666340129543   -0.06907593122937673   -0.01317965700504231
-0.13135666340129543   -0.06907593122937673   -0.01317965700504231
-0.13135666340129543   -0.06907593122937673   -0.01317965700504231
-0.13135666340129543   -0.06907593122937673   -0.01317965700504231
-0.11393260986973461   -0.023526433454576355   0.01969956795163849
-0.11393260986973461   -0.023526433454576355   0.01969956795163849
-0.11393260986973461   -0.023526433454576355   0.01969956795163849
-0.11393260986973461   -0.023526433454576355   0.01969956795163849
-0.15316231639186534   -0.0772937980344075   -0.00624712487827532
-0.15316231639186534   -0.0772937980344075   -0.00624712487827532
-0.15316231639186534   -0.0772937980344075   -0.00624712487827532
-0.15316231639186534   -0.0772937980344075   -0.00624712487827532
-0.13515877064500137   -0.046670813112844   -0.010661363964866253
-0.13515877064500137   -0.046670813112844   -0.010661363964866253
-0.13515877064500137   -0.046670813112844   -0.010661363964866253
-0.13515877064500137   -0.046670813112844   -0.010661363964866253
-0.11091430387136268   0.015578270672179421   0.021358491950508096
-0.11091430387136268   0.015578270672179421   0.021358491950508096
-0.11091430387136268   0.015578270672179421   0.021358491950508096
-0.11091430387136268   0.015578270672179421   0.021358491950508096
-0.07488394958529535   -0.019797850632228598   -0.007266028925689533
-0.07488394958529535   -0.019797850632228598   -0.007266028925689533
-0.07488394958529535   -0.019797850632228598   -0.007266028925689533
-0.07488394958529535   -0.019797850632228598   -0.007266028925689533
-0.06569150184442762   0.018076643292506286   0.02111060646941638
-0.06569150184442762   0.018076643292506286   0.02111060646941638
-0.06569150184442762   0.018076643292506286   0.02111060646941638
-0.06569150184442762   0.018076643292506286   0.02111060646941638
-0.12266245763293909   -0.030022345080356613   -0.0037741891976236083
-0.12266245763293909   -0.030022345080356613   -0.0037741891976236083
-0.12266245763293909   -0.030022345080356613   -0.0037741891976236083
-0.12266245763293909   -0.030022345080356613   -0.0037741891976236083
-0.09220529662132881   -0.001959906351351407   -0.0037900114291828206
-0.09220529662132881   -0.001959906351351407   -0.0037900114291828206
-0.09220529662132881   -0.001959906351351407   -0.0037900114291828206
-0.09220529662132881   -0.001959906351351407   -0.0037900114291828206
-0.10927995183132866   0.009800025789380981   0.023315968940690893
-0.10927995183132866   0.009800025789380981   0.023315968940690893
-0.10927995183132866   0.009800025789380981   0.023315968940690893
-0.10927995183132866   0.009800025789380981   0.023315968940690893
-0.07921340985147626   -0.021885129782669537   -0.006537160490651038
-0.07921340985147626   -0.021885129782669537   -0.006537160490651038
-0.07921340985147626   -0.021885129782669537   -0.006537160490651038
-0.07921340985147626   -0.021885129782669537   -0.006537160490651038
-0.06870478526995216   0.01431793718408962   0.0265477519523407
-0.06870478526995216   0.01431793718408962   0.0265477519523407
-0.06870478526995216   0.01431793718408962   0.0265477519523407
-0.06870478526995216   0.01431793718408962   0.0265477519523407
-0.12225934680689522   -0.031981981778366926   -0.004787023484051138
-0.12225934680689522   -0.031981981778366926   -0.004787023484051138
-0.12225934680689522   -0.031981981778366926   -0.004787023484051138
-0.12225934680689522   -0.031981981778366926   -0.004787023484051138
-0.0951094594387709   -0.006060424743846831   -0.005441871640959233
-0.0951094594387709   -0.006060424743846831   -0.005441871640959233
-0.0951094594387709   -0.006060424743846831   -0.005441871640959233
-0.0951094594387709   -0.006060424743846831   -0.005441871640959233
-0.10824485070931494   0.006467557292371317   0.026835917933111957
-0.10824485070931494   0.006467557292371317   0.026835917933111957
-0.10824485070931494   0.006467557292371317   0.026835917933111957
-0.10824485070931494   0.006467557292371317   0.026835917933111957
-0.08367893475135364   -0.025091255270469816   -0.008913803000107183
-0.08367893475135364   -0.025091255270469816   -0.008913803000107183
-0.08367893475135364   -0.025091255270469816   -0.008913803000107183
-0.08367893475135364   -0.025091255270469816   -0.008913803000107183
-0.07855365616904521   0.003977214098518695   0.027627916000598787
-0.07855365616904521   0.003977214098518695   0.027627916000598787
-0.07855365616904521   0.003977214098518695   0.027627916000598787
-0.07855365616904521   0.003977214098518695   0.027627916000598787
-0.12072477760653129   -0.03379134215558915   -0.0039963620313320635
-0.12072477760653129   -0.03379134215558915   -0.0039963620313320635
-0.12072477760653129   -0.03379134215558915   -0.0039963620313320635
-0.12072477760653129   -0.03379134215558915   -0.0039963620313320635
-0.09656826605842482   -0.009057149275650336   -0.008060353962128893
-0.09656826605842482   -0.009057149275650336   -0.008060353962128893
-0.09656826605842482   -0.009057149275650336   -0.008060353962128893
-0.09656826605842482   -0.009057149275650336   -0.008060353962128893
-1.1304373274600987   -0.16101860230149093   -0.09465781643398335
-1.1304373274600987   -0.16101860230149093   -0.09465781643398335
-1.1304373274600987   -0.16101860230149093   -0.09465781643398335
-1.1304373274600987   -0.16101860230149093   -0.09465781643398335
-0.39345595949663514   -0.6280923668064137   -0.07391554119628121
-0.39345595949663514   -0.6280923668064137   -0.07391554119628121
-0.39345595949663514   -0.6280923668064137   -0.07391554119628121
-0.39345595949663514   -0.6280923668064137   -0.07391554119628121
-0.3028120744269167   -0.026926860000443947   0.0002918921034427667
-0.3028120744269167   -0.026926860000443947   0.0002918921034427667
-0.3028120744269167   -0.026926860000443947   0.0002918921034427667
-0.3028120744269167   -0.026926860000443947   0.0002918921034427667
-1.209460794967194   -0.736345528141978   -0.3891612646218344
-1.209460794967194   -0.736345528141978   -0.3891612646218344
-1.209460794967194   -0.736345528141978   -0.3891612646218344
-1.209460794967194   -0.736345528141978   -0.3891612646218344
-0.7400226251495238   -0.36604547614881466   -0.05337328371858353
-0.7400226251495238   -0.36604547614881466   -0.05337328371858353
-0.7400226251495238   -0.36604547614881466   -0.05337328371858353
-0.7400226251495238   -0.36604547614881466   -0.05337328371858353
-1.0505459178259144   -0.20226540709368063   -0.128666999963743
-1.0505459178259144   -0.20226540709368063   -0.128666999963743
-1.0505459178259144   -0.20226540709368063   -0.128666999963743
-1.0505459178259144   -0.20226540709368063   -0.128666999963743
-0.42526408835366736   -0.5245441178342134   -0.11435091969653816
-0.42526408835366736   -0.5245441178342134   -0.11435091969653816
-0.42526408835366736   -0.5245441178342134   -0.11435091969653816
-0.42526408835366736   -0.5245441178342134   -0.11435091969653816
-0.30924832922762163   -0.03560039304780719   0.011577073847775773
-0.30924832922762163   -0.03560039304780719   0.011577073847775773
-0.30924832922762163   -0.03560039304780719   0.011577073847775773
-0.30924832922762163   -0.03560039304780719   0.011577073847775773
-1.131998608900557   -0.6579048645460015   -0.3579806946893117
-1.131998608900557   -0.6579048645460015   -0.3579806946893117
-1.131998608900557   -0.6579048645460015   -0.3579806946893117
-1.131998608900557   -0.6579048645460015   -0.3579806946893117
-0.6971905427797808   -0.3304217000447402   0.02795104176232943
-0.6971905427797808   -0.3304217000447402   0.02795104176232943
-0.6971905427797808   -0.3304217000447402   0.02795104176232943
-0.6971905427797808   -0.3304217000447402   0.02795104176232943
-0.9865763435039164   -0.19261354760253727   -0.09616068464957993
-0.9865763435039164   -0.19261354760253727   -0.09616068464957993
-0.9865763435039164   -0.19261354760253727   -0.09616068464957993
-0.9865763435039164   -0.19261354760253727   -0.09616068464957993
-0.4141194305491775   -0.46034054591618756   -0.08803827989162129
-0.4141194305491775   -0.46034054591618756   -0.08803827989162129
-0.4141194305491775   -0.46034054591618756   -0.08803827989162129
-0.4141194305491775   -0.46034054591618756   -0.08803827989162129
-0.35614412261014095   -0.09215500728484557   -0.018779093349697885
-0.35614412261014095   -0.09215500728484557   -0.018779093349697885
-0.35614412261014095   -0.09215500728484557   -0.018779093349697885
-0.35614412261014095   -0.09215500728484557   -0.018779093349697885
-1.0318653580801946   -0.5543230869201303   -0.317237689000065
-1.0318653580801946   -0.5543230869201303   -0.317237689000065
-1.0318653580801946   -0.5543230869201303   -0.317237689000065
-1.0318653580801946   -0.5543230869201303   -0.317237689000065
-0.6460140662598327   -0.28672603350815296   0.11991756570878687
-0.6460140662598327   -0.28672603350815296   0.11991756570878687
-0.6460140662598327   -0.28672603350815296   0.11991756570878687
-0.6460140662598327   -0.28672603350815296   0.11991756570878687
-0.2895238977378732   -0.1589020822085238   -0.02344551700036451
-0.2895238977378732   -0.1589020822085238   -0.02344551700036451
-0.2895238977378732   -0.1589020822085238   -0.02344551700036451
-0.2895238977378732   -0.1589020822085238   -0.02344551700036451
-0.13490332678797798   -0.2013803111572465   -0.03338156670415846
-0.13490332678797798   -0.2013803111572465   -0.03338156670415846
-0.13490332678797798   -0.2013803111572465   -0.03338156670415846
-0.13490332678797798   -0.2013803111572465   -0.03338156670415846
-0.1183468987806952   -0.10209383144903644   0.002974060264461738
-0.1183468987806952   -0.10209383144903644   0.002974060264461738
-0.1183468987806952   -0.10209383144903644   0.002974060264461738
-0.1183468987806952   -0.10209383144903644   0.002974060264461738
-0.3558571454014417   -0.29256918146138633   0.0007088586917629522
-0.3558571454014417   -0.29256918146138633   0.0007088586917629522
-0.3558571454014417   -0.29256918146138633   0.0007088586917629522
-0.3558571454014417   -0.29256918146138633   0.0007088586917629522
-0.19067158619483743   -0.14161200143183333   0.06146013385350756
-0.19067158619483743   -0.14161200143183333   0.06146013385350756
-0.19067158619483743   -0.14161200143183333   0.06146013385350756
-0.19067158619483743   -0.14161200143183333   0.06146013385350756
-0.3301146580091648   -0.1480598104243927   -0.015088075383849962
-0.3301146580091648   -0.1480598104243927   -0.015088075383849962
-0.3301146580091648   -0.1480598104243927   -0.015088075383849962
-0.3301146580091648   -0.1480598104243927   -0.015088075383849962
-0.1542480420543433   -0.2567618583674019   -0.02186362918541334
-0.1542480420543433   -0.2567618583674019   -0.02186362918541334
-0.1542480420543433   -0.2567618583674019   -0.02186362918541334
-0.1542480420543433   -0.2567618583674019   -0.02186362918541334
-0.12812832923191253   -0.10575851637061545   0.003124128268847646
-0.12812832923191253   -0.10575851637061545   0.003124128268847646
-0.12812832923191253   -0.10575851637061545   0.003124128268847646
-0.12812832923191253   -0.10575851637061545   0.003124128268847646
-0.37367765653537116   -0.2892042883106175   -0.05696566742815974
-0.37367765653537116   -0.2892042883106175   -0.05696566742815974
-0.37367765653537116   -0.2892042883106175   -0.05696566742815974
-0.37367765653537116   -0.2892042883106175   -0.05696566742815974
-0.22794335789541828   -0.18131017303283484   0.02778056460672155
-0.22794335789541828   -0.18131017303283484   0.02778056460672155
-0.22794335789541828   -0.18131017303283484   0.02778056460672155
-0.22794335789541828   -0.18131017303283484   0.02778056460672155
-0.3410143347497683   -0.15460934374175725   -0.02824400306900556
-0.3410143347497683   -0.15460934374175725   -0.02824400306900556
-0.3410143347497683   -0.15460934374175725   -0.02824400306900556
-0.3410143347497683   -0.15460934374175725   -0.02824400306900556
-0.15985967611495722   -0.23942148603691754   -0.02186963648007379
-0.15985967611495722   -0.23942148603691754   -0.02186963648007379
-0.15985967611495722   -0.23942148603691754   -0.02186963648007379
-0.15985967611495722   -0.23942148603691754   -0.02186963648007379
-0.1433084297247139   -0.10908028298279082   0.004612217157878708
-0.1433084297247139   -0.10908028298279082   0.004612217157878708
-0.1433084297247139   -0.10908028298279082   0.004612217157878708
-0.1433084297247139   -0.10908028298279082   0.004612217157878708
-0.40009898183659953   -0.281285263167472   -0.04942313359936258
-0.40009898183659953   -0.281285263167472   -0.04942313359936258
-0.40009898183659953   -0.281285263167472   -0.04942313359936258
-0.40009898183659953   -0.281285263167472   -0.04942313359936258
-0.23890820124755308   -0.170950532023593   0.029337078962747717
-0.23890820124755308   -0.170950532023593   0.029337078962747717
-0.23890820124755308   -0.170950532023593   0.029337078962747717
-0.23890820124755308   -0.170950532023593   0.029337078962747717
-0.10555407081307039   -0.09497249177888434   0.006956893792017214
-0.10555407081307039   -0.09497249177888434   0.006956893792017214
-0.10555407081307039   -0.09497249177888434   0.006956893792017214
-0.10555407081307039   -0.09497249177888434   0.006956893792017214
-0.06533272704679141   -0.06432691786822273   -0.016372921648573013
-0.06533272704679141   -0.06432691786822273   -0.016372921648573013
-0.06533272704679141   -0.06432691786822273   -0.016372921648573013
-0.06533272704679141   -0.06432691786822273   -0.016372921648573013
-0.06306375966786566   -0.08513180882525076   0.006944841277759007
-0.06306375966786566   -0.08513180882525076   0.006944841277759007
-0.06306375966786566   -0.08513180882525076   0.006944841277759007
-0.06306375966786566   -0.08513180882525076   0.006944841277759007
-0.11740498286748742   -0.08733696327493738   -0.007073228343598442
-0.11740498286748742   -0.08733696327493738   -0.007073228343598442
-0.11740498286748742   -0.08733696327493738   -0.007073228343598442
-0.11740498286748742   -0.08733696327493738   -0.007073228343598442
-0.07408054456244188   -0.06988433656917176   0.030886869541380393
-0.07408054456244188   -0.06988433656917176   0.030886869541380393
-0.07408054456244188   -0.06988433656917176   0.030886869541380393
-0.07408054456244188   -0.06988433656917176   0.030886869541380393
-0.11613841831472103   -0.09562598548426234   0.007548616629556484
-0.11613841831472103   -0.09562598548426234   0.007548616629556484
-0.11613841831472103   -0.09562598548426234   0.007548616629556484
-0.11613841831472103   -0.09562598548426234   0.007548616629556484
-0.06540883987181424   -0.07792130226710825   -0.011991066300126415
-0.06540883987181424   -0.07792130226710825   -0.011991066300126415
-0.06540883987181424   -0.07792130226710825   -0.011991066300126415
-0.06540883987181424   -0.07792130226710825   -0.011991066300126415
-0.06395497071775758   -0.08768384667998816   0.006204612950139118
-0.06395497071775758   -0.08768384667998816   0.006204612950139118
-0.06395497071775758   -0.08768384667998816   0.006204612950139118
-0.06395497071775758   -0.08768384667998816   0.006204612950139118
-0.12494746439120749   -0.10173243493244749   0.01500237103420475
-0.12494746439120749   -0.10173243493244749   0.01500237103420475
-0.12494746439120749   -0.10173243493244749   0.01500237103420475
-0.12494746439120749   -0.10173243493244749   0.01500237103420475
-0.08086021653705872   -0.07793071185446564   0.02598033191726954
-0.08086021653705872   -0.07793071185446564   0.02598033191726954
-0.08086021653705872   -0.07793071185446564   0.02598033191726954
-0.08086021653705872   -0.07793071185446564   0.02598033191726954
-0.12540267274258865   -0.09917960900501022   0.010173503349859874
-0.12540267274258865   -0.09917960900501022   0.010173503349859874
-0.12540267274258865   -0.09917960900501022   0.010173503349859874
-0.12540267274258865   -0.09917960900501022   0.010173503349859874
-0.06897652414656744   -0.09571343438761673   -0.010873566486281561
-0.06897652414656744   -0.09571343438761673   -0.010873566486281561
-0.06897652414656744   -0.09571343438761673   -0.010873566486281561
-0.06897652414656744   -0.09571343438761673   -0.010873566486281561
-0.06500842019452545   -0.09048899118397495   0.008744615731279295
-0.06500842019452545   -0.09048899118397495   0.008744615731279295
-0.06500842019452545   -0.09048899118397495   0.008744615731279295
-0.06500842019452545   -0.09048899118397495   0.008744615731279295
-0.14662122811964165   -0.12474534010493497   0.0037132823053859162
-0.14662122811964165   -0.12474534010493497   0.0037132823053859162
-0.14662122811964165   -0.12474534010493497   0.0037132823053859162
-0.14662122811964165   -0.12474534010493497   0.0037132823053859162
-0.09061456901997544   -0.08869600613936118   0.012018231359362572
-0.09061456901997544   -0.08869600613936118   0.012018231359362572
-0.09061456901997544   -0.08869600613936118   0.012018231359362572
-0.09061456901997544   -0.08869600613936118   0.012018231359362572
-0.05309009273124667   -0.037877170307670856   0.01839050236859878
-0.05309009273124667   -0.037877170307670856   0.01839050236859878
-0.05309009273124667   -0.037877170307670856   0.01839050236859878
-0.05309009273124667   -0.037877170307670856   0.01839050236859878
-0.03783017765802036   -0.0013386122759613695   -0.003714686487022173
-0.03783017765802036   -0.0013386122759613695   -0.003714686487022173
-0.03783017765802036   -0.0013386122759613695   -0.003714686487022173
-0.03783017765802036   -0.0013386122759613695   -0.003714686487022173
-0.0358582578114058   -0.04105602694458868   0.011379914393836685
-0.0358582578114058   -0.04105602694458868   0.011379914393836685
-0.0358582578114058   -0.04105602694458868   0.011379914393836685
-0.0358582578114058   -0.04105602694458868   0.011379914393836685
-0.049571746644224916   -0.008642967029060696   -0.002083935400227334
-0.049571746644224916   -0.008642967029060696   -0.002083935400227334
-0.049571746644224916   -0.008642967029060696   -0.002083935400227334
-0.049571746644224916   -0.008642967029060696   -0.002083935400227334
-0.04073438370963806   -0.02124631872039466   0.009118971879795084
-0.04073438370963806   -0.02124631872039466   0.009118971879795084
-0.04073438370963806   -0.02124631872039466   0.009118971879795084
-0.04073438370963806   -0.02124631872039466   0.009118971879795084
-0.05259262401801552   -0.043204284103605134   0.01737299480536412
-0.05259262401801552   -0.043204284103605134   0.01737299480536412
-0.05259262401801552   -0.043204284103605134   0.01737299480536412
-0.05259262401801552   -0.043204284103605134   0.01737299480536412
-0.031941767060987634   -0.005599096493416673   -0.004494562305244497
-0.031941767060987634   -0.005599096493416673   -0.004494562305244497
-0.031941767060987634   -0.005599096493416673   -0.004494562305244497
-0.031941767060987634   -0.005599096493416673   -0.004494562305244497
-0.03302443039168493   -0.044669043745326355   0.01052254740559908
-0.03302443039168493   -0.044669043745326355   0.01052254740559908
-0.03302443039168493   -0.044669043745326355   0.01052254740559908
-0.03302443039168493   -0.044669043745326355   0.01052254740559908
-0.05014591438090761   -0.015899776080896474   0.003465824035297277
-0.05014591438090761   -0.015899776080896474   0.003465824035297277
-0.05014591438090761   -0.015899776080896474   0.003465824035297277
-0.05014591438090761   -0.015899776080896474   0.003465824035297277
-0.037577893152893914   -0.024398433390924148   0.010731951134967672
-0.037577893152893914   -0.024398433390924148   0.010731951134967672
-0.037577893152893914   -0.024398433390924148   0.010731951134967672
-0.037577893152893914   -0.024398433390924148   0.010731951134967672
-0.0530447402856336   -0.046802692932568106   0.019874611363338984
-0.0530447402856336   -0.046802692932568106   0.019874611363338984
-0.0530447402856336   -0.046802692932568106   0.019874611363338984
-0.0530447402856336   -0.046802692932568106   0.019874611363338984
-0.030453963687288102   -0.014094486093983885   -0.007199676723759277
-0.030453963687288102   -0.014094486093983885   -0.007199676723759277
-0.030453963687288102   -0.014094486093983885   -0.007199676723759277
-0.030453963687288102   -0.014094486093983885   -0.007199676723759277
-0.027901518096446757   -0.048673855978446014   0.01159178710611352
-0.027901518096446757   -0.048673855978446014   0.01159178710611352
-0.027901518096446757   -0.048673855978446014   0.01159178710611352
-0.027901518096446757   -0.048673855978446014   0.01159178710611352
-0.054425983895852376   -0.033342852000595884   0.004510658041265595
-0.054425983895852376   -0.033342852000595884   0.004510658041265595
-0.054425983895852376   -0.033342852000595884   0.004510658041265595
-0.054425983895852376   -0.033342852000595884   0.004510658041265595
-0.036403726337415586   -0.03070916944197806   0.009113590727260066
-0.036403726337415586   -0.03070916944197806   0.009113590727260066
-0.036403726337415586   -0.03070916944197806   0.009113590727260066
-0.036403726337415586   -0.03070916944197806   0.009113590727260066
-0.03441198755741406   -0.0065356017445873694   0.01857325348463534
-0.03441198755741406   -0.0065356017445873694   0.01857325348463534
-0.03441198755741406   -0.0065356017445873694   0.01857325348463534
-0.03441198755741406   -0.0065356017445873694   0.01857325348463534
-0.006473522162132756   0.0037794601928844455   -0.0003754440971556934
-0.006473522162132756   0.0037794601928844455   -0.0003754440971556934
-0.006473522162132756   0.0037794601928844455   -0.0003754440971556934
-0.006473522162132756   0.0037794601928844455   -0.0003754440971556934
0.0014893669913366584   -0.0021286473049585667   0.011542475055090873
0.0014893669913366584   -0.0021286473049585667   0.011542475055090873
0.0014893669913366584   -0.0021286473049585667   0.011542475055090873
0.0014893669913366584   -0.0021286473049585667   0.011542475055090873
-0.029642563994341103   0.0026764981947212775   -0.0012741416601497915
-0.029642563994341103   0.0026764981947212775   -0.0012741416601497915
-0.029642563994341103   0.0026764981947212775   -0.0012741416601497915
-0.029642563994341103   0.0026764981947212775   -0.0012741416601497915
-0.01752618971815559   -0.0013658865772104832   -0.0013920166548070413
-0.01752618971815559   -0.0013658865772104832   -0.0013920166548070413
-0.01752618971815559   -0.0013658865772104832   -0.0013920166548070413
-0.01752618971815559   -0.0013658865772104832   -0.0013920166548070413
-0.027323865190629196   -0.0063338488681203954   0.019329699421251418
-0.027323865190629196   -0.0063338488681203954   0.019329699421251418
-0.027323865190629196   -0.0063338488681203954   0.019329699421251418
-0.027323865190629196   -0.0063338488681203954   0.019329699421251418
0.0001878710342808859   0.007898902604538603   -0.004992554639685159
0.0001878710342808859   0.007898902604538603   -0.004992554639685159
0.0001878710342808859   0.007898902604538603   -0.004992554639685159
0.0001878710342808859   0.007898902604538603   -0.004992554639685159
0.005407182693942351   -0.0026442441524956927   0.014235135144467455
0.005407182693942351   -0.0026442441524956927   0.014235135144467455
0.005407182693942351   -0.0026442441524956927   0.014235135144467455
0.005407182693942351   -0.0026442441524956927   0.014235135144467455
-0.026199511441843213   0.0018369919101779379   -0.001858893500696643
-0.026199511441843213   0.0018369919101779379   -0.001858893500696643
-0.026199511441843213   0.0018369919101779379   -0.001858893500696643
-0.026199511441843213   0.0018369919101779379   -0.001858893500696643
-0.011736075260815831   -0.00042224252908841433   0.0017857001702667758
-0.011736075260815831   -0.00042224252908841433   0.0017857001702667758
-0.011736075260815831   -0.00042224252908841433   0.0017857001702667758
-0.011736075260815831   -0.00042224252908841433   0.0017857001702667758
-0.023457325081678942   -0.007105305578711399   0.02079433578901405
-0.023457325081678942   -0.007105305578711399   0.02079433578901405
-0.023457325081678942   -0.007105305578711399   0.02079433578901405
-0.023457325081678942   -0.007105305578711399   0.02079433578901405
0.0035614290834855653   0.00719448608610049   -0.004832363146412657
0.0035614290834855653   0.00719448608610049   -0.004832363146412657
0.0035614290834855653   0.00719448608610049   -0.004832363146412657
0.0035614290834855653   0.00719448608610049   -0.004832363146412657
0.009313031799390793   -0.0042124370784491745   0.013860353948445736
0.009313031799390793   -0.0042124370784491745   0.013860353948445736
0.009313031799390793   -0.0042124370784491745   0.013860353948445736
0.009313031799390793   -0.0042124370784491745   0.013860353948445736
-0.020584848201194782   0.0015901975097260415   -0.002088916905798676
-0.020584848201194782   0.0015901975097260415   -0.002088916905798676
-0.020584848201194782   0.0015901975097260415   -0.002088916905798676
-0.020584848201194782   0.0015901975097260415   -0.002088916905798676
-0.00660231990224249   9.837993813535445e-05   0.004530154684899985
-0.00660231990224249   9.837993813535445e-05   0.004530154684899985
-0.00660231990224249   9.837993813535445e-05   0.004530154684899985
-0.00660231990224249   9.837993813535445e-05   0.004530154684899985
              </DataArray>   
             <DataArray type="Float64" NumberOfComponents="3" Name="Displacements" format="ascii">   
0.0   0.0   0.0
-0.0031540164059562694   -0.002074344014332562   -0.0010568747920603671
0.0   0.0   0.0
0.0   0.0   0.0
-0.0031540164059562694   -0.002074344014332562   -0.0010568747920603671
-0.0020065307114823837   -0.0018650482074583736   -0.0007765500593146035
0.0   0.0   0.0
-0.0019665555776177896   -0.001958345416323989   -0.0006506809899448325
0.0   0.0   0.0
0.0   0.0   0.0
-0.0019665555776177896   -0.001958345416323989   -0.0006506809899448325
0.0   0.0   0.0
0.0   0.0   0.0
-0.0019665555776177896   -0.001958345416323989   -0.0006506809899448325
-0.0033004657924074086   -0.0022096765633147367   -0.0008486705985898183
-0.0031540164059562694   -0.002074344014332562   -0.0010568747920603671
0.0   0.0   0.0
-0.0019665555776177896   -0.001958345416323989   -0.0006506809899448325
-0.0031540164059562694   -0.002074344014332562   -0.0010568747920603671
0.0   0.0   0.0
0.0   0.0   0.0
-0.0033004657924074086   -0.0022096765633147367   -0.0008486705985898183
0.0   0.0   0.0
0.0   0.0   0.0
-0.0033004657924074086   -0.0022096765633147367   -0.0008486705985898183
-0.0019665555776177896   -0.001958345416323989   -0.0006506809899448325
0.0   0.0   0.0
-0.001971785378098575   -0.002006193713075007   -0.0005250292869007839
0.0   0.0   0.0
0.0   0.0   0.0
-0.001971785378098575   -0.002006193713075007   -0.0005250292869007839
0.0   0.0   0.0
0.0   0.0   0.0
-0.001971785378098575   -0.002006193713075007   -0.0005250292869007839
-0.0034031705847043605   -0.0022755022313249895   -0.0006492470407498667
-0.0033004657924074086   -0.0022096765633147367   -0.0008486705985898183
0.0   0.0   0.0
-0.001971785378098575   -0.002006193713075007   -0.0005250292869007839
-0.0033004657924074086   -0.0022096765633147367   -0.0008486705985898183
0.0   0.0   0.0
0.0   0.0   0.0
-0.0034031705847043605   -0.0022755022313249895   -0.0006492470407498667
0.0   0.0   0.0
0.0   0.0   0.0
-0.0034031705847043605   -0.0022755022313249895   -0.0006492470407498667
-0.001971785378098575   -0.002006193713075007   -0.0005250292869007839
0.0   0.0   0.0
-0.001970392479841654   -0.0020185386838447715   -0.0003951487210062982
0.0   0.0   0.0
0.0   0.0   0.0
-0.001970392479841654   -0.0020185386838447715   -0.0003951487210062982
0.0   0.0   0.0
0.0   0.0   0.0
-0.001970392479841654   -0.0020185386838447715   -0.0003951487210062982
-0.0036247388296651805   -0.002325477035355878   -0.000417931867026615
-0.0034031705847043605   -0.0022755022313249895   -0.0006492470407498667
0.0   0.0   0.0
-0.001970392479841654   -0.0020185386838447715   -0.0003951487210062982
-0.0034031705847043605   -0.0022755022313249895   -0.0006492470407498667
0.0   0.0   0.0
0.0   0.0   0.0
-0.0020065307114823837   -0.0018650482074583736   -0.0007765500593146035
0.0   0.0   0.0
0.0   0.0   0.0
-0.0020065307114823837   -0.0018650482074583736   -0.0007765500593146035
-0.0009141506383384024   -0.001788353670018895   -0.0005907956209698107
0.0   0.0   0.0
-0.0008789089372207613   -0.001849041869659774   -0.000531335982686439
0.0   0.0   0.0
0.0   0.0   0.0
-0.0008789089372207613   -0.001849041869659774   -0.000531335982686439
0.0   0.0   0.0
0.0   0.0   0.0
-0.0008789089372207613   -0.001849041869659774   -0.000531335982686439
-0.0019665555776177896   -0.001958345416323989   -0.0006506809899448325
-0.0020065307114823837   -0.0018650482074583736   -0.0007765500593146035
0.0   0.0   0.0
-0.0008789089372207613   -0.001849041869659774   -0.000531335982686439
-0.0020065307114823837   -0.0018650482074583736   -0.0007765500593146035
0.0   0.0   0.0
0.0   0.0   0.0
-0.0019665555776177896   -0.001958345416323989   -0.0006506809899448325
0.0   0.0   0.0
0.0   0.0   0.0
-0.0019665555776177896   -0.001958345416323989   -0.0006506809899448325
-0.0008789089372207613   -0.001849041869659774   -0.000531335982686439
0.0   0.0   0.0
-0.0008589868441895689   -0.0018721869358372435   -0.0004734646183057924
0.0   0.0   0.0
0.0   0.0   0.0
-0.0008589868441895689   -0.0018721869358372435   -0.0004734646183057924
0.0   0.0   0.0
0.0   0.0   0.0
-0.0008589868441895689   -0.0018721869358372435   -0.0004734646183057924
-0.001971785378098575   -0.002006193713075007   -0.0005250292869007839
-0.0019665555776177896   -0.001958345416323989   -0.0006506809899448325
0.0   0.0   0.0
-0.0008589868441895689   -0.0018721869358372435   -0.0004734646183057924
-0.0019665555776177896   -0.001958345416323989   -0.0006506809899448325
0.0   0.0   0.0
0.0   0.0   0.0
-0.001971785378098575   -0.002006193713075007   -0.0005250292869007839
0.0   0.0   0.0
0.0   0.0   0.0
-0.001971785378098575   -0.002006193713075007   -0.0005250292869007839
-0.0008589868441895689   -0.0018721869358372435   -0.0004734646183057924
0.0   0.0   0.0
-0.0008407939779048502   -0.0018625611523145175   -0.000413673173275504
0.0   0.0   0.0
0.0   0.0   0.0
-0.0008407939779048502   -0.0018625611523145175   -0.000413673173275504
0.0   0.0   0.0
0.0   0.0   0.0
-0.0008407939779048502   -0.0018625611523145175   -0.000413673173275504
-0.001970392479841654   -0.0020185386838447715   -0.0003951487210062982
-0.001971785378098575   -0.002006193713075007   -0.0005250292869007839
0.0   0.0   0.0
-0.0008407939779048502   -0.0018625611523145175   -0.000413673173275504
-0.001971785378098575   -0.002006193713075007   -0.0005250292869007839
0.0   0.0   0.0
0.0   0.0   0.0
-0.0009141506383384024   -0.001788353670018895   -0.0005907956209698107
0.0   0.0   0.0
0.0   0.0   0.0
-0.0009141506383384024   -0.001788353670018895   -0.0005907956209698107
0.00011767305670594922   -0.0017982297455756769   -0.0004725255797903227
0.0   0.0   0.0
0.00014031436866848715   -0.0018296417961913257   -0.00048066174145876674
0.0   0.0   0.0
0.0   0.0   0.0
0.00014031436866848715   -0.0018296417961913257   -0.00048066174145876674
0.0   0.0   0.0
0.0   0.0   0.0
0.00014031436866848715   -0.0018296417961913257   -0.00048066174145876674
-0.0008789089372207613   -0.001849041869659774   -0.000531335982686439
-0.0009141506383384024   -0.001788353670018895   -0.0005907956209698107
0.0   0.0   0.0
0.00014031436866848715   -0.0018296417961913257   -0.00048066174145876674
-0.0009141506383384024   -0.001788353670018895   -0.0005907956209698107
0.0   0.0   0.0
0.0   0.0   0.0
-0.0008789089372207613   -0.001849041869659774   -0.000531335982686439
0.0   0.0   0.0
0.0   0.0   0.0
-0.0008789089372207613   -0.001849041869659774   -0.000531335982686439
0.00014031436866848715   -0.0018296417961913257   -0.00048066174145876674
0.0   0.0   0.0
0.0001582261253136697   -0.0018269999329612345   -0.0004880417068455063
0.0   0.0   0.0
0.0   0.0   0.0
0.0001582261253136697   -0.0018269999329612345   -0.0004880417068455063
0.0   0.0   0.0
0.0   0.0   0.0
0.0001582261253136697   -0.0018269999329612345   -0.0004880417068455063
-0.0008589868441895689   -0.0018721869358372435   -0.0004734646183057924
-0.0008789089372207613   -0.001849041869659774   -0.000531335982686439
0.0   0.0   0.0
0.0001582261253136697   -0.0018269999329612345   -0.0004880417068455063
-0.0008789089372207613   -0.001849041869659774   -0.000531335982686439
0.0   0.0   0.0
0.0   0.0   0.0
-0.0008589868441895689   -0.0018721869358372435   -0.0004734646183057924
0.0   0.0   0.0
0.0   0.0   0.0
-0.0008589868441895689   -0.0018721869358372435   -0.0004734646183057924
0.0001582261253136697   -0.0018269999329612345   -0.0004880417068455063
0.0   0.0   0.0
0.00018222150357080635   -0.0017875175944020473   -0.0004956636792109246
0.0   0.0   0.0
0.0   0.0   0.0
0.00018222150357080635   -0.0017875175944020473   -0.0004956636792109246
0.0   0.0   0.0
0.0   0.0   0.0
0.00018222150357080635   -0.0017875175944020473   -0.0004956636792109246
-0.0008407939779048502   -0.0018625611523145175   -0.000413673173275504
-0.0008589868441895689   -0.0018721869358372435   -0.0004734646183057924
0.0   0.0   0.0
0.00018222150357080635   -0.0017875175944020473   -0.0004956636792109246
-0.0008589868441895689   -0.0018721869358372435   -0.0004734646183057924
0.0   0.0   0.0
0.0   0.0   0.0
0.00011767305670594922   -0.0017982297455756769   -0.0004725255797903227
0.0   0.0   0.0
0.0   0.0   0.0
0.00011767305670594922   -0.0017982297455756769   -0.0004725255797903227
0.0012379711096366305   -0.0018853515651709753   -0.0004141663337129812
0.0   0.0   0.0
0.0012405507618526868   -0.001895266636787277   -0.0004934312923753935
0.0   0.0   0.0
0.0   0.0   0.0
0.0012405507618526868   -0.001895266636787277   -0.0004934312923753935
0.0   0.0   0.0
0.0   0.0   0.0
0.0012405507618526868   -0.001895266636787277   -0.0004934312923753935
0.00014031436866848715   -0.0018296417961913257   -0.00048066174145876674
0.00011767305670594922   -0.0017982297455756769   -0.0004725255797903227
0.0   0.0   0.0
0.0012405507618526868   -0.001895266636787277   -0.0004934312923753935
0.00011767305670594922   -0.0017982297455756769   -0.0004725255797903227
0.0   0.0   0.0
0.0   0.0   0.0
0.00014031436866848715   -0.0018296417961913257   -0.00048066174145876674
0.0   0.0   0.0
0.0   0.0   0.0
0.00014031436866848715   -0.0018296417961913257   -0.00048066174145876674
0.0012405507618526868   -0.001895266636787277   -0.0004934312923753935
0.0   0.0   0.0
0.0012355637015819992   -0.001868205655220995   -0.0005695186178294237
0.0   0.0   0.0
0.0   0.0   0.0
0.0012355637015819992   -0.001868205655220995   -0.0005695186178294237
0.0   0.0   0.0
0.0   0.0   0.0
0.0012355637015819992   -0.001868205655220995   -0.0005695186178294237
0.0001582261253136697   -0.0018269999329612345   -0.0004880417068455063
0.00014031436866848715   -0.0018296417961913257   -0.00048066174145876674
0.0   0.0   0.0
0.0012355637015819992   -0.001868205655220995   -0.0005695186178294237
0.00014031436866848715   -0.0018296417961913257   -0.00048066174145876674
0.0   0.0   0.0
0.0   0.0   0.0
0.0001582261253136697   -0.0018269999329612345   -0.0004880417068455063
0.0   0.0   0.0
0.0   0.0   0.0
0.0001582261253136697   -0.0018269999329612345   -0.0004880417068455063
0.0012355637015819992   -0.001868205655220995   -0.0005695186178294237
0.0   0.0   0.0
0.0012598061325456668   -0.001795921394919865   -0.0006441942473679747
0.0   0.0   0.0
0.0   0.0   0.0
0.0012598061325456668   -0.001795921394919865   -0.0006441942473679747
0.0   0.0   0.0
0.0   0.0   0.0
0.0012598061325456668   -0.001795921394919865   -0.0006441942473679747
0.00018222150357080635   -0.0017875175944020473   -0.0004956636792109246
0.0001582261253136697   -0.0018269999329612345   -0.0004880417068455063
0.0   0.0   0.0
0.0012598061325456668   -0.001795921394919865   -0.0006441942473679747
0.0001582261253136697   -0.0018269999329612345   -0.0004880417068455063
0.0   0.0   0.0
0.0   0.0   0.0
0.0012379711096366305   -0.0018853515651709753   -0.0004141663337129812
0.0   0.0   0.0
0.0   0.0   0.0
0.0012379711096366305   -0.0018853515651709753   -0.0004141663337129812
0.0027968969438167232   -0.002106357686482595   -0.00039112156651520966
0.0   0.0   0.0
0.0026272290143129697   -0.0020831877831599867   -0.0005709620043626236
0.0   0.0   0.0
0.0   0.0   0.0
0.0026272290143129697   -0.0020831877831599867   -0.0005709620043626236
0.0   0.0   0.0
0.0   0.0   0.0
0.0026272290143129697   -0.0020831877831599867   -0.0005709620043626236
0.0012405507618526868   -0.001895266636787277   -0.0004934312923753935
0.0012379711096366305   -0.0018853515651709753   -0.0004141663337129812
0.0   0.0   0.0
0.0026272290143129697   -0.0020831877831599867   -0.0005709620043626236
0.0012379711096366305   -0.0018853515651709753   -0.0004141663337129812
0.0   0.0   0.0
0.0   0.0   0.0
0.0012405507618526868   -0.001895266636787277   -0.0004934312923753935
0.0   0.0   0.0
0.0   0.0   0.0
0.0012405507618526868   -0.001895266636787277   -0.0004934312923753935
0.0026272290143129697   -0.0020831877831599867   -0.0005709620043626236
0.0   0.0   0.0
0.0025491356163239425   -0.0020398807431403917   -0.0007230773465482336
0.0   0.0   0.0
0.0   0.0   0.0
0.0025491356163239425   -0.0020398807431403917   -0.0007230773465482336
0.0   0.0   0.0
0.0   0.0   0.0
0.0025491356163239425   -0.0020398807431403917   -0.0007230773465482336
0.0012355637015819992   -0.001868205655220995   -0.0005695186178294237
0.0012405507618526868   -0.001895266636787277   -0.0004934312923753935
0.0   0.0   0.0
0.0025491356163239425   -0.0020398807431403917   -0.0007230773465482336
0.0012405507618526868   -0.001895266636787277   -0.0004934312923753935
0.0   0.0   0.0
0.0   0.0   0.0
0.0012355637015819992   -0.001868205655220995   -0.0005695186178294237
0.0   0.0   0.0
0.0   0.0   0.0
0.0012355637015819992   -0.001868205655220995   -0.0005695186178294237
0.0025491356163239425   -0.0020398807431403917   -0.0007230773465482336
0.0   0.0   0.0
0.002432648630192375   -0.0019292104861686487   -0.0008841306878727297
0.0   0.0   0.0
0.0   0.0   0.0
0.002432648630192375   -0.0019292104861686487   -0.0008841306878727297
0.0   0.0   0.0
0.0   0.0   0.0
0.002432648630192375   -0.0019292104861686487   -0.0008841306878727297
0.0012598061325456668   -0.001795921394919865   -0.0006441942473679747
0.0012355637015819992   -0.001868205655220995   -0.0005695186178294237
0.0   0.0   0.0
0.002432648630192375   -0.0019292104861686487   -0.0008841306878727297
0.0012355637015819992   -0.001868205655220995   -0.0005695186178294237
0.0   0.0   0.0
-0.0031540164059562694   -0.002074344014332562   -0.0010568747920603671
-0.005887348035789881   -0.005783136718863342   -0.0014240677240512638
-0.0020065307114823837   -0.0018650482074583736   -0.0007765500593146035
-0.0033004657924074086   -0.0022096765633147367   -0.0008486705985898183
-0.005887348035789881   -0.005783136718863342   -0.0014240677240512638
-0.003757497380143968   -0.005595037774400776   -0.0011725530196708943
-0.0020065307114823837   -0.0018650482074583736   -0.0007765500593146035
-0.0037614128358867387   -0.00569042152298771   -0.0010562347750001943
-0.0033004657924074086   -0.0022096765633147367   -0.0008486705985898183
-0.0019665555776177896   -0.001958345416323989   -0.0006506809899448325
-0.0037614128358867387   -0.00569042152298771   -0.0010562347750001943
-0.0020065307114823837   -0.0018650482074583736   -0.0007765500593146035
-0.0033004657924074086   -0.0022096765633147367   -0.0008486705985898183
-0.0037614128358867387   -0.00569042152298771   -0.0010562347750001943
-0.00606304157039326   -0.0059162896451824   -0.0012352644015740915
-0.005887348035789881   -0.005783136718863342   -0.0014240677240512638
-0.0033004657924074086   -0.0022096765633147367   -0.0008486705985898183
-0.0037614128358867387   -0.00569042152298771   -0.0010562347750001943
-0.005887348035789881   -0.005783136718863342   -0.0014240677240512638
-0.0020065307114823837   -0.0018650482074583736   -0.0007765500593146035
-0.0033004657924074086   -0.0022096765633147367   -0.0008486705985898183
-0.00606304157039326   -0.0059162896451824   -0.0012352644015740915
-0.0019665555776177896   -0.001958345416323989   -0.0006506809899448325
-0.0034031705847043605   -0.0022755022313249895   -0.0006492470407498667
-0.00606304157039326   -0.0059162896451824   -0.0012352644015740915
-0.0037614128358867387   -0.00569042152298771   -0.0010562347750001943
-0.0019665555776177896   -0.001958345416323989   -0.0006506809899448325
-0.003775663929089819   -0.0057486165400646725   -0.0009444919002912396
-0.0034031705847043605   -0.0022755022313249895   -0.0006492470407498667
-0.001971785378098575   -0.002006193713075007   -0.0005250292869007839
-0.003775663929089819   -0.0057486165400646725   -0.0009444919002912396
-0.0019665555776177896   -0.001958345416323989   -0.0006506809899448325
-0.0034031705847043605   -0.0022755022313249895   -0.0006492470407498667
-0.003775663929089819   -0.0057486165400646725   -0.0009444919002912396
-0.0061848910708347735   -0.00599153505348954   -0.001050440928970509
-0.00606304157039326   -0.0059162896451824   -0.0012352644015740915
-0.0034031705847043605   -0.0022755022313249895   -0.0006492470407498667
-0.003775663929089819   -0.0057486165400646725   -0.0009444919002912396
-0.00606304157039326   -0.0059162896451824   -0.0012352644015740915
-0.0019665555776177896   -0.001958345416323989   -0.0006506809899448325
-0.0034031705847043605   -0.0022755022313249895   -0.0006492470407498667
-0.0061848910708347735   -0.00599153505348954   -0.001050440928970509
-0.001971785378098575   -0.002006193713075007   -0.0005250292869007839
-0.0036247388296651805   -0.002325477035355878   -0.000417931867026615
-0.0061848910708347735   -0.00599153505348954   -0.001050440928970509
-0.003775663929089819   -0.0057486165400646725   -0.0009444919002912396
-0.001971785378098575   -0.002006193713075007   -0.0005250292869007839
-0.003763831312173312   -0.00577889616651444   -0.0008399309114273215
-0.0036247388296651805   -0.002325477035355878   -0.000417931867026615
-0.001970392479841654   -0.0020185386838447715   -0.0003951487210062982
-0.003763831312173312   -0.00577889616651444   -0.0008399309114273215
-0.001971785378098575   -0.002006193713075007   -0.0005250292869007839
-0.0036247388296651805   -0.002325477035355878   -0.000417931867026615
-0.003763831312173312   -0.00577889616651444   -0.0008399309114273215
-0.006328888330984701   -0.0060354298817889935   -0.0008823617894260313
-0.0061848910708347735   -0.00599153505348954   -0.001050440928970509
-0.0036247388296651805   -0.002325477035355878   -0.000417931867026615
-0.003763831312173312   -0.00577889616651444   -0.0008399309114273215
-0.0061848910708347735   -0.00599153505348954   -0.001050440928970509
-0.001971785378098575   -0.002006193713075007   -0.0005250292869007839
-0.0020065307114823837   -0.0018650482074583736   -0.0007765500593146035
-0.003757497380143968   -0.005595037774400776   -0.0011725530196708943
-0.0009141506383384024   -0.001788353670018895   -0.0005907956209698107
-0.0019665555776177896   -0.001958345416323989   -0.0006506809899448325
-0.003757497380143968   -0.005595037774400776   -0.0011725530196708943
-0.0017443755607277746   -0.005507508760877786   -0.0010009115185986605
-0.0009141506383384024   -0.001788353670018895   -0.0005907956209698107
-0.001728794318654853   -0.005568163806045457   -0.00094125528392118
-0.0019665555776177896   -0.001958345416323989   -0.0006506809899448325
-0.0008789089372207613   -0.001849041869659774   -0.000531335982686439
-0.001728794318654853   -0.005568163806045457   -0.00094125528392118
-0.0009141506383384024   -0.001788353670018895   -0.0005907956209698107
-0.0019665555776177896   -0.001958345416323989   -0.0006506809899448325
-0.001728794318654853   -0.005568163806045457   -0.00094125528392118
-0.0037614128358867387   -0.00569042152298771   -0.0010562347750001943
-0.003757497380143968   -0.005595037774400776   -0.0011725530196708943
-0.0019665555776177896   -0.001958345416323989   -0.0006506809899448325
-0.001728794318654853   -0.005568163806045457   -0.00094125528392118
-0.003757497380143968   -0.005595037774400776   -0.0011725530196708943
-0.0009141506383384024   -0.001788353670018895   -0.0005907956209698107
-0.0019665555776177896   -0.001958345416323989   -0.0006506809899448325
-0.0037614128358867387   -0.00569042152298771   -0.0010562347750001943
-0.0008789089372207613   -0.001849041869659774   -0.000531335982686439
-0.001971785378098575   -0.002006193713075007   -0.0005250292869007839
-0.0037614128358867387   -0.00569042152298771   -0.0010562347750001943
-0.001728794318654853   -0.005568163806045457   -0.00094125528392118
-0.0008789089372207613   -0.001849041869659774   -0.000531335982686439
-0.0017149269063342848   -0.005597599890003369   -0.000887198694777018
-0.001971785378098575   -0.002006193713075007   -0.0005250292869007839
-0.0008589868441895689   -0.0018721869358372435   -0.0004734646183057924
-0.0017149269063342848   -0.005597599890003369   -0.000887198694777018
-0.0008789089372207613   -0.001849041869659774   -0.000531335982686439
-0.001971785378098575   -0.002006193713075007   -0.0005250292869007839
-0.0017149269063342848   -0.005597599890003369   -0.000887198694777018
-0.003775663929089819   -0.0057486165400646725   -0.0009444919002912396
-0.0037614128358867387   -0.00569042152298771   -0.0010562347750001943
-0.001971785378098575   -0.002006193713075007   -0.0005250292869007839
-0.0017149269063342848   -0.005597599890003369   -0.000887198694777018
-0.0037614128358867387   -0.00569042152298771   -0.0010562347750001943
-0.0008789089372207613   -0.001849041869659774   -0.000531335982686439
-0.001971785378098575   -0.002006193713075007   -0.0005250292869007839
-0.003775663929089819   -0.0057486165400646725   -0.0009444919002912396
-0.0008589868441895689   -0.0018721869358372435   -0.0004734646183057924
-0.001970392479841654   -0.0020185386838447715   -0.0003951487210062982
-0.003775663929089819   -0.0057486165400646725   -0.0009444919002912396
-0.0017149269063342848   -0.005597599890003369   -0.000887198694777018
-0.0008589868441895689   -0.0018721869358372435   -0.0004734646183057924
-0.0016944807343512152   -0.005596925239135424   -0.0008401632746973441
-0.001970392479841654   -0.0020185386838447715   -0.0003951487210062982
-0.0008407939779048502   -0.0018625611523145175   -0.000413673173275504
-0.0016944807343512152   -0.005596925239135424   -0.0008401632746973441
-0.0008589868441895689   -0.0018721869358372435   -0.0004734646183057924
-0.001970392479841654   -0.0020185386838447715   -0.0003951487210062982
-0.0016944807343512152   -0.005596925239135424   -0.0008401632746973441
-0.003763831312173312   -0.00577889616651444   -0.0008399309114273215
-0.003775663929089819   -0.0057486165400646725   -0.0009444919002912396
-0.001970392479841654   -0.0020185386838447715   -0.0003951487210062982
-0.0016944807343512152   -0.005596925239135424   -0.0008401632746973441
-0.003775663929089819   -0.0057486165400646725   -0.0009444919002912396
-0.0008589868441895689   -0.0018721869358372435   -0.0004734646183057924
-0.0009141506383384024   -0.001788353670018895   -0.0005907956209698107
-0.0017443755607277746   -0.005507508760877786   -0.0010009115185986605
0.00011767305670594922   -0.0017982297455756769   -0.0004725255797903227
-0.0008789089372207613   -0.001849041869659774   -0.000531335982686439
-0.0017443755607277746   -0.005507508760877786   -0.0010009115185986605
0.0001965453551770645   -0.005510146744136109   -0.0008925236544947601
0.00011767305670594922   -0.0017982297455756769   -0.0004725255797903227
0.00021560438063446594   -0.005538798378007395   -0.0008884751401537562
-0.0008789089372207613   -0.001849041869659774   -0.000531335982686439
0.00014031436866848715   -0.0018296417961913257   -0.00048066174145876674
0.00021560438063446594   -0.005538798378007395   -0.0008884751401537562
0.00011767305670594922   -0.0017982297455756769   -0.0004725255797903227
-0.0008789089372207613   -0.001849041869659774   -0.000531335982686439
0.00021560438063446594   -0.005538798378007395   -0.0008884751401537562
-0.001728794318654853   -0.005568163806045457   -0.00094125528392118
-0.0017443755607277746   -0.005507508760877786   -0.0010009115185986605
-0.0008789089372207613   -0.001849041869659774   -0.000531335982686439
0.00021560438063446594   -0.005538798378007395   -0.0008884751401537562
-0.0017443755607277746   -0.005507508760877786   -0.0010009115185986605
0.00011767305670594922   -0.0017982297455756769   -0.0004725255797903227
-0.0008789089372207613   -0.001849041869659774   -0.000531335982686439
-0.001728794318654853   -0.005568163806045457   -0.00094125528392118
0.00014031436866848715   -0.0018296417961913257   -0.00048066174145876674
-0.0008589868441895689   -0.0018721869358372435   -0.0004734646183057924
-0.001728794318654853   -0.005568163806045457   -0.00094125528392118
0.00021560438063446594   -0.005538798378007395   -0.0008884751401537562
0.00014031436866848715   -0.0018296417961913257   -0.00048066174145876674
0.00022859720625736124   -0.005536961027863706   -0.0008907801080649993
-0.0008589868441895689   -0.0018721869358372435   -0.0004734646183057924
0.0001582261253136697   -0.0018269999329612345   -0.0004880417068455063
0.00022859720625736124   -0.005536961027863706   -0.0008907801080649993
0.00014031436866848715   -0.0018296417961913257   -0.00048066174145876674
-0.0008589868441895689   -0.0018721869358372435   -0.0004734646183057924
0.00022859720625736124   -0.005536961027863706   -0.0008907801080649993
-0.0017149269063342848   -0.005597599890003369   -0.000887198694777018
-0.001728794318654853   -0.005568163806045457   -0.00094125528392118
-0.0008589868441895689   -0.0018721869358372435   -0.0004734646183057924
0.00022859720625736124   -0.005536961027863706   -0.0008907801080649993
-0.001728794318654853   -0.005568163806045457   -0.00094125528392118
0.00014031436866848715   -0.0018296417961913257   -0.00048066174145876674
-0.0008589868441895689   -0.0018721869358372435   -0.0004734646183057924
-0.0017149269063342848   -0.005597599890003369   -0.000887198694777018
0.0001582261253136697   -0.0018269999329612345   -0.0004880417068455063
-0.0008407939779048502   -0.0018625611523145175   -0.000413673173275504
-0.0017149269063342848   -0.005597599890003369   -0.000887198694777018
0.00022859720625736124   -0.005536961027863706   -0.0008907801080649993
0.0001582261253136697   -0.0018269999329612345   -0.0004880417068455063
0.0002424969339978342   -0.005503706908539381   -0.0008995383503697741
-0.0008407939779048502   -0.0018625611523145175   -0.000413673173275504
0.00018222150357080635   -0.0017875175944020473   -0.0004956636792109246
0.0002424969339978342   -0.005503706908539381   -0.0008995383503697741
0.0001582261253136697   -0.0018269999329612345   -0.0004880417068455063
-0.0008407939779048502   -0.0018625611523145175   -0.000413673173275504
0.0002424969339978342   -0.005503706908539381   -0.0008995383503697741
-0.0016944807343512152   -0.005596925239135424   -0.0008401632746973441
-0.0017149269063342848   -0.005597599890003369   -0.000887198694777018
-0.0008407939779048502   -0.0018625611523145175   -0.000413673173275504
0.0002424969339978342   -0.005503706908539381   -0.0008995383503697741
-0.0017149269063342848   -0.005597599890003369   -0.000887198694777018
0.0001582261253136697   -0.0018269999329612345   -0.0004880417068455063
0.00011767305670594922   -0.0017982297455756769   -0.0004725255797903227
0.0001965453551770645   -0.005510146744136109   -0.0008925236544947601
0.0012379711096366305   -0.0018853515651709753   -0.0004141663337129812
0.00014031436866848715   -0.0018296417961913257   -0.00048066174145876674
0.0001965453551770645   -0.005510146744136109   -0.0008925236544947601
0.0022536736330743268   -0.005599707464488146   -0.0008421697179673387
0.0012379711096366305   -0.0018853515651709753   -0.0004141663337129812
0.002264770052558534   -0.005599258867708714   -0.0008955284868669871
0.00014031436866848715   -0.0018296417961913257   -0.00048066174145876674
0.0012405507618526868   -0.001895266636787277   -0.0004934312923753935
0.002264770052558534   -0.005599258867708714   -0.0008955284868669871
0.0012379711096366305   -0.0018853515651709753   -0.0004141663337129812
0.00014031436866848715   -0.0018296417961913257   -0.00048066174145876674
0.002264770052558534   -0.005599258867708714   -0.0008955284868669871
0.00021560438063446594   -0.005538798378007395   -0.0008884751401537562
0.0001965453551770645   -0.005510146744136109   -0.0008925236544947601
0.00014031436866848715   -0.0018296417961913257   -0.00048066174145876674
0.002264770052558534   -0.005599258867708714   -0.0008955284868669871
0.0001965453551770645   -0.005510146744136109   -0.0008925236544947601
0.0012379711096366305   -0.0018853515651709753   -0.0004141663337129812
0.00014031436866848715   -0.0018296417961913257   -0.00048066174145876674
0.00021560438063446594   -0.005538798378007395   -0.0008884751401537562
0.0012405507618526868   -0.001895266636787277   -0.0004934312923753935
0.0001582261253136697   -0.0018269999329612345   -0.0004880417068455063
0.00021560438063446594   -0.005538798378007395   -0.0008884751401537562
0.002264770052558534   -0.005599258867708714   -0.0008955284868669871
0.0012405507618526868   -0.001895266636787277   -0.0004934312923753935
0.0022549205424386184   -0.005568930137557936   -0.0009560750681141577
0.0001582261253136697   -0.0018269999329612345   -0.0004880417068455063
0.0012355637015819992   -0.001868205655220995   -0.0005695186178294237
0.0022549205424386184   -0.005568930137557936   -0.0009560750681141577
0.0012405507618526868   -0.001895266636787277   -0.0004934312923753935
0.0001582261253136697   -0.0018269999329612345   -0.0004880417068455063
0.0022549205424386184   -0.005568930137557936   -0.0009560750681141577
0.00022859720625736124   -0.005536961027863706   -0.0008907801080649993
0.00021560438063446594   -0.005538798378007395   -0.0008884751401537562
0.0001582261253136697   -0.0018269999329612345   -0.0004880417068455063
0.0022549205424386184   -0.005568930137557936   -0.0009560750681141577
0.00021560438063446594   -0.005538798378007395   -0.0008884751401537562
0.0012405507618526868   -0.001895266636787277   -0.0004934312923753935
0.0001582261253136697   -0.0018269999329612345   -0.0004880417068455063
0.00022859720625736124   -0.005536961027863706   -0.0008907801080649993
0.0012355637015819992   -0.001868205655220995   -0.0005695186178294237
0.00018222150357080635   -0.0017875175944020473   -0.0004956636792109246
0.00022859720625736124   -0.005536961027863706   -0.0008907801080649993
0.0022549205424386184   -0.005568930137557936   -0.0009560750681141577
0.0012355637015819992   -0.001868205655220995   -0.0005695186178294237
0.002249499578847817   -0.005500452837636776   -0.0010215672295289114
0.00018222150357080635   -0.0017875175944020473   -0.0004956636792109246
0.0012598061325456668   -0.001795921394919865   -0.0006441942473679747
0.002249499578847817   -0.005500452837636776   -0.0010215672295289114
0.0012355637015819992   -0.001868205655220995   -0.0005695186178294237
0.00018222150357080635   -0.0017875175944020473   -0.0004956636792109246
0.002249499578847817   -0.005500452837636776   -0.0010215672295289114
0.0002424969339978342   -0.005503706908539381   -0.0008995383503697741
0.00022859720625736124   -0.005536961027863706   -0.0008907801080649993
0.00018222150357080635   -0.0017875175944020473   -0.0004956636792109246
0.002249499578847817   -0.005500452837636776   -0.0010215672295289114
0.00022859720625736124   -0.005536961027863706   -0.0008907801080649993
0.0012355637015819992   -0.001868205655220995   -0.0005695186178294237
0.0012379711096366305   -0.0018853515651709753   -0.0004141663337129812
0.0022536736330743268   -0.005599707464488146   -0.0008421697179673387
0.0027968969438167232   -0.002106357686482595   -0.00039112156651520966
0.0012405507618526868   -0.001895266636787277   -0.0004934312923753935
0.0022536736330743268   -0.005599707464488146   -0.0008421697179673387
0.004736840485961499   -0.00576606954441787   -0.00082904877720527
0.0027968969438167232   -0.002106357686482595   -0.00039112156651520966
0.00464138960985881   -0.00575008210911035   -0.0009491759015592088
0.0012405507618526868   -0.001895266636787277   -0.0004934312923753935
0.0026272290143129697   -0.0020831877831599867   -0.0005709620043626236
0.00464138960985881   -0.00575008210911035   -0.0009491759015592088
0.0027968969438167232   -0.002106357686482595   -0.00039112156651520966
0.0012405507618526868   -0.001895266636787277   -0.0004934312923753935
0.00464138960985881   -0.00575008210911035   -0.0009491759015592088
0.002264770052558534   -0.005599258867708714   -0.0008955284868669871
0.0022536736330743268   -0.005599707464488146   -0.0008421697179673387
0.0012405507618526868   -0.001895266636787277   -0.0004934312923753935
0.00464138960985881   -0.00575008210911035   -0.0009491759015592088
0.0022536736330743268   -0.005599707464488146   -0.0008421697179673387
0.0027968969438167232   -0.002106357686482595   -0.00039112156651520966
0.0012405507618526868   -0.001895266636787277   -0.0004934312923753935
0.002264770052558534   -0.005599258867708714   -0.0008955284868669871
0.0026272290143129697   -0.0020831877831599867   -0.0005709620043626236
0.0012355637015819992   -0.001868205655220995   -0.0005695186178294237
0.002264770052558534   -0.005599258867708714   -0.0008955284868669871
0.00464138960985881   -0.00575008210911035   -0.0009491759015592088
0.0026272290143129697   -0.0020831877831599867   -0.0005709620043626236
0.004556008453716893   -0.005703360065715041   -0.0010844192746975307
0.0012355637015819992   -0.001868205655220995   -0.0005695186178294237
0.0025491356163239425   -0.0020398807431403917   -0.0007230773465482336
0.004556008453716893   -0.005703360065715041   -0.0010844192746975307
0.0026272290143129697   -0.0020831877831599867   -0.0005709620043626236
0.0012355637015819992   -0.001868205655220995   -0.0005695186178294237
0.004556008453716893   -0.005703360065715041   -0.0010844192746975307
0.0022549205424386184   -0.005568930137557936   -0.0009560750681141577
0.002264770052558534   -0.005599258867708714   -0.0008955284868669871
0.0012355637015819992   -0.001868205655220995   -0.0005695186178294237
0.004556008453716893   -0.005703360065715041   -0.0010844192746975307
0.002264770052558534   -0.005599258867708714   -0.0008955284868669871
0.0026272290143129697   -0.0020831877831599867   -0.0005709620043626236
0.0012355637015819992   -0.001868205655220995   -0.0005695186178294237
0.0022549205424386184   -0.005568930137557936   -0.0009560750681141577
0.0025491356163239425   -0.0020398807431403917   -0.0007230773465482336
0.0012598061325456668   -0.001795921394919865   -0.0006441942473679747
0.0022549205424386184   -0.005568930137557936   -0.0009560750681141577
0.004556008453716893   -0.005703360065715041   -0.0010844192746975307
0.0025491356163239425   -0.0020398807431403917   -0.0007230773465482336
0.004427677113697472   -0.005599614103304843   -0.001225265276514019
0.0012598061325456668   -0.001795921394919865   -0.0006441942473679747
0.002432648630192375   -0.0019292104861686487   -0.0008841306878727297
0.004427677113697472   -0.005599614103304843   -0.001225265276514019
0.0025491356163239425   -0.0020398807431403917   -0.0007230773465482336
0.0012598061325456668   -0.001795921394919865   -0.0006441942473679747
0.004427677113697472   -0.005599614103304843   -0.001225265276514019
0.002249499578847817   -0.005500452837636776   -0.0010215672295289114
0.0022549205424386184   -0.005568930137557936   -0.0009560750681141577
0.0012598061325456668   -0.001795921394919865   -0.0006441942473679747
0.004427677113697472   -0.005599614103304843   -0.001225265276514019
0.0022549205424386184   -0.005568930137557936   -0.0009560750681141577
0.0025491356163239425   -0.0020398807431403917   -0.0007230773465482336
-0.005887348035789881   -0.005783136718863342   -0.0014240677240512638
-0.008062040762471634   -0.010835925596964127   -0.0016225562648352978
-0.003757497380143968   -0.005595037774400776   -0.0011725530196708943
-0.00606304157039326   -0.0059162896451824   -0.0012352644015740915
-0.008062040762471634   -0.010835925596964127   -0.0016225562648352978
-0.0051838480052780215   -0.010692337344314302   -0.0014188501511599755
-0.003757497380143968   -0.005595037774400776   -0.0011725530196708943
-0.0051945663214839274   -0.01077456454435614   -0.0013287001706398945
-0.00606304157039326   -0.0059162896451824   -0.0012352644015740915
-0.0037614128358867387   -0.00569042152298771   -0.0010562347750001943
-0.0051945663214839274   -0.01077456454435614   -0.0013287001706398945
-0.003757497380143968   -0.005595037774400776   -0.0011725530196708943
-0.00606304157039326   -0.0059162896451824   -0.0012352644015740915
-0.0051945663214839274   -0.01077456454435614   -0.0013287001706398945
-0.008204510748118683   -0.010948340093736748   -0.0014819675210008987
-0.008062040762471634   -0.010835925596964127   -0.0016225562648352978
-0.00606304157039326   -0.0059162896451824   -0.0012352644015740915
-0.0051945663214839274   -0.01077456454435614   -0.0013287001706398945
-0.008062040762471634   -0.010835925596964127   -0.0016225562648352978
-0.003757497380143968   -0.005595037774400776   -0.0011725530196708943
-0.00606304157039326   -0.0059162896451824   -0.0012352644015740915
-0.008204510748118683   -0.010948340093736748   -0.0014819675210008987
-0.0037614128358867387   -0.00569042152298771   -0.0010562347750001943
-0.0061848910708347735   -0.00599153505348954   -0.001050440928970509
-0.008204510748118683   -0.010948340093736748   -0.0014819675210008987
-0.0051945663214839274   -0.01077456454435614   -0.0013287001706398945
-0.0037614128358867387   -0.00569042152298771   -0.0010562347750001943
-0.005207266967079584   -0.010831843414943466   -0.0012450980396384404
-0.0061848910708347735   -0.00599153505348954   -0.001050440928970509
-0.003775663929089819   -0.0057486165400646725   -0.0009444919002912396
-0.005207266967079584   -0.010831843414943466   -0.0012450980396384404
-0.0037614128358867387   -0.00569042152298771   -0.0010562347750001943
-0.0061848910708347735   -0.00599153505348954   -0.001050440928970509
-0.005207266967079584   -0.010831843414943466   -0.0012450980396384404
-0.008294028420957356   -0.011018895123080377   -0.0013509746909629696
-0.008204510748118683   -0.010948340093736748   -0.0014819675210008987
-0.0061848910708347735   -0.00599153505348954   -0.001050440928970509
-0.005207266967079584   -0.010831843414943466   -0.0012450980396384404
-0.008204510748118683   -0.010948340093736748   -0.0014819675210008987
-0.0037614128358867387   -0.00569042152298771   -0.0010562347750001943
-0.0061848910708347735   -0.00599153505348954   -0.001050440928970509
-0.008294028420957356   -0.011018895123080377   -0.0013509746909629696
-0.003775663929089819   -0.0057486165400646725   -0.0009444919002912396
-0.006328888330984701   -0.0060354298817889935   -0.0008823617894260313
-0.008294028420957356   -0.011018895123080377   -0.0013509746909629696
-0.005207266967079584   -0.010831843414943466   -0.0012450980396384404
-0.003775663929089819   -0.0057486165400646725   -0.0009444919002912396
-0.005196820642001558   -0.010869613420295578   -0.0011666471590693062
-0.006328888330984701   -0.0060354298817889935   -0.0008823617894260313
-0.003763831312173312   -0.00577889616651444   -0.0008399309114273215
-0.005196820642001558   -0.010869613420295578   -0.0011666471590693062
-0.003775663929089819   -0.0057486165400646725   -0.0009444919002912396
-0.006328888330984701   -0.0060354298817889935   -0.0008823617894260313
-0.005196820642001558   -0.010869613420295578   -0.0011666471590693062
-0.008395880873269566   -0.011069776070187692   -0.0012304757480016187
-0.008294028420957356   -0.011018895123080377   -0.0013509746909629696
-0.006328888330984701   -0.0060354298817889935   -0.0008823617894260313
-0.005196820642001558   -0.010869613420295578   -0.0011666471590693062
-0.008294028420957356   -0.011018895123080377   -0.0013509746909629696
-0.003775663929089819   -0.0057486165400646725   -0.0009444919002912396
-0.003757497380143968   -0.005595037774400776   -0.0011725530196708943
-0.0051838480052780215   -0.010692337344314302   -0.0014188501511599755
-0.0017443755607277746   -0.005507508760877786   -0.0010009115185986605
-0.0037614128358867387   -0.00569042152298771   -0.0010562347750001943
-0.0051838480052780215   -0.010692337344314302   -0.0014188501511599755
-0.002471033383709775   -0.010620687481325025   -0.0012773541105782016
-0.0017443755607277746   -0.005507508760877786   -0.0010009115185986605
-0.0024642032697148857   -0.010673214561656484   -0.00122634118279576
-0.0037614128358867387   -0.00569042152298771   -0.0010562347750001943
-0.001728794318654853   -0.005568163806045457   -0.00094125528392118
-0.0024642032697148857   -0.010673214561656484   -0.00122634118279576
-0.0017443755607277746   -0.005507508760877786   -0.0010009115185986605
-0.0037614128358867387   -0.00569042152298771   -0.0010562347750001943
-0.0024642032697148857   -0.010673214561656484   -0.00122634118279576
-0.0051945663214839274   -0.01077456454435614   -0.0013287001706398945
-0.0051838480052780215   -0.010692337344314302   -0.0014188501511599755
-0.0037614128358867387   -0.00569042152298771   -0.0010562347750001943
-0.0024642032697148857   -0.010673214561656484   -0.00122634118279576
-0.0051838480052780215   -0.010692337344314302   -0.0014188501511599755
-0.0017443755607277746   -0.005507508760877786   -0.0010009115185986605
-0.0037614128358867387   -0.00569042152298771   -0.0010562347750001943
-0.0051945663214839274   -0.01077456454435614   -0.0013287001706398945
-0.001728794318654853   -0.005568163806045457   -0.00094125528392118
-0.003775663929089819   -0.0057486165400646725   -0.0009444919002912396
-0.0051945663214839274   -0.01077456454435614   -0.0013287001706398945
-0.0024642032697148857   -0.010673214561656484   -0.00122634118279576
-0.001728794318654853   -0.005568163806045457   -0.00094125528392118
-0.00245598503724187   -0.01070409066689723   -0.0011815592464931711
-0.003775663929089819   -0.0057486165400646725   -0.0009444919002912396
-0.0017149269063342848   -0.005597599890003369   -0.000887198694777018
-0.00245598503724187   -0.01070409066689723   -0.0011815592464931711
-0.001728794318654853   -0.005568163806045457   -0.00094125528392118
-0.003775663929089819   -0.0057486165400646725   -0.0009444919002912396
-0.00245598503724187   -0.01070409066689723   -0.0011815592464931711
-0.005207266967079584   -0.010831843414943466   -0.0012450980396384404
-0.0051945663214839274   -0.01077456454435614   -0.0013287001706398945
-0.003775663929089819   -0.0057486165400646725   -0.0009444919002912396
-0.00245598503724187   -0.01070409066689723   -0.0011815592464931711
-0.0051945663214839274   -0.01077456454435614   -0.0013287001706398945
-0.001728794318654853   -0.005568163806045457   -0.00094125528392118
-0.003775663929089819   -0.0057486165400646725   -0.0009444919002912396
-0.005207266967079584   -0.010831843414943466   -0.0012450980396384404
-0.0017149269063342848   -0.005597599890003369   -0.000887198694777018
-0.003763831312173312   -0.00577889616651444   -0.0008399309114273215
-0.005207266967079584   -0.010831843414943466   -0.0012450980396384404
-0.00245598503724187   -0.01070409066689723   -0.0011815592464931711
-0.0017149269063342848   -0.005597599890003369   -0.000887198694777018
-0.0024428765404270886   -0.01071375706064601   -0.0011429916378481043
-0.003763831312173312   -0.00577889616651444   -0.0008399309114273215
-0.0016944807343512152   -0.005596925239135424   -0.0008401632746973441
-0.0024428765404270886   -0.01071375706064601   -0.0011429916378481043
-0.0017149269063342848   -0.005597599890003369   -0.000887198694777018
-0.003763831312173312   -0.00577889616651444   -0.0008399309114273215
-0.0024428765404270886   -0.01071375706064601   -0.0011429916378481043
-0.005196820642001558   -0.010869613420295578   -0.0011666471590693062
-0.005207266967079584   -0.010831843414943466   -0.0012450980396384404
-0.003763831312173312   -0.00577889616651444   -0.0008399309114273215
-0.0024428765404270886   -0.01071375706064601   -0.0011429916378481043
-0.005207266967079584   -0.010831843414943466   -0.0012450980396384404
-0.0017149269063342848   -0.005597599890003369   -0.000887198694777018
-0.0017443755607277746   -0.005507508760877786   -0.0010009115185986605
-0.002471033383709775   -0.010620687481325025   -0.0012773541105782016
0.0001965453551770645   -0.005510146744136109   -0.0008925236544947601
-0.001728794318654853   -0.005568163806045457   -0.00094125528392118
-0.002471033383709775   -0.010620687481325025   -0.0012773541105782016
0.00016183305538767614   -0.010616862568488815   -0.0011897638843367685
0.0001965453551770645   -0.005510146744136109   -0.0008925236544947601
0.0001738799020944324   -0.010640138874289417   -0.0011776825261554454
-0.001728794318654853   -0.005568163806045457   -0.00094125528392118
0.00021560438063446594   -0.005538798378007395   -0.0008884751401537562
0.0001738799020944324   -0.010640138874289417   -0.0011776825261554454
0.0001965453551770645   -0.005510146744136109   -0.0008925236544947601
-0.001728794318654853   -0.005568163806045457   -0.00094125528392118
0.0001738799020944324   -0.010640138874289417   -0.0011776825261554454
-0.0024642032697148857   -0.010673214561656484   -0.00122634118279576
-0.002471033383709775   -0.010620687481325025   -0.0012773541105782016
-0.001728794318654853   -0.005568163806045457   -0.00094125528392118
0.0001738799020944324   -0.010640138874289417   -0.0011776825261554454
-0.002471033383709775   -0.010620687481325025   -0.0012773541105782016
0.0001965453551770645   -0.005510146744136109   -0.0008925236544947601
-0.001728794318654853   -0.005568163806045457   -0.00094125528392118
-0.0024642032697148857   -0.010673214561656484   -0.00122634118279576
0.00021560438063446594   -0.005538798378007395   -0.0008884751401537562
-0.0017149269063342848   -0.005597599890003369   -0.000887198694777018
-0.0024642032697148857   -0.010673214561656484   -0.00122634118279576
0.0001738799020944324   -0.010640138874289417   -0.0011776825261554454
0.00021560438063446594   -0.005538798378007395   -0.0008884751401537562
0.00018183181432843715   -0.010641849807103339   -0.0011716716071886683
-0.0017149269063342848   -0.005597599890003369   -0.000887198694777018
0.00022859720625736124   -0.005536961027863706   -0.0008907801080649993
0.00018183181432843715   -0.010641849807103339   -0.0011716716071886683
0.00021560438063446594   -0.005538798378007395   -0.0008884751401537562
-0.0017149269063342848   -0.005597599890003369   -0.000887198694777018
0.00018183181432843715   -0.010641849807103339   -0.0011716716071886683
-0.00245598503724187   -0.01070409066689723   -0.0011815592464931711
-0.0024642032697148857   -0.010673214561656484   -0.00122634118279576
-0.0017149269063342848   -0.005597599890003369   -0.000887198694777018
0.00018183181432843715   -0.010641849807103339   -0.0011716716071886683
-0.0024642032697148857   -0.010673214561656484   -0.00122634118279576
0.00021560438063446594   -0.005538798378007395   -0.0008884751401537562
-0.0017149269063342848   -0.005597599890003369   -0.000887198694777018
-0.00245598503724187   -0.01070409066689723   -0.0011815592464931711
0.00022859720625736124   -0.005536961027863706   -0.0008907801080649993
-0.0016944807343512152   -0.005596925239135424   -0.0008401632746973441
-0.00245598503724187   -0.01070409066689723   -0.0011815592464931711
0.00018183181432843715   -0.010641849807103339   -0.0011716716071886683
0.00022859720625736124   -0.005536961027863706   -0.0008907801080649993
0.00018776869714869163   -0.010621674731461604   -0.0011720975595035752
-0.0016944807343512152   -0.005596925239135424   -0.0008401632746973441
0.0002424969339978342   -0.005503706908539381   -0.0008995383503697741
0.00018776869714869163   -0.010621674731461604   -0.0011720975595035752
0.00022859720625736124   -0.005536961027863706   -0.0008907801080649993
-0.0016944807343512152   -0.005596925239135424   -0.0008401632746973441
0.00018776869714869163   -0.010621674731461604   -0.0011720975595035752
-0.0024428765404270886   -0.01071375706064601   -0.0011429916378481043
-0.00245598503724187   -0.01070409066689723   -0.0011815592464931711
-0.0016944807343512152   -0.005596925239135424   -0.0008401632746973441
0.00018776869714869163   -0.010621674731461604   -0.0011720975595035752
-0.00245598503724187   -0.01070409066689723   -0.0011815592464931711
0.00022859720625736124   -0.005536961027863706   -0.0008907801080649993
0.0001965453551770645   -0.005510146744136109   -0.0008925236544947601
0.00016183305538767614   -0.010616862568488815   -0.0011897638843367685
0.0022536736330743268   -0.005599707464488146   -0.0008421697179673387
0.00021560438063446594   -0.005538798378007395   -0.0008884751401537562
0.00016183305538767614   -0.010616862568488815   -0.0011897638843367685
0.0029072548763133545   -0.010676825104643609   -0.0011546020478537943
0.0022536736330743268   -0.005599707464488146   -0.0008421697179673387
0.002917924055709648   -0.010673267402531416   -0.0011822554708903333
0.00021560438063446594   -0.005538798378007395   -0.0008884751401537562
0.002264770052558534   -0.005599258867708714   -0.0008955284868669871
0.002917924055709648   -0.010673267402531416   -0.0011822554708903333
0.0022536736330743268   -0.005599707464488146   -0.0008421697179673387
0.00021560438063446594   -0.005538798378007395   -0.0008884751401537562
0.002917924055709648   -0.010673267402531416   -0.0011822554708903333
0.0001738799020944324   -0.010640138874289417   -0.0011776825261554454
0.00016183305538767614   -0.010616862568488815   -0.0011897638843367685
0.00021560438063446594   -0.005538798378007395   -0.0008884751401537562
0.002917924055709648   -0.010673267402531416   -0.0011822554708903333
0.00016183305538767614   -0.010616862568488815   -0.0011897638843367685
0.0022536736330743268   -0.005599707464488146   -0.0008421697179673387
0.00021560438063446594   -0.005538798378007395   -0.0008884751401537562
0.0001738799020944324   -0.010640138874289417   -0.0011776825261554454
0.002264770052558534   -0.005599258867708714   -0.0008955284868669871
0.00022859720625736124   -0.005536961027863706   -0.0008907801080649993
0.0001738799020944324   -0.010640138874289417   -0.0011776825261554454
0.002917924055709648   -0.010673267402531416   -0.0011822554708903333
0.002264770052558534   -0.005599258867708714   -0.0008955284868669871
0.0029112756434760017   -0.010648629291350272   -0.0012155332900490089
0.00022859720625736124   -0.005536961027863706   -0.0008907801080649993
0.0022549205424386184   -0.005568930137557936   -0.0009560750681141577
0.0029112756434760017   -0.010648629291350272   -0.0012155332900490089
0.002264770052558534   -0.005599258867708714   -0.0008955284868669871
0.00022859720625736124   -0.005536961027863706   -0.0008907801080649993
0.0029112756434760017   -0.010648629291350272   -0.0012155332900490089
0.00018183181432843715   -0.010641849807103339   -0.0011716716071886683
0.0001738799020944324   -0.010640138874289417   -0.0011776825261554454
0.00022859720625736124   -0.005536961027863706   -0.0008907801080649993
0.0029112756434760017   -0.010648629291350272   -0.0012155332900490089
0.0001738799020944324   -0.010640138874289417   -0.0011776825261554454
0.002264770052558534   -0.005599258867708714   -0.0008955284868669871
0.00022859720625736124   -0.005536961027863706   -0.0008907801080649993
0.00018183181432843715   -0.010641849807103339   -0.0011716716071886683
0.0022549205424386184   -0.005568930137557936   -0.0009560750681141577
0.0002424969339978342   -0.005503706908539381   -0.0008995383503697741
0.00018183181432843715   -0.010641849807103339   -0.0011716716071886683
0.0029112756434760017   -0.010648629291350272   -0.0012155332900490089
0.0022549205424386184   -0.005568930137557936   -0.0009560750681141577
0.0029009006588707896   -0.010597665915973189   -0.0012551038655398746
0.0002424969339978342   -0.005503706908539381   -0.0008995383503697741
0.002249499578847817   -0.005500452837636776   -0.0010215672295289114
0.0029009006588707896   -0.010597665915973189   -0.0012551038655398746
0.0022549205424386184   -0.005568930137557936   -0.0009560750681141577
0.0002424969339978342   -0.005503706908539381   -0.0008995383503697741
0.0029009006588707896   -0.010597665915973189   -0.0012551038655398746
0.00018776869714869163   -0.010621674731461604   -0.0011720975595035752
0.00018183181432843715   -0.010641849807103339   -0.0011716716071886683
0.0002424969339978342   -0.005503706908539381   -0.0008995383503697741
0.0029009006588707896   -0.010597665915973189   -0.0012551038655398746
0.00018183181432843715   -0.010641849807103339   -0.0011716716071886683
0.0022549205424386184   -0.005568930137557936   -0.0009560750681141577
0.0022536736330743268   -0.005599707464488146   -0.0008421697179673387
0.0029072548763133545   -0.010676825104643609   -0.0011546020478537943
0.004736840485961499   -0.00576606954441787   -0.00082904877720527
0.002264770052558534   -0.005599258867708714   -0.0008955284868669871
0.0029072548763133545   -0.010676825104643609   -0.0011546020478537943
0.006034264230131286   -0.010785436405809744   -0.0011558567922771452
0.004736840485961499   -0.00576606954441787   -0.00082904877720527
0.005982872501088349   -0.010766380568941523   -0.0012282858295693739
0.002264770052558534   -0.005599258867708714   -0.0008955284868669871
0.00464138960985881   -0.00575008210911035   -0.0009491759015592088
0.005982872501088349   -0.010766380568941523   -0.0012282858295693739
0.004736840485961499   -0.00576606954441787   -0.00082904877720527
0.002264770052558534   -0.005599258867708714   -0.0008955284868669871
0.005982872501088349   -0.010766380568941523   -0.0012282858295693739
0.002917924055709648   -0.010673267402531416   -0.0011822554708903333
0.0029072548763133545   -0.010676825104643609   -0.0011546020478537943
0.002264770052558534   -0.005599258867708714   -0.0008955284868669871
0.005982872501088349   -0.010766380568941523   -0.0012282858295693739
0.0029072548763133545   -0.010676825104643609   -0.0011546020478537943
0.004736840485961499   -0.00576606954441787   -0.00082904877720527
0.002264770052558534   -0.005599258867708714   -0.0008955284868669871
0.002917924055709648   -0.010673267402531416   -0.0011822554708903333
0.00464138960985881   -0.00575008210911035   -0.0009491759015592088
0.0022549205424386184   -0.005568930137557936   -0.0009560750681141577
0.002917924055709648   -0.010673267402531416   -0.0011822554708903333
0.005982872501088349   -0.010766380568941523   -0.0012282858295693739
0.00464138960985881   -0.00575008210911035   -0.0009491759015592088
0.005931417891443572   -0.010728490801827223   -0.0013108576406745203
0.0022549205424386184   -0.005568930137557936   -0.0009560750681141577
0.004556008453716893   -0.005703360065715041   -0.0010844192746975307
0.005931417891443572   -0.010728490801827223   -0.0013108576406745203
0.00464138960985881   -0.00575008210911035   -0.0009491759015592088
0.0022549205424386184   -0.005568930137557936   -0.0009560750681141577
0.005931417891443572   -0.010728490801827223   -0.0013108576406745203
0.0029112756434760017   -0.010648629291350272   -0.0012155332900490089
0.002917924055709648   -0.010673267402531416   -0.0011822554708903333
0.0022549205424386184   -0.005568930137557936   -0.0009560750681141577
0.005931417891443572   -0.010728490801827223   -0.0013108576406745203
0.002917924055709648   -0.010673267402531416   -0.0011822554708903333
0.00464138960985881   -0.00575008210911035   -0.0009491759015592088
0.0022549205424386184   -0.005568930137557936   -0.0009560750681141577
0.0029112756434760017   -0.010648629291350272   -0.0012155332900490089
0.004556008453716893   -0.005703360065715041   -0.0010844192746975307
0.002249499578847817   -0.005500452837636776   -0.0010215672295289114
0.0029112756434760017   -0.010648629291350272   -0.0012155332900490089
0.005931417891443572   -0.010728490801827223   -0.0013108576406745203
0.004556008453716893   -0.005703360065715041   -0.0010844192746975307
0.005839292837629259   -0.010649252423590673   -0.0014035832830604626
0.002249499578847817   -0.005500452837636776   -0.0010215672295289114
0.004427677113697472   -0.005599614103304843   -0.001225265276514019
0.005839292837629259   -0.010649252423590673   -0.0014035832830604626
0.004556008453716893   -0.005703360065715041   -0.0010844192746975307
0.002249499578847817   -0.005500452837636776   -0.0010215672295289114
0.005839292837629259   -0.010649252423590673   -0.0014035832830604626
0.0029009006588707896   -0.010597665915973189   -0.0012551038655398746
0.0029112756434760017   -0.010648629291350272   -0.0012155332900490089
0.002249499578847817   -0.005500452837636776   -0.0010215672295289114
0.005839292837629259   -0.010649252423590673   -0.0014035832830604626
0.0029112756434760017   -0.010648629291350272   -0.0012155332900490089
0.004556008453716893   -0.005703360065715041   -0.0010844192746975307
-0.008062040762471634   -0.010835925596964127   -0.0016225562648352978
-0.009622501107475688   -0.01682160328643581   -0.0017311739096426862
-0.0051838480052780215   -0.010692337344314302   -0.0014188501511599755
-0.008204510748118683   -0.010948340093736748   -0.0014819675210008987
-0.009622501107475688   -0.01682160328643581   -0.0017311739096426862
-0.006247266532959995   -0.016730393979361605   -0.0015653455015125894
-0.0051838480052780215   -0.010692337344314302   -0.0014188501511599755
-0.006254096119215176   -0.016801023172454202   -0.0015008937230663244
-0.008204510748118683   -0.010948340093736748   -0.0014819675210008987
-0.0051945663214839274   -0.01077456454435614   -0.0013287001706398945
-0.006254096119215176   -0.016801023172454202   -0.0015008937230663244
-0.0051838480052780215   -0.010692337344314302   -0.0014188501511599755
-0.008204510748118683   -0.010948340093736748   -0.0014819675210008987
-0.006254096119215176   -0.016801023172454202   -0.0015008937230663244
-0.009718081823411863   -0.0169171894884774   -0.0016380006514473727
-0.009622501107475688   -0.01682160328643581   -0.0017311739096426862
-0.008204510748118683   -0.010948340093736748   -0.0014819675210008987
-0.006254096119215176   -0.016801023172454202   -0.0015008937230663244
-0.009622501107475688   -0.01682160328643581   -0.0017311739096426862
-0.0051838480052780215   -0.010692337344314302   -0.0014188501511599755
-0.008204510748118683   -0.010948340093736748   -0.0014819675210008987
-0.009718081823411863   -0.0169171894884774   -0.0016380006514473727
-0.0051945663214839274   -0.01077456454435614   -0.0013287001706398945
-0.008294028420957356   -0.011018895123080377   -0.0013509746909629696
-0.009718081823411863   -0.0169171894884774   -0.0016380006514473727
-0.006254096119215176   -0.016801023172454202   -0.0015008937230663244
-0.0051945663214839274   -0.01077456454435614   -0.0013287001706398945
-0.006258749492667642   -0.016857077415052442   -0.0014428766690763976
-0.008294028420957356   -0.011018895123080377   -0.0013509746909629696
-0.005207266967079584   -0.010831843414943466   -0.0012450980396384404
-0.006258749492667642   -0.016857077415052442   -0.0014428766690763976
-0.0051945663214839274   -0.01077456454435614   -0.0013287001706398945
-0.008294028420957356   -0.011018895123080377   -0.0013509746909629696
-0.006258749492667642   -0.016857077415052442   -0.0014428766690763976
-0.009772586860098994   -0.01698489106390376   -0.0015537974463387054
-0.009718081823411863   -0.0169171894884774   -0.0016380006514473727
-0.008294028420957356   -0.011018895123080377   -0.0013509746909629696
-0.006258749492667642   -0.016857077415052442   -0.0014428766690763976
-0.009718081823411863   -0.0169171894884774   -0.0016380006514473727
-0.0051945663214839274   -0.01077456454435614   -0.0013287001706398945
-0.008294028420957356   -0.011018895123080377   -0.0013509746909629696
-0.009772586860098994   -0.01698489106390376   -0.0015537974463387054
-0.005207266967079584   -0.010831843414943466   -0.0012450980396384404
-0.008395880873269566   -0.011069776070187692   -0.0012304757480016187
-0.009772586860098994   -0.01698489106390376   -0.0015537974463387054
-0.006258749492667642   -0.016857077415052442   -0.0014428766690763976
-0.005207266967079584   -0.010831843414943466   -0.0012450980396384404
-0.006245106865782034   -0.016903211835686747   -0.0013904346197324642
-0.008395880873269566   -0.011069776070187692   -0.0012304757480016187
-0.005196820642001558   -0.010869613420295578   -0.0011666471590693062
-0.006245106865782034   -0.016903211835686747   -0.0013904346197324642
-0.005207266967079584   -0.010831843414943466   -0.0012450980396384404
-0.008395880873269566   -0.011069776070187692   -0.0012304757480016187
-0.006245106865782034   -0.016903211835686747   -0.0013904346197324642
-0.009828672766229988   -0.017045701340257444   -0.0014796345245477573
-0.009772586860098994   -0.01698489106390376   -0.0015537974463387054
-0.008395880873269566   -0.011069776070187692   -0.0012304757480016187
-0.006245106865782034   -0.016903211835686747   -0.0013904346197324642
-0.009772586860098994   -0.01698489106390376   -0.0015537974463387054
-0.005207266967079584   -0.010831843414943466   -0.0012450980396384404
-0.0051838480052780215   -0.010692337344314302   -0.0014188501511599755
-0.006247266532959995   -0.016730393979361605   -0.0015653455015125894
-0.002471033383709775   -0.010620687481325025   -0.0012773541105782016
-0.0051945663214839274   -0.01077456454435614   -0.0013287001706398945
-0.006247266532959995   -0.016730393979361605   -0.0015653455015125894
-0.00308364754225017   -0.016683148854227395   -0.0014505408763868064
-0.002471033383709775   -0.010620687481325025   -0.0012773541105782016
-0.0030771237591553226   -0.01672741702667137   -0.001407908506049924
-0.0051945663214839274   -0.01077456454435614   -0.0013287001706398945
-0.0024642032697148857   -0.010673214561656484   -0.00122634118279576
-0.0030771237591553226   -0.01672741702667137   -0.001407908506049924
-0.002471033383709775   -0.010620687481325025   -0.0012773541105782016
-0.0051945663214839274   -0.01077456454435614   -0.0013287001706398945
-0.0030771237591553226   -0.01672741702667137   -0.001407908506049924
-0.006254096119215176   -0.016801023172454202   -0.0015008937230663244
-0.006247266532959995   -0.016730393979361605   -0.0015653455015125894
-0.0051945663214839274   -0.01077456454435614   -0.0013287001706398945
-0.0030771237591553226   -0.01672741702667137   -0.001407908506049924
-0.006247266532959995   -0.016730393979361605   -0.0015653455015125894
-0.002471033383709775   -0.010620687481325025   -0.0012773541105782016
-0.0051945663214839274   -0.01077456454435614   -0.0013287001706398945
-0.006254096119215176   -0.016801023172454202   -0.0015008937230663244
-0.0024642032697148857   -0.010673214561656484   -0.00122634118279576
-0.005207266967079584   -0.010831843414943466   -0.0012450980396384404
-0.006254096119215176   -0.016801023172454202   -0.0015008937230663244
-0.0030771237591553226   -0.01672741702667137   -0.001407908506049924
-0.0024642032697148857   -0.010673214561656484   -0.00122634118279576
-0.003068464709302976   -0.01675946530350612   -0.0013716106539574762
-0.005207266967079584   -0.010831843414943466   -0.0012450980396384404
-0.00245598503724187   -0.01070409066689723   -0.0011815592464931711
-0.003068464709302976   -0.01675946530350612   -0.0013716106539574762
-0.0024642032697148857   -0.010673214561656484   -0.00122634118279576
-0.005207266967079584   -0.010831843414943466   -0.0012450980396384404
-0.003068464709302976   -0.01675946530350612   -0.0013716106539574762
-0.006258749492667642   -0.016857077415052442   -0.0014428766690763976
-0.006254096119215176   -0.016801023172454202   -0.0015008937230663244
-0.005207266967079584   -0.010831843414943466   -0.0012450980396384404
-0.003068464709302976   -0.01675946530350612   -0.0013716106539574762
-0.006254096119215176   -0.016801023172454202   -0.0015008937230663244
-0.0024642032697148857   -0.010673214561656484   -0.00122634118279576
-0.005207266967079584   -0.010831843414943466   -0.0012450980396384404
-0.006258749492667642   -0.016857077415052442   -0.0014428766690763976
-0.00245598503724187   -0.01070409066689723   -0.0011815592464931711
-0.005196820642001558   -0.010869613420295578   -0.0011666471590693062
-0.006258749492667642   -0.016857077415052442   -0.0014428766690763976
-0.003068464709302976   -0.01675946530350612   -0.0013716106539574762
-0.00245598503724187   -0.01070409066689723   -0.0011815592464931711
-0.0030558644977528044   -0.016779504495843544   -0.001341754821394297
-0.005196820642001558   -0.010869613420295578   -0.0011666471590693062
-0.0024428765404270886   -0.01071375706064601   -0.0011429916378481043
-0.0030558644977528044   -0.016779504495843544   -0.001341754821394297
-0.00245598503724187   -0.01070409066689723   -0.0011815592464931711
-0.005196820642001558   -0.010869613420295578   -0.0011666471590693062
-0.0030558644977528044   -0.016779504495843544   -0.001341754821394297
-0.006245106865782034   -0.016903211835686747   -0.0013904346197324642
-0.006258749492667642   -0.016857077415052442   -0.0014428766690763976
-0.005196820642001558   -0.010869613420295578   -0.0011666471590693062
-0.0030558644977528044   -0.016779504495843544   -0.001341754821394297
-0.006258749492667642   -0.016857077415052442   -0.0014428766690763976
-0.00245598503724187   -0.01070409066689723   -0.0011815592464931711
-0.002471033383709775   -0.010620687481325025   -0.0012773541105782016
-0.00308364754225017   -0.016683148854227395   -0.0014505408763868064
0.00016183305538767614   -0.010616862568488815   -0.0011897638843367685
-0.0024642032697148857   -0.010673214561656484   -0.00122634118279576
-0.00308364754225017   -0.016683148854227395   -0.0014505408763868064
-6.103256244488034e-06   -0.016674959045300836   -0.0013838267232759963
0.00016183305538767614   -0.010616862568488815   -0.0011897638843367685
5.6099905403627135e-06   -0.016692703081131317   -0.00136319159442172
-0.0024642032697148857   -0.010673214561656484   -0.00122634118279576
0.0001738799020944324   -0.010640138874289417   -0.0011776825261554454
5.6099905403627135e-06   -0.016692703081131317   -0.00136319159442172
0.00016183305538767614   -0.010616862568488815   -0.0011897638843367685
-0.0024642032697148857   -0.010673214561656484   -0.00122634118279576
5.6099905403627135e-06   -0.016692703081131317   -0.00136319159442172
-0.0030771237591553226   -0.01672741702667137   -0.001407908506049924
-0.00308364754225017   -0.016683148854227395   -0.0014505408763868064
-0.0024642032697148857   -0.010673214561656484   -0.00122634118279576
5.6099905403627135e-06   -0.016692703081131317   -0.00136319159442172
-0.00308364754225017   -0.016683148854227395   -0.0014505408763868064
0.00016183305538767614   -0.010616862568488815   -0.0011897638843367685
-0.0024642032697148857   -0.010673214561656484   -0.00122634118279576
-0.0030771237591553226   -0.01672741702667137   -0.001407908506049924
0.0001738799020944324   -0.010640138874289417   -0.0011776825261554454
-0.00245598503724187   -0.01070409066689723   -0.0011815592464931711
-0.0030771237591553226   -0.01672741702667137   -0.001407908506049924
5.6099905403627135e-06   -0.016692703081131317   -0.00136319159442172
0.0001738799020944324   -0.010640138874289417   -0.0011776825261554454
1.4138309430012037e-05   -0.016698142111221878   -0.001348813124055131
-0.00245598503724187   -0.01070409066689723   -0.0011815592464931711
0.00018183181432843715   -0.010641849807103339   -0.0011716716071886683
1.4138309430012037e-05   -0.016698142111221878   -0.001348813124055131
0.0001738799020944324   -0.010640138874289417   -0.0011776825261554454
-0.00245598503724187   -0.01070409066689723   -0.0011815592464931711
1.4138309430012037e-05   -0.016698142111221878   -0.001348813124055131
-0.003068464709302976   -0.01675946530350612   -0.0013716106539574762
-0.0030771237591553226   -0.01672741702667137   -0.001407908506049924
-0.00245598503724187   -0.01070409066689723   -0.0011815592464931711
1.4138309430012037e-05   -0.016698142111221878   -0.001348813124055131
-0.0030771237591553226   -0.01672741702667137   -0.001407908506049924
0.0001738799020944324   -0.010640138874289417   -0.0011776825261554454
-0.00245598503724187   -0.01070409066689723   -0.0011815592464931711
-0.003068464709302976   -0.01675946530350612   -0.0013716106539574762
0.00018183181432843715   -0.010641849807103339   -0.0011716716071886683
-0.0024428765404270886   -0.01071375706064601   -0.0011429916378481043
-0.003068464709302976   -0.01675946530350612   -0.0013716106539574762
1.4138309430012037e-05   -0.016698142111221878   -0.001348813124055131
0.00018183181432843715   -0.010641849807103339   -0.0011716716071886683
1.9807051825335112e-05   -0.01669110683201585   -0.0013409661348553338
-0.0024428765404270886   -0.01071375706064601   -0.0011429916378481043
0.00018776869714869163   -0.010621674731461604   -0.0011720975595035752
1.9807051825335112e-05   -0.01669110683201585   -0.0013409661348553338
0.00018183181432843715   -0.010641849807103339   -0.0011716716071886683
-0.0024428765404270886   -0.01071375706064601   -0.0011429916378481043
1.9807051825335112e-05   -0.01669110683201585   -0.0013409661348553338
-0.0030558644977528044   -0.016779504495843544   -0.001341754821394297
-0.003068464709302976   -0.01675946530350612   -0.0013716106539574762
-0.0024428765404270886   -0.01071375706064601   -0.0011429916378481043
1.9807051825335112e-05   -0.01669110683201585   -0.0013409661348553338
-0.003068464709302976   -0.01675946530350612   -0.0013716106539574762
0.00018183181432843715   -0.010641849807103339   -0.0011716716071886683
0.00016183305538767614   -0.010616862568488815   -0.0011897638843367685
-6.103256244488034e-06   -0.016674959045300836   -0.0013838267232759963
0.0029072548763133545   -0.010676825104643609   -0.0011546020478537943
0.0001738799020944324   -0.010640138874289417   -0.0011776825261554454
-6.103256244488034e-06   -0.016674959045300836   -0.0013838267232759963
0.003177310803133346   -0.016702471407585677   -0.0013649591648412169
0.0029072548763133545   -0.010676825104643609   -0.0011546020478537943
0.0031915484764263495   -0.016695212100694527   -0.0013667795596698795
0.0001738799020944324   -0.010640138874289417   -0.0011776825261554454
0.002917924055709648   -0.010673267402531416   -0.0011822554708903333
0.0031915484764263495   -0.016695212100694527   -0.0013667795596698795
0.0029072548763133545   -0.010676825104643609   -0.0011546020478537943
0.0001738799020944324   -0.010640138874289417   -0.0011776825261554454
0.0031915484764263495   -0.016695212100694527   -0.0013667795596698795
5.6099905403627135e-06   -0.016692703081131317   -0.00136319159442172
-6.103256244488034e-06   -0.016674959045300836   -0.0013838267232759963
0.0001738799020944324   -0.010640138874289417   -0.0011776825261554454
0.0031915484764263495   -0.016695212100694527   -0.0013667795596698795
-6.103256244488034e-06   -0.016674959045300836   -0.0013838267232759963
0.0029072548763133545   -0.010676825104643609   -0.0011546020478537943
0.0001738799020944324   -0.010640138874289417   -0.0011776825261554454
5.6099905403627135e-06   -0.016692703081131317   -0.00136319159442172
0.002917924055709648   -0.010673267402531416   -0.0011822554708903333
0.00018183181432843715   -0.010641849807103339   -0.0011716716071886683
5.6099905403627135e-06   -0.016692703081131317   -0.00136319159442172
0.0031915484764263495   -0.016695212100694527   -0.0013667795596698795
0.002917924055709648   -0.010673267402531416   -0.0011822554708903333
0.00319336452231111   -0.016676615780169653   -0.0013745179909639969
0.00018183181432843715   -0.010641849807103339   -0.0011716716071886683
0.0029112756434760017   -0.010648629291350272   -0.0012155332900490089
0.00319336452231111   -0.016676615780169653   -0.0013745179909639969
0.002917924055709648   -0.010673267402531416   -0.0011822554708903333
0.00018183181432843715   -0.010641849807103339   -0.0011716716071886683
0.00319336452231111   -0.016676615780169653   -0.0013745179909639969
1.4138309430012037e-05   -0.016698142111221878   -0.001348813124055131
5.6099905403627135e-06   -0.016692703081131317   -0.00136319159442172
0.00018183181432843715   -0.010641849807103339   -0.0011716716071886683
0.00319336452231111   -0.016676615780169653   -0.0013745179909639969
5.6099905403627135e-06   -0.016692703081131317   -0.00136319159442172
0.002917924055709648   -0.010673267402531416   -0.0011822554708903333
0.00018183181432843715   -0.010641849807103339   -0.0011716716071886683
1.4138309430012037e-05   -0.016698142111221878   -0.001348813124055131
0.0029112756434760017   -0.010648629291350272   -0.0012155332900490089
0.00018776869714869163   -0.010621674731461604   -0.0011720975595035752
1.4138309430012037e-05   -0.016698142111221878   -0.001348813124055131
0.00319336452231111   -0.016676615780169653   -0.0013745179909639969
0.0029112756434760017   -0.010648629291350272   -0.0012155332900490089
0.003187145959545224   -0.01664205359437711   -0.0013884022313286717
0.00018776869714869163   -0.010621674731461604   -0.0011720975595035752
0.0029009006588707896   -0.010597665915973189   -0.0012551038655398746
0.003187145959545224   -0.01664205359437711   -0.0013884022313286717
0.0029112756434760017   -0.010648629291350272   -0.0012155332900490089
0.00018776869714869163   -0.010621674731461604   -0.0011720975595035752
0.003187145959545224   -0.01664205359437711   -0.0013884022313286717
1.9807051825335112e-05   -0.01669110683201585   -0.0013409661348553338
1.4138309430012037e-05   -0.016698142111221878   -0.001348813124055131
0.00018776869714869163   -0.010621674731461604   -0.0011720975595035752
0.003187145959545224   -0.01664205359437711   -0.0013884022313286717
1.4138309430012037e-05   -0.016698142111221878   -0.001348813124055131
0.0029112756434760017   -0.010648629291350272   -0.0012155332900490089
0.0029072548763133545   -0.010676825104643609   -0.0011546020478537943
0.003177310803133346   -0.016702471407585677   -0.0013649591648412169
0.006034264230131286   -0.010785436405809744   -0.0011558567922771452
0.002917924055709648   -0.010673267402531416   -0.0011822554708903333
0.003177310803133346   -0.016702471407585677   -0.0013649591648412169
0.006692512307537432   -0.01675291134218217   -0.0013836128857695816
0.006034264230131286   -0.010785436405809744   -0.0011558567922771452
0.006687515947573084   -0.016728690542561882   -0.0014095837910097057
0.002917924055709648   -0.010673267402531416   -0.0011822554708903333
0.005982872501088349   -0.010766380568941523   -0.0012282858295693739
0.006687515947573084   -0.016728690542561882   -0.0014095837910097057
0.006034264230131286   -0.010785436405809744   -0.0011558567922771452
0.002917924055709648   -0.010673267402531416   -0.0011822554708903333
0.006687515947573084   -0.016728690542561882   -0.0014095837910097057
0.0031915484764263495   -0.016695212100694527   -0.0013667795596698795
0.003177310803133346   -0.016702471407585677   -0.0013649591648412169
0.002917924055709648   -0.010673267402531416   -0.0011822554708903333
0.006687515947573084   -0.016728690542561882   -0.0014095837910097057
0.003177310803133346   -0.016702471407585677   -0.0013649591648412169
0.006034264230131286   -0.010785436405809744   -0.0011558567922771452
0.002917924055709648   -0.010673267402531416   -0.0011822554708903333
0.0031915484764263495   -0.016695212100694527   -0.0013667795596698795
0.005982872501088349   -0.010766380568941523   -0.0012282858295693739
0.0029112756434760017   -0.010648629291350272   -0.0012155332900490089
0.0031915484764263495   -0.016695212100694527   -0.0013667795596698795
0.006687515947573084   -0.016728690542561882   -0.0014095837910097057
0.005982872501088349   -0.010766380568941523   -0.0012282858295693739
0.006671808248751183   -0.016698407886923644   -0.0014451612150048578
0.0029112756434760017   -0.010648629291350272   -0.0012155332900490089
0.005931417891443572   -0.010728490801827223   -0.0013108576406745203
0.006671808248751183   -0.016698407886923644   -0.0014451612150048578
0.005982872501088349   -0.010766380568941523   -0.0012282858295693739
0.0029112756434760017   -0.010648629291350272   -0.0012155332900490089
0.006671808248751183   -0.016698407886923644   -0.0014451612150048578
0.00319336452231111   -0.016676615780169653   -0.0013745179909639969
0.0031915484764263495   -0.016695212100694527   -0.0013667795596698795
0.0029112756434760017   -0.010648629291350272   -0.0012155332900490089
0.006671808248751183   -0.016698407886923644   -0.0014451612150048578
0.0031915484764263495   -0.016695212100694527   -0.0013667795596698795
0.005982872501088349   -0.010766380568941523   -0.0012282858295693739
0.0029112756434760017   -0.010648629291350272   -0.0012155332900490089
0.00319336452231111   -0.016676615780169653   -0.0013745179909639969
0.005931417891443572   -0.010728490801827223   -0.0013108576406745203
0.0029009006588707896   -0.010597665915973189   -0.0012551038655398746
0.00319336452231111   -0.016676615780169653   -0.0013745179909639969
0.006671808248751183   -0.016698407886923644   -0.0014451612150048578
0.005931417891443572   -0.010728490801827223   -0.0013108576406745203
0.0066272394470220835   -0.016640916334073726   -0.0014902753953668034
0.0029009006588707896   -0.010597665915973189   -0.0012551038655398746
0.005839292837629259   -0.010649252423590673   -0.0014035832830604626
0.0066272394470220835   -0.016640916334073726   -0.0014902753953668034
0.005931417891443572   -0.010728490801827223   -0.0013108576406745203
0.0029009006588707896   -0.010597665915973189   -0.0012551038655398746
0.0066272394470220835   -0.016640916334073726   -0.0014902753953668034
0.003187145959545224   -0.01664205359437711   -0.0013884022313286717
0.00319336452231111   -0.016676615780169653   -0.0013745179909639969
0.0029009006588707896   -0.010597665915973189   -0.0012551038655398746
0.0066272394470220835   -0.016640916334073726   -0.0014902753953668034
0.00319336452231111   -0.016676615780169653   -0.0013745179909639969
0.005931417891443572   -0.010728490801827223   -0.0013108576406745203
-0.009622501107475688   -0.01682160328643581   -0.0017311739096426862
-0.010565002543394235   -0.023331669410340497   -0.0017637131661259972
-0.006247266532959995   -0.016730393979361605   -0.0015653455015125894
-0.009718081823411863   -0.0169171894884774   -0.0016380006514473727
-0.010565002543394235   -0.023331669410340497   -0.0017637131661259972
-0.006944457590400981   -0.023294634819935624   -0.0016318544390913708
-0.006247266532959995   -0.016730393979361605   -0.0015653455015125894
-0.0069411032797475035   -0.0233547842533406   -0.001592375814144002
-0.009718081823411863   -0.0169171894884774   -0.0016380006514473727
-0.006254096119215176   -0.016801023172454202   -0.0015008937230663244
-0.0069411032797475035   -0.0233547842533406   -0.001592375814144002
-0.006247266532959995   -0.016730393979361605   -0.0015653455015125894
-0.009718081823411863   -0.0169171894884774   -0.0016380006514473727
-0.0069411032797475035   -0.0233547842533406   -0.001592375814144002
-0.010609214039841459   -0.023412558444655847   -0.0017158317320296315
-0.010565002543394235   -0.023331669410340497   -0.0017637131661259972
-0.009718081823411863   -0.0169171894884774   -0.0016380006514473727
-0.0069411032797475035   -0.0233547842533406   -0.001592375814144002
-0.010565002543394235   -0.023331669410340497   -0.0017637131661259972
-0.006247266532959995   -0.016730393979361605   -0.0015653455015125894
-0.009718081823411863   -0.0169171894884774   -0.0016380006514473727
-0.010609214039841459   -0.023412558444655847   -0.0017158317320296315
-0.006254096119215176   -0.016801023172454202   -0.0015008937230663244
-0.009772586860098994   -0.01698489106390376   -0.0015537974463387054
-0.010609214039841459   -0.023412558444655847   -0.0017158317320296315
-0.0069411032797475035   -0.0233547842533406   -0.001592375814144002
-0.006254096119215176   -0.016801023172454202   -0.0015008937230663244
-0.006931200222729102   -0.023410344288747952   -0.001559454723514779
-0.009772586860098994   -0.01698489106390376   -0.0015537974463387054
-0.006258749492667642   -0.016857077415052442   -0.0014428766690763976
-0.006931200222729102   -0.023410344288747952   -0.001559454723514779
-0.006254096119215176   -0.016801023172454202   -0.0015008937230663244
-0.009772586860098994   -0.01698489106390376   -0.0015537974463387054
-0.006931200222729102   -0.023410344288747952   -0.001559454723514779
-0.010622806842326436   -0.023478621112766575   -0.0016773865626905004
-0.010609214039841459   -0.023412558444655847   -0.0017158317320296315
-0.009772586860098994   -0.01698489106390376   -0.0015537974463387054
-0.006931200222729102   -0.023410344288747952   -0.001559454723514779
-0.010609214039841459   -0.023412558444655847   -0.0017158317320296315
-0.006254096119215176   -0.016801023172454202   -0.0015008937230663244
-0.009772586860098994   -0.01698489106390376   -0.0015537974463387054
-0.010622806842326436   -0.023478621112766575   -0.0016773865626905004
-0.006258749492667642   -0.016857077415052442   -0.0014428766690763976
-0.009828672766229988   -0.017045701340257444   -0.0014796345245477573
-0.010622806842326436   -0.023478621112766575   -0.0016773865626905004
-0.006931200222729102   -0.023410344288747952   -0.001559454723514779
-0.006258749492667642   -0.016857077415052442   -0.0014428766690763976
-0.0069076972394101705   -0.02346555682651956   -0.0015326254994423212
-0.009828672766229988   -0.017045701340257444   -0.0014796345245477573
-0.006245106865782034   -0.016903211835686747   -0.0013904346197324642
-0.0069076972394101705   -0.02346555682651956   -0.0015326254994423212
-0.006258749492667642   -0.016857077415052442   -0.0014428766690763976
-0.009828672766229988   -0.017045701340257444   -0.0014796345245477573
-0.0069076972394101705   -0.02346555682651956   -0.0015326254994423212
-0.010626812300858417   -0.02355048207443571   -0.0016491950608510085
-0.010622806842326436   -0.023478621112766575   -0.0016773865626905004
-0.009828672766229988   -0.017045701340257444   -0.0014796345245477573
-0.0069076972394101705   -0.02346555682651956   -0.0015326254994423212
-0.010622806842326436   -0.023478621112766575   -0.0016773865626905004
-0.006258749492667642   -0.016857077415052442   -0.0014428766690763976
-0.006247266532959995   -0.016730393979361605   -0.0015653455015125894
-0.006944457590400981   -0.023294634819935624   -0.0016318544390913708
-0.00308364754225017   -0.016683148854227395   -0.0014505408763868064
-0.006254096119215176   -0.016801023172454202   -0.0015008937230663244
-0.006944457590400981   -0.023294634819935624   -0.0016318544390913708
-0.003581364457837934   -0.023273243441530974   -0.001542106972920449
-0.00308364754225017   -0.016683148854227395   -0.0014505408763868064
-0.0035682212504273923   -0.02330959861489234   -0.0015075895899527955
-0.006254096119215176   -0.016801023172454202   -0.0015008937230663244
-0.0030771237591553226   -0.01672741702667137   -0.001407908506049924
-0.0035682212504273923   -0.02330959861489234   -0.0015075895899527955
-0.00308364754225017   -0.016683148854227395   -0.0014505408763868064
-0.006254096119215176   -0.016801023172454202   -0.0015008937230663244
-0.0035682212504273923   -0.02330959861489234   -0.0015075895899527955
-0.0069411032797475035   -0.0233547842533406   -0.001592375814144002
-0.006944457590400981   -0.023294634819935624   -0.0016318544390913708
-0.006254096119215176   -0.016801023172454202   -0.0015008937230663244
-0.0035682212504273923   -0.02330959861489234   -0.0015075895899527955
-0.006944457590400981   -0.023294634819935624   -0.0016318544390913708
-0.00308364754225017   -0.016683148854227395   -0.0014505408763868064
-0.006254096119215176   -0.016801023172454202   -0.0015008937230663244
-0.0069411032797475035   -0.0233547842533406   -0.001592375814144002
-0.0030771237591553226   -0.01672741702667137   -0.001407908506049924
-0.006258749492667642   -0.016857077415052442   -0.0014428766690763976
-0.0069411032797475035   -0.0233547842533406   -0.001592375814144002
-0.0035682212504273923   -0.02330959861489234   -0.0015075895899527955
-0.0030771237591553226   -0.01672741702667137   -0.001407908506049924
-0.00355224500357126   -0.023343013618365667   -0.0014796318845620878
-0.006258749492667642   -0.016857077415052442   -0.0014428766690763976
-0.003068464709302976   -0.01675946530350612   -0.0013716106539574762
-0.00355224500357126   -0.023343013618365667   -0.0014796318845620878
-0.0030771237591553226   -0.01672741702667137   -0.001407908506049924
-0.006258749492667642   -0.016857077415052442   -0.0014428766690763976
-0.00355224500357126   -0.023343013618365667   -0.0014796318845620878
-0.006931200222729102   -0.023410344288747952   -0.001559454723514779
-0.0069411032797475035   -0.0233547842533406   -0.001592375814144002
-0.006258749492667642   -0.016857077415052442   -0.0014428766690763976
-0.00355224500357126   -0.023343013618365667   -0.0014796318845620878
-0.0069411032797475035   -0.0233547842533406   -0.001592375814144002
-0.0030771237591553226   -0.01672741702667137   -0.001407908506049924
-0.006258749492667642   -0.016857077415052442   -0.0014428766690763976
-0.006931200222729102   -0.023410344288747952   -0.001559454723514779
-0.003068464709302976   -0.01675946530350612   -0.0013716106539574762
-0.006245106865782034   -0.016903211835686747   -0.0013904346197324642
-0.006931200222729102   -0.023410344288747952   -0.001559454723514779
-0.00355224500357126   -0.023343013618365667   -0.0014796318845620878
-0.003068464709302976   -0.01675946530350612   -0.0013716106539574762
-0.0035331564282179494   -0.023373599537095155   -0.0014583946656181793
-0.006245106865782034   -0.016903211835686747   -0.0013904346197324642
-0.0030558644977528044   -0.016779504495843544   -0.001341754821394297
-0.0035331564282179494   -0.023373599537095155   -0.0014583946656181793
-0.003068464709302976   -0.01675946530350612   -0.0013716106539574762
-0.006245106865782034   -0.016903211835686747   -0.0013904346197324642
-0.0035331564282179494   -0.023373599537095155   -0.0014583946656181793
-0.0069076972394101705   -0.02346555682651956   -0.0015326254994423212
-0.006931200222729102   -0.023410344288747952   -0.001559454723514779
-0.006245106865782034   -0.016903211835686747   -0.0013904346197324642
-0.0035331564282179494   -0.023373599537095155   -0.0014583946656181793
-0.006931200222729102   -0.023410344288747952   -0.001559454723514779
-0.003068464709302976   -0.01675946530350612   -0.0013716106539574762
-0.00308364754225017   -0.016683148854227395   -0.0014505408763868064
-0.003581364457837934   -0.023273243441530974   -0.001542106972920449
-6.103256244488034e-06   -0.016674959045300836   -0.0013838267232759963
-0.0030771237591553226   -0.01672741702667137   -0.001407908506049924
-0.003581364457837934   -0.023273243441530974   -0.001542106972920449
-0.00030930913498852184   -0.023260897944391713   -0.0014958493649451763
-6.103256244488034e-06   -0.016674959045300836   -0.0013838267232759963
-0.00029115643141432114   -0.02327299566034803   -0.0014666454860423066
-0.0030771237591553226   -0.01672741702667137   -0.001407908506049924
5.6099905403627135e-06   -0.016692703081131317   -0.00136319159442172
-0.00029115643141432114   -0.02327299566034803   -0.0014666454860423066
-6.103256244488034e-06   -0.016674959045300836   -0.0013838267232759963
-0.0030771237591553226   -0.01672741702667137   -0.001407908506049924
-0.00029115643141432114   -0.02327299566034803   -0.0014666454860423066
-0.0035682212504273923   -0.02330959861489234   -0.0015075895899527955
-0.003581364457837934   -0.023273243441530974   -0.001542106972920449
-0.0030771237591553226   -0.01672741702667137   -0.001407908506049924
-0.00029115643141432114   -0.02327299566034803   -0.0014666454860423066
-0.003581364457837934   -0.023273243441530974   -0.001542106972920449
-6.103256244488034e-06   -0.016674959045300836   -0.0013838267232759963
-0.0030771237591553226   -0.01672741702667137   -0.001407908506049924
-0.0035682212504273923   -0.02330959861489234   -0.0015075895899527955
5.6099905403627135e-06   -0.016692703081131317   -0.00136319159442172
-0.003068464709302976   -0.01675946530350612   -0.0013716106539574762
-0.0035682212504273923   -0.02330959861489234   -0.0015075895899527955
-0.00029115643141432114   -0.02327299566034803   -0.0014666454860423066
5.6099905403627135e-06   -0.016692703081131317   -0.00136319159442172
-0.0002753619170722163   -0.023281941732795273   -0.0014439473700438724
-0.003068464709302976   -0.01675946530350612   -0.0013716106539574762
1.4138309430012037e-05   -0.016698142111221878   -0.001348813124055131
-0.0002753619170722163   -0.023281941732795273   -0.0014439473700438724
5.6099905403627135e-06   -0.016692703081131317   -0.00136319159442172
-0.003068464709302976   -0.01675946530350612   -0.0013716106539574762
-0.0002753619170722163   -0.023281941732795273   -0.0014439473700438724
-0.00355224500357126   -0.023343013618365667   -0.0014796318845620878
-0.0035682212504273923   -0.02330959861489234   -0.0015075895899527955
-0.003068464709302976   -0.01675946530350612   -0.0013716106539574762
-0.0002753619170722163   -0.023281941732795273   -0.0014439473700438724
-0.0035682212504273923   -0.02330959861489234   -0.0015075895899527955
5.6099905403627135e-06   -0.016692703081131317   -0.00136319159442172
-0.003068464709302976   -0.01675946530350612   -0.0013716106539574762
-0.00355224500357126   -0.023343013618365667   -0.0014796318845620878
1.4138309430012037e-05   -0.016698142111221878   -0.001348813124055131
-0.0030558644977528044   -0.016779504495843544   -0.001341754821394297
-0.00355224500357126   -0.023343013618365667   -0.0014796318845620878
-0.0002753619170722163   -0.023281941732795273   -0.0014439473700438724
1.4138309430012037e-05   -0.016698142111221878   -0.001348813124055131
-0.0002631711982192593   -0.023287688247367825   -0.001427990512855529
-0.0030558644977528044   -0.016779504495843544   -0.001341754821394297
1.9807051825335112e-05   -0.01669110683201585   -0.0013409661348553338
-0.0002631711982192593   -0.023287688247367825   -0.001427990512855529
1.4138309430012037e-05   -0.016698142111221878   -0.001348813124055131
-0.0030558644977528044   -0.016779504495843544   -0.001341754821394297
-0.0002631711982192593   -0.023287688247367825   -0.001427990512855529
-0.0035331564282179494   -0.023373599537095155   -0.0014583946656181793
-0.00355224500357126   -0.023343013618365667   -0.0014796318845620878
-0.0030558644977528044   -0.016779504495843544   -0.001341754821394297
-0.0002631711982192593   -0.023287688247367825   -0.001427990512855529
-0.00355224500357126   -0.023343013618365667   -0.0014796318845620878
1.4138309430012037e-05   -0.016698142111221878   -0.001348813124055131
-6.103256244488034e-06   -0.016674959045300836   -0.0013838267232759963
-0.00030930913498852184   -0.023260897944391713   -0.0014958493649451763
0.003177310803133346   -0.016702471407585677   -0.0013649591648412169
5.6099905403627135e-06   -0.016692703081131317   -0.00136319159442172
-0.00030930913498852184   -0.023260897944391713   -0.0014958493649451763
0.003062482042387259   -0.02325546677429519   -0.0014935147019985429
0.003177310803133346   -0.016702471407585677   -0.0013649591648412169
0.0030863923403179954   -0.023244049727610627   -0.0014698877204907808
5.6099905403627135e-06   -0.016692703081131317   -0.00136319159442172
0.0031915484764263495   -0.016695212100694527   -0.0013667795596698795
0.0030863923403179954   -0.023244049727610627   -0.0014698877204907808
0.003177310803133346   -0.016702471407585677   -0.0013649591648412169
5.6099905403627135e-06   -0.016692703081131317   -0.00136319159442172
0.0030863923403179954   -0.023244049727610627   -0.0014698877204907808
-0.00029115643141432114   -0.02327299566034803   -0.0014666454860423066
-0.00030930913498852184   -0.023260897944391713   -0.0014958493649451763
5.6099905403627135e-06   -0.016692703081131317   -0.00136319159442172
0.0030863923403179954   -0.023244049727610627   -0.0014698877204907808
-0.00030930913498852184   -0.023260897944391713   -0.0014958493649451763
0.003177310803133346   -0.016702471407585677   -0.0013649591648412169
5.6099905403627135e-06   -0.016692703081131317   -0.00136319159442172
-0.00029115643141432114   -0.02327299566034803   -0.0014666454860423066
0.0031915484764263495   -0.016695212100694527   -0.0013667795596698795
1.4138309430012037e-05   -0.016698142111221878   -0.001348813124055131
-0.00029115643141432114   -0.02327299566034803   -0.0014666454860423066
0.0030863923403179954   -0.023244049727610627   -0.0014698877204907808
0.0031915484764263495   -0.016695212100694527   -0.0013667795596698795
0.0031026526065110493   -0.023230853928633735   -0.0014525779466791286
1.4138309430012037e-05   -0.016698142111221878   -0.001348813124055131
0.00319336452231111   -0.016676615780169653   -0.0013745179909639969
0.0031026526065110493   -0.023230853928633735   -0.0014525779466791286
0.0031915484764263495   -0.016695212100694527   -0.0013667795596698795
1.4138309430012037e-05   -0.016698142111221878   -0.001348813124055131
0.0031026526065110493   -0.023230853928633735   -0.0014525779466791286
-0.0002753619170722163   -0.023281941732795273   -0.0014439473700438724
-0.00029115643141432114   -0.02327299566034803   -0.0014666454860423066
1.4138309430012037e-05   -0.016698142111221878   -0.001348813124055131
0.0031026526065110493   -0.023230853928633735   -0.0014525779466791286
-0.00029115643141432114   -0.02327299566034803   -0.0014666454860423066
0.0031915484764263495   -0.016695212100694527   -0.0013667795596698795
1.4138309430012037e-05   -0.016698142111221878   -0.001348813124055131
-0.0002753619170722163   -0.023281941732795273   -0.0014439473700438724
0.00319336452231111   -0.016676615780169653   -0.0013745179909639969
1.9807051825335112e-05   -0.01669110683201585   -0.0013409661348553338
-0.0002753619170722163   -0.023281941732795273   -0.0014439473700438724
0.0031026526065110493   -0.023230853928633735   -0.0014525779466791286
0.00319336452231111   -0.016676615780169653   -0.0013745179909639969
0.00310650486530457   -0.023211585868169023   -0.001441457383685431
1.9807051825335112e-05   -0.01669110683201585   -0.0013409661348553338
0.003187145959545224   -0.01664205359437711   -0.0013884022313286717
0.00310650486530457   -0.023211585868169023   -0.001441457383685431
0.00319336452231111   -0.016676615780169653   -0.0013745179909639969
1.9807051825335112e-05   -0.01669110683201585   -0.0013409661348553338
0.00310650486530457   -0.023211585868169023   -0.001441457383685431
-0.0002631711982192593   -0.023287688247367825   -0.001427990512855529
-0.0002753619170722163   -0.023281941732795273   -0.0014439473700438724
1.9807051825335112e-05   -0.01669110683201585   -0.0013409661348553338
0.00310650486530457   -0.023211585868169023   -0.001441457383685431
-0.0002753619170722163   -0.023281941732795273   -0.0014439473700438724
0.00319336452231111   -0.016676615780169653   -0.0013745179909639969
0.003177310803133346   -0.016702471407585677   -0.0013649591648412169
0.003062482042387259   -0.02325546677429519   -0.0014935147019985429
0.006692512307537432   -0.01675291134218217   -0.0013836128857695816
0.0031915484764263495   -0.016695212100694527   -0.0013667795596698795
0.003062482042387259   -0.02325546677429519   -0.0014935147019985429
0.006715956749501477   -0.02324776320327075   -0.0015308034556714707
0.006692512307537432   -0.01675291134218217   -0.0013836128857695816
0.006762537213041749   -0.023217738654606135   -0.0015112030756936816
0.0031915484764263495   -0.016695212100694527   -0.0013667795596698795
0.006687515947573084   -0.016728690542561882   -0.0014095837910097057
0.006762537213041749   -0.023217738654606135   -0.0015112030756936816
0.006692512307537432   -0.01675291134218217   -0.0013836128857695816
0.0031915484764263495   -0.016695212100694527   -0.0013667795596698795
0.006762537213041749   -0.023217738654606135   -0.0015112030756936816
0.0030863923403179954   -0.023244049727610627   -0.0014698877204907808
0.003062482042387259   -0.02325546677429519   -0.0014935147019985429
0.0031915484764263495   -0.016695212100694527   -0.0013667795596698795
0.006762537213041749   -0.023217738654606135   -0.0015112030756936816
0.003062482042387259   -0.02325546677429519   -0.0014935147019985429
0.006692512307537432   -0.01675291134218217   -0.0013836128857695816
0.0031915484764263495   -0.016695212100694527   -0.0013667795596698795
0.0030863923403179954   -0.023244049727610627   -0.0014698877204907808
0.006687515947573084   -0.016728690542561882   -0.0014095837910097057
0.00319336452231111   -0.016676615780169653   -0.0013745179909639969
0.0030863923403179954   -0.023244049727610627   -0.0014698877204907808
0.006762537213041749   -0.023217738654606135   -0.0015112030756936816
0.006687515947573084   -0.016728690542561882   -0.0014095837910097057
0.006787566873248774   -0.023194089167685124   -0.0015012086057568106
0.00319336452231111   -0.016676615780169653   -0.0013745179909639969
0.006671808248751183   -0.016698407886923644   -0.0014451612150048578
0.006787566873248774   -0.023194089167685124   -0.0015012086057568106
0.006687515947573084   -0.016728690542561882   -0.0014095837910097057
0.00319336452231111   -0.016676615780169653   -0.0013745179909639969
0.006787566873248774   -0.023194089167685124   -0.0015012086057568106
0.0031026526065110493   -0.023230853928633735   -0.0014525779466791286
0.0030863923403179954   -0.023244049727610627   -0.0014698877204907808
0.00319336452231111   -0.016676615780169653   -0.0013745179909639969
0.006787566873248774   -0.023194089167685124   -0.0015012086057568106
0.0030863923403179954   -0.023244049727610627   -0.0014698877204907808
0.006687515947573084   -0.016728690542561882   -0.0014095837910097057
0.00319336452231111   -0.016676615780169653   -0.0013745179909639969
0.0031026526065110493   -0.023230853928633735   -0.0014525779466791286
0.006671808248751183   -0.016698407886923644   -0.0014451612150048578
0.003187145959545224   -0.01664205359437711   -0.0013884022313286717
0.0031026526065110493   -0.023230853928633735   -0.0014525779466791286
0.006787566873248774   -0.023194089167685124   -0.0015012086057568106
0.006671808248751183   -0.016698407886923644   -0.0014451612150048578
0.006794476471989376   -0.02315633479998354   -0.001500984049494474
0.003187145959545224   -0.01664205359437711   -0.0013884022313286717
0.0066272394470220835   -0.016640916334073726   -0.0014902753953668034
0.006794476471989376   -0.02315633479998354   -0.001500984049494474
0.006671808248751183   -0.016698407886923644   -0.0014451612150048578
0.003187145959545224   -0.01664205359437711   -0.0013884022313286717
0.006794476471989376   -0.02315633479998354   -0.001500984049494474
0.00310650486530457   -0.023211585868169023   -0.001441457383685431
0.0031026526065110493   -0.023230853928633735   -0.0014525779466791286
0.003187145959545224   -0.01664205359437711   -0.0013884022313286717
0.006794476471989376   -0.02315633479998354   -0.001500984049494474
0.0031026526065110493   -0.023230853928633735   -0.0014525779466791286
0.006671808248751183   -0.016698407886923644   -0.0014451612150048578
-0.010565002543394235   -0.023331669410340497   -0.0017637131661259972
-0.010891074823581764   -0.02995385474009131   -0.0017347234582388178
-0.006944457590400981   -0.023294634819935624   -0.0016318544390913708
-0.010609214039841459   -0.023412558444655847   -0.0017158317320296315
-0.010891074823581764   -0.02995385474009131   -0.0017347234582388178
-0.007277105521579356   -0.029971279529204732   -0.0016374231242291572
-0.006944457590400981   -0.023294634819935624   -0.0016318544390913708
-0.007257217069844326   -0.03002077206054316   -0.0016224856779913375
-0.010609214039841459   -0.023412558444655847   -0.0017158317320296315
-0.0069411032797475035   -0.0233547842533406   -0.001592375814144002
-0.007257217069844326   -0.03002077206054316   -0.0016224856779913375
-0.006944457590400981   -0.023294634819935624   -0.0016318544390913708
-0.010609214039841459   -0.023412558444655847   -0.0017158317320296315
-0.007257217069844326   -0.03002077206054316   -0.0016224856779913375
-0.010877936591189298   -0.03002009892632318   -0.0017318431440086367
-0.010891074823581764   -0.02995385474009131   -0.0017347234582388178
-0.010609214039841459   -0.023412558444655847   -0.0017158317320296315
-0.007257217069844326   -0.03002077206054316   -0.0016224856779913375
-0.010891074823581764   -0.02995385474009131   -0.0017347234582388178
-0.006944457590400981   -0.023294634819935624   -0.0016318544390913708
-0.010609214039841459   -0.023412558444655847   -0.0017158317320296315
-0.010877936591189298   -0.03002009892632318   -0.0017318431440086367
-0.0069411032797475035   -0.0233547842533406   -0.001592375814144002
-0.010622806842326436   -0.023478621112766575   -0.0016773865626905004
-0.010877936591189298   -0.03002009892632318   -0.0017318431440086367
-0.007257217069844326   -0.03002077206054316   -0.0016224856779913375
-0.0069411032797475035   -0.0233547842533406   -0.001592375814144002
-0.0072264306472028545   -0.030075698006967192   -0.0016142887648390974
-0.010622806842326436   -0.023478621112766575   -0.0016773865626905004
-0.006931200222729102   -0.023410344288747952   -0.001559454723514779
-0.0072264306472028545   -0.030075698006967192   -0.0016142887648390974
-0.0069411032797475035   -0.0233547842533406   -0.001592375814144002
-0.010622806842326436   -0.023478621112766575   -0.0016773865626905004
-0.0072264306472028545   -0.030075698006967192   -0.0016142887648390974
-0.010844178418682732   -0.030084528656388786   -0.0017390335886213486
-0.010877936591189298   -0.03002009892632318   -0.0017318431440086367
-0.010622806842326436   -0.023478621112766575   -0.0016773865626905004
-0.0072264306472028545   -0.030075698006967192   -0.0016142887648390974
-0.010877936591189298   -0.03002009892632318   -0.0017318431440086367
-0.0069411032797475035   -0.0233547842533406   -0.001592375814144002
-0.010622806842326436   -0.023478621112766575   -0.0016773865626905004
-0.010844178418682732   -0.030084528656388786   -0.0017390335886213486
-0.006931200222729102   -0.023410344288747952   -0.001559454723514779
-0.010626812300858417   -0.02355048207443571   -0.0016491950608510085
-0.010844178418682732   -0.030084528656388786   -0.0017390335886213486
-0.0072264306472028545   -0.030075698006967192   -0.0016142887648390974
-0.006931200222729102   -0.023410344288747952   -0.001559454723514779
-0.007186700934561338   -0.030139845662409154   -0.001612716524727386
-0.010626812300858417   -0.02355048207443571   -0.0016491950608510085
-0.0069076972394101705   -0.02346555682651956   -0.0015326254994423212
-0.007186700934561338   -0.030139845662409154   -0.001612716524727386
-0.006931200222729102   -0.023410344288747952   -0.001559454723514779
-0.010626812300858417   -0.02355048207443571   -0.0016491950608510085
-0.007186700934561338   -0.030139845662409154   -0.001612716524727386
-0.010789720530982169   -0.030167621414680934   -0.0017568122077074447
-0.010844178418682732   -0.030084528656388786   -0.0017390335886213486
-0.010626812300858417   -0.02355048207443571   -0.0016491950608510085
-0.007186700934561338   -0.030139845662409154   -0.001612716524727386
-0.010844178418682732   -0.030084528656388786   -0.0017390335886213486
-0.006931200222729102   -0.023410344288747952   -0.001559454723514779
-0.006944457590400981   -0.023294634819935624   -0.0016318544390913708
-0.007277105521579356   -0.029971279529204732   -0.0016374231242291572
-0.003581364457837934   -0.023273243441530974   -0.001542106972920449
-0.0069411032797475035   -0.0233547842533406   -0.001592375814144002
-0.007277105521579356   -0.029971279529204732   -0.0016374231242291572
-0.003966341104076053   -0.02997496405657312   -0.001572775652645575
-0.003581364457837934   -0.023273243441530974   -0.001542106972920449
-0.003939887946046967   -0.03000330228518665   -0.0015461214560914317
-0.0069411032797475035   -0.0233547842533406   -0.001592375814144002
-0.0035682212504273923   -0.02330959861489234   -0.0015075895899527955
-0.003939887946046967   -0.03000330228518665   -0.0015461214560914317
-0.003581364457837934   -0.023273243441530974   -0.001542106972920449
-0.0069411032797475035   -0.0233547842533406   -0.001592375814144002
-0.003939887946046967   -0.03000330228518665   -0.0015461214560914317
-0.007257217069844326   -0.03002077206054316   -0.0016224856779913375
-0.007277105521579356   -0.029971279529204732   -0.0016374231242291572
-0.0069411032797475035   -0.0233547842533406   -0.001592375814144002
-0.003939887946046967   -0.03000330228518665   -0.0015461214560914317
-0.007277105521579356   -0.029971279529204732   -0.0016374231242291572
-0.003581364457837934   -0.023273243441530974   -0.001542106972920449
-0.0069411032797475035   -0.0233547842533406   -0.001592375814144002
-0.007257217069844326   -0.03002077206054316   -0.0016224856779913375
-0.0035682212504273923   -0.02330959861489234   -0.0015075895899527955
-0.006931200222729102   -0.023410344288747952   -0.001559454723514779
-0.007257217069844326   -0.03002077206054316   -0.0016224856779913375
-0.003939887946046967   -0.03000330228518665   -0.0015461214560914317
-0.0035682212504273923   -0.02330959861489234   -0.0015075895899527955
-0.003910064397497938   -0.030037843163188967   -0.0015262307866672489
-0.006931200222729102   -0.023410344288747952   -0.001559454723514779
-0.00355224500357126   -0.023343013618365667   -0.0014796318845620878
-0.003910064397497938   -0.030037843163188967   -0.0015262307866672489
-0.0035682212504273923   -0.02330959861489234   -0.0015075895899527955
-0.006931200222729102   -0.023410344288747952   -0.001559454723514779
-0.003910064397497938   -0.030037843163188967   -0.0015262307866672489
-0.0072264306472028545   -0.030075698006967192   -0.0016142887648390974
-0.007257217069844326   -0.03002077206054316   -0.0016224856779913375
-0.006931200222729102   -0.023410344288747952   -0.001559454723514779
-0.003910064397497938   -0.030037843163188967   -0.0015262307866672489
-0.007257217069844326   -0.03002077206054316   -0.0016224856779913375
-0.0035682212504273923   -0.02330959861489234   -0.0015075895899527955
-0.006931200222729102   -0.023410344288747952   -0.001559454723514779
-0.0072264306472028545   -0.030075698006967192   -0.0016142887648390974
-0.00355224500357126   -0.023343013618365667   -0.0014796318845620878
-0.0069076972394101705   -0.02346555682651956   -0.0015326254994423212
-0.0072264306472028545   -0.030075698006967192   -0.0016142887648390974
-0.003910064397497938   -0.030037843163188967   -0.0015262307866672489
-0.00355224500357126   -0.023343013618365667   -0.0014796318845620878
-0.0038779513974116445   -0.030078694567678137   -0.0015133264385219828
-0.0069076972394101705   -0.02346555682651956   -0.0015326254994423212
-0.0035331564282179494   -0.023373599537095155   -0.0014583946656181793
-0.0038779513974116445   -0.030078694567678137   -0.0015133264385219828
-0.00355224500357126   -0.023343013618365667   -0.0014796318845620878
-0.0069076972394101705   -0.02346555682651956   -0.0015326254994423212
-0.0038779513974116445   -0.030078694567678137   -0.0015133264385219828
-0.007186700934561338   -0.030139845662409154   -0.001612716524727386
-0.0072264306472028545   -0.030075698006967192   -0.0016142887648390974
-0.0069076972394101705   -0.02346555682651956   -0.0015326254994423212
-0.0038779513974116445   -0.030078694567678137   -0.0015133264385219828
-0.0072264306472028545   -0.030075698006967192   -0.0016142887648390974
-0.00355224500357126   -0.023343013618365667   -0.0014796318845620878
-0.003581364457837934   -0.023273243441530974   -0.001542106972920449
-0.003966341104076053   -0.02997496405657312   -0.001572775652645575
-0.00030930913498852184   -0.023260897944391713   -0.0014958493649451763
-0.0035682212504273923   -0.02330959861489234   -0.0015075895899527955
-0.003966341104076053   -0.02997496405657312   -0.001572775652645575
-0.0007491567206438025   -0.029957296000538813   -0.0015465391581251358
-0.00030930913498852184   -0.023260897944391713   -0.0014958493649451763
-0.0007179351653255138   -0.029963746026714616   -0.001508752601852783
-0.0035682212504273923   -0.02330959861489234   -0.0015075895899527955
-0.00029115643141432114   -0.02327299566034803   -0.0014666454860423066
-0.0007179351653255138   -0.029963746026714616   -0.001508752601852783
-0.00030930913498852184   -0.023260897944391713   -0.0014958493649451763
-0.0035682212504273923   -0.02330959861489234   -0.0015075895899527955
-0.0007179351653255138   -0.029963746026714616   -0.001508752601852783
-0.003939887946046967   -0.03000330228518665   -0.0015461214560914317
-0.003966341104076053   -0.02997496405657312   -0.001572775652645575
-0.0035682212504273923   -0.02330959861489234   -0.0015075895899527955
-0.0007179351653255138   -0.029963746026714616   -0.001508752601852783
-0.003966341104076053   -0.02997496405657312   -0.001572775652645575
-0.00030930913498852184   -0.023260897944391713   -0.0014958493649451763
-0.0035682212504273923   -0.02330959861489234   -0.0015075895899527955
-0.003939887946046967   -0.03000330228518665   -0.0015461214560914317
-0.00029115643141432114   -0.02327299566034803   -0.0014666454860423066
-0.00355224500357126   -0.023343013618365667   -0.0014796318845620878
-0.003939887946046967   -0.03000330228518665   -0.0015461214560914317
-0.0007179351653255138   -0.029963746026714616   -0.001508752601852783
-0.00029115643141432114   -0.02327299566034803   -0.0014666454860423066
-0.0006883775127705813   -0.02997592125342314   -0.0014776846130841478
-0.00355224500357126   -0.023343013618365667   -0.0014796318845620878
-0.0002753619170722163   -0.023281941732795273   -0.0014439473700438724
-0.0006883775127705813   -0.02997592125342314   -0.0014776846130841478
-0.00029115643141432114   -0.02327299566034803   -0.0014666454860423066
-0.00355224500357126   -0.023343013618365667   -0.0014796318845620878
-0.0006883775127705813   -0.02997592125342314   -0.0014776846130841478
-0.003910064397497938   -0.030037843163188967   -0.0015262307866672489
-0.003939887946046967   -0.03000330228518665   -0.0015461214560914317
-0.00355224500357126   -0.023343013618365667   -0.0014796318845620878
-0.0006883775127705813   -0.02997592125342314   -0.0014776846130841478
-0.003939887946046967   -0.03000330228518665   -0.0015461214560914317
-0.00029115643141432114   -0.02327299566034803   -0.0014666454860423066
-0.00355224500357126   -0.023343013618365667   -0.0014796318845620878
-0.003910064397497938   -0.030037843163188967   -0.0015262307866672489
-0.0002753619170722163   -0.023281941732795273   -0.0014439473700438724
-0.0035331564282179494   -0.023373599537095155   -0.0014583946656181793
-0.003910064397497938   -0.030037843163188967   -0.0015262307866672489
-0.0006883775127705813   -0.02997592125342314   -0.0014776846130841478
-0.0002753619170722163   -0.023281941732795273   -0.0014439473700438724
-0.0006632108964799392   -0.029994095670753847   -0.0014535682789239101
-0.0035331564282179494   -0.023373599537095155   -0.0014583946656181793
-0.0002631711982192593   -0.023287688247367825   -0.001427990512855529
-0.0006632108964799392   -0.029994095670753847   -0.0014535682789239101
-0.0002753619170722163   -0.023281941732795273   -0.0014439473700438724
-0.0035331564282179494   -0.023373599537095155   -0.0014583946656181793
-0.0006632108964799392   -0.029994095670753847   -0.0014535682789239101
-0.0038779513974116445   -0.030078694567678137   -0.0015133264385219828
-0.003910064397497938   -0.030037843163188967   -0.0015262307866672489
-0.0035331564282179494   -0.023373599537095155   -0.0014583946656181793
-0.0006632108964799392   -0.029994095670753847   -0.0014535682789239101
-0.003910064397497938   -0.030037843163188967   -0.0015262307866672489
-0.0002753619170722163   -0.023281941732795273   -0.0014439473700438724
-0.00030930913498852184   -0.023260897944391713   -0.0014958493649451763
-0.0007491567206438025   -0.029957296000538813   -0.0015465391581251358
0.003062482042387259   -0.02325546677429519   -0.0014935147019985429
-0.00029115643141432114   -0.02327299566034803   -0.0014666454860423066
-0.0007491567206438025   -0.029957296000538813   -0.0015465391581251358
0.0025645300638310743   -0.029918076786465575   -0.001559996769322273
0.003062482042387259   -0.02325546677429519   -0.0014935147019985429
0.00260428804318712   -0.02990255229850494   -0.001511263812263119
-0.00029115643141432114   -0.02327299566034803   -0.0014666454860423066
0.0030863923403179954   -0.023244049727610627   -0.0014698877204907808
0.00260428804318712   -0.02990255229850494   -0.001511263812263119
0.003062482042387259   -0.02325546677429519   -0.0014935147019985429
-0.00029115643141432114   -0.02327299566034803   -0.0014666454860423066
0.00260428804318712   -0.02990255229850494   -0.001511263812263119
-0.0007179351653255138   -0.029963746026714616   -0.001508752601852783
-0.0007491567206438025   -0.029957296000538813   -0.0015465391581251358
-0.00029115643141432114   -0.02327299566034803   -0.0014666454860423066
0.00260428804318712   -0.02990255229850494   -0.001511263812263119
-0.0007491567206438025   -0.029957296000538813   -0.0015465391581251358
0.003062482042387259   -0.02325546677429519   -0.0014935147019985429
-0.00029115643141432114   -0.02327299566034803   -0.0014666454860423066
-0.0007179351653255138   -0.029963746026714616   -0.001508752601852783
0.0030863923403179954   -0.023244049727610627   -0.0014698877204907808
-0.0002753619170722163   -0.023281941732795273   -0.0014439473700438724
-0.0007179351653255138   -0.029963746026714616   -0.001508752601852783
0.00260428804318712   -0.02990255229850494   -0.001511263812263119
0.0030863923403179954   -0.023244049727610627   -0.0014698877204907808
0.002641108024823332   -0.029894470711190533   -0.0014692274802163337
-0.0002753619170722163   -0.023281941732795273   -0.0014439473700438724
0.0031026526065110493   -0.023230853928633735   -0.0014525779466791286
0.002641108024823332   -0.029894470711190533   -0.0014692274802163337
0.0030863923403179954   -0.023244049727610627   -0.0014698877204907808
-0.0002753619170722163   -0.023281941732795273   -0.0014439473700438724
0.002641108024823332   -0.029894470711190533   -0.0014692274802163337
-0.0006883775127705813   -0.02997592125342314   -0.0014776846130841478
-0.0007179351653255138   -0.029963746026714616   -0.001508752601852783
-0.0002753619170722163   -0.023281941732795273   -0.0014439473700438724
0.002641108024823332   -0.029894470711190533   -0.0014692274802163337
-0.0007179351653255138   -0.029963746026714616   -0.001508752601852783
0.0030863923403179954   -0.023244049727610627   -0.0014698877204907808
-0.0002753619170722163   -0.023281941732795273   -0.0014439473700438724
-0.0006883775127705813   -0.02997592125342314   -0.0014776846130841478
0.0031026526065110493   -0.023230853928633735   -0.0014525779466791286
-0.0002631711982192593   -0.023287688247367825   -0.001427990512855529
-0.0006883775127705813   -0.02997592125342314   -0.0014776846130841478
0.002641108024823332   -0.029894470711190533   -0.0014692274802163337
0.0031026526065110493   -0.023230853928633735   -0.0014525779466791286
0.0026610916724654253   -0.029889967079650564   -0.001433450547706748
-0.0002631711982192593   -0.023287688247367825   -0.001427990512855529
0.00310650486530457   -0.023211585868169023   -0.001441457383685431
0.0026610916724654253   -0.029889967079650564   -0.001433450547706748
0.0031026526065110493   -0.023230853928633735   -0.0014525779466791286
-0.0002631711982192593   -0.023287688247367825   -0.001427990512855529
0.0026610916724654253   -0.029889967079650564   -0.001433450547706748
-0.0006632108964799392   -0.029994095670753847   -0.0014535682789239101
-0.0006883775127705813   -0.02997592125342314   -0.0014776846130841478
-0.0002631711982192593   -0.023287688247367825   -0.001427990512855529
0.0026610916724654253   -0.029889967079650564   -0.001433450547706748
-0.0006883775127705813   -0.02997592125342314   -0.0014776846130841478
0.0031026526065110493   -0.023230853928633735   -0.0014525779466791286
0.003062482042387259   -0.02325546677429519   -0.0014935147019985429
0.0025645300638310743   -0.029918076786465575   -0.001559996769322273
0.006715956749501477   -0.02324776320327075   -0.0015308034556714707
0.0030863923403179954   -0.023244049727610627   -0.0014698877204907808
0.0025645300638310743   -0.029918076786465575   -0.001559996769322273
0.0061113995710541155   -0.02985207889752189   -0.0016153011021878031
0.006715956749501477   -0.02324776320327075   -0.0015308034556714707
0.006214778715698991   -0.029816611629880536   -0.001551223099300076
0.0030863923403179954   -0.023244049727610627   -0.0014698877204907808
0.006762537213041749   -0.023217738654606135   -0.0015112030756936816
0.006214778715698991   -0.029816611629880536   -0.001551223099300076
0.006715956749501477   -0.02324776320327075   -0.0015308034556714707
0.0030863923403179954   -0.023244049727610627   -0.0014698877204907808
0.006214778715698991   -0.029816611629880536   -0.001551223099300076
0.00260428804318712   -0.02990255229850494   -0.001511263812263119
0.0025645300638310743   -0.029918076786465575   -0.001559996769322273
0.0030863923403179954   -0.023244049727610627   -0.0014698877204907808
0.006214778715698991   -0.029816611629880536   -0.001551223099300076
0.0025645300638310743   -0.029918076786465575   -0.001559996769322273
0.006715956749501477   -0.02324776320327075   -0.0015308034556714707
0.0030863923403179954   -0.023244049727610627   -0.0014698877204907808
0.00260428804318712   -0.02990255229850494   -0.001511263812263119
0.006762537213041749   -0.023217738654606135   -0.0015112030756936816
0.0031026526065110493   -0.023230853928633735   -0.0014525779466791286
0.00260428804318712   -0.02990255229850494   -0.001511263812263119
0.006214778715698991   -0.029816611629880536   -0.001551223099300076
0.006762537213041749   -0.023217738654606135   -0.0015112030756936816
0.006286006101176729   -0.029799400718111928   -0.0014966899807882517
0.0031026526065110493   -0.023230853928633735   -0.0014525779466791286
0.006787566873248774   -0.023194089167685124   -0.0015012086057568106
0.006286006101176729   -0.029799400718111928   -0.0014966899807882517
0.006762537213041749   -0.023217738654606135   -0.0015112030756936816
0.0031026526065110493   -0.023230853928633735   -0.0014525779466791286
0.006286006101176729   -0.029799400718111928   -0.0014966899807882517
0.002641108024823332   -0.029894470711190533   -0.0014692274802163337
0.00260428804318712   -0.02990255229850494   -0.001511263812263119
0.0031026526065110493   -0.023230853928633735   -0.0014525779466791286
0.006286006101176729   -0.029799400718111928   -0.0014966899807882517
0.00260428804318712   -0.02990255229850494   -0.001511263812263119
0.006762537213041749   -0.023217738654606135   -0.0015112030756936816
0.0031026526065110493   -0.023230853928633735   -0.0014525779466791286
0.002641108024823332   -0.029894470711190533   -0.0014692274802163337
0.006787566873248774   -0.023194089167685124   -0.0015012086057568106
0.00310650486530457   -0.023211585868169023   -0.001441457383685431
0.002641108024823332   -0.029894470711190533   -0.0014692274802163337
0.006286006101176729   -0.029799400718111928   -0.0014966899807882517
0.006787566873248774   -0.023194089167685124   -0.0015012086057568106
0.006349504436334852   -0.02978080870833615   -0.001452099964686923
0.00310650486530457   -0.023211585868169023   -0.001441457383685431
0.006794476471989376   -0.02315633479998354   -0.001500984049494474
0.006349504436334852   -0.02978080870833615   -0.001452099964686923
0.006787566873248774   -0.023194089167685124   -0.0015012086057568106
0.00310650486530457   -0.023211585868169023   -0.001441457383685431
0.006349504436334852   -0.02978080870833615   -0.001452099964686923
0.0026610916724654253   -0.029889967079650564   -0.001433450547706748
0.002641108024823332   -0.029894470711190533   -0.0014692274802163337
0.00310650486530457   -0.023211585868169023   -0.001441457383685431
0.006349504436334852   -0.02978080870833615   -0.001452099964686923
0.002641108024823332   -0.029894470711190533   -0.0014692274802163337
0.006787566873248774   -0.023194089167685124   -0.0015012086057568106
-0.010891074823581764   -0.02995385474009131   -0.0017347234582388178
-0.01059705318357534   -0.03627278400513487   -0.0016592277992384923
-0.007277105521579356   -0.029971279529204732   -0.0016374231242291572
-0.010877936591189298   -0.03002009892632318   -0.0017318431440086367
-0.01059705318357534   -0.03627278400513487   -0.0016592277992384923
-0.007246533416419548   -0.03634551724747609   -0.0016007734843241914
-0.007277105521579356   -0.029971279529204732   -0.0016374231242291572
-0.007204007515351646   -0.036382413211302256   -0.0016096796230302037
-0.010877936591189298   -0.03002009892632318   -0.0017318431440086367
-0.007257217069844326   -0.03002077206054316   -0.0016224856779913375
-0.007204007515351646   -0.036382413211302256   -0.0016096796230302037
-0.007277105521579356   -0.029971279529204732   -0.0016374231242291572
-0.010877936591189298   -0.03002009892632318   -0.0017318431440086367
-0.007204007515351646   -0.036382413211302256   -0.0016096796230302037
-0.010520257554163989   -0.03632260971617497   -0.0017013437870110368
-0.01059705318357534   -0.03627278400513487   -0.0016592277992384923
-0.010877936591189298   -0.03002009892632318   -0.0017318431440086367
-0.007204007515351646   -0.036382413211302256   -0.0016096796230302037
-0.01059705318357534   -0.03627278400513487   -0.0016592277992384923
-0.007277105521579356   -0.029971279529204732   -0.0016374231242291572
-0.010877936591189298   -0.03002009892632318   -0.0017318431440086367
-0.010520257554163989   -0.03632260971617497   -0.0017013437870110368
-0.007257217069844326   -0.03002077206054316   -0.0016224856779913375
-0.010844178418682732   -0.030084528656388786   -0.0017390335886213486
-0.010520257554163989   -0.03632260971617497   -0.0017013437870110368
-0.007204007515351646   -0.036382413211302256   -0.0016096796230302037
-0.007257217069844326   -0.03002077206054316   -0.0016224856779913375
-0.007146511752919033   -0.036435053121970214   -0.0016254801260824471
-0.010844178418682732   -0.030084528656388786   -0.0017390335886213486
-0.0072264306472028545   -0.030075698006967192   -0.0016142887648390974
-0.007146511752919033   -0.036435053121970214   -0.0016254801260824471
-0.007257217069844326   -0.03002077206054316   -0.0016224856779913375
-0.010844178418682732   -0.030084528656388786   -0.0017390335886213486
-0.007146511752919033   -0.036435053121970214   -0.0016254801260824471
-0.010432770914527462   -0.03638390154869118   -0.0017542997439645163
-0.010520257554163989   -0.03632260971617497   -0.0017013437870110368
-0.010844178418682732   -0.030084528656388786   -0.0017390335886213486
-0.007146511752919033   -0.036435053121970214   -0.0016254801260824471
-0.010520257554163989   -0.03632260971617497   -0.0017013437870110368
-0.007257217069844326   -0.03002077206054316   -0.0016224856779913375
-0.010844178418682732   -0.030084528656388786   -0.0017390335886213486
-0.010432770914527462   -0.03638390154869118   -0.0017542997439645163
-0.0072264306472028545   -0.030075698006967192   -0.0016142887648390974
-0.010789720530982169   -0.030167621414680934   -0.0017568122077074447
-0.010432770914527462   -0.03638390154869118   -0.0017542997439645163
-0.007146511752919033   -0.036435053121970214   -0.0016254801260824471
-0.0072264306472028545   -0.030075698006967192   -0.0016142887648390974
-0.007084855616585687   -0.03650665350539137   -0.0016483726987010145
-0.010789720530982169   -0.030167621414680934   -0.0017568122077074447
-0.007186700934561338   -0.030139845662409154   -0.001612716524727386
-0.007084855616585687   -0.03650665350539137   -0.0016483726987010145
-0.0072264306472028545   -0.030075698006967192   -0.0016142887648390974
-0.010789720530982169   -0.030167621414680934   -0.0017568122077074447
-0.007084855616585687   -0.03650665350539137   -0.0016483726987010145
-0.010313764839436239   -0.03647727149021149   -0.001818304385986809
-0.010432770914527462   -0.03638390154869118   -0.0017542997439645163
-0.010789720530982169   -0.030167621414680934   -0.0017568122077074447
-0.007084855616585687   -0.03650665350539137   -0.0016483726987010145
-0.010432770914527462   -0.03638390154869118   -0.0017542997439645163
-0.0072264306472028545   -0.030075698006967192   -0.0016142887648390974
-0.007277105521579356   -0.029971279529204732   -0.0016374231242291572
-0.007246533416419548   -0.03634551724747609   -0.0016007734843241914
-0.003966341104076053   -0.02997496405657312   -0.001572775652645575
-0.007257217069844326   -0.03002077206054316   -0.0016224856779913375
-0.007246533416419548   -0.03634551724747609   -0.0016007734843241914
-0.004242230524475548   -0.03637415573741329   -0.0015633949616958227
-0.003966341104076053   -0.02997496405657312   -0.001572775652645575
-0.004195966028808211   -0.036393289903492804   -0.0015439803715170664
-0.007257217069844326   -0.03002077206054316   -0.0016224856779913375
-0.003939887946046967   -0.03000330228518665   -0.0015461214560914317
-0.004195966028808211   -0.036393289903492804   -0.0015439803715170664
-0.003966341104076053   -0.02997496405657312   -0.001572775652645575
-0.007257217069844326   -0.03002077206054316   -0.0016224856779913375
-0.004195966028808211   -0.036393289903492804   -0.0015439803715170664
-0.007204007515351646   -0.036382413211302256   -0.0016096796230302037
-0.007246533416419548   -0.03634551724747609   -0.0016007734843241914
-0.007257217069844326   -0.03002077206054316   -0.0016224856779913375
-0.004195966028808211   -0.036393289903492804   -0.0015439803715170664
-0.007246533416419548   -0.03634551724747609   -0.0016007734843241914
-0.003966341104076053   -0.02997496405657312   -0.001572775652645575
-0.007257217069844326   -0.03002077206054316   -0.0016224856779913375
-0.007204007515351646   -0.036382413211302256   -0.0016096796230302037
-0.003939887946046967   -0.03000330228518665   -0.0015461214560914317
-0.0072264306472028545   -0.030075698006967192   -0.0016142887648390974
-0.007204007515351646   -0.036382413211302256   -0.0016096796230302037
-0.004195966028808211   -0.036393289903492804   -0.0015439803715170664
-0.003939887946046967   -0.03000330228518665   -0.0015461214560914317
-0.00414621622883536   -0.03642755251496257   -0.0015313750838327814
-0.0072264306472028545   -0.030075698006967192   -0.0016142887648390974
-0.003910064397497938   -0.030037843163188967   -0.0015262307866672489
-0.00414621622883536   -0.03642755251496257   -0.0015313750838327814
-0.003939887946046967   -0.03000330228518665   -0.0015461214560914317
-0.0072264306472028545   -0.030075698006967192   -0.0016142887648390974
-0.00414621622883536   -0.03642755251496257   -0.0015313750838327814
-0.007146511752919033   -0.036435053121970214   -0.0016254801260824471
-0.007204007515351646   -0.036382413211302256   -0.0016096796230302037
-0.0072264306472028545   -0.030075698006967192   -0.0016142887648390974
-0.00414621622883536   -0.03642755251496257   -0.0015313750838327814
-0.007204007515351646   -0.036382413211302256   -0.0016096796230302037
-0.003939887946046967   -0.03000330228518665   -0.0015461214560914317
-0.0072264306472028545   -0.030075698006967192   -0.0016142887648390974
-0.007146511752919033   -0.036435053121970214   -0.0016254801260824471
-0.003910064397497938   -0.030037843163188967   -0.0015262307866672489
-0.007186700934561338   -0.030139845662409154   -0.001612716524727386
-0.007146511752919033   -0.036435053121970214   -0.0016254801260824471
-0.00414621622883536   -0.03642755251496257   -0.0015313750838327814
-0.003910064397497938   -0.030037843163188967   -0.0015262307866672489
-0.004095080258913273   -0.036477372274351653   -0.0015259157174619196
-0.007186700934561338   -0.030139845662409154   -0.001612716524727386
-0.0038779513974116445   -0.030078694567678137   -0.0015133264385219828
-0.004095080258913273   -0.036477372274351653   -0.0015259157174619196
-0.003910064397497938   -0.030037843163188967   -0.0015262307866672489
-0.007186700934561338   -0.030139845662409154   -0.001612716524727386
-0.004095080258913273   -0.036477372274351653   -0.0015259157174619196
-0.007084855616585687   -0.03650665350539137   -0.0016483726987010145
-0.007146511752919033   -0.036435053121970214   -0.0016254801260824471
-0.007186700934561338   -0.030139845662409154   -0.001612716524727386
-0.004095080258913273   -0.036477372274351653   -0.0015259157174619196
-0.007146511752919033   -0.036435053121970214   -0.0016254801260824471
-0.003910064397497938   -0.030037843163188967   -0.0015262307866672489
-0.003966341104076053   -0.02997496405657312   -0.001572775652645575
-0.004242230524475548   -0.03637415573741329   -0.0015633949616958227
-0.0007491567206438025   -0.029957296000538813   -0.0015465391581251358
-0.003939887946046967   -0.03000330228518665   -0.0015461214560914317
-0.004242230524475548   -0.03637415573741329   -0.0015633949616958227
-0.0013287623276902793   -0.03635189187174937   -0.0015574521791899833
-0.0007491567206438025   -0.029957296000538813   -0.0015465391581251358
-0.0012775989598131955   -0.03635221126529778   -0.0015106882735615506
-0.003939887946046967   -0.03000330228518665   -0.0015461214560914317
-0.0007179351653255138   -0.029963746026714616   -0.001508752601852783
-0.0012775989598131955   -0.03635221126529778   -0.0015106882735615506
-0.0007491567206438025   -0.029957296000538813   -0.0015465391581251358
-0.003939887946046967   -0.03000330228518665   -0.0015461214560914317
-0.0012775989598131955   -0.03635221126529778   -0.0015106882735615506
-0.004195966028808211   -0.036393289903492804   -0.0015439803715170664
-0.004242230524475548   -0.03637415573741329   -0.0015633949616958227
-0.003939887946046967   -0.03000330228518665   -0.0015461214560914317
-0.0012775989598131955   -0.03635221126529778   -0.0015106882735615506
-0.004242230524475548   -0.03637415573741329   -0.0015633949616958227
-0.0007491567206438025   -0.029957296000538813   -0.0015465391581251358
-0.003939887946046967   -0.03000330228518665   -0.0015461214560914317
-0.004195966028808211   -0.036393289903492804   -0.0015439803715170664
-0.0007179351653255138   -0.029963746026714616   -0.001508752601852783
-0.003910064397497938   -0.030037843163188967   -0.0015262307866672489
-0.004195966028808211   -0.036393289903492804   -0.0015439803715170664
-0.0012775989598131955   -0.03635221126529778   -0.0015106882735615506
-0.0007179351653255138   -0.029963746026714616   -0.001508752601852783
-0.0012277644279578234   -0.03636656444252996   -0.0014707529521254857
-0.003910064397497938   -0.030037843163188967   -0.0015262307866672489
-0.0006883775127705813   -0.02997592125342314   -0.0014776846130841478
-0.0012277644279578234   -0.03636656444252996   -0.0014707529521254857
-0.0007179351653255138   -0.029963746026714616   -0.001508752601852783
-0.003910064397497938   -0.030037843163188967   -0.0015262307866672489
-0.0012277644279578234   -0.03636656444252996   -0.0014707529521254857
-0.00414621622883536   -0.03642755251496257   -0.0015313750838327814
-0.004195966028808211   -0.036393289903492804   -0.0015439803715170664
-0.003910064397497938   -0.030037843163188967   -0.0015262307866672489
-0.0012277644279578234   -0.03636656444252996   -0.0014707529521254857
-0.004195966028808211   -0.036393289903492804   -0.0015439803715170664
-0.0007179351653255138   -0.029963746026714616   -0.001508752601852783
-0.003910064397497938   -0.030037843163188967   -0.0015262307866672489
-0.00414621622883536   -0.03642755251496257   -0.0015313750838327814
-0.0006883775127705813   -0.02997592125342314   -0.0014776846130841478
-0.0038779513974116445   -0.030078694567678137   -0.0015133264385219828
-0.00414621622883536   -0.03642755251496257   -0.0015313750838327814
-0.0012277644279578234   -0.03636656444252996   -0.0014707529521254857
-0.0006883775127705813   -0.02997592125342314   -0.0014776846130841478
-0.0011832653926030427   -0.036396129496131954   -0.0014378825010669992
-0.0038779513974116445   -0.030078694567678137   -0.0015133264385219828
-0.0006632108964799392   -0.029994095670753847   -0.0014535682789239101
-0.0011832653926030427   -0.036396129496131954   -0.0014378825010669992
-0.0006883775127705813   -0.02997592125342314   -0.0014776846130841478
-0.0038779513974116445   -0.030078694567678137   -0.0015133264385219828
-0.0011832653926030427   -0.036396129496131954   -0.0014378825010669992
-0.004095080258913273   -0.036477372274351653   -0.0015259157174619196
-0.00414621622883536   -0.03642755251496257   -0.0015313750838327814
-0.0038779513974116445   -0.030078694567678137   -0.0015133264385219828
-0.0011832653926030427   -0.036396129496131954   -0.0014378825010669992
-0.00414621622883536   -0.03642755251496257   -0.0015313750838327814
-0.0006883775127705813   -0.02997592125342314   -0.0014776846130841478
-0.0007491567206438025   -0.029957296000538813   -0.0015465391581251358
-0.0013287623276902793   -0.03635189187174937   -0.0015574521791899833
0.0025645300638310743   -0.029918076786465575   -0.001559996769322273
-0.0007179351653255138   -0.029963746026714616   -0.001508752601852783
-0.0013287623276902793   -0.03635189187174937   -0.0015574521791899833
0.0016844952799875798   -0.03628016575677658   -0.0015854082137798605
0.0025645300638310743   -0.029918076786465575   -0.001559996769322273
0.0017470645510970814   -0.03626040041651928   -0.0015115401847117158
-0.0007179351653255138   -0.029963746026714616   -0.001508752601852783
0.00260428804318712   -0.02990255229850494   -0.001511263812263119
0.0017470645510970814   -0.03626040041651928   -0.0015115401847117158
0.0025645300638310743   -0.029918076786465575   -0.001559996769322273
-0.0007179351653255138   -0.029963746026714616   -0.001508752601852783
0.0017470645510970814   -0.03626040041651928   -0.0015115401847117158
-0.0012775989598131955   -0.03635221126529778   -0.0015106882735615506
-0.0013287623276902793   -0.03635189187174937   -0.0015574521791899833
-0.0007179351653255138   -0.029963746026714616   -0.001508752601852783
0.0017470645510970814   -0.03626040041651928   -0.0015115401847117158
-0.0013287623276902793   -0.03635189187174937   -0.0015574521791899833
0.0025645300638310743   -0.029918076786465575   -0.001559996769322273
-0.0007179351653255138   -0.029963746026714616   -0.001508752601852783
-0.0012775989598131955   -0.03635221126529778   -0.0015106882735615506
0.00260428804318712   -0.02990255229850494   -0.001511263812263119
-0.0006883775127705813   -0.02997592125342314   -0.0014776846130841478
-0.0012775989598131955   -0.03635221126529778   -0.0015106882735615506
0.0017470645510970814   -0.03626040041651928   -0.0015115401847117158
0.00260428804318712   -0.02990255229850494   -0.001511263812263119
0.0018112689205851196   -0.03625667423162022   -0.0014449348096103975
-0.0006883775127705813   -0.02997592125342314   -0.0014776846130841478
0.002641108024823332   -0.029894470711190533   -0.0014692274802163337
0.0018112689205851196   -0.03625667423162022   -0.0014449348096103975
0.00260428804318712   -0.02990255229850494   -0.001511263812263119
-0.0006883775127705813   -0.02997592125342314   -0.0014776846130841478
0.0018112689205851196   -0.03625667423162022   -0.0014449348096103975
-0.0012277644279578234   -0.03636656444252996   -0.0014707529521254857
-0.0012775989598131955   -0.03635221126529778   -0.0015106882735615506
-0.0006883775127705813   -0.02997592125342314   -0.0014776846130841478
0.0018112689205851196   -0.03625667423162022   -0.0014449348096103975
-0.0012775989598131955   -0.03635221126529778   -0.0015106882735615506
0.00260428804318712   -0.02990255229850494   -0.001511263812263119
-0.0006883775127705813   -0.02997592125342314   -0.0014776846130841478
-0.0012277644279578234   -0.03636656444252996   -0.0014707529521254857
0.002641108024823332   -0.029894470711190533   -0.0014692274802163337
-0.0006632108964799392   -0.029994095670753847   -0.0014535682789239101
-0.0012277644279578234   -0.03636656444252996   -0.0014707529521254857
0.0018112689205851196   -0.03625667423162022   -0.0014449348096103975
0.002641108024823332   -0.029894470711190533   -0.0014692274802163337
0.0018540486266435147   -0.03626603756870252   -0.0013846333195355407
-0.0006632108964799392   -0.029994095670753847   -0.0014535682789239101
0.0026610916724654253   -0.029889967079650564   -0.001433450547706748
0.0018540486266435147   -0.03626603756870252   -0.0013846333195355407
0.002641108024823332   -0.029894470711190533   -0.0014692274802163337
-0.0006632108964799392   -0.029994095670753847   -0.0014535682789239101
0.0018540486266435147   -0.03626603756870252   -0.0013846333195355407
-0.0011832653926030427   -0.036396129496131954   -0.0014378825010669992
-0.0012277644279578234   -0.03636656444252996   -0.0014707529521254857
-0.0006632108964799392   -0.029994095670753847   -0.0014535682789239101
0.0018540486266435147   -0.03626603756870252   -0.0013846333195355407
-0.0012277644279578234   -0.03636656444252996   -0.0014707529521254857
0.002641108024823332   -0.029894470711190533   -0.0014692274802163337
0.0025645300638310743   -0.029918076786465575   -0.001559996769322273
0.0016844952799875798   -0.03628016575677658   -0.0015854082137798605
0.0061113995710541155   -0.02985207889752189   -0.0016153011021878031
0.00260428804318712   -0.02990255229850494   -0.001511263812263119
0.0016844952799875798   -0.03628016575677658   -0.0015854082137798605
0.004888609148168049   -0.03615681353654088   -0.001657129874630273
0.0061113995710541155   -0.02985207889752189   -0.0016153011021878031
0.005055128591701466   -0.03611617449382517   -0.0015495748957698604
0.00260428804318712   -0.02990255229850494   -0.001511263812263119
0.006214778715698991   -0.029816611629880536   -0.001551223099300076
0.005055128591701466   -0.03611617449382517   -0.0015495748957698604
0.0061113995710541155   -0.02985207889752189   -0.0016153011021878031
0.00260428804318712   -0.02990255229850494   -0.001511263812263119
0.005055128591701466   -0.03611617449382517   -0.0015495748957698604
0.0017470645510970814   -0.03626040041651928   -0.0015115401847117158
0.0016844952799875798   -0.03628016575677658   -0.0015854082137798605
0.00260428804318712   -0.02990255229850494   -0.001511263812263119
0.005055128591701466   -0.03611617449382517   -0.0015495748957698604
0.0016844952799875798   -0.03628016575677658   -0.0015854082137798605
0.0061113995710541155   -0.02985207889752189   -0.0016153011021878031
0.00260428804318712   -0.02990255229850494   -0.001511263812263119
0.0017470645510970814   -0.03626040041651928   -0.0015115401847117158
0.006214778715698991   -0.029816611629880536   -0.001551223099300076
0.002641108024823332   -0.029894470711190533   -0.0014692274802163337
0.0017470645510970814   -0.03626040041651928   -0.0015115401847117158
0.005055128591701466   -0.03611617449382517   -0.0015495748957698604
0.006214778715698991   -0.029816611629880536   -0.001551223099300076
0.005178538991021926   -0.03610496196221111   -0.0014516853040776032
0.002641108024823332   -0.029894470711190533   -0.0014692274802163337
0.006286006101176729   -0.029799400718111928   -0.0014966899807882517
0.005178538991021926   -0.03610496196221111   -0.0014516853040776032
0.006214778715698991   -0.029816611629880536   -0.001551223099300076
0.002641108024823332   -0.029894470711190533   -0.0014692274802163337
0.005178538991021926   -0.03610496196221111   -0.0014516853040776032
0.0018112689205851196   -0.03625667423162022   -0.0014449348096103975
0.0017470645510970814   -0.03626040041651928   -0.0015115401847117158
0.002641108024823332   -0.029894470711190533   -0.0014692274802163337
0.005178538991021926   -0.03610496196221111   -0.0014516853040776032
0.0017470645510970814   -0.03626040041651928   -0.0015115401847117158
0.006214778715698991   -0.029816611629880536   -0.001551223099300076
0.002641108024823332   -0.029894470711190533   -0.0014692274802163337
0.0018112689205851196   -0.03625667423162022   -0.0014449348096103975
0.006286006101176729   -0.029799400718111928   -0.0014966899807882517
0.0026610916724654253   -0.029889967079650564   -0.001433450547706748
0.0018112689205851196   -0.03625667423162022   -0.0014449348096103975
0.005178538991021926   -0.03610496196221111   -0.0014516853040776032
0.006286006101176729   -0.029799400718111928   -0.0014966899807882517
0.005303842767180129   -0.03610489359067377   -0.0013639066957730865
0.0026610916724654253   -0.029889967079650564   -0.001433450547706748
0.006349504436334852   -0.02978080870833615   -0.001452099964686923
0.005303842767180129   -0.03610489359067377   -0.0013639066957730865
0.006286006101176729   -0.029799400718111928   -0.0014966899807882517
0.0026610916724654253   -0.029889967079650564   -0.001433450547706748
0.005303842767180129   -0.03610489359067377   -0.0013639066957730865
0.0018540486266435147   -0.03626603756870252   -0.0013846333195355407
0.0018112689205851196   -0.03625667423162022   -0.0014449348096103975
0.0026610916724654253   -0.029889967079650564   -0.001433450547706748
0.005303842767180129   -0.03610489359067377   -0.0013639066957730865
0.0018112689205851196   -0.03625667423162022   -0.0014449348096103975
0.006286006101176729   -0.029799400718111928   -0.0014966899807882517
-0.01059705318357534   -0.03627278400513487   -0.0016592277992384923
-0.009671828192827801   -0.041860502912184634   -0.0015477962763804306
-0.007246533416419548   -0.03634551724747609   -0.0016007734843241914
-0.010520257554163989   -0.03632260971617497   -0.0017013437870110368
-0.009671828192827801   -0.041860502912184634   -0.0015477962763804306
-0.006852823150705569   -0.041991428214401244   -0.001538476042729839
-0.007246533416419548   -0.03634551724747609   -0.0016007734843241914
-0.006782708906772516   -0.04201034592464609   -0.0015694767058751426
-0.010520257554163989   -0.03632260971617497   -0.0017013437870110368
-0.007204007515351646   -0.036382413211302256   -0.0016096796230302037
-0.006782708906772516   -0.04201034592464609   -0.0015694767058751426
-0.007246533416419548   -0.03634551724747609   -0.0016007734843241914
-0.010520257554163989   -0.03632260971617497   -0.0017013437870110368
-0.006782708906772516   -0.04201034592464609   -0.0015694767058751426
-0.009525574916495623   -0.04188855315156803   -0.0016346828919070562
-0.009671828192827801   -0.041860502912184634   -0.0015477962763804306
-0.010520257554163989   -0.03632260971617497   -0.0017013437870110368
-0.006782708906772516   -0.04201034592464609   -0.0015694767058751426
-0.009671828192827801   -0.041860502912184634   -0.0015477962763804306
-0.007246533416419548   -0.03634551724747609   -0.0016007734843241914
-0.010520257554163989   -0.03632260971617497   -0.0017013437870110368
-0.009525574916495623   -0.04188855315156803   -0.0016346828919070562
-0.007204007515351646   -0.036382413211302256   -0.0016096796230302037
-0.010432770914527462   -0.03638390154869118   -0.0017542997439645163
-0.009525574916495623   -0.04188855315156803   -0.0016346828919070562
-0.006782708906772516   -0.04201034592464609   -0.0015694767058751426
-0.007204007515351646   -0.036382413211302256   -0.0016096796230302037
-0.006694634524404704   -0.04205576501731745   -0.0016074581483662748
-0.010432770914527462   -0.03638390154869118   -0.0017542997439645163
-0.007146511752919033   -0.036435053121970214   -0.0016254801260824471
-0.006694634524404704   -0.04205576501731745   -0.0016074581483662748
-0.007204007515351646   -0.036382413211302256   -0.0016096796230302037
-0.010432770914527462   -0.03638390154869118   -0.0017542997439645163
-0.006694634524404704   -0.04205576501731745   -0.0016074581483662748
-0.009379807295145424   -0.041941859875876154   -0.0017329348575394563
-0.009525574916495623   -0.04188855315156803   -0.0016346828919070562
-0.010432770914527462   -0.03638390154869118   -0.0017542997439645163
-0.006694634524404704   -0.04205576501731745   -0.0016074581483662748
-0.009525574916495623   -0.04188855315156803   -0.0016346828919070562
-0.007204007515351646   -0.036382413211302256   -0.0016096796230302037
-0.010432770914527462   -0.03638390154869118   -0.0017542997439645163
-0.009379807295145424   -0.041941859875876154   -0.0017329348575394563
-0.007146511752919033   -0.036435053121970214   -0.0016254801260824471
-0.010313764839436239   -0.03647727149021149   -0.001818304385986809
-0.009379807295145424   -0.041941859875876154   -0.0017329348575394563
-0.006694634524404704   -0.04205576501731745   -0.0016074581483662748
-0.007146511752919033   -0.036435053121970214   -0.0016254801260824471
-0.006607754909076133   -0.04213026720372378   -0.0016523544838842146
-0.010313764839436239   -0.03647727149021149   -0.001818304385986809
-0.007084855616585687   -0.03650665350539137   -0.0016483726987010145
-0.006607754909076133   -0.04213026720372378   -0.0016523544838842146
-0.007146511752919033   -0.036435053121970214   -0.0016254801260824471
-0.010313764839436239   -0.03647727149021149   -0.001818304385986809
-0.006607754909076133   -0.04213026720372378   -0.0016523544838842146
-0.009193120909612133   -0.04204126211715268   -0.0018423517553443085
-0.009379807295145424   -0.041941859875876154   -0.0017329348575394563
-0.010313764839436239   -0.03647727149021149   -0.001818304385986809
-0.006607754909076133   -0.04213026720372378   -0.0016523544838842146
-0.009379807295145424   -0.041941859875876154   -0.0017329348575394563
-0.007146511752919033   -0.036435053121970214   -0.0016254801260824471
-0.007246533416419548   -0.03634551724747609   -0.0016007734843241914
-0.006852823150705569   -0.041991428214401244   -0.001538476042729839
-0.004242230524475548   -0.03637415573741329   -0.0015633949616958227
-0.007204007515351646   -0.036382413211302256   -0.0016096796230302037
-0.006852823150705569   -0.041991428214401244   -0.001538476042729839
-0.004410509882162496   -0.04205253869171939   -0.001534844239532947
-0.004242230524475548   -0.03637415573741329   -0.0015633949616958227
-0.004338614352180187   -0.04205870868259361   -0.0015209182324845425
-0.007204007515351646   -0.036382413211302256   -0.0016096796230302037
-0.004195966028808211   -0.036393289903492804   -0.0015439803715170664
-0.004338614352180187   -0.04205870868259361   -0.0015209182324845425
-0.004242230524475548   -0.03637415573741329   -0.0015633949616958227
-0.007204007515351646   -0.036382413211302256   -0.0016096796230302037
-0.004338614352180187   -0.04205870868259361   -0.0015209182324845425
-0.006782708906772516   -0.04201034592464609   -0.0015694767058751426
-0.006852823150705569   -0.041991428214401244   -0.001538476042729839
-0.007204007515351646   -0.036382413211302256   -0.0016096796230302037
-0.004338614352180187   -0.04205870868259361   -0.0015209182324845425
-0.006852823150705569   -0.041991428214401244   -0.001538476042729839
-0.004242230524475548   -0.03637415573741329   -0.0015633949616958227
-0.007204007515351646   -0.036382413211302256   -0.0016096796230302037
-0.006782708906772516   -0.04201034592464609   -0.0015694767058751426
-0.004195966028808211   -0.036393289903492804   -0.0015439803715170664
-0.007146511752919033   -0.036435053121970214   -0.0016254801260824471
-0.006782708906772516   -0.04201034592464609   -0.0015694767058751426
-0.004338614352180187   -0.04205870868259361   -0.0015209182324845425
-0.004195966028808211   -0.036393289903492804   -0.0015439803715170664
-0.004264393573689727   -0.04208855130985909   -0.0015137660949920318
-0.007146511752919033   -0.036435053121970214   -0.0016254801260824471
-0.00414621622883536   -0.03642755251496257   -0.0015313750838327814
-0.004264393573689727   -0.04208855130985909   -0.0015137660949920318
-0.004195966028808211   -0.036393289903492804   -0.0015439803715170664
-0.007146511752919033   -0.036435053121970214   -0.0016254801260824471
-0.004264393573689727   -0.04208855130985909   -0.0015137660949920318
-0.006694634524404704   -0.04205576501731745   -0.0016074581483662748
-0.006782708906772516   -0.04201034592464609   -0.0015694767058751426
-0.007146511752919033   -0.036435053121970214   -0.0016254801260824471
-0.004264393573689727   -0.04208855130985909   -0.0015137660949920318
-0.006782708906772516   -0.04201034592464609   -0.0015694767058751426
-0.004195966028808211   -0.036393289903492804   -0.0015439803715170664
-0.007146511752919033   -0.036435053121970214   -0.0016254801260824471
-0.006694634524404704   -0.04205576501731745   -0.0016074581483662748
-0.00414621622883536   -0.03642755251496257   -0.0015313750838327814
-0.007084855616585687   -0.03650665350539137   -0.0016483726987010145
-0.006694634524404704   -0.04205576501731745   -0.0016074581483662748
-0.004264393573689727   -0.04208855130985909   -0.0015137660949920318
-0.00414621622883536   -0.03642755251496257   -0.0015313750838327814
-0.004190285650610532   -0.04214344118020572   -0.0015133075410317096
-0.007084855616585687   -0.03650665350539137   -0.0016483726987010145
-0.004095080258913273   -0.036477372274351653   -0.0015259157174619196
-0.004190285650610532   -0.04214344118020572   -0.0015133075410317096
-0.00414621622883536   -0.03642755251496257   -0.0015313750838327814
-0.007084855616585687   -0.03650665350539137   -0.0016483726987010145
-0.004190285650610532   -0.04214344118020572   -0.0015133075410317096
-0.006607754909076133   -0.04213026720372378   -0.0016523544838842146
-0.006694634524404704   -0.04205576501731745   -0.0016074581483662748
-0.007084855616585687   -0.03650665350539137   -0.0016483726987010145
-0.004190285650610532   -0.04214344118020572   -0.0015133075410317096
-0.006694634524404704   -0.04205576501731745   -0.0016074581483662748
-0.00414621622883536   -0.03642755251496257   -0.0015313750838327814
-0.004242230524475548   -0.03637415573741329   -0.0015633949616958227
-0.004410509882162496   -0.04205253869171939   -0.001534844239532947
-0.0013287623276902793   -0.03635189187174937   -0.0015574521791899833
-0.004195966028808211   -0.036393289903492804   -0.0015439803715170664
-0.004410509882162496   -0.04205253869171939   -0.001534844239532947
-0.002049129929862181   -0.042041015173430465   -0.0015525359351313568
-0.0013287623276902793   -0.03635189187174937   -0.0015574521791899833
-0.0019703835346220953   -0.042032852043598766   -0.0014952551679094754
-0.004195966028808211   -0.036393289903492804   -0.0015439803715170664
-0.0012775989598131955   -0.03635221126529778   -0.0015106882735615506
-0.0019703835346220953   -0.042032852043598766   -0.0014952551679094754
-0.0013287623276902793   -0.03635189187174937   -0.0015574521791899833
-0.004195966028808211   -0.036393289903492804   -0.0015439803715170664
-0.0019703835346220953   -0.042032852043598766   -0.0014952551679094754
-0.004338614352180187   -0.04205870868259361   -0.0015209182324845425
-0.004410509882162496   -0.04205253869171939   -0.001534844239532947
-0.004195966028808211   -0.036393289903492804   -0.0015439803715170664
-0.0019703835346220953   -0.042032852043598766   -0.0014952551679094754
-0.004410509882162496   -0.04205253869171939   -0.001534844239532947
-0.0013287623276902793   -0.03635189187174937   -0.0015574521791899833
-0.004195966028808211   -0.036393289903492804   -0.0015439803715170664
-0.004338614352180187   -0.04205870868259361   -0.0015209182324845425
-0.0012775989598131955   -0.03635221126529778   -0.0015106882735615506
-0.00414621622883536   -0.03642755251496257   -0.0015313750838327814
-0.004338614352180187   -0.04205870868259361   -0.0015209182324845425
-0.0019703835346220953   -0.042032852043598766   -0.0014952551679094754
-0.0012775989598131955   -0.03635221126529778   -0.0015106882735615506
-0.0018939357537326737   -0.042046119285555954   -0.0014451959636760268
-0.00414621622883536   -0.03642755251496257   -0.0015313750838327814
-0.0012277644279578234   -0.03636656444252996   -0.0014707529521254857
-0.0018939357537326737   -0.042046119285555954   -0.0014451959636760268
-0.0012775989598131955   -0.03635221126529778   -0.0015106882735615506
-0.00414621622883536   -0.03642755251496257   -0.0015313750838327814
-0.0018939357537326737   -0.042046119285555954   -0.0014451959636760268
-0.004264393573689727   -0.04208855130985909   -0.0015137660949920318
-0.004338614352180187   -0.04205870868259361   -0.0015209182324845425
-0.00414621622883536   -0.03642755251496257   -0.0015313750838327814
-0.0018939357537326737   -0.042046119285555954   -0.0014451959636760268
-0.004338614352180187   -0.04205870868259361   -0.0015209182324845425
-0.0012775989598131955   -0.03635221126529778   -0.0015106882735615506
-0.00414621622883536   -0.03642755251496257   -0.0015313750838327814
-0.004264393573689727   -0.04208855130985909   -0.0015137660949920318
-0.0012277644279578234   -0.03636656444252996   -0.0014707529521254857
-0.004095080258913273   -0.036477372274351653   -0.0015259157174619196
-0.004264393573689727   -0.04208855130985909   -0.0015137660949920318
-0.0018939357537326737   -0.042046119285555954   -0.0014451959636760268
-0.0012277644279578234   -0.03636656444252996   -0.0014707529521254857
-0.0018248461733945342   -0.04208388333453405   -0.0014017363942232465
-0.004095080258913273   -0.036477372274351653   -0.0015259157174619196
-0.0011832653926030427   -0.036396129496131954   -0.0014378825010669992
-0.0018248461733945342   -0.04208388333453405   -0.0014017363942232465
-0.0012277644279578234   -0.03636656444252996   -0.0014707529521254857
-0.004095080258913273   -0.036477372274351653   -0.0015259157174619196
-0.0018248461733945342   -0.04208388333453405   -0.0014017363942232465
-0.004190285650610532   -0.04214344118020572   -0.0015133075410317096
-0.004264393573689727   -0.04208855130985909   -0.0015137660949920318
-0.004095080258913273   -0.036477372274351653   -0.0015259157174619196
-0.0018248461733945342   -0.04208388333453405   -0.0014017363942232465
-0.004264393573689727   -0.04208855130985909   -0.0015137660949920318
-0.0012277644279578234   -0.03636656444252996   -0.0014707529521254857
-0.0013287623276902793   -0.03635189187174937   -0.0015574521791899833
-0.002049129929862181   -0.042041015173430465   -0.0015525359351313568
0.0016844952799875798   -0.03628016575677658   -0.0015854082137798605
-0.0012775989598131955   -0.03635221126529778   -0.0015106882735615506
-0.002049129929862181   -0.042041015173430465   -0.0015525359351313568
0.00042187926682504833   -0.041954250669860686   -0.001595368079213941
0.0016844952799875798   -0.03628016575677658   -0.0015854082137798605
0.0005177192006826252   -0.041927914458481444   -0.0014948686416588785
-0.0012775989598131955   -0.03635221126529778   -0.0015106882735615506
0.0017470645510970814   -0.03626040041651928   -0.0015115401847117158
0.0005177192006826252   -0.041927914458481444   -0.0014948686416588785
0.0016844952799875798   -0.03628016575677658   -0.0015854082137798605
-0.0012775989598131955   -0.03635221126529778   -0.0015106882735615506
0.0005177192006826252   -0.041927914458481444   -0.0014948686416588785
-0.0019703835346220953   -0.042032852043598766   -0.0014952551679094754
-0.002049129929862181   -0.042041015173430465   -0.0015525359351313568
-0.0012775989598131955   -0.03635221126529778   -0.0015106882735615506
0.0005177192006826252   -0.041927914458481444   -0.0014948686416588785
-0.002049129929862181   -0.042041015173430465   -0.0015525359351313568
0.0016844952799875798   -0.03628016575677658   -0.0015854082137798605
-0.0012775989598131955   -0.03635221126529778   -0.0015106882735615506
-0.0019703835346220953   -0.042032852043598766   -0.0014952551679094754
0.0017470645510970814   -0.03626040041651928   -0.0015115401847117158
-0.0012277644279578234   -0.03636656444252996   -0.0014707529521254857
-0.0019703835346220953   -0.042032852043598766   -0.0014952551679094754
0.0005177192006826252   -0.041927914458481444   -0.0014948686416588785
0.0017470645510970814   -0.03626040041651928   -0.0015115401847117158
0.0006187931206803345   -0.04192553537102756   -0.0014035174002642041
-0.0012277644279578234   -0.03636656444252996   -0.0014707529521254857
0.0018112689205851196   -0.03625667423162022   -0.0014449348096103975
0.0006187931206803345   -0.04192553537102756   -0.0014035174002642041
0.0017470645510970814   -0.03626040041651928   -0.0015115401847117158
-0.0012277644279578234   -0.03636656444252996   -0.0014707529521254857
0.0006187931206803345   -0.04192553537102756   -0.0014035174002642041
-0.0018939357537326737   -0.042046119285555954   -0.0014451959636760268
-0.0019703835346220953   -0.042032852043598766   -0.0014952551679094754
-0.0012277644279578234   -0.03636656444252996   -0.0014707529521254857
0.0006187931206803345   -0.04192553537102756   -0.0014035174002642041
-0.0019703835346220953   -0.042032852043598766   -0.0014952551679094754
0.0017470645510970814   -0.03626040041651928   -0.0015115401847117158
-0.0012277644279578234   -0.03636656444252996   -0.0014707529521254857
-0.0018939357537326737   -0.042046119285555954   -0.0014451959636760268
0.0018112689205851196   -0.03625667423162022   -0.0014449348096103975
-0.0011832653926030427   -0.036396129496131954   -0.0014378825010669992
-0.0018939357537326737   -0.042046119285555954   -0.0014451959636760268
0.0006187931206803345   -0.04192553537102756   -0.0014035174002642041
0.0018112689205851196   -0.03625667423162022   -0.0014449348096103975
0.0006927133311659998   -0.04194601262462655   -0.0013184623546988335
-0.0011832653926030427   -0.036396129496131954   -0.0014378825010669992
0.0018540486266435147   -0.03626603756870252   -0.0013846333195355407
0.0006927133311659998   -0.04194601262462655   -0.0013184623546988335
0.0018112689205851196   -0.03625667423162022   -0.0014449348096103975
-0.0011832653926030427   -0.036396129496131954   -0.0014378825010669992
0.0006927133311659998   -0.04194601262462655   -0.0013184623546988335
-0.0018248461733945342   -0.04208388333453405   -0.0014017363942232465
-0.0018939357537326737   -0.042046119285555954   -0.0014451959636760268
-0.0011832653926030427   -0.036396129496131954   -0.0014378825010669992
0.0006927133311659998   -0.04194601262462655   -0.0013184623546988335
-0.0018939357537326737   -0.042046119285555954   -0.0014451959636760268
0.0018112689205851196   -0.03625667423162022   -0.0014449348096103975
0.0016844952799875798   -0.03628016575677658   -0.0015854082137798605
0.00042187926682504833   -0.041954250669860686   -0.001595368079213941
0.004888609148168049   -0.03615681353654088   -0.001657129874630273
0.0017470645510970814   -0.03626040041651928   -0.0015115401847117158
0.00042187926682504833   -0.041954250669860686   -0.001595368079213941
0.0030543035432565513   -0.04178404955272599   -0.0016865931196886309
0.004888609148168049   -0.03615681353654088   -0.001657129874630273
0.003297619444577176   -0.0417335629323363   -0.0015327486633773045
0.0017470645510970814   -0.03626040041651928   -0.0015115401847117158
0.005055128591701466   -0.03611617449382517   -0.0015495748957698604
0.003297619444577176   -0.0417335629323363   -0.0015327486633773045
0.004888609148168049   -0.03615681353654088   -0.001657129874630273
0.0017470645510970814   -0.03626040041651928   -0.0015115401847117158
0.003297619444577176   -0.0417335629323363   -0.0015327486633773045
0.0005177192006826252   -0.041927914458481444   -0.0014948686416588785
0.00042187926682504833   -0.041954250669860686   -0.001595368079213941
0.0017470645510970814   -0.03626040041651928   -0.0015115401847117158
0.003297619444577176   -0.0417335629323363   -0.0015327486633773045
0.00042187926682504833   -0.041954250669860686   -0.001595368079213941
0.004888609148168049   -0.03615681353654088   -0.001657129874630273
0.0017470645510970814   -0.03626040041651928   -0.0015115401847117158
0.0005177192006826252   -0.041927914458481444   -0.0014948686416588785
0.005055128591701466   -0.03611617449382517   -0.0015495748957698604
0.0018112689205851196   -0.03625667423162022   -0.0014449348096103975
0.0005177192006826252   -0.041927914458481444   -0.0014948686416588785
0.003297619444577176   -0.0417335629323363   -0.0015327486633773045
0.005055128591701466   -0.03611617449382517   -0.0015495748957698604
0.0034842173936801444   -0.041724818610213564   -0.001390251207116502
0.0018112689205851196   -0.03625667423162022   -0.0014449348096103975
0.005178538991021926   -0.03610496196221111   -0.0014516853040776032
0.0034842173936801444   -0.041724818610213564   -0.001390251207116502
0.005055128591701466   -0.03611617449382517   -0.0015495748957698604
0.0018112689205851196   -0.03625667423162022   -0.0014449348096103975
0.0034842173936801444   -0.041724818610213564   -0.001390251207116502
0.0006187931206803345   -0.04192553537102756   -0.0014035174002642041
0.0005177192006826252   -0.041927914458481444   -0.0014948686416588785
0.0018112689205851196   -0.03625667423162022   -0.0014449348096103975
0.0034842173936801444   -0.041724818610213564   -0.001390251207116502
0.0005177192006826252   -0.041927914458481444   -0.0014948686416588785
0.005055128591701466   -0.03611617449382517   -0.0015495748957698604
0.0018112689205851196   -0.03625667423162022   -0.0014449348096103975
0.0006187931206803345   -0.04192553537102756   -0.0014035174002642041
0.005178538991021926   -0.03610496196221111   -0.0014516853040776032
0.0018540486266435147   -0.03626603756870252   -0.0013846333195355407
0.0006187931206803345   -0.04192553537102756   -0.0014035174002642041
0.0034842173936801444   -0.041724818610213564   -0.001390251207116502
0.005178538991021926   -0.03610496196221111   -0.0014516853040776032
0.003677785746664849   -0.04173988204096556   -0.001260260586482493
0.0018540486266435147   -0.03626603756870252   -0.0013846333195355407
0.005303842767180129   -0.03610489359067377   -0.0013639066957730865
0.003677785746664849   -0.04173988204096556   -0.001260260586482493
0.005178538991021926   -0.03610496196221111   -0.0014516853040776032
0.0018540486266435147   -0.03626603756870252   -0.0013846333195355407
0.003677785746664849   -0.04173988204096556   -0.001260260586482493
0.0006927133311659998   -0.04194601262462655   -0.0013184623546988335
0.0006187931206803345   -0.04192553537102756   -0.0014035174002642041
0.0018540486266435147   -0.03626603756870252   -0.0013846333195355407
0.003677785746664849   -0.04173988204096556   -0.001260260586482493
0.0006187931206803345   -0.04192553537102756   -0.0014035174002642041
0.005178538991021926   -0.03610496196221111   -0.0014516853040776032
-0.009671828192827801   -0.041860502912184634   -0.0015477962763804306
-0.008105538612341036   -0.046244932759888946   -0.0014047135389791093
-0.006852823150705569   -0.041991428214401244   -0.001538476042729839
-0.009525574916495623   -0.04188855315156803   -0.0016346828919070562
-0.008105538612341036   -0.046244932759888946   -0.0014047135389791093
-0.006098762359764418   -0.04643848770501372   -0.0014627019546244486
-0.006852823150705569   -0.041991428214401244   -0.001538476042729839
-0.0059980941254693925   -0.04642862647746613   -0.001510393661118422
-0.009525574916495623   -0.04188855315156803   -0.0016346828919070562
-0.006782708906772516   -0.04201034592464609   -0.0015694767058751426
-0.0059980941254693925   -0.04642862647746613   -0.001510393661118422
-0.006852823150705569   -0.041991428214401244   -0.001538476042729839
-0.009525574916495623   -0.04188855315156803   -0.0016346828919070562
-0.0059980941254693925   -0.04642862647746613   -0.001510393661118422
-0.007888052973138323   -0.0462395555665483   -0.001533281458325844
-0.008105538612341036   -0.046244932759888946   -0.0014047135389791093
-0.009525574916495623   -0.04188855315156803   -0.0016346828919070562
-0.0059980941254693925   -0.04642862647746613   -0.001510393661118422
-0.008105538612341036   -0.046244932759888946   -0.0014047135389791093
-0.006852823150705569   -0.041991428214401244   -0.001538476042729839
-0.009525574916495623   -0.04188855315156803   -0.0016346828919070562
-0.007888052973138323   -0.0462395555665483   -0.001533281458325844
-0.006782708906772516   -0.04201034592464609   -0.0015694767058751426
-0.009379807295145424   -0.041941859875876154   -0.0017329348575394563
-0.007888052973138323   -0.0462395555665483   -0.001533281458325844
-0.0059980941254693925   -0.04642862647746613   -0.001510393661118422
-0.006782708906772516   -0.04201034592464609   -0.0015694767058751426
-0.005879617008203938   -0.046456676135133886   -0.001565203355416526
-0.009379807295145424   -0.041941859875876154   -0.0017329348575394563
-0.006694634524404704   -0.04205576501731745   -0.0016074581483662748
-0.005879617008203938   -0.046456676135133886   -0.001565203355416526
-0.006782708906772516   -0.04201034592464609   -0.0015694767058751426
-0.009379807295145424   -0.041941859875876154   -0.0017329348575394563
-0.005879617008203938   -0.046456676135133886   -0.001565203355416526
-0.007687654879281862   -0.04627418140388924   -0.001671879640606026
-0.007888052973138323   -0.0462395555665483   -0.001533281458325844
-0.009379807295145424   -0.041941859875876154   -0.0017329348575394563
-0.005879617008203938   -0.046456676135133886   -0.001565203355416526
-0.007888052973138323   -0.0462395555665483   -0.001533281458325844
-0.006782708906772516   -0.04201034592464609   -0.0015694767058751426
-0.009379807295145424   -0.041941859875876154   -0.0017329348575394563
-0.007687654879281862   -0.04627418140388924   -0.001671879640606026
-0.006694634524404704   -0.04205576501731745   -0.0016074581483662748
-0.009193120909612133   -0.04204126211715268   -0.0018423517553443085
-0.007687654879281862   -0.04627418140388924   -0.001671879640606026
-0.005879617008203938   -0.046456676135133886   -0.001565203355416526
-0.006694634524404704   -0.04205576501731745   -0.0016074581483662748
-0.005772139189867181   -0.046523287230302475   -0.0016266773392967654
-0.009193120909612133   -0.04204126211715268   -0.0018423517553443085
-0.006607754909076133   -0.04213026720372378   -0.0016523544838842146
-0.005772139189867181   -0.046523287230302475   -0.0016266773392967654
-0.006694634524404704   -0.04205576501731745   -0.0016074581483662748
-0.009193120909612133   -0.04204126211715268   -0.0018423517553443085
-0.005772139189867181   -0.046523287230302475   -0.0016266773392967654
-0.007443183399584865   -0.046366398528186636   -0.0018199258739696029
-0.007687654879281862   -0.04627418140388924   -0.001671879640606026
-0.009193120909612133   -0.04204126211715268   -0.0018423517553443085
-0.005772139189867181   -0.046523287230302475   -0.0016266773392967654
-0.007687654879281862   -0.04627418140388924   -0.001671879640606026
-0.006694634524404704   -0.04205576501731745   -0.0016074581483662748
-0.006852823150705569   -0.041991428214401244   -0.001538476042729839
-0.006098762359764418   -0.04643848770501372   -0.0014627019546244486
-0.004410509882162496   -0.04205253869171939   -0.001534844239532947
-0.006782708906772516   -0.04201034592464609   -0.0015694767058751426
-0.006098762359764418   -0.04643848770501372   -0.0014627019546244486
-0.004457493198850526   -0.04656343704313931   -0.0015081010051004747
-0.004410509882162496   -0.04205253869171939   -0.001534844239532947
-0.004354263519206806   -0.04654752683889474   -0.0014935250562695902
-0.006782708906772516   -0.04201034592464609   -0.0015694767058751426
-0.004338614352180187   -0.04205870868259361   -0.0015209182324845425
-0.004354263519206806   -0.04654752683889474   -0.0014935250562695902
-0.004410509882162496   -0.04205253869171939   -0.001534844239532947
-0.006782708906772516   -0.04201034592464609   -0.0015694767058751426
-0.004354263519206806   -0.04654752683889474   -0.0014935250562695902
-0.0059980941254693925   -0.04642862647746613   -0.001510393661118422
-0.006098762359764418   -0.04643848770501372   -0.0014627019546244486
-0.006782708906772516   -0.04201034592464609   -0.0015694767058751426
-0.004354263519206806   -0.04654752683889474   -0.0014935250562695902
-0.006098762359764418   -0.04643848770501372   -0.0014627019546244486
-0.004410509882162496   -0.04205253869171939   -0.001534844239532947
-0.006782708906772516   -0.04201034592464609   -0.0015694767058751426
-0.0059980941254693925   -0.04642862647746613   -0.001510393661118422
-0.004338614352180187   -0.04205870868259361   -0.0015209182324845425
-0.006694634524404704   -0.04205576501731745   -0.0016074581483662748
-0.0059980941254693925   -0.04642862647746613   -0.001510393661118422
-0.004354263519206806   -0.04654752683889474   -0.0014935250562695902
-0.004338614352180187   -0.04205870868259361   -0.0015209182324845425
-0.004252442535668551   -0.04656436389731612   -0.0014858677561622
-0.006694634524404704   -0.04205576501731745   -0.0016074581483662748
-0.004264393573689727   -0.04208855130985909   -0.0015137660949920318
-0.004252442535668551   -0.04656436389731612   -0.0014858677561622
-0.004338614352180187   -0.04205870868259361   -0.0015209182324845425
-0.006694634524404704   -0.04205576501731745   -0.0016074581483662748
-0.004252442535668551   -0.04656436389731612   -0.0014858677561622
-0.005879617008203938   -0.046456676135133886   -0.001565203355416526
-0.0059980941254693925   -0.04642862647746613   -0.001510393661118422
-0.006694634524404704   -0.04205576501731745   -0.0016074581483662748
-0.004252442535668551   -0.04656436389731612   -0.0014858677561622
-0.0059980941254693925   -0.04642862647746613   -0.001510393661118422
-0.004338614352180187   -0.04205870868259361   -0.0015209182324845425
-0.006694634524404704   -0.04205576501731745   -0.0016074581483662748
-0.005879617008203938   -0.046456676135133886   -0.001565203355416526
-0.004264393573689727   -0.04208855130985909   -0.0015137660949920318
-0.006607754909076133   -0.04213026720372378   -0.0016523544838842146
-0.005879617008203938   -0.046456676135133886   -0.001565203355416526
-0.004252442535668551   -0.04656436389731612   -0.0014858677561622
-0.004264393573689727   -0.04208855130985909   -0.0015137660949920318
-0.004158708815245832   -0.04661501817275293   -0.0014865708193763645
-0.006607754909076133   -0.04213026720372378   -0.0016523544838842146
-0.004190285650610532   -0.04214344118020572   -0.0015133075410317096
-0.004158708815245832   -0.04661501817275293   -0.0014865708193763645
-0.004264393573689727   -0.04208855130985909   -0.0015137660949920318
-0.006607754909076133   -0.04213026720372378   -0.0016523544838842146
-0.004158708815245832   -0.04661501817275293   -0.0014865708193763645
-0.005772139189867181   -0.046523287230302475   -0.0016266773392967654
-0.005879617008203938   -0.046456676135133886   -0.001565203355416526
-0.006607754909076133   -0.04213026720372378   -0.0016523544838842146
-0.004158708815245832   -0.04661501817275293   -0.0014865708193763645
-0.005879617008203938   -0.046456676135133886   -0.001565203355416526
-0.004264393573689727   -0.04208855130985909   -0.0015137660949920318
-0.004410509882162496   -0.04205253869171939   -0.001534844239532947
-0.004457493198850526   -0.04656343704313931   -0.0015081010051004747
-0.002049129929862181   -0.042041015173430465   -0.0015525359351313568
-0.004338614352180187   -0.04205870868259361   -0.0015209182324845425
-0.004457493198850526   -0.04656343704313931   -0.0015081010051004747
-0.0028853279837473683   -0.046628300854005045   -0.0015619207371716903
-0.002049129929862181   -0.042041015173430465   -0.0015525359351313568
-0.0027689756227702303   -0.046605242422982696   -0.0014885920181133363
-0.004338614352180187   -0.04205870868259361   -0.0015209182324845425
-0.0019703835346220953   -0.042032852043598766   -0.0014952551679094754
-0.0027689756227702303   -0.046605242422982696   -0.0014885920181133363
-0.002049129929862181   -0.042041015173430465   -0.0015525359351313568
-0.004338614352180187   -0.04205870868259361   -0.0015209182324845425
-0.0027689756227702303   -0.046605242422982696   -0.0014885920181133363
-0.004354263519206806   -0.04654752683889474   -0.0014935250562695902
-0.004457493198850526   -0.04656343704313931   -0.0015081010051004747
-0.004338614352180187   -0.04205870868259361   -0.0015209182324845425
-0.0027689756227702303   -0.046605242422982696   -0.0014885920181133363
-0.004457493198850526   -0.04656343704313931   -0.0015081010051004747
-0.002049129929862181   -0.042041015173430465   -0.0015525359351313568
-0.004338614352180187   -0.04205870868259361   -0.0015209182324845425
-0.004354263519206806   -0.04654752683889474   -0.0014935250562695902
-0.0019703835346220953   -0.042032852043598766   -0.0014952551679094754
-0.004264393573689727   -0.04208855130985909   -0.0015137660949920318
-0.004354263519206806   -0.04654752683889474   -0.0014935250562695902
-0.0027689756227702303   -0.046605242422982696   -0.0014885920181133363
-0.0019703835346220953   -0.042032852043598766   -0.0014952551679094754
-0.002658027607162914   -0.04661102231940778   -0.0014213972684473464
-0.004264393573689727   -0.04208855130985909   -0.0015137660949920318
-0.0018939357537326737   -0.042046119285555954   -0.0014451959636760268
-0.002658027607162914   -0.04661102231940778   -0.0014213972684473464
-0.0019703835346220953   -0.042032852043598766   -0.0014952551679094754
-0.004264393573689727   -0.04208855130985909   -0.0015137660949920318
-0.002658027607162914   -0.04661102231940778   -0.0014213972684473464
-0.004252442535668551   -0.04656436389731612   -0.0014858677561622
-0.004354263519206806   -0.04654752683889474   -0.0014935250562695902
-0.004264393573689727   -0.04208855130985909   -0.0015137660949920318
-0.002658027607162914   -0.04661102231940778   -0.0014213972684473464
-0.004354263519206806   -0.04654752683889474   -0.0014935250562695902
-0.0019703835346220953   -0.042032852043598766   -0.0014952551679094754
-0.004264393573689727   -0.04208855130985909   -0.0015137660949920318
-0.004252442535668551   -0.04656436389731612   -0.0014858677561622
-0.0018939357537326737   -0.042046119285555954   -0.0014451959636760268
-0.004190285650610532   -0.04214344118020572   -0.0015133075410317096
-0.004252442535668551   -0.04656436389731612   -0.0014858677561622
-0.002658027607162914   -0.04661102231940778   -0.0014213972684473464
-0.0018939357537326737   -0.042046119285555954   -0.0014451959636760268
-0.0025656860838036534   -0.046651181174220194   -0.0013641269073263764
-0.004190285650610532   -0.04214344118020572   -0.0015133075410317096
-0.0018248461733945342   -0.04208388333453405   -0.0014017363942232465
-0.0025656860838036534   -0.046651181174220194   -0.0013641269073263764
-0.0018939357537326737   -0.042046119285555954   -0.0014451959636760268
-0.004190285650610532   -0.04214344118020572   -0.0015133075410317096
-0.0025656860838036534   -0.046651181174220194   -0.0013641269073263764
-0.004158708815245832   -0.04661501817275293   -0.0014865708193763645
-0.004252442535668551   -0.04656436389731612   -0.0014858677561622
-0.004190285650610532   -0.04214344118020572   -0.0015133075410317096
-0.0025656860838036534   -0.046651181174220194   -0.0013641269073263764
-0.004252442535668551   -0.04656436389731612   -0.0014858677561622
-0.0018939357537326737   -0.042046119285555954   -0.0014451959636760268
-0.002049129929862181   -0.042041015173430465   -0.0015525359351313568
-0.0028853279837473683   -0.046628300854005045   -0.0015619207371716903
0.00042187926682504833   -0.041954250669860686   -0.001595368079213941
-0.0019703835346220953   -0.042032852043598766   -0.0014952551679094754
-0.0028853279837473683   -0.046628300854005045   -0.0015619207371716903
-0.0012147022551738027   -0.04661023557017281   -0.0016254630424193672
0.00042187926682504833   -0.041954250669860686   -0.001595368079213941
-0.0010653127709703745   -0.0465740584432834   -0.0014958843333543722
-0.0019703835346220953   -0.042032852043598766   -0.0014952551679094754
0.0005177192006826252   -0.041927914458481444   -0.0014948686416588785
-0.0010653127709703745   -0.0465740584432834   -0.0014958843333543722
0.00042187926682504833   -0.041954250669860686   -0.001595368079213941
-0.0019703835346220953   -0.042032852043598766   -0.0014952551679094754
-0.0010653127709703745   -0.0465740584432834   -0.0014958843333543722
-0.0027689756227702303   -0.046605242422982696   -0.0014885920181133363
-0.0028853279837473683   -0.046628300854005045   -0.0015619207371716903
-0.0019703835346220953   -0.042032852043598766   -0.0014952551679094754
-0.0010653127709703745   -0.0465740584432834   -0.0014958843333543722
-0.0028853279837473683   -0.046628300854005045   -0.0015619207371716903
0.00042187926682504833   -0.041954250669860686   -0.001595368079213941
-0.0019703835346220953   -0.042032852043598766   -0.0014952551679094754
-0.0027689756227702303   -0.046605242422982696   -0.0014885920181133363
0.0005177192006826252   -0.041927914458481444   -0.0014948686416588785
-0.0018939357537326737   -0.042046119285555954   -0.0014451959636760268
-0.0027689756227702303   -0.046605242422982696   -0.0014885920181133363
-0.0010653127709703745   -0.0465740584432834   -0.0014958843333543722
0.0005177192006826252   -0.041927914458481444   -0.0014948686416588785
-0.0009124170983598098   -0.04656777208132708   -0.0013728566319902765
-0.0018939357537326737   -0.042046119285555954   -0.0014451959636760268
0.0006187931206803345   -0.04192553537102756   -0.0014035174002642041
-0.0009124170983598098   -0.04656777208132708   -0.0013728566319902765
0.0005177192006826252   -0.041927914458481444   -0.0014948686416588785
-0.0018939357537326737   -0.042046119285555954   -0.0014451959636760268
-0.0009124170983598098   -0.04656777208132708   -0.0013728566319902765
-0.002658027607162914   -0.04661102231940778   -0.0014213972684473464
-0.0027689756227702303   -0.046605242422982696   -0.0014885920181133363
-0.0018939357537326737   -0.042046119285555954   -0.0014451959636760268
-0.0009124170983598098   -0.04656777208132708   -0.0013728566319902765
-0.0027689756227702303   -0.046605242422982696   -0.0014885920181133363
0.0005177192006826252   -0.041927914458481444   -0.0014948686416588785
-0.0018939357537326737   -0.042046119285555954   -0.0014451959636760268
-0.002658027607162914   -0.04661102231940778   -0.0014213972684473464
0.0006187931206803345   -0.04192553537102756   -0.0014035174002642041
-0.0018248461733945342   -0.04208388333453405   -0.0014017363942232465
-0.002658027607162914   -0.04661102231940778   -0.0014213972684473464
-0.0009124170983598098   -0.04656777208132708   -0.0013728566319902765
0.0006187931206803345   -0.04192553537102756   -0.0014035174002642041
-0.0007992674554713408   -0.04659774628459555   -0.001261038473751097
-0.0018248461733945342   -0.04208388333453405   -0.0014017363942232465
0.0006927133311659998   -0.04194601262462655   -0.0013184623546988335
-0.0007992674554713408   -0.04659774628459555   -0.001261038473751097
0.0006187931206803345   -0.04192553537102756   -0.0014035174002642041
-0.0018248461733945342   -0.04208388333453405   -0.0014017363942232465
-0.0007992674554713408   -0.04659774628459555   -0.001261038473751097
-0.0025656860838036534   -0.046651181174220194   -0.0013641269073263764
-0.002658027607162914   -0.04661102231940778   -0.0014213972684473464
-0.0018248461733945342   -0.04208388333453405   -0.0014017363942232465
-0.0007992674554713408   -0.04659774628459555   -0.001261038473751097
-0.002658027607162914   -0.04661102231940778   -0.0014213972684473464
0.0006187931206803345   -0.04192553537102756   -0.0014035174002642041
0.00042187926682504833   -0.041954250669860686   -0.001595368079213941
-0.0012147022551738027   -0.04661023557017281   -0.0016254630424193672
0.0030543035432565513   -0.04178404955272599   -0.0016865931196886309
0.0005177192006826252   -0.041927914458481444   -0.0014948686416588785
-0.0012147022551738027   -0.04661023557017281   -0.0016254630424193672
0.0005810109809209873   -0.046449241386959855   -0.0017551750883367946
0.0030543035432565513   -0.04178404955272599   -0.0016865931196886309
0.0009304123842338392   -0.04637067809971604   -0.0015432973388546812
0.0005177192006826252   -0.041927914458481444   -0.0014948686416588785
0.003297619444577176   -0.0417335629323363   -0.0015327486633773045
0.0009304123842338392   -0.04637067809971604   -0.0015432973388546812
0.0030543035432565513   -0.04178404955272599   -0.0016865931196886309
0.0005177192006826252   -0.041927914458481444   -0.0014948686416588785
0.0009304123842338392   -0.04637067809971604   -0.0015432973388546812
-0.0010653127709703745   -0.0465740584432834   -0.0014958843333543722
-0.0012147022551738027   -0.04661023557017281   -0.0016254630424193672
0.0005177192006826252   -0.041927914458481444   -0.0014948686416588785
0.0009304123842338392   -0.04637067809971604   -0.0015432973388546812
-0.0012147022551738027   -0.04661023557017281   -0.0016254630424193672
0.0030543035432565513   -0.04178404955272599   -0.0016865931196886309
0.0005177192006826252   -0.041927914458481444   -0.0014948686416588785
-0.0010653127709703745   -0.0465740584432834   -0.0014958843333543722
0.003297619444577176   -0.0417335629323363   -0.0015327486633773045
0.0006187931206803345   -0.04192553537102756   -0.0014035174002642041
-0.0010653127709703745   -0.0465740584432834   -0.0014958843333543722
0.0009304123842338392   -0.04637067809971604   -0.0015432973388546812
0.003297619444577176   -0.0417335629323363   -0.0015327486633773045
0.0012049295891414626   -0.04635484653694347   -0.001344254171884098
0.0006187931206803345   -0.04192553537102756   -0.0014035174002642041
0.0034842173936801444   -0.041724818610213564   -0.001390251207116502
0.0012049295891414626   -0.04635484653694347   -0.001344254171884098
0.003297619444577176   -0.0417335629323363   -0.0015327486633773045
0.0006187931206803345   -0.04192553537102756   -0.0014035174002642041
0.0012049295891414626   -0.04635484653694347   -0.001344254171884098
-0.0009124170983598098   -0.04656777208132708   -0.0013728566319902765
-0.0010653127709703745   -0.0465740584432834   -0.0014958843333543722
0.0006187931206803345   -0.04192553537102756   -0.0014035174002642041
0.0012049295891414626   -0.04635484653694347   -0.001344254171884098
-0.0010653127709703745   -0.0465740584432834   -0.0014958843333543722
0.003297619444577176   -0.0417335629323363   -0.0015327486633773045
0.0006187931206803345   -0.04192553537102756   -0.0014035174002642041
-0.0009124170983598098   -0.04656777208132708   -0.0013728566319902765
0.0034842173936801444   -0.041724818610213564   -0.001390251207116502
0.0006927133311659998   -0.04194601262462655   -0.0013184623546988335
-0.0009124170983598098   -0.04656777208132708   -0.0013728566319902765
0.0012049295891414626   -0.04635484653694347   -0.001344254171884098
0.0034842173936801444   -0.041724818610213564   -0.001390251207116502
0.0014905203849604723   -0.046368555359508984   -0.00116234833454579
0.0006927133311659998   -0.04194601262462655   -0.0013184623546988335
0.003677785746664849   -0.04173988204096556   -0.001260260586482493
0.0014905203849604723   -0.046368555359508984   -0.00116234833454579
0.0034842173936801444   -0.041724818610213564   -0.001390251207116502
0.0006927133311659998   -0.04194601262462655   -0.0013184623546988335
0.0014905203849604723   -0.046368555359508984   -0.00116234833454579
-0.0007992674554713408   -0.04659774628459555   -0.001261038473751097
-0.0009124170983598098   -0.04656777208132708   -0.0013728566319902765
0.0006927133311659998   -0.04194601262462655   -0.0013184623546988335
0.0014905203849604723   -0.046368555359508984   -0.00116234833454579
-0.0009124170983598098   -0.04656777208132708   -0.0013728566319902765
0.0034842173936801444   -0.041724818610213564   -0.001390251207116502
-0.008105538612341036   -0.046244932759888946   -0.0014047135389791093
-0.0059552616512962625   -0.04885332298678591   -0.0012365184202178282
-0.006098762359764418   -0.04643848770501372   -0.0014627019546244486
-0.007888052973138323   -0.0462395555665483   -0.001533281458325844
-0.0059552616512962625   -0.04885332298678591   -0.0012365184202178282
-0.0050187124235657595   -0.04909786488439495   -0.0013831220947247167
-0.006098762359764418   -0.04643848770501372   -0.0014627019546244486
-0.004891923924714111   -0.049049797446376824   -0.0014339572262567594
-0.007888052973138323   -0.0462395555665483   -0.001533281458325844
-0.0059980941254693925   -0.04642862647746613   -0.001510393661118422
-0.004891923924714111   -0.049049797446376824   -0.0014339572262567594
-0.006098762359764418   -0.04643848770501372   -0.0014627019546244486
-0.007888052973138323   -0.0462395555665483   -0.001533281458325844
-0.004891923924714111   -0.049049797446376824   -0.0014339572262567594
-0.005684541863589345   -0.04879913642348517   -0.001390702720974987
-0.0059552616512962625   -0.04885332298678591   -0.0012365184202178282
-0.007888052973138323   -0.0462395555665483   -0.001533281458325844
-0.004891923924714111   -0.049049797446376824   -0.0014339572262567594
-0.0059552616512962625   -0.04885332298678591   -0.0012365184202178282
-0.006098762359764418   -0.04643848770501372   -0.0014627019546244486
-0.007888052973138323   -0.0462395555665483   -0.001533281458325844
-0.005684541863589345   -0.04879913642348517   -0.001390702720974987
-0.0059980941254693925   -0.04642862647746613   -0.001510393661118422
-0.007687654879281862   -0.04627418140388924   -0.001671879640606026
-0.005684541863589345   -0.04879913642348517   -0.001390702720974987
-0.004891923924714111   -0.049049797446376824   -0.0014339572262567594
-0.0059980941254693925   -0.04642862647746613   -0.001510393661118422
-0.00475137504664689   -0.04905250987100677   -0.0014853134199698241
-0.007687654879281862   -0.04627418140388924   -0.001671879640606026
-0.005879617008203938   -0.046456676135133886   -0.001565203355416526
-0.00475137504664689   -0.04905250987100677   -0.0014853134199698241
-0.0059980941254693925   -0.04642862647746613   -0.001510393661118422
-0.007687654879281862   -0.04627418140388924   -0.001671879640606026
-0.00475137504664689   -0.04905250987100677   -0.0014853134199698241
-0.005450995046522657   -0.04880415113248889   -0.0015443229168692963
-0.005684541863589345   -0.04879913642348517   -0.001390702720974987
-0.007687654879281862   -0.04627418140388924   -0.001671879640606026
-0.00475137504664689   -0.04905250987100677   -0.0014853134199698241
-0.005684541863589345   -0.04879913642348517   -0.001390702720974987
-0.0059980941254693925   -0.04642862647746613   -0.001510393661118422
-0.007687654879281862   -0.04627418140388924   -0.001671879640606026
-0.005450995046522657   -0.04880415113248889   -0.0015443229168692963
-0.005879617008203938   -0.046456676135133886   -0.001565203355416526
-0.007443183399584865   -0.046366398528186636   -0.0018199258739696029
-0.005450995046522657   -0.04880415113248889   -0.0015443229168692963
-0.00475137504664689   -0.04905250987100677   -0.0014853134199698241
-0.005879617008203938   -0.046456676135133886   -0.001565203355416526
-0.00462087678951613   -0.04910625375482221   -0.0015374049096426887
-0.007443183399584865   -0.046366398528186636   -0.0018199258739696029
-0.005772139189867181   -0.046523287230302475   -0.0016266773392967654
-0.00462087678951613   -0.04910625375482221   -0.0015374049096426887
-0.005879617008203938   -0.046456676135133886   -0.001565203355416526
-0.007443183399584865   -0.046366398528186636   -0.0018199258739696029
-0.00462087678951613   -0.04910625375482221   -0.0015374049096426887
-0.005173880263819763   -0.04887180280757021   -0.0017012425952850926
-0.005450995046522657   -0.04880415113248889   -0.0015443229168692963
-0.007443183399584865   -0.046366398528186636   -0.0018199258739696029
-0.00462087678951613   -0.04910625375482221   -0.0015374049096426887
-0.005450995046522657   -0.04880415113248889   -0.0015443229168692963
-0.005879617008203938   -0.046456676135133886   -0.001565203355416526
-0.006098762359764418   -0.04643848770501372   -0.0014627019546244486
-0.0050187124235657595   -0.04909786488439495   -0.0013831220947247167
-0.004457493198850526   -0.04656343704313931   -0.0015081010051004747
-0.0059980941254693925   -0.04642862647746613   -0.001510393661118422
-0.0050187124235657595   -0.04909786488439495   -0.0013831220947247167
-0.004331501808997494   -0.049342049289790205   -0.0015126042294914966
-0.004457493198850526   -0.04656343704313931   -0.0015081010051004747
-0.004197854649530619   -0.04929266456715576   -0.0014773461430010015
-0.0059980941254693925   -0.04642862647746613   -0.001510393661118422
-0.004354263519206806   -0.04654752683889474   -0.0014935250562695902
-0.004197854649530619   -0.04929266456715576   -0.0014773461430010015
-0.004457493198850526   -0.04656343704313931   -0.0015081010051004747
-0.0059980941254693925   -0.04642862647746613   -0.001510393661118422
-0.004197854649530619   -0.04929266456715576   -0.0014773461430010015
-0.004891923924714111   -0.049049797446376824   -0.0014339572262567594
-0.0050187124235657595   -0.04909786488439495   -0.0013831220947247167
-0.0059980941254693925   -0.04642862647746613   -0.001510393661118422
-0.004197854649530619   -0.04929266456715576   -0.0014773461430010015
-0.0050187124235657595   -0.04909786488439495   -0.0013831220947247167
-0.004457493198850526   -0.04656343704313931   -0.0015081010051004747
-0.0059980941254693925   -0.04642862647746613   -0.001510393661118422
-0.004891923924714111   -0.049049797446376824   -0.0014339572262567594
-0.004354263519206806   -0.04654752683889474   -0.0014935250562695902
-0.005879617008203938   -0.046456676135133886   -0.001565203355416526
-0.004891923924714111   -0.049049797446376824   -0.0014339572262567594
-0.004197854649530619   -0.04929266456715576   -0.0014773461430010015
-0.004354263519206806   -0.04654752683889474   -0.0014935250562695902
-0.004068580093133434   -0.04929202990438835   -0.0014416583196932503
-0.005879617008203938   -0.046456676135133886   -0.001565203355416526
-0.004252442535668551   -0.04656436389731612   -0.0014858677561622
-0.004068580093133434   -0.04929202990438835   -0.0014416583196932503
-0.004354263519206806   -0.04654752683889474   -0.0014935250562695902
-0.005879617008203938   -0.046456676135133886   -0.001565203355416526
-0.004068580093133434   -0.04929202990438835   -0.0014416583196932503
-0.00475137504664689   -0.04905250987100677   -0.0014853134199698241
-0.004891923924714111   -0.049049797446376824   -0.0014339572262567594
-0.005879617008203938   -0.046456676135133886   -0.001565203355416526
-0.004068580093133434   -0.04929202990438835   -0.0014416583196932503
-0.004891923924714111   -0.049049797446376824   -0.0014339572262567594
-0.004354263519206806   -0.04654752683889474   -0.0014935250562695902
-0.005879617008203938   -0.046456676135133886   -0.001565203355416526
-0.00475137504664689   -0.04905250987100677   -0.0014853134199698241
-0.004252442535668551   -0.04656436389731612   -0.0014858677561622
-0.005772139189867181   -0.046523287230302475   -0.0016266773392967654
-0.00475137504664689   -0.04905250987100677   -0.0014853134199698241
-0.004068580093133434   -0.04929202990438835   -0.0014416583196932503
-0.004252442535668551   -0.04656436389731612   -0.0014858677561622
-0.0039338509961991605   -0.0493391432616308   -0.0014074012393351207
-0.005772139189867181   -0.046523287230302475   -0.0016266773392967654
-0.004158708815245832   -0.04661501817275293   -0.0014865708193763645
-0.0039338509961991605   -0.0493391432616308   -0.0014074012393351207
-0.004252442535668551   -0.04656436389731612   -0.0014858677561622
-0.005772139189867181   -0.046523287230302475   -0.0016266773392967654
-0.0039338509961991605   -0.0493391432616308   -0.0014074012393351207
-0.00462087678951613   -0.04910625375482221   -0.0015374049096426887
-0.00475137504664689   -0.04905250987100677   -0.0014853134199698241
-0.005772139189867181   -0.046523287230302475   -0.0016266773392967654
-0.0039338509961991605   -0.0493391432616308   -0.0014074012393351207
-0.00475137504664689   -0.04905250987100677   -0.0014853134199698241
-0.004252442535668551   -0.04656436389731612   -0.0014858677561622
-0.004457493198850526   -0.04656343704313931   -0.0015081010051004747
-0.004331501808997494   -0.049342049289790205   -0.0015126042294914966
-0.0028853279837473683   -0.046628300854005045   -0.0015619207371716903
-0.004354263519206806   -0.04654752683889474   -0.0014935250562695902
-0.004331501808997494   -0.049342049289790205   -0.0015126042294914966
-0.0037034403601156813   -0.04963540884960181   -0.001655371411109828
-0.0028853279837473683   -0.046628300854005045   -0.0015619207371716903
-0.003539683455373944   -0.04959241414679848   -0.001529217415432005
-0.004354263519206806   -0.04654752683889474   -0.0014935250562695902
-0.0027689756227702303   -0.046605242422982696   -0.0014885920181133363
-0.003539683455373944   -0.04959241414679848   -0.001529217415432005
-0.0028853279837473683   -0.046628300854005045   -0.0015619207371716903
-0.004354263519206806   -0.04654752683889474   -0.0014935250562695902
-0.003539683455373944   -0.04959241414679848   -0.001529217415432005
-0.004197854649530619   -0.04929266456715576   -0.0014773461430010015
-0.004331501808997494   -0.049342049289790205   -0.0015126042294914966
-0.004354263519206806   -0.04654752683889474   -0.0014935250562695902
-0.003539683455373944   -0.04959241414679848   -0.001529217415432005
-0.004331501808997494   -0.049342049289790205   -0.0015126042294914966
-0.0028853279837473683   -0.046628300854005045   -0.0015619207371716903
-0.004354263519206806   -0.04654752683889474   -0.0014935250562695902
-0.004197854649530619   -0.04929266456715576   -0.0014773461430010015
-0.0027689756227702303   -0.046605242422982696   -0.0014885920181133363
-0.004252442535668551   -0.04656436389731612   -0.0014858677561622
-0.004197854649530619   -0.04929266456715576   -0.0014773461430010015
-0.003539683455373944   -0.04959241414679848   -0.001529217415432005
-0.0027689756227702303   -0.046605242422982696   -0.0014885920181133363
-0.0033878589272335643   -0.049590259314587444   -0.0014034363925794276
-0.004252442535668551   -0.04656436389731612   -0.0014858677561622
-0.002658027607162914   -0.04661102231940778   -0.0014213972684473464
-0.0033878589272335643   -0.049590259314587444   -0.0014034363925794276
-0.0027689756227702303   -0.046605242422982696   -0.0014885920181133363
-0.004252442535668551   -0.04656436389731612   -0.0014858677561622
-0.0033878589272335643   -0.049590259314587444   -0.0014034363925794276
-0.004068580093133434   -0.04929202990438835   -0.0014416583196932503
-0.004197854649530619   -0.04929266456715576   -0.0014773461430010015
-0.004252442535668551   -0.04656436389731612   -0.0014858677561622
-0.0033878589272335643   -0.049590259314587444   -0.0014034363925794276
-0.004197854649530619   -0.04929266456715576   -0.0014773461430010015
-0.0027689756227702303   -0.046605242422982696   -0.0014885920181133363
-0.004252442535668551   -0.04656436389731612   -0.0014858677561622
-0.004068580093133434   -0.04929202990438835   -0.0014416583196932503
-0.002658027607162914   -0.04661102231940778   -0.0014213972684473464
-0.004158708815245832   -0.04661501817275293   -0.0014865708193763645
-0.004068580093133434   -0.04929202990438835   -0.0014416583196932503
-0.0033878589272335643   -0.049590259314587444   -0.0014034363925794276
-0.002658027607162914   -0.04661102231940778   -0.0014213972684473464
-0.003224973540488476   -0.04962677709003969   -0.001277465665878647
-0.004158708815245832   -0.04661501817275293   -0.0014865708193763645
-0.0025656860838036534   -0.046651181174220194   -0.0013641269073263764
-0.003224973540488476   -0.04962677709003969   -0.001277465665878647
-0.002658027607162914   -0.04661102231940778   -0.0014213972684473464
-0.004158708815245832   -0.04661501817275293   -0.0014865708193763645
-0.003224973540488476   -0.04962677709003969   -0.001277465665878647
-0.0039338509961991605   -0.0493391432616308   -0.0014074012393351207
-0.004068580093133434   -0.04929202990438835   -0.0014416583196932503
-0.004158708815245832   -0.04661501817275293   -0.0014865708193763645
-0.003224973540488476   -0.04962677709003969   -0.001277465665878647
-0.004068580093133434   -0.04929202990438835   -0.0014416583196932503
-0.002658027607162914   -0.04661102231940778   -0.0014213972684473464
-0.0028853279837473683   -0.046628300854005045   -0.0015619207371716903
-0.0037034403601156813   -0.04963540884960181   -0.001655371411109828
-0.0012147022551738027   -0.04661023557017281   -0.0016254630424193672
-0.0027689756227702303   -0.046605242422982696   -0.0014885920181133363
-0.0037034403601156813   -0.04963540884960181   -0.001655371411109828
-0.003085314417061695   -0.05   -0.0017657391237709881
-0.0012147022551738027   -0.04661023557017281   -0.0016254630424193672
-0.002879155745702559   -0.05   -0.001573590878096433
-0.0027689756227702303   -0.046605242422982696   -0.0014885920181133363
-0.0010653127709703745   -0.0465740584432834   -0.0014958843333543722
-0.002879155745702559   -0.05   -0.001573590878096433
-0.0012147022551738027   -0.04661023557017281   -0.0016254630424193672
-0.0027689756227702303   -0.046605242422982696   -0.0014885920181133363
-0.002879155745702559   -0.05   -0.001573590878096433
-0.003539683455373944   -0.04959241414679848   -0.001529217415432005
-0.0037034403601156813   -0.04963540884960181   -0.001655371411109828
-0.0027689756227702303   -0.046605242422982696   -0.0014885920181133363
-0.002879155745702559   -0.05   -0.001573590878096433
-0.0037034403601156813   -0.04963540884960181   -0.001655371411109828
-0.0012147022551738027   -0.04661023557017281   -0.0016254630424193672
-0.0027689756227702303   -0.046605242422982696   -0.0014885920181133363
-0.003539683455373944   -0.04959241414679848   -0.001529217415432005
-0.0010653127709703745   -0.0465740584432834   -0.0014958843333543722
-0.002658027607162914   -0.04661102231940778   -0.0014213972684473464
-0.003539683455373944   -0.04959241414679848   -0.001529217415432005
-0.002879155745702559   -0.05   -0.001573590878096433
-0.0010653127709703745   -0.0465740584432834   -0.0014958843333543722
-0.002671859034337493   -0.05   -0.0013791692860936258
-0.002658027607162914   -0.04661102231940778   -0.0014213972684473464
-0.0009124170983598098   -0.04656777208132708   -0.0013728566319902765
-0.002671859034337493   -0.05   -0.0013791692860936258
-0.0010653127709703745   -0.0465740584432834   -0.0014958843333543722
-0.002658027607162914   -0.04661102231940778   -0.0014213972684473464
-0.002671859034337493   -0.05   -0.0013791692860936258
-0.0033878589272335643   -0.049590259314587444   -0.0014034363925794276
-0.003539683455373944   -0.04959241414679848   -0.001529217415432005
-0.002658027607162914   -0.04661102231940778   -0.0014213972684473464
-0.002671859034337493   -0.05   -0.0013791692860936258
-0.003539683455373944   -0.04959241414679848   -0.001529217415432005
-0.0010653127709703745   -0.0465740584432834   -0.0014958843333543722
-0.002658027607162914   -0.04661102231940778   -0.0014213972684473464
-0.0033878589272335643   -0.049590259314587444   -0.0014034363925794276
-0.0009124170983598098   -0.04656777208132708   -0.0013728566319902765
-0.0025656860838036534   -0.046651181174220194   -0.0013641269073263764
-0.0033878589272335643   -0.049590259314587444   -0.0014034363925794276
-0.002671859034337493   -0.05   -0.0013791692860936258
-0.0009124170983598098   -0.04656777208132708   -0.0013728566319902765
-0.002469419944932288   -0.05   -0.001187331634374588
-0.0025656860838036534   -0.046651181174220194   -0.0013641269073263764
-0.0007992674554713408   -0.04659774628459555   -0.001261038473751097
-0.002469419944932288   -0.05   -0.001187331634374588
-0.0009124170983598098   -0.04656777208132708   -0.0013728566319902765
-0.0025656860838036534   -0.046651181174220194   -0.0013641269073263764
-0.002469419944932288   -0.05   -0.001187331634374588
-0.003224973540488476   -0.04962677709003969   -0.001277465665878647
-0.0033878589272335643   -0.049590259314587444   -0.0014034363925794276
-0.0025656860838036534   -0.046651181174220194   -0.0013641269073263764
-0.002469419944932288   -0.05   -0.001187331634374588
-0.0033878589272335643   -0.049590259314587444   -0.0014034363925794276
-0.0009124170983598098   -0.04656777208132708   -0.0013728566319902765
-0.0012147022551738027   -0.04661023557017281   -0.0016254630424193672
-0.003085314417061695   -0.05   -0.0017657391237709881
0.0005810109809209873   -0.046449241386959855   -0.0017551750883367946
-0.0010653127709703745   -0.0465740584432834   -0.0014958843333543722
-0.003085314417061695   -0.05   -0.0017657391237709881
-0.0026352087360773406   -0.05   -0.0018994003871557923
0.0005810109809209873   -0.046449241386959855   -0.0017551750883367946
-0.0022028888814793063   -0.05   -0.0016211349029953289
-0.0010653127709703745   -0.0465740584432834   -0.0014958843333543722
0.0009304123842338392   -0.04637067809971604   -0.0015432973388546812
-0.0022028888814793063   -0.05   -0.0016211349029953289
0.0005810109809209873   -0.046449241386959855   -0.0017551750883367946
-0.0010653127709703745   -0.0465740584432834   -0.0014958843333543722
-0.0022028888814793063   -0.05   -0.0016211349029953289
-0.002879155745702559   -0.05   -0.001573590878096433
-0.003085314417061695   -0.05   -0.0017657391237709881
-0.0010653127709703745   -0.0465740584432834   -0.0014958843333543722
-0.0022028888814793063   -0.05   -0.0016211349029953289
-0.003085314417061695   -0.05   -0.0017657391237709881
0.0005810109809209873   -0.046449241386959855   -0.0017551750883367946
-0.0010653127709703745   -0.0465740584432834   -0.0014958843333543722
-0.002879155745702559   -0.05   -0.001573590878096433
0.0009304123842338392   -0.04637067809971604   -0.0015432973388546812
-0.0009124170983598098   -0.04656777208132708   -0.0013728566319902765
-0.002879155745702559   -0.05   -0.001573590878096433
-0.0022028888814793063   -0.05   -0.0016211349029953289
0.0009304123842338392   -0.04637067809971604   -0.0015432973388546812
-0.0018581330570247739   -0.05   -0.001354955307485423
-0.0009124170983598098   -0.04656777208132708   -0.0013728566319902765
0.0012049295891414626   -0.04635484653694347   -0.001344254171884098
-0.0018581330570247739   -0.05   -0.001354955307485423
0.0009304123842338392   -0.04637067809971604   -0.0015432973388546812
-0.0009124170983598098   -0.04656777208132708   -0.0013728566319902765
-0.0018581330570247739   -0.05   -0.001354955307485423
-0.002671859034337493   -0.05   -0.0013791692860936258
-0.002879155745702559   -0.05   -0.001573590878096433
-0.0009124170983598098   -0.04656777208132708   -0.0013728566319902765
-0.0018581330570247739   -0.05   -0.001354955307485423
-0.002879155745702559   -0.05   -0.001573590878096433
0.0009304123842338392   -0.04637067809971604   -0.0015432973388546812
-0.0009124170983598098   -0.04656777208132708   -0.0013728566319902765
-0.002671859034337493   -0.05   -0.0013791692860936258
0.0012049295891414626   -0.04635484653694347   -0.001344254171884098
-0.0007992674554713408   -0.04659774628459555   -0.001261038473751097
-0.002671859034337493   -0.05   -0.0013791692860936258
-0.0018581330570247739   -0.05   -0.001354955307485423
0.0012049295891414626   -0.04635484653694347   -0.001344254171884098
-0.0014323062221938657   -0.05   -0.001078617041670198
-0.0007992674554713408   -0.04659774628459555   -0.001261038473751097
0.0014905203849604723   -0.046368555359508984   -0.00116234833454579
-0.0014323062221938657   -0.05   -0.001078617041670198
0.0012049295891414626   -0.04635484653694347   -0.001344254171884098
-0.0007992674554713408   -0.04659774628459555   -0.001261038473751097
-0.0014323062221938657   -0.05   -0.001078617041670198
-0.002469419944932288   -0.05   -0.001187331634374588
-0.002671859034337493   -0.05   -0.0013791692860936258
-0.0007992674554713408   -0.04659774628459555   -0.001261038473751097
-0.0014323062221938657   -0.05   -0.001078617041670198
-0.002671859034337493   -0.05   -0.0013791692860936258
0.0012049295891414626   -0.04635484653694347   -0.001344254171884098
-0.0059552616512962625   -0.04885332298678591   -0.0012365184202178282
-0.0035763942395567413   -0.0489959216357883   -0.0010585903116713787
-0.0050187124235657595   -0.04909786488439495   -0.0013831220947247167
-0.005684541863589345   -0.04879913642348517   -0.001390702720974987
-0.0035763942395567413   -0.0489959216357883   -0.0010585903116713787
-0.003785549229339277   -0.0491848596066682   -0.0012473887452009523
-0.0050187124235657595   -0.04909786488439495   -0.0013831220947247167
-0.003689564925684128   -0.0491191609954693   -0.0013165780318478136
-0.005684541863589345   -0.04879913642348517   -0.001390702720974987
-0.004891923924714111   -0.049049797446376824   -0.0014339572262567594
-0.003689564925684128   -0.0491191609954693   -0.0013165780318478136
-0.0050187124235657595   -0.04909786488439495   -0.0013831220947247167
-0.005684541863589345   -0.04879913642348517   -0.001390702720974987
-0.003689564925684128   -0.0491191609954693   -0.0013165780318478136
-0.0033308135243316954   -0.04891152396058739   -0.0012206226113839547
-0.0035763942395567413   -0.0489959216357883   -0.0010585903116713787
-0.005684541863589345   -0.04879913642348517   -0.001390702720974987
-0.003689564925684128   -0.0491191609954693   -0.0013165780318478136
-0.0035763942395567413   -0.0489959216357883   -0.0010585903116713787
-0.0050187124235657595   -0.04909786488439495   -0.0013831220947247167
-0.005684541863589345   -0.04879913642348517   -0.001390702720974987
-0.0033308135243316954   -0.04891152396058739   -0.0012206226113839547
-0.004891923924714111   -0.049049797446376824   -0.0014339572262567594
-0.005450995046522657   -0.04880415113248889   -0.0015443229168692963
-0.0033308135243316954   -0.04891152396058739   -0.0012206226113839547
-0.003689564925684128   -0.0491191609954693   -0.0013165780318478136
-0.004891923924714111   -0.049049797446376824   -0.0014339572262567594
-0.003576902867285113   -0.049095248613036394   -0.0013804658833186571
-0.005450995046522657   -0.04880415113248889   -0.0015443229168692963
-0.00475137504664689   -0.04905250987100677   -0.0014853134199698241
-0.003576902867285113   -0.049095248613036394   -0.0013804658833186571
-0.004891923924714111   -0.049049797446376824   -0.0014339572262567594
-0.005450995046522657   -0.04880415113248889   -0.0015443229168692963
-0.003576902867285113   -0.049095248613036394   -0.0013804658833186571
-0.0031264199512130494   -0.048885929110056896   -0.001376079176860083
-0.0033308135243316954   -0.04891152396058739   -0.0012206226113839547
-0.005450995046522657   -0.04880415113248889   -0.0015443229168692963
-0.003576902867285113   -0.049095248613036394   -0.0013804658833186571
-0.0033308135243316954   -0.04891152396058739   -0.0012206226113839547
-0.004891923924714111   -0.049049797446376824   -0.0014339572262567594
-0.005450995046522657   -0.04880415113248889   -0.0015443229168692963
-0.0031264199512130494   -0.048885929110056896   -0.001376079176860083
-0.00475137504664689   -0.04905250987100677   -0.0014853134199698241
-0.005173880263819763   -0.04887180280757021   -0.0017012425952850926
-0.0031264199512130494   -0.048885929110056896   -0.001376079176860083
-0.003576902867285113   -0.049095248613036394   -0.0013804658833186571
-0.00475137504664689   -0.04905250987100677   -0.0014853134199698241
-0.0034804384089486707   -0.049113483567526914   -0.0014387237804855911
-0.005173880263819763   -0.04887180280757021   -0.0017012425952850926
-0.00462087678951613   -0.04910625375482221   -0.0015374049096426887
-0.0034804384089486707   -0.049113483567526914   -0.0014387237804855911
-0.00475137504664689   -0.04905250987100677   -0.0014853134199698241
-0.005173880263819763   -0.04887180280757021   -0.0017012425952850926
-0.0034804384089486707   -0.049113483567526914   -0.0014387237804855911
-0.002894990428739317   -0.04890866146728946   -0.0015242808622794725
-0.0031264199512130494   -0.048885929110056896   -0.001376079176860083
-0.005173880263819763   -0.04887180280757021   -0.0017012425952850926
-0.0034804384089486707   -0.049113483567526914   -0.0014387237804855911
-0.0031264199512130494   -0.048885929110056896   -0.001376079176860083
-0.00475137504664689   -0.04905250987100677   -0.0014853134199698241
-0.0050187124235657595   -0.04909786488439495   -0.0013831220947247167
-0.003785549229339277   -0.0491848596066682   -0.0012473887452009523
-0.004331501808997494   -0.049342049289790205   -0.0015126042294914966
-0.004891923924714111   -0.049049797446376824   -0.0014339572262567594
-0.003785549229339277   -0.0491848596066682   -0.0012473887452009523
-0.004071873632121741   -0.0493011116250802   -0.00139825878061728
-0.004331501808997494   -0.049342049289790205   -0.0015126042294914966
-0.0039869734129096696   -0.04924242263075664   -0.0013999919475220222
-0.004891923924714111   -0.049049797446376824   -0.0014339572262567594
-0.004197854649530619   -0.04929266456715576   -0.0014773461430010015
-0.0039869734129096696   -0.04924242263075664   -0.0013999919475220222
-0.004331501808997494   -0.049342049289790205   -0.0015126042294914966
-0.004891923924714111   -0.049049797446376824   -0.0014339572262567594
-0.0039869734129096696   -0.04924242263075664   -0.0013999919475220222
-0.003689564925684128   -0.0491191609954693   -0.0013165780318478136
-0.003785549229339277   -0.0491848596066682   -0.0012473887452009523
-0.004891923924714111   -0.049049797446376824   -0.0014339572262567594
-0.0039869734129096696   -0.04924242263075664   -0.0013999919475220222
-0.003785549229339277   -0.0491848596066682   -0.0012473887452009523
-0.004331501808997494   -0.049342049289790205   -0.0015126042294914966
-0.004891923924714111   -0.049049797446376824   -0.0014339572262567594
-0.003689564925684128   -0.0491191609954693   -0.0013165780318478136
-0.004197854649530619   -0.04929266456715576   -0.0014773461430010015
-0.00475137504664689   -0.04905250987100677   -0.0014853134199698241
-0.003689564925684128   -0.0491191609954693   -0.0013165780318478136
-0.0039869734129096696   -0.04924242263075664   -0.0013999919475220222
-0.004197854649530619   -0.04929266456715576   -0.0014773461430010015
-0.003892494408383488   -0.04922157599438038   -0.0013948526575396185
-0.00475137504664689   -0.04905250987100677   -0.0014853134199698241
-0.004068580093133434   -0.04929202990438835   -0.0014416583196932503
-0.003892494408383488   -0.04922157599438038   -0.0013948526575396185
-0.004197854649530619   -0.04929266456715576   -0.0014773461430010015
-0.00475137504664689   -0.04905250987100677   -0.0014853134199698241
-0.003892494408383488   -0.04922157599438038   -0.0013948526575396185
-0.003576902867285113   -0.049095248613036394   -0.0013804658833186571
-0.003689564925684128   -0.0491191609954693   -0.0013165780318478136
-0.00475137504664689   -0.04905250987100677   -0.0014853134199698241
-0.003892494408383488   -0.04922157599438038   -0.0013948526575396185
-0.003689564925684128   -0.0491191609954693   -0.0013165780318478136
-0.004197854649530619   -0.04929266456715576   -0.0014773461430010015
-0.00475137504664689   -0.04905250987100677   -0.0014853134199698241
-0.003576902867285113   -0.049095248613036394   -0.0013804658833186571
-0.004068580093133434   -0.04929202990438835   -0.0014416583196932503
-0.00462087678951613   -0.04910625375482221   -0.0015374049096426887
-0.003576902867285113   -0.049095248613036394   -0.0013804658833186571
-0.003892494408383488   -0.04922157599438038   -0.0013948526575396185
-0.004068580093133434   -0.04929202990438835   -0.0014416583196932503
-0.003796458176193769   -0.04923687129196228   -0.0013843193500683072
-0.00462087678951613   -0.04910625375482221   -0.0015374049096426887
-0.0039338509961991605   -0.0493391432616308   -0.0014074012393351207
-0.003796458176193769   -0.04923687129196228   -0.0013843193500683072
-0.004068580093133434   -0.04929202990438835   -0.0014416583196932503
-0.00462087678951613   -0.04910625375482221   -0.0015374049096426887
-0.003796458176193769   -0.04923687129196228   -0.0013843193500683072
-0.0034804384089486707   -0.049113483567526914   -0.0014387237804855911
-0.003576902867285113   -0.049095248613036394   -0.0013804658833186571
-0.00462087678951613   -0.04910625375482221   -0.0015374049096426887
-0.003796458176193769   -0.04923687129196228   -0.0013843193500683072
-0.003576902867285113   -0.049095248613036394   -0.0013804658833186571
-0.004068580093133434   -0.04929202990438835   -0.0014416583196932503
-0.004331501808997494   -0.049342049289790205   -0.0015126042294914966
-0.004071873632121741   -0.0493011116250802   -0.00139825878061728
-0.0037034403601156813   -0.04963540884960181   -0.001655371411109828
-0.004197854649530619   -0.04929266456715576   -0.0014773461430010015
-0.004071873632121741   -0.0493011116250802   -0.00139825878061728
-0.00437923322791709   -0.049349111951438734   -0.0015468392308837006
-0.0037034403601156813   -0.04963540884960181   -0.001655371411109828
-0.004291282654611209   -0.04929308027364088   -0.0014837014610721278
-0.004197854649530619   -0.04929266456715576   -0.0014773461430010015
-0.003539683455373944   -0.04959241414679848   -0.001529217415432005
-0.004291282654611209   -0.04929308027364088   -0.0014837014610721278
-0.0037034403601156813   -0.04963540884960181   -0.001655371411109828
-0.004197854649530619   -0.04929266456715576   -0.0014773461430010015
-0.004291282654611209   -0.04929308027364088   -0.0014837014610721278
-0.0039869734129096696   -0.04924242263075664   -0.0013999919475220222
-0.004071873632121741   -0.0493011116250802   -0.00139825878061728
-0.004197854649530619   -0.04929266456715576   -0.0014773461430010015
-0.004291282654611209   -0.04929308027364088   -0.0014837014610721278
-0.004071873632121741   -0.0493011116250802   -0.00139825878061728
-0.0037034403601156813   -0.04963540884960181   -0.001655371411109828
-0.004197854649530619   -0.04929266456715576   -0.0014773461430010015
-0.0039869734129096696   -0.04924242263075664   -0.0013999919475220222
-0.003539683455373944   -0.04959241414679848   -0.001529217415432005
-0.004068580093133434   -0.04929202990438835   -0.0014416583196932503
-0.0039869734129096696   -0.04924242263075664   -0.0013999919475220222
-0.004291282654611209   -0.04929308027364088   -0.0014837014610721278
-0.003539683455373944   -0.04959241414679848   -0.001529217415432005
-0.004185847278677923   -0.049275502177499125   -0.0014121917147208664
-0.004068580093133434   -0.04929202990438835   -0.0014416583196932503
-0.0033878589272335643   -0.049590259314587444   -0.0014034363925794276
-0.004185847278677923   -0.049275502177499125   -0.0014121917147208664
-0.003539683455373944   -0.04959241414679848   -0.001529217415432005
-0.004068580093133434   -0.04929202990438835   -0.0014416583196932503
-0.004185847278677923   -0.049275502177499125   -0.0014121917147208664
-0.003892494408383488   -0.04922157599438038   -0.0013948526575396185
-0.0039869734129096696   -0.04924242263075664   -0.0013999919475220222
-0.004068580093133434   -0.04929202990438835   -0.0014416583196932503
-0.004185847278677923   -0.049275502177499125   -0.0014121917147208664
-0.0039869734129096696   -0.04924242263075664   -0.0013999919475220222
-0.003539683455373944   -0.04959241414679848   -0.001529217415432005
-0.004068580093133434   -0.04929202990438835   -0.0014416583196932503
-0.003892494408383488   -0.04922157599438038   -0.0013948526575396185
-0.0033878589272335643   -0.049590259314587444   -0.0014034363925794276
-0.0039338509961991605   -0.0493391432616308   -0.0014074012393351207
-0.003892494408383488   -0.04922157599438038   -0.0013948526575396185
-0.004185847278677923   -0.049275502177499125   -0.0014121917147208664
-0.0033878589272335643   -0.049590259314587444   -0.0014034363925794276
-0.004077455651842992   -0.04929040609478691   -0.0013360604446113747
-0.0039338509961991605   -0.0493391432616308   -0.0014074012393351207
-0.003224973540488476   -0.04962677709003969   -0.001277465665878647
-0.004077455651842992   -0.04929040609478691   -0.0013360604446113747
-0.0033878589272335643   -0.049590259314587444   -0.0014034363925794276
-0.0039338509961991605   -0.0493391432616308   -0.0014074012393351207
-0.004077455651842992   -0.04929040609478691   -0.0013360604446113747
-0.003796458176193769   -0.04923687129196228   -0.0013843193500683072
-0.003892494408383488   -0.04922157599438038   -0.0013948526575396185
-0.0039338509961991605   -0.0493391432616308   -0.0014074012393351207
-0.004077455651842992   -0.04929040609478691   -0.0013360604446113747
-0.003892494408383488   -0.04922157599438038   -0.0013948526575396185
-0.0033878589272335643   -0.049590259314587444   -0.0014034363925794276
-0.0037034403601156813   -0.04963540884960181   -0.001655371411109828
-0.00437923322791709   -0.049349111951438734   -0.0015468392308837006
-0.003085314417061695   -0.05   -0.0017657391237709881
-0.003539683455373944   -0.04959241414679848   -0.001529217415432005
-0.00437923322791709   -0.049349111951438734   -0.0015468392308837006
-0.004824645498713578   -0.04929496793779342   -0.0016882387006703912
-0.003085314417061695   -0.05   -0.0017657391237709881
-0.004709790429314236   -0.049241939468803064   -0.0015632847336507875
-0.003539683455373944   -0.04959241414679848   -0.001529217415432005
-0.002879155745702559   -0.05   -0.001573590878096433
-0.004709790429314236   -0.049241939468803064   -0.0015632847336507875
-0.003085314417061695   -0.05   -0.0017657391237709881
-0.003539683455373944   -0.04959241414679848   -0.001529217415432005
-0.004709790429314236   -0.049241939468803064   -0.0015632847336507875
-0.004291282654611209   -0.04929308027364088   -0.0014837014610721278
-0.00437923322791709   -0.049349111951438734   -0.0015468392308837006
-0.003539683455373944   -0.04959241414679848   -0.001529217415432005
-0.004709790429314236   -0.049241939468803064   -0.0015632847336507875
-0.00437923322791709   -0.049349111951438734   -0.0015468392308837006
-0.003085314417061695   -0.05   -0.0017657391237709881
-0.003539683455373944   -0.04959241414679848   -0.001529217415432005
-0.004291282654611209   -0.04929308027364088   -0.0014837014610721278
-0.002879155745702559   -0.05   -0.001573590878096433
-0.0033878589272335643   -0.049590259314587444   -0.0014034363925794276
-0.004291282654611209   -0.04929308027364088   -0.0014837014610721278
-0.004709790429314236   -0.049241939468803064   -0.0015632847336507875
-0.002879155745702559   -0.05   -0.001573590878096433
-0.0045581028137179685   -0.04923005655041339   -0.0014289865297745486
-0.0033878589272335643   -0.049590259314587444   -0.0014034363925794276
-0.002671859034337493   -0.05   -0.0013791692860936258
-0.0045581028137179685   -0.04923005655041339   -0.0014289865297745486
-0.002879155745702559   -0.05   -0.001573590878096433
-0.0033878589272335643   -0.049590259314587444   -0.0014034363925794276
-0.0045581028137179685   -0.04923005655041339   -0.0014289865297745486
-0.004185847278677923   -0.049275502177499125   -0.0014121917147208664
-0.004291282654611209   -0.04929308027364088   -0.0014837014610721278
-0.0033878589272335643   -0.049590259314587444   -0.0014034363925794276
-0.0045581028137179685   -0.04923005655041339   -0.0014289865297745486
-0.004291282654611209   -0.04929308027364088   -0.0014837014610721278
-0.002879155745702559   -0.05   -0.001573590878096433
-0.0033878589272335643   -0.049590259314587444   -0.0014034363925794276
-0.004185847278677923   -0.049275502177499125   -0.0014121917147208664
-0.002671859034337493   -0.05   -0.0013791692860936258
-0.003224973540488476   -0.04962677709003969   -0.001277465665878647
-0.004185847278677923   -0.049275502177499125   -0.0014121917147208664
-0.0045581028137179685   -0.04923005655041339   -0.0014289865297745486
-0.002671859034337493   -0.05   -0.0013791692860936258
-0.004415627852192745   -0.04925142934880173   -0.0012895506791799302
-0.003224973540488476   -0.04962677709003969   -0.001277465665878647
-0.002469419944932288   -0.05   -0.001187331634374588
-0.004415627852192745   -0.04925142934880173   -0.0012895506791799302
-0.002671859034337493   -0.05   -0.0013791692860936258
-0.003224973540488476   -0.04962677709003969   -0.001277465665878647
-0.004415627852192745   -0.04925142934880173   -0.0012895506791799302
-0.004077455651842992   -0.04929040609478691   -0.0013360604446113747
-0.004185847278677923   -0.049275502177499125   -0.0014121917147208664
-0.003224973540488476   -0.04962677709003969   -0.001277465665878647
-0.004415627852192745   -0.04925142934880173   -0.0012895506791799302
-0.004185847278677923   -0.049275502177499125   -0.0014121917147208664
-0.002671859034337493   -0.05   -0.0013791692860936258
-0.003085314417061695   -0.05   -0.0017657391237709881
-0.004824645498713578   -0.04929496793779342   -0.0016882387006703912
-0.0026352087360773406   -0.05   -0.0018994003871557923
-0.002879155745702559   -0.05   -0.001573590878096433
-0.004824645498713578   -0.04929496793779342   -0.0016882387006703912
-0.005693624888111512   -0.04905401644373982   -0.0018386158188016843
-0.0026352087360773406   -0.05   -0.0018994003871557923
-0.0053868295205871065   -0.04900910033884641   -0.0016336425111149247
-0.002879155745702559   -0.05   -0.001573590878096433
-0.0022028888814793063   -0.05   -0.0016211349029953289
-0.0053868295205871065   -0.04900910033884641   -0.0016336425111149247
-0.0026352087360773406   -0.05   -0.0018994003871557923
-0.002879155745702559   -0.05   -0.001573590878096433
-0.0053868295205871065   -0.04900910033884641   -0.0016336425111149247
-0.004709790429314236   -0.049241939468803064   -0.0015632847336507875
-0.004824645498713578   -0.04929496793779342   -0.0016882387006703912
-0.002879155745702559   -0.05   -0.001573590878096433
-0.0053868295205871065   -0.04900910033884641   -0.0016336425111149247
-0.004824645498713578   -0.04929496793779342   -0.0016882387006703912
-0.0026352087360773406   -0.05   -0.0018994003871557923
-0.002879155745702559   -0.05   -0.001573590878096433
-0.004709790429314236   -0.049241939468803064   -0.0015632847336507875
-0.0022028888814793063   -0.05   -0.0016211349029953289
-0.002671859034337493   -0.05   -0.0013791692860936258
-0.004709790429314236   -0.049241939468803064   -0.0015632847336507875
-0.0053868295205871065   -0.04900910033884641   -0.0016336425111149247
-0.0022028888814793063   -0.05   -0.0016211349029953289
-0.005105243567791134   -0.04900308369765107   -0.0014149931032351405
-0.002671859034337493   -0.05   -0.0013791692860936258
-0.0018581330570247739   -0.05   -0.001354955307485423
-0.005105243567791134   -0.04900308369765107   -0.0014149931032351405
-0.0022028888814793063   -0.05   -0.0016211349029953289
-0.002671859034337493   -0.05   -0.0013791692860936258
-0.005105243567791134   -0.04900308369765107   -0.0014149931032351405
-0.0045581028137179685   -0.04923005655041339   -0.0014289865297745486
-0.004709790429314236   -0.049241939468803064   -0.0015632847336507875
-0.002671859034337493   -0.05   -0.0013791692860936258
-0.005105243567791134   -0.04900308369765107   -0.0014149931032351405
-0.004709790429314236   -0.049241939468803064   -0.0015632847336507875
-0.0022028888814793063   -0.05   -0.0016211349029953289
-0.002671859034337493   -0.05   -0.0013791692860936258
-0.0045581028137179685   -0.04923005655041339   -0.0014289865297745486
-0.0018581330570247739   -0.05   -0.001354955307485423
-0.002469419944932288   -0.05   -0.001187331634374588
-0.0045581028137179685   -0.04923005655041339   -0.0014289865297745486
-0.005105243567791134   -0.04900308369765107   -0.0014149931032351405
-0.0018581330570247739   -0.05   -0.001354955307485423
-0.004749575433682938   -0.04906197136966388   -0.0011864362739180802
-0.002469419944932288   -0.05   -0.001187331634374588
-0.0014323062221938657   -0.05   -0.001078617041670198
-0.004749575433682938   -0.04906197136966388   -0.0011864362739180802
-0.0018581330570247739   -0.05   -0.001354955307485423
-0.002469419944932288   -0.05   -0.001187331634374588
-0.004749575433682938   -0.04906197136966388   -0.0011864362739180802
-0.004415627852192745   -0.04925142934880173   -0.0012895506791799302
-0.0045581028137179685   -0.04923005655041339   -0.0014289865297745486
-0.002469419944932288   -0.05   -0.001187331634374588
-0.004749575433682938   -0.04906197136966388   -0.0011864362739180802
-0.0045581028137179685   -0.04923005655041339   -0.0014289865297745486
-0.0018581330570247739   -0.05   -0.001354955307485423
-0.0035763942395567413   -0.0489959216357883   -0.0010585903116713787
-0.0014804269021648673   -0.04716246216455227   -0.0009140728521898494
-0.003785549229339277   -0.0491848596066682   -0.0012473887452009523
-0.0033308135243316954   -0.04891152396058739   -0.0012206226113839547
-0.0014804269021648673   -0.04716246216455227   -0.0009140728521898494
-0.002726251271891263   -0.04730536947124801   -0.0011147092440798832
-0.003785549229339277   -0.0491848596066682   -0.0012473887452009523
-0.0026580099920974127   -0.047225846136040035   -0.0011764863680750646
-0.0033308135243316954   -0.04891152396058739   -0.0012206226113839547
-0.003689564925684128   -0.0491191609954693   -0.0013165780318478136
-0.0026580099920974127   -0.047225846136040035   -0.0011764863680750646
-0.003785549229339277   -0.0491848596066682   -0.0012473887452009523
-0.0033308135243316954   -0.04891152396058739   -0.0012206226113839547
-0.0026580099920974127   -0.047225846136040035   -0.0011764863680750646
-0.0012842848364113082   -0.047063986907989325   -0.00105435668807775
-0.0014804269021648673   -0.04716246216455227   -0.0009140728521898494
-0.0033308135243316954   -0.04891152396058739   -0.0012206226113839547
-0.0026580099920974127   -0.047225846136040035   -0.0011764863680750646
-0.0014804269021648673   -0.04716246216455227   -0.0009140728521898494
-0.003785549229339277   -0.0491848596066682   -0.0012473887452009523
-0.0033308135243316954   -0.04891152396058739   -0.0012206226113839547
-0.0012842848364113082   -0.047063986907989325   -0.00105435668807775
-0.003689564925684128   -0.0491191609954693   -0.0013165780318478136
-0.0031264199512130494   -0.048885929110056896   -0.001376079176860083
-0.0012842848364113082   -0.047063986907989325   -0.00105435668807775
-0.0026580099920974127   -0.047225846136040035   -0.0011764863680750646
-0.003689564925684128   -0.0491191609954693   -0.0013165780318478136
-0.002581092372178784   -0.04718212644081364   -0.0012327431079506503
-0.0031264199512130494   -0.048885929110056896   -0.001376079176860083
-0.003576902867285113   -0.049095248613036394   -0.0013804658833186571
-0.002581092372178784   -0.04718212644081364   -0.0012327431079506503
-0.003689564925684128   -0.0491191609954693   -0.0013165780318478136
-0.0031264199512130494   -0.048885929110056896   -0.001376079176860083
-0.002581092372178784   -0.04718212644081364   -0.0012327431079506503
-0.0011299351991668587   -0.04701747645711708   -0.001186460797803685
-0.0012842848364113082   -0.047063986907989325   -0.00105435668807775
-0.0031264199512130494   -0.048885929110056896   -0.001376079176860083
-0.002581092372178784   -0.04718212644081364   -0.0012327431079506503
-0.0012842848364113082   -0.047063986907989325   -0.00105435668807775
-0.003689564925684128   -0.0491191609954693   -0.0013165780318478136
-0.0031264199512130494   -0.048885929110056896   -0.001376079176860083
-0.0011299351991668587   -0.04701747645711708   -0.001186460797803685
-0.003576902867285113   -0.049095248613036394   -0.0013804658833186571
-0.002894990428739317   -0.04890866146728946   -0.0015242808622794725
-0.0011299351991668587   -0.04701747645711708   -0.001186460797803685
-0.002581092372178784   -0.04718212644081364   -0.0012327431079506503
-0.003576902867285113   -0.049095248613036394   -0.0013804658833186571
-0.002522146210589825   -0.04717298469520978   -0.0012836589097429654
-0.002894990428739317   -0.04890866146728946   -0.0015242808622794725
-0.0034804384089486707   -0.049113483567526914   -0.0014387237804855911
-0.002522146210589825   -0.04717298469520978   -0.0012836589097429654
-0.003576902867285113   -0.049095248613036394   -0.0013804658833186571
-0.002894990428739317   -0.04890866146728946   -0.0015242808622794725
-0.002522146210589825   -0.04717298469520978   -0.0012836589097429654
-0.0009611632999936262   -0.047009492841390825   -0.0013100433135208006
-0.0011299351991668587   -0.04701747645711708   -0.001186460797803685
-0.002894990428739317   -0.04890866146728946   -0.0015242808622794725
-0.002522146210589825   -0.04717298469520978   -0.0012836589097429654
-0.0011299351991668587   -0.04701747645711708   -0.001186460797803685
-0.003576902867285113   -0.049095248613036394   -0.0013804658833186571
-0.003785549229339277   -0.0491848596066682   -0.0012473887452009523
-0.002726251271891263   -0.04730536947124801   -0.0011147092440798832
-0.004071873632121741   -0.0493011116250802   -0.00139825878061728
-0.003689564925684128   -0.0491191609954693   -0.0013165780318478136
-0.002726251271891263   -0.04730536947124801   -0.0011147092440798832
-0.003957567456809968   -0.047355650274416614   -0.0012782135292972066
-0.004071873632121741   -0.0493011116250802   -0.00139825878061728
-0.003900248244939385   -0.04728628538490351   -0.0012815333866499179
-0.003689564925684128   -0.0491191609954693   -0.0013165780318478136
-0.0039869734129096696   -0.04924242263075664   -0.0013999919475220222
-0.003900248244939385   -0.04728628538490351   -0.0012815333866499179
-0.004071873632121741   -0.0493011116250802   -0.00139825878061728
-0.003689564925684128   -0.0491191609954693   -0.0013165780318478136
-0.003900248244939385   -0.04728628538490351   -0.0012815333866499179
-0.0026580099920974127   -0.047225846136040035   -0.0011764863680750646
-0.002726251271891263   -0.04730536947124801   -0.0011147092440798832
-0.003689564925684128   -0.0491191609954693   -0.0013165780318478136
-0.003900248244939385   -0.04728628538490351   -0.0012815333866499179
-0.002726251271891263   -0.04730536947124801   -0.0011147092440798832
-0.004071873632121741   -0.0493011116250802   -0.00139825878061728
-0.003689564925684128   -0.0491191609954693   -0.0013165780318478136
-0.0026580099920974127   -0.047225846136040035   -0.0011764863680750646
-0.0039869734129096696   -0.04924242263075664   -0.0013999919475220222
-0.003576902867285113   -0.049095248613036394   -0.0013804658833186571
-0.0026580099920974127   -0.047225846136040035   -0.0011764863680750646
-0.003900248244939385   -0.04728628538490351   -0.0012815333866499179
-0.0039869734129096696   -0.04924242263075664   -0.0013999919475220222
-0.0038409541396061055   -0.04724919144859542   -0.0012797393938527625
-0.003576902867285113   -0.049095248613036394   -0.0013804658833186571
-0.003892494408383488   -0.04922157599438038   -0.0013948526575396185
-0.0038409541396061055   -0.04724919144859542   -0.0012797393938527625
-0.0039869734129096696   -0.04924242263075664   -0.0013999919475220222
-0.003576902867285113   -0.049095248613036394   -0.0013804658833186571
-0.0038409541396061055   -0.04724919144859542   -0.0012797393938527625
-0.002581092372178784   -0.04718212644081364   -0.0012327431079506503
-0.0026580099920974127   -0.047225846136040035   -0.0011764863680750646
-0.003576902867285113   -0.049095248613036394   -0.0013804658833186571
-0.0038409541396061055   -0.04724919144859542   -0.0012797393938527625
-0.0026580099920974127   -0.047225846136040035   -0.0011764863680750646
-0.0039869734129096696   -0.04924242263075664   -0.0013999919475220222
-0.003576902867285113   -0.049095248613036394   -0.0013804658833186571
-0.002581092372178784   -0.04718212644081364   -0.0012327431079506503
-0.003892494408383488   -0.04922157599438038   -0.0013948526575396185
-0.0034804384089486707   -0.049113483567526914   -0.0014387237804855911
-0.002581092372178784   -0.04718212644081364   -0.0012327431079506503
-0.0038409541396061055   -0.04724919144859542   -0.0012797393938527625
-0.003892494408383488   -0.04922157599438038   -0.0013948526575396185
-0.0037837835778481562   -0.04724283646715993   -0.001272789698761777
-0.0034804384089486707   -0.049113483567526914   -0.0014387237804855911
-0.003796458176193769   -0.04923687129196228   -0.0013843193500683072
-0.0037837835778481562   -0.04724283646715993   -0.001272789698761777
-0.003892494408383488   -0.04922157599438038   -0.0013948526575396185
-0.0034804384089486707   -0.049113483567526914   -0.0014387237804855911
-0.0037837835778481562   -0.04724283646715993   -0.001272789698761777
-0.002522146210589825   -0.04717298469520978   -0.0012836589097429654
-0.002581092372178784   -0.04718212644081364   -0.0012327431079506503
-0.0034804384089486707   -0.049113483567526914   -0.0014387237804855911
-0.0037837835778481562   -0.04724283646715993   -0.001272789698761777
-0.002581092372178784   -0.04718212644081364   -0.0012327431079506503
-0.003892494408383488   -0.04922157599438038   -0.0013948526575396185
-0.004071873632121741   -0.0493011116250802   -0.00139825878061728
-0.003957567456809968   -0.047355650274416614   -0.0012782135292972066
-0.00437923322791709   -0.049349111951438734   -0.0015468392308837006
-0.0039869734129096696   -0.04924242263075664   -0.0013999919475220222
-0.003957567456809968   -0.047355650274416614   -0.0012782135292972066
-0.005180594149884003   -0.047310652115286705   -0.0014312743153453646
-0.00437923322791709   -0.049349111951438734   -0.0015468392308837006
-0.005123728359388843   -0.04724901452886763   -0.0013785282852515335
-0.0039869734129096696   -0.04924242263075664   -0.0013999919475220222
-0.004291282654611209   -0.04929308027364088   -0.0014837014610721278
-0.005123728359388843   -0.04724901452886763   -0.0013785282852515335
-0.00437923322791709   -0.049349111951438734   -0.0015468392308837006
-0.0039869734129096696   -0.04924242263075664   -0.0013999919475220222
-0.005123728359388843   -0.04724901452886763   -0.0013785282852515335
-0.003900248244939385   -0.04728628538490351   -0.0012815333866499179
-0.003957567456809968   -0.047355650274416614   -0.0012782135292972066
-0.0039869734129096696   -0.04924242263075664   -0.0013999919475220222
-0.005123728359388843   -0.04724901452886763   -0.0013785282852515335
-0.003957567456809968   -0.047355650274416614   -0.0012782135292972066
-0.00437923322791709   -0.049349111951438734   -0.0015468392308837006
-0.0039869734129096696   -0.04924242263075664   -0.0013999919475220222
-0.003900248244939385   -0.04728628538490351   -0.0012815333866499179
-0.004291282654611209   -0.04929308027364088   -0.0014837014610721278
-0.003892494408383488   -0.04922157599438038   -0.0013948526575396185
-0.003900248244939385   -0.04728628538490351   -0.0012815333866499179
-0.005123728359388843   -0.04724901452886763   -0.0013785282852515335
-0.004291282654611209   -0.04929308027364088   -0.0014837014610721278
-0.005059914141701988   -0.047219113437731365   -0.0013207468926194944
-0.003892494408383488   -0.04922157599438038   -0.0013948526575396185
-0.004185847278677923   -0.049275502177499125   -0.0014121917147208664
-0.005059914141701988   -0.047219113437731365   -0.0013207468926194944
-0.004291282654611209   -0.04929308027364088   -0.0014837014610721278
-0.003892494408383488   -0.04922157599438038   -0.0013948526575396185
-0.005059914141701988   -0.047219113437731365   -0.0013207468926194944
-0.0038409541396061055   -0.04724919144859542   -0.0012797393938527625
-0.003900248244939385   -0.04728628538490351   -0.0012815333866499179
-0.003892494408383488   -0.04922157599438038   -0.0013948526575396185
-0.005059914141701988   -0.047219113437731365   -0.0013207468926194944
-0.003900248244939385   -0.04728628538490351   -0.0012815333866499179
-0.004291282654611209   -0.04929308027364088   -0.0014837014610721278
-0.003892494408383488   -0.04922157599438038   -0.0013948526575396185
-0.0038409541396061055   -0.04724919144859542   -0.0012797393938527625
-0.004185847278677923   -0.049275502177499125   -0.0014121917147208664
-0.003796458176193769   -0.04923687129196228   -0.0013843193500683072
-0.0038409541396061055   -0.04724919144859542   -0.0012797393938527625
-0.005059914141701988   -0.047219113437731365   -0.0013207468926194944
-0.004185847278677923   -0.049275502177499125   -0.0014121917147208664
-0.00499586552074018   -0.047217927547926114   -0.0012573171530756353
-0.003796458176193769   -0.04923687129196228   -0.0013843193500683072
-0.004077455651842992   -0.04929040609478691   -0.0013360604446113747
-0.00499586552074018   -0.047217927547926114   -0.0012573171530756353
-0.004185847278677923   -0.049275502177499125   -0.0014121917147208664
-0.003796458176193769   -0.04923687129196228   -0.0013843193500683072
-0.00499586552074018   -0.047217927547926114   -0.0012573171530756353
-0.0037837835778481562   -0.04724283646715993   -0.001272789698761777
-0.0038409541396061055   -0.04724919144859542   -0.0012797393938527625
-0.003796458176193769   -0.04923687129196228   -0.0013843193500683072
-0.00499586552074018   -0.047217927547926114   -0.0012573171530756353
-0.0038409541396061055   -0.04724919144859542   -0.0012797393938527625
-0.004185847278677923   -0.049275502177499125   -0.0014121917147208664
-0.00437923322791709   -0.049349111951438734   -0.0015468392308837006
-0.005180594149884003   -0.047310652115286705   -0.0014312743153453646
-0.004824645498713578   -0.04929496793779342   -0.0016882387006703912
-0.004291282654611209   -0.04929308027364088   -0.0014837014610721278
-0.005180594149884003   -0.047310652115286705   -0.0014312743153453646
-0.006523667855548213   -0.04716446902274985   -0.0015719826985572548
-0.004824645498713578   -0.04929496793779342   -0.0016882387006703912
-0.006453973292880115   -0.04711055159174914   -0.0014643877791506838
-0.004291282654611209   -0.04929308027364088   -0.0014837014610721278
-0.004709790429314236   -0.049241939468803064   -0.0015632847336507875
-0.006453973292880115   -0.04711055159174914   -0.0014643877791506838
-0.004824645498713578   -0.04929496793779342   -0.0016882387006703912
-0.004291282654611209   -0.04929308027364088   -0.0014837014610721278
-0.006453973292880115   -0.04711055159174914   -0.0014643877791506838
-0.005123728359388843   -0.04724901452886763   -0.0013785282852515335
-0.005180594149884003   -0.047310652115286705   -0.0014312743153453646
-0.004291282654611209   -0.04929308027364088   -0.0014837014610721278
-0.006453973292880115   -0.04711055159174914   -0.0014643877791506838
-0.005180594149884003   -0.047310652115286705   -0.0014312743153453646
-0.004824645498713578   -0.04929496793779342   -0.0016882387006703912
-0.004291282654611209   -0.04929308027364088   -0.0014837014610721278
-0.005123728359388843   -0.04724901452886763   -0.0013785282852515335
-0.004709790429314236   -0.049241939468803064   -0.0015632847336507875
-0.004185847278677923   -0.049275502177499125   -0.0014121917147208664
-0.005123728359388843   -0.04724901452886763   -0.0013785282852515335
-0.006453973292880115   -0.04711055159174914   -0.0014643877791506838
-0.004709790429314236   -0.049241939468803064   -0.0015632847336507875
-0.0063576686743183   -0.04708781489147381   -0.0013521354655639632
-0.004185847278677923   -0.049275502177499125   -0.0014121917147208664
-0.0045581028137179685   -0.04923005655041339   -0.0014289865297745486
-0.0063576686743183   -0.04708781489147381   -0.0013521354655639632
-0.004709790429314236   -0.049241939468803064   -0.0015632847336507875
-0.004185847278677923   -0.049275502177499125   -0.0014121917147208664
-0.0063576686743183   -0.04708781489147381   -0.0013521354655639632
-0.005059914141701988   -0.047219113437731365   -0.0013207468926194944
-0.005123728359388843   -0.04724901452886763   -0.0013785282852515335
-0.004185847278677923   -0.049275502177499125   -0.0014121917147208664
-0.0063576686743183   -0.04708781489147381   -0.0013521354655639632
-0.005123728359388843   -0.04724901452886763   -0.0013785282852515335
-0.004709790429314236   -0.049241939468803064   -0.0015632847336507875
-0.004185847278677923   -0.049275502177499125   -0.0014121917147208664
-0.005059914141701988   -0.047219113437731365   -0.0013207468926194944
-0.0045581028137179685   -0.04923005655041339   -0.0014289865297745486
-0.004077455651842992   -0.04929040609478691   -0.0013360604446113747
-0.005059914141701988   -0.047219113437731365   -0.0013207468926194944
-0.0063576686743183   -0.04708781489147381   -0.0013521354655639632
-0.0045581028137179685   -0.04923005655041339   -0.0014289865297745486
-0.0062737501592462054   -0.04709628801067128   -0.0012321201832471635
-0.004077455651842992   -0.04929040609478691   -0.0013360604446113747
-0.004415627852192745   -0.04925142934880173   -0.0012895506791799302
-0.0062737501592462054   -0.04709628801067128   -0.0012321201832471635
-0.0045581028137179685   -0.04923005655041339   -0.0014289865297745486
-0.004077455651842992   -0.04929040609478691   -0.0013360604446113747
-0.0062737501592462054   -0.04709628801067128   -0.0012321201832471635
-0.00499586552074018   -0.047217927547926114   -0.0012573171530756353
-0.005059914141701988   -0.047219113437731365   -0.0013207468926194944
-0.004077455651842992   -0.04929040609478691   -0.0013360604446113747
-0.0062737501592462054   -0.04709628801067128   -0.0012321201832471635
-0.005059914141701988   -0.047219113437731365   -0.0013207468926194944
-0.0045581028137179685   -0.04923005655041339   -0.0014289865297745486
-0.004824645498713578   -0.04929496793779342   -0.0016882387006703912
-0.006523667855548213   -0.04716446902274985   -0.0015719826985572548
-0.005693624888111512   -0.04905401644373982   -0.0018386158188016843
-0.004709790429314236   -0.049241939468803064   -0.0015632847336507875
-0.006523667855548213   -0.04716446902274985   -0.0015719826985572548
-0.00825309754801649   -0.04692672678363855   -0.0017073832656224858
-0.005693624888111512   -0.04905401644373982   -0.0018386158188016843
-0.008027435032387748   -0.046868125322822314   -0.0015374722231368252
-0.004709790429314236   -0.049241939468803064   -0.0015632847336507875
-0.0053868295205871065   -0.04900910033884641   -0.0016336425111149247
-0.008027435032387748   -0.046868125322822314   -0.0015374722231368252
-0.005693624888111512   -0.04905401644373982   -0.0018386158188016843
-0.004709790429314236   -0.049241939468803064   -0.0015632847336507875
-0.008027435032387748   -0.046868125322822314   -0.0015374722231368252
-0.006453973292880115   -0.04711055159174914   -0.0014643877791506838
-0.006523667855548213   -0.04716446902274985   -0.0015719826985572548
-0.004709790429314236   -0.049241939468803064   -0.0015632847336507875
-0.008027435032387748   -0.046868125322822314   -0.0015374722231368252
-0.006523667855548213   -0.04716446902274985   -0.0015719826985572548
-0.005693624888111512   -0.04905401644373982   -0.0018386158188016843
-0.004709790429314236   -0.049241939468803064   -0.0015632847336507875
-0.006453973292880115   -0.04711055159174914   -0.0014643877791506838
-0.0053868295205871065   -0.04900910033884641   -0.0016336425111149247
-0.0045581028137179685   -0.04923005655041339   -0.0014289865297745486
-0.006453973292880115   -0.04711055159174914   -0.0014643877791506838
-0.008027435032387748   -0.046868125322822314   -0.0015374722231368252
-0.0053868295205871065   -0.04900910033884641   -0.0016336425111149247
-0.007825407433605013   -0.04684709463642736   -0.0013577757589142566
-0.0045581028137179685   -0.04923005655041339   -0.0014289865297745486
-0.005105243567791134   -0.04900308369765107   -0.0014149931032351405
-0.007825407433605013   -0.04684709463642736   -0.0013577757589142566
-0.0053868295205871065   -0.04900910033884641   -0.0016336425111149247
-0.0045581028137179685   -0.04923005655041339   -0.0014289865297745486
-0.007825407433605013   -0.04684709463642736   -0.0013577757589142566
-0.0063576686743183   -0.04708781489147381   -0.0013521354655639632
-0.006453973292880115   -0.04711055159174914   -0.0014643877791506838
-0.0045581028137179685   -0.04923005655041339   -0.0014289865297745486
-0.007825407433605013   -0.04684709463642736   -0.0013577757589142566
-0.006453973292880115   -0.04711055159174914   -0.0014643877791506838
-0.0053868295205871065   -0.04900910033884641   -0.0016336425111149247
-0.0045581028137179685   -0.04923005655041339   -0.0014289865297745486
-0.0063576686743183   -0.04708781489147381   -0.0013521354655639632
-0.005105243567791134   -0.04900308369765107   -0.0014149931032351405
-0.004415627852192745   -0.04925142934880173   -0.0012895506791799302
-0.0063576686743183   -0.04708781489147381   -0.0013521354655639632
-0.007825407433605013   -0.04684709463642736   -0.0013577757589142566
-0.005105243567791134   -0.04900308369765107   -0.0014149931032351405
-0.007563601230776226   -0.046874565354643884   -0.0011699916570066602
-0.004415627852192745   -0.04925142934880173   -0.0012895506791799302
-0.004749575433682938   -0.04906197136966388   -0.0011864362739180802
-0.007563601230776226   -0.046874565354643884   -0.0011699916570066602
-0.005105243567791134   -0.04900308369765107   -0.0014149931032351405
-0.004415627852192745   -0.04925142934880173   -0.0012895506791799302
-0.007563601230776226   -0.046874565354643884   -0.0011699916570066602
-0.0062737501592462054   -0.04709628801067128   -0.0012321201832471635
-0.0063576686743183   -0.04708781489147381   -0.0013521354655639632
-0.004415627852192745   -0.04925142934880173   -0.0012895506791799302
-0.007563601230776226   -0.046874565354643884   -0.0011699916570066602
-0.0063576686743183   -0.04708781489147381   -0.0013521354655639632
-0.005105243567791134   -0.04900308369765107   -0.0014149931032351405
-0.0014804269021648673   -0.04716246216455227   -0.0009140728521898494
0.00022343407153822362   -0.04377456893057172   -0.000755596238331517
-0.002726251271891263   -0.04730536947124801   -0.0011147092440798832
-0.0012842848364113082   -0.047063986907989325   -0.00105435668807775
0.00022343407153822362   -0.04377456893057172   -0.000755596238331517
-0.0018832955461531775   -0.04387966136363058   -0.000952662237553344
-0.002726251271891263   -0.04730536947124801   -0.0011147092440798832
-0.0018470233765746863   -0.04379630028611908   -0.001001779311621422
-0.0012842848364113082   -0.047063986907989325   -0.00105435668807775
-0.0026580099920974127   -0.047225846136040035   -0.0011764863680750646
-0.0018470233765746863   -0.04379630028611908   -0.001001779311621422
-0.002726251271891263   -0.04730536947124801   -0.0011147092440798832
-0.0012842848364113082   -0.047063986907989325   -0.00105435668807775
-0.0018470233765746863   -0.04379630028611908   -0.001001779311621422
0.0003608106858600868   -0.043674461950106526   -0.0008675669534169504
0.00022343407153822362   -0.04377456893057172   -0.000755596238331517
-0.0012842848364113082   -0.047063986907989325   -0.00105435668807775
-0.0018470233765746863   -0.04379630028611908   -0.001001779311621422
0.00022343407153822362   -0.04377456893057172   -0.000755596238331517
-0.002726251271891263   -0.04730536947124801   -0.0011147092440798832
-0.0012842848364113082   -0.047063986907989325   -0.00105435668807775
0.0003608106858600868   -0.043674461950106526   -0.0008675669534169504
-0.0026580099920974127   -0.047225846136040035   -0.0011764863680750646
-0.0011299351991668587   -0.04701747645711708   -0.001186460797803685
0.0003608106858600868   -0.043674461950106526   -0.0008675669534169504
-0.0018470233765746863   -0.04379630028611908   -0.001001779311621422
-0.0026580099920974127   -0.047225846136040035   -0.0011764863680750646
-0.0018056472383189102   -0.04374220201338649   -0.001045226652549146
-0.0011299351991668587   -0.04701747645711708   -0.001186460797803685
-0.002581092372178784   -0.04718212644081364   -0.0012327431079506503
-0.0018056472383189102   -0.04374220201338649   -0.001045226652549146
-0.0026580099920974127   -0.047225846136040035   -0.0011764863680750646
-0.0011299351991668587   -0.04701747645711708   -0.001186460797803685
-0.0018056472383189102   -0.04374220201338649   -0.001045226652549146
0.00046190941180945333   -0.04361701718979853   -0.0009716015220084818
0.0003608106858600868   -0.043674461950106526   -0.0008675669534169504
-0.0011299351991668587   -0.04701747645711708   -0.001186460797803685
-0.0018056472383189102   -0.04374220201338649   -0.001045226652549146
0.0003608106858600868   -0.043674461950106526   -0.0008675669534169504
-0.0026580099920974127   -0.047225846136040035   -0.0011764863680750646
-0.0011299351991668587   -0.04701747645711708   -0.001186460797803685
0.00046190941180945333   -0.04361701718979853   -0.0009716015220084818
-0.002581092372178784   -0.04718212644081364   -0.0012327431079506503
-0.0009611632999936262   -0.047009492841390825   -0.0013100433135208006
0.00046190941180945333   -0.04361701718979853   -0.0009716015220084818
-0.0018056472383189102   -0.04374220201338649   -0.001045226652549146
-0.002581092372178784   -0.04718212644081364   -0.0012327431079506503
-0.001780901406268132   -0.043715753620582096   -0.0010835645463003036
-0.0009611632999936262   -0.047009492841390825   -0.0013100433135208006
-0.002522146210589825   -0.04717298469520978   -0.0012836589097429654
-0.001780901406268132   -0.043715753620582096   -0.0010835645463003036
-0.002581092372178784   -0.04718212644081364   -0.0012327431079506503
-0.0009611632999936262   -0.047009492841390825   -0.0013100433135208006
-0.001780901406268132   -0.043715753620582096   -0.0010835645463003036
0.0005703353927278191   -0.04358930624355731   -0.0010676643775335585
0.00046190941180945333   -0.04361701718979853   -0.0009716015220084818
-0.0009611632999936262   -0.047009492841390825   -0.0013100433135208006
-0.001780901406268132   -0.043715753620582096   -0.0010835645463003036
0.00046190941180945333   -0.04361701718979853   -0.0009716015220084818
-0.002581092372178784   -0.04718212644081364   -0.0012327431079506503
-0.002726251271891263   -0.04730536947124801   -0.0011147092440798832
-0.0018832955461531775   -0.04387966136363058   -0.000952662237553344
-0.003957567456809968   -0.047355650274416614   -0.0012782135292972066
-0.0026580099920974127   -0.047225846136040035   -0.0011764863680750646
-0.0018832955461531775   -0.04387966136363058   -0.000952662237553344
-0.003922731941945097   -0.04389979787509817   -0.0011148271208550988
-0.003957567456809968   -0.047355650274416614   -0.0012782135292972066
-0.0038961208459015496   -0.043828288499613254   -0.0011160303548669334
-0.0026580099920974127   -0.047225846136040035   -0.0011764863680750646
-0.003900248244939385   -0.04728628538490351   -0.0012815333866499179
-0.0038961208459015496   -0.043828288499613254   -0.0011160303548669334
-0.003957567456809968   -0.047355650274416614   -0.0012782135292972066
-0.0026580099920974127   -0.047225846136040035   -0.0011764863680750646
-0.0038961208459015496   -0.043828288499613254   -0.0011160303548669334
-0.0018470233765746863   -0.04379630028611908   -0.001001779311621422
-0.0018832955461531775   -0.04387966136363058   -0.000952662237553344
-0.0026580099920974127   -0.047225846136040035   -0.0011764863680750646
-0.0038961208459015496   -0.043828288499613254   -0.0011160303548669334
-0.0018832955461531775   -0.04387966136363058   -0.000952662237553344
-0.003957567456809968   -0.047355650274416614   -0.0012782135292972066
-0.0026580099920974127   -0.047225846136040035   -0.0011764863680750646
-0.0018470233765746863   -0.04379630028611908   -0.001001779311621422
-0.003900248244939385   -0.04728628538490351   -0.0012815333866499179
-0.002581092372178784   -0.04718212644081364   -0.0012327431079506503
-0.0018470233765746863   -0.04379630028611908   -0.001001779311621422
-0.0038961208459015496   -0.043828288499613254   -0.0011160303548669334
-0.003900248244939385   -0.04728628538490351   -0.0012815333866499179
-0.003868747258660353   -0.04378296562029508   -0.0011117986003408818
-0.002581092372178784   -0.04718212644081364   -0.0012327431079506503
-0.0038409541396061055   -0.04724919144859542   -0.0012797393938527625
-0.003868747258660353   -0.04378296562029508   -0.0011117986003408818
-0.003900248244939385   -0.04728628538490351   -0.0012815333866499179
-0.002581092372178784   -0.04718212644081364   -0.0012327431079506503
-0.003868747258660353   -0.04378296562029508   -0.0011117986003408818
-0.0018056472383189102   -0.04374220201338649   -0.001045226652549146
-0.0018470233765746863   -0.04379630028611908   -0.001001779311621422
-0.002581092372178784   -0.04718212644081364   -0.0012327431079506503
-0.003868747258660353   -0.04378296562029508   -0.0011117986003408818
-0.0018470233765746863   -0.04379630028611908   -0.001001779311621422
-0.003900248244939385   -0.04728628538490351   -0.0012815333866499179
-0.002581092372178784   -0.04718212644081364   -0.0012327431079506503
-0.0018056472383189102   -0.04374220201338649   -0.001045226652549146
-0.0038409541396061055   -0.04724919144859542   -0.0012797393938527625
-0.002522146210589825   -0.04717298469520978   -0.0012836589097429654
-0.0018056472383189102   -0.04374220201338649   -0.001045226652549146
-0.003868747258660353   -0.04378296562029508   -0.0011117986003408818
-0.0038409541396061055   -0.04724919144859542   -0.0012797393938527625
-0.003844808718552401   -0.04376340529666392   -0.001102498142907756
-0.002522146210589825   -0.04717298469520978   -0.0012836589097429654
-0.0037837835778481562   -0.04724283646715993   -0.001272789698761777
-0.003844808718552401   -0.04376340529666392   -0.001102498142907756
-0.0038409541396061055   -0.04724919144859542   -0.0012797393938527625
-0.002522146210589825   -0.04717298469520978   -0.0012836589097429654
-0.003844808718552401   -0.04376340529666392   -0.001102498142907756
-0.001780901406268132   -0.043715753620582096   -0.0010835645463003036
-0.0018056472383189102   -0.04374220201338649   -0.001045226652549146
-0.002522146210589825   -0.04717298469520978   -0.0012836589097429654
-0.003844808718552401   -0.04376340529666392   -0.001102498142907756
-0.0018056472383189102   -0.04374220201338649   -0.001045226652549146
-0.0038409541396061055   -0.04724919144859542   -0.0012797393938527625
-0.003957567456809968   -0.047355650274416614   -0.0012782135292972066
-0.003922731941945097   -0.04389979787509817   -0.0011148271208550988
-0.005180594149884003   -0.047310652115286705   -0.0014312743153453646
-0.003900248244939385   -0.04728628538490351   -0.0012815333866499179
-0.003922731941945097   -0.04389979787509817   -0.0011148271208550988
-0.005930404840350538   -0.043834712669047246   -0.0012611869330611334
-0.005180594149884003   -0.047310652115286705   -0.0014312743153453646
-0.005905635245322768   -0.04377303233210096   -0.001215628070120644
-0.003900248244939385   -0.04728628538490351   -0.0012815333866499179
-0.005123728359388843   -0.04724901452886763   -0.0013785282852515335
-0.005905635245322768   -0.04377303233210096   -0.001215628070120644
-0.005180594149884003   -0.047310652115286705   -0.0014312743153453646
-0.003900248244939385   -0.04728628538490351   -0.0012815333866499179
-0.005905635245322768   -0.04377303233210096   -0.001215628070120644
-0.0038961208459015496   -0.043828288499613254   -0.0011160303548669334
-0.003922731941945097   -0.04389979787509817   -0.0011148271208550988
-0.003900248244939385   -0.04728628538490351   -0.0012815333866499179
-0.005905635245322768   -0.04377303233210096   -0.001215628070120644
-0.003922731941945097   -0.04389979787509817   -0.0011148271208550988
-0.005180594149884003   -0.047310652115286705   -0.0014312743153453646
-0.003900248244939385   -0.04728628538490351   -0.0012815333866499179
-0.0038961208459015496   -0.043828288499613254   -0.0011160303548669334
-0.005123728359388843   -0.04724901452886763   -0.0013785282852515335
-0.0038409541396061055   -0.04724919144859542   -0.0012797393938527625
-0.0038961208459015496   -0.043828288499613254   -0.0011160303548669334
-0.005905635245322768   -0.04377303233210096   -0.001215628070120644
-0.005123728359388843   -0.04724901452886763   -0.0013785282852515335
-0.00587569911300291   -0.04373725194587099   -0.0011647545866220945
-0.0038409541396061055   -0.04724919144859542   -0.0012797393938527625
-0.005059914141701988   -0.047219113437731365   -0.0013207468926194944
-0.00587569911300291   -0.04373725194587099   -0.0011647545866220945
-0.005123728359388843   -0.04724901452886763   -0.0013785282852515335
-0.0038409541396061055   -0.04724919144859542   -0.0012797393938527625
-0.00587569911300291   -0.04373725194587099   -0.0011647545866220945
-0.003868747258660353   -0.04378296562029508   -0.0011117986003408818
-0.0038961208459015496   -0.043828288499613254   -0.0011160303548669334
-0.0038409541396061055   -0.04724919144859542   -0.0012797393938527625
-0.00587569911300291   -0.04373725194587099   -0.0011647545866220945
-0.0038961208459015496   -0.043828288499613254   -0.0011160303548669334
-0.005123728359388843   -0.04724901452886763   -0.0013785282852515335
-0.0038409541396061055   -0.04724919144859542   -0.0012797393938527625
-0.003868747258660353   -0.04378296562029508   -0.0011117986003408818
-0.005059914141701988   -0.047219113437731365   -0.0013207468926194944
-0.0037837835778481562   -0.04724283646715993   -0.001272789698761777
-0.003868747258660353   -0.04378296562029508   -0.0011117986003408818
-0.00587569911300291   -0.04373725194587099   -0.0011647545866220945
-0.005059914141701988   -0.047219113437731365   -0.0013207468926194944
-0.00584660146934312   -0.04372618350265589   -0.0011087295487267293
-0.0037837835778481562   -0.04724283646715993   -0.001272789698761777
-0.00499586552074018   -0.047217927547926114   -0.0012573171530756353
-0.00584660146934312   -0.04372618350265589   -0.0011087295487267293
-0.005059914141701988   -0.047219113437731365   -0.0013207468926194944
-0.0037837835778481562   -0.04724283646715993   -0.001272789698761777
-0.00584660146934312   -0.04372618350265589   -0.0011087295487267293
-0.003844808718552401   -0.04376340529666392   -0.001102498142907756
-0.003868747258660353   -0.04378296562029508   -0.0011117986003408818
-0.0037837835778481562   -0.04724283646715993   -0.001272789698761777
-0.00584660146934312   -0.04372618350265589   -0.0011087295487267293
-0.003868747258660353   -0.04378296562029508   -0.0011117986003408818
-0.005059914141701988   -0.047219113437731365   -0.0013207468926194944
-0.005180594149884003   -0.047310652115286705   -0.0014312743153453646
-0.005930404840350538   -0.043834712669047246   -0.0012611869330611334
-0.006523667855548213   -0.04716446902274985   -0.0015719826985572548
-0.005123728359388843   -0.04724901452886763   -0.0013785282852515335
-0.005930404840350538   -0.043834712669047246   -0.0012611869330611334
-0.008033974262257524   -0.04368667146999664   -0.001391232761652468
-0.006523667855548213   -0.04716446902274985   -0.0015719826985572548
-0.008001534033444035   -0.04363434782384133   -0.0012988393680661984
-0.005123728359388843   -0.04724901452886763   -0.0013785282852515335
-0.006453973292880115   -0.04711055159174914   -0.0014643877791506838
-0.008001534033444035   -0.04363434782384133   -0.0012988393680661984
-0.006523667855548213   -0.04716446902274985   -0.0015719826985572548
-0.005123728359388843   -0.04724901452886763   -0.0013785282852515335
-0.008001534033444035   -0.04363434782384133   -0.0012988393680661984
-0.005905635245322768   -0.04377303233210096   -0.001215628070120644
-0.005930404840350538   -0.043834712669047246   -0.0012611869330611334
-0.005123728359388843   -0.04724901452886763   -0.0013785282852515335
-0.008001534033444035   -0.04363434782384133   -0.0012988393680661984
-0.005930404840350538   -0.043834712669047246   -0.0012611869330611334
-0.006523667855548213   -0.04716446902274985   -0.0015719826985572548
-0.005123728359388843   -0.04724901452886763   -0.0013785282852515335
-0.005905635245322768   -0.04377303233210096   -0.001215628070120644
-0.006453973292880115   -0.04711055159174914   -0.0014643877791506838
-0.005059914141701988   -0.047219113437731365   -0.0013207468926194944
-0.005905635245322768   -0.04377303233210096   -0.001215628070120644
-0.008001534033444035   -0.04363434782384133   -0.0012988393680661984
-0.006453973292880115   -0.04711055159174914   -0.0014643877791506838
-0.007946491742681423   -0.043607218455914046   -0.0012019519738427353
-0.005059914141701988   -0.047219113437731365   -0.0013207468926194944
-0.0063576686743183   -0.04708781489147381   -0.0013521354655639632
-0.007946491742681423   -0.043607218455914046   -0.0012019519738427353
-0.006453973292880115   -0.04711055159174914   -0.0014643877791506838
-0.005059914141701988   -0.047219113437731365   -0.0013207468926194944
-0.007946491742681423   -0.043607218455914046   -0.0012019519738427353
-0.00587569911300291   -0.04373725194587099   -0.0011647545866220945
-0.005905635245322768   -0.04377303233210096   -0.001215628070120644
-0.005059914141701988   -0.047219113437731365   -0.0013207468926194944
-0.007946491742681423   -0.043607218455914046   -0.0012019519738427353
-0.005905635245322768   -0.04377303233210096   -0.001215628070120644
-0.006453973292880115   -0.04711055159174914   -0.0014643877791506838
-0.005059914141701988   -0.047219113437731365   -0.0013207468926194944
-0.00587569911300291   -0.04373725194587099   -0.0011647545866220945
-0.0063576686743183   -0.04708781489147381   -0.0013521354655639632
-0.00499586552074018   -0.047217927547926114   -0.0012573171530756353
-0.00587569911300291   -0.04373725194587099   -0.0011647545866220945
-0.007946491742681423   -0.043607218455914046   -0.0012019519738427353
-0.0063576686743183   -0.04708781489147381   -0.0013521354655639632
-0.007901881743217945   -0.043606737786704076   -0.001099161058156605
-0.00499586552074018   -0.047217927547926114   -0.0012573171530756353
-0.0062737501592462054   -0.04709628801067128   -0.0012321201832471635
-0.007901881743217945   -0.043606737786704076   -0.001099161058156605
-0.0063576686743183   -0.04708781489147381   -0.0013521354655639632
-0.00499586552074018   -0.047217927547926114   -0.0012573171530756353
-0.007901881743217945   -0.043606737786704076   -0.001099161058156605
-0.00584660146934312   -0.04372618350265589   -0.0011087295487267293
-0.00587569911300291   -0.04373725194587099   -0.0011647545866220945
-0.00499586552074018   -0.047217927547926114   -0.0012573171530756353
-0.007901881743217945   -0.043606737786704076   -0.001099161058156605
-0.00587569911300291   -0.04373725194587099   -0.0011647545866220945
-0.0063576686743183   -0.04708781489147381   -0.0013521354655639632
-0.006523667855548213   -0.04716446902274985   -0.0015719826985572548
-0.008033974262257524   -0.04368667146999664   -0.001391232761652468
-0.00825309754801649   -0.04692672678363855   -0.0017073832656224858
-0.006453973292880115   -0.04711055159174914   -0.0014643877791506838
-0.008033974262257524   -0.04368667146999664   -0.001391232761652468
-0.01048702155475706   -0.04347324245781119   -0.0015127250947516045
-0.00825309754801649   -0.04692672678363855   -0.0017073832656224858
-0.010320037882949096   -0.04341856352551674   -0.0013680502108258795
-0.006453973292880115   -0.04711055159174914   -0.0014643877791506838
-0.008027435032387748   -0.046868125322822314   -0.0015374722231368252
-0.010320037882949096   -0.04341856352551674   -0.0013680502108258795
-0.00825309754801649   -0.04692672678363855   -0.0017073832656224858
-0.006453973292880115   -0.04711055159174914   -0.0014643877791506838
-0.010320037882949096   -0.04341856352551674   -0.0013680502108258795
-0.008001534033444035   -0.04363434782384133   -0.0012988393680661984
-0.008033974262257524   -0.04368667146999664   -0.001391232761652468
-0.006453973292880115   -0.04711055159174914   -0.0014643877791506838
-0.010320037882949096   -0.04341856352551674   -0.0013680502108258795
-0.008033974262257524   -0.04368667146999664   -0.001391232761652468
-0.00825309754801649   -0.04692672678363855   -0.0017073832656224858
-0.006453973292880115   -0.04711055159174914   -0.0014643877791506838
-0.008001534033444035   -0.04363434782384133   -0.0012988393680661984
-0.008027435032387748   -0.046868125322822314   -0.0015374722231368252
-0.0063576686743183   -0.04708781489147381   -0.0013521354655639632
-0.008001534033444035   -0.04363434782384133   -0.0012988393680661984
-0.010320037882949096   -0.04341856352551674   -0.0013680502108258795
-0.008027435032387748   -0.046868125322822314   -0.0015374722231368252
-0.010175266588117205   -0.0433937834641007   -0.0012159540768959377
-0.0063576686743183   -0.04708781489147381   -0.0013521354655639632
-0.007825407433605013   -0.04684709463642736   -0.0013577757589142566
-0.010175266588117205   -0.0433937834641007   -0.0012159540768959377
-0.008027435032387748   -0.046868125322822314   -0.0015374722231368252
-0.0063576686743183   -0.04708781489147381   -0.0013521354655639632
-0.010175266588117205   -0.0433937834641007   -0.0012159540768959377
-0.007946491742681423   -0.043607218455914046   -0.0012019519738427353
-0.008001534033444035   -0.04363434782384133   -0.0012988393680661984
-0.0063576686743183   -0.04708781489147381   -0.0013521354655639632
-0.010175266588117205   -0.0433937834641007   -0.0012159540768959377
-0.008001534033444035   -0.04363434782384133   -0.0012988393680661984
-0.008027435032387748   -0.046868125322822314   -0.0015374722231368252
-0.0063576686743183   -0.04708781489147381   -0.0013521354655639632
-0.007946491742681423   -0.043607218455914046   -0.0012019519738427353
-0.007825407433605013   -0.04684709463642736   -0.0013577757589142566
-0.0062737501592462054   -0.04709628801067128   -0.0012321201832471635
-0.007946491742681423   -0.043607218455914046   -0.0012019519738427353
-0.010175266588117205   -0.0433937834641007   -0.0012159540768959377
-0.007825407433605013   -0.04684709463642736   -0.0013577757589142566
-0.009980288029543143   -0.043409695129432234   -0.0010574036962728098
-0.0062737501592462054   -0.04709628801067128   -0.0012321201832471635
-0.007563601230776226   -0.046874565354643884   -0.0011699916570066602
-0.009980288029543143   -0.043409695129432234   -0.0010574036962728098
-0.007825407433605013   -0.04684709463642736   -0.0013577757589142566
-0.0062737501592462054   -0.04709628801067128   -0.0012321201832471635
-0.009980288029543143   -0.043409695129432234   -0.0010574036962728098
-0.007901881743217945   -0.043606737786704076   -0.001099161058156605
-0.007946491742681423   -0.043607218455914046   -0.0012019519738427353
-0.0062737501592462054   -0.04709628801067128   -0.0012321201832471635
-0.009980288029543143   -0.043409695129432234   -0.0010574036962728098
-0.007946491742681423   -0.043607218455914046   -0.0012019519738427353
-0.007825407433605013   -0.04684709463642736   -0.0013577757589142566
0.00022343407153822362   -0.04377456893057172   -0.000755596238331517
0.0015206170960260005   -0.03916567104871694   -0.0005756121411421043
-0.0018832955461531775   -0.04387966136363058   -0.000952662237553344
0.0003608106858600868   -0.043674461950106526   -0.0008675669534169504
0.0015206170960260005   -0.03916567104871694   -0.0005756121411421043
-0.0012729454113831406   -0.0392353985390429   -0.0007637533308996933
-0.0018832955461531775   -0.04387966136363058   -0.000952662237553344
-0.0012652571413536728   -0.0391524795225681   -0.0007979215685924055
0.0003608106858600868   -0.043674461950106526   -0.0008675669534169504
-0.0018470233765746863   -0.04379630028611908   -0.001001779311621422
-0.0012652571413536728   -0.0391524795225681   -0.0007979215685924055
-0.0018832955461531775   -0.04387966136363058   -0.000952662237553344
0.0003608106858600868   -0.043674461950106526   -0.0008675669534169504
-0.0012652571413536728   -0.0391524795225681   -0.0007979215685924055
0.0016026645359972628   -0.03906794887392782   -0.0006586867588358994
0.0015206170960260005   -0.03916567104871694   -0.0005756121411421043
0.0003608106858600868   -0.043674461950106526   -0.0008675669534169504
-0.0012652571413536728   -0.0391524795225681   -0.0007979215685924055
0.0015206170960260005   -0.03916567104871694   -0.0005756121411421043
-0.0018832955461531775   -0.04387966136363058   -0.000952662237553344
0.0003608106858600868   -0.043674461950106526   -0.0008675669534169504
0.0016026645359972628   -0.03906794887392782   -0.0006586867588358994
-0.0018470233765746863   -0.04379630028611908   -0.001001779311621422
0.00046190941180945333   -0.04361701718979853   -0.0009716015220084818
0.0016026645359972628   -0.03906794887392782   -0.0006586867588358994
-0.0012652571413536728   -0.0391524795225681   -0.0007979215685924055
-0.0018470233765746863   -0.04379630028611908   -0.001001779311621422
-0.0012554549321845102   -0.039092702213544266   -0.0008268959334687074
0.00046190941180945333   -0.04361701718979853   -0.0009716015220084818
-0.0018056472383189102   -0.04374220201338649   -0.001045226652549146
-0.0012554549321845102   -0.039092702213544266   -0.0008268959334687074
-0.0018470233765746863   -0.04379630028611908   -0.001001779311621422
0.00046190941180945333   -0.04361701718979853   -0.0009716015220084818
-0.0012554549321845102   -0.039092702213544266   -0.0008268959334687074
0.0016552422784153048   -0.03900423173099785   -0.0007344187307219709
0.0016026645359972628   -0.03906794887392782   -0.0006586867588358994
0.00046190941180945333   -0.04361701718979853   -0.0009716015220084818
-0.0012554549321845102   -0.039092702213544266   -0.0008268959334687074
0.0016026645359972628   -0.03906794887392782   -0.0006586867588358994
-0.0018470233765746863   -0.04379630028611908   -0.001001779311621422
0.00046190941180945333   -0.04361701718979853   -0.0009716015220084818
0.0016552422784153048   -0.03900423173099785   -0.0007344187307219709
-0.0018056472383189102   -0.04374220201338649   -0.001045226652549146
0.0005703353927278191   -0.04358930624355731   -0.0010676643775335585
0.0016552422784153048   -0.03900423173099785   -0.0007344187307219709
-0.0012554549321845102   -0.039092702213544266   -0.0008268959334687074
-0.0018056472383189102   -0.04374220201338649   -0.001045226652549146
-0.0012598770610579733   -0.039054135033111496   -0.000851054800309774
0.0005703353927278191   -0.04358930624355731   -0.0010676643775335585
-0.001780901406268132   -0.043715753620582096   -0.0010835645463003036
-0.0012598770610579733   -0.039054135033111496   -0.000851054800309774
-0.0018056472383189102   -0.04374220201338649   -0.001045226652549146
0.0005703353927278191   -0.04358930624355731   -0.0010676643775335585
-0.0012598770610579733   -0.039054135033111496   -0.000851054800309774
0.001709410971153068   -0.03896205127505933   -0.0008029646970569227
0.0016552422784153048   -0.03900423173099785   -0.0007344187307219709
0.0005703353927278191   -0.04358930624355731   -0.0010676643775335585
-0.0012598770610579733   -0.039054135033111496   -0.000851054800309774
0.0016552422784153048   -0.03900423173099785   -0.0007344187307219709
-0.0018056472383189102   -0.04374220201338649   -0.001045226652549146
-0.0018832955461531775   -0.04387966136363058   -0.000952662237553344
-0.0012729454113831406   -0.0392353985390429   -0.0007637533308996933
-0.003922731941945097   -0.04389979787509817   -0.0011148271208550988
-0.0018470233765746863   -0.04379630028611908   -0.001001779311621422
-0.0012729454113831406   -0.0392353985390429   -0.0007637533308996933
-0.003962293839999276   -0.03923589990453646   -0.0009186538892553718
-0.003922731941945097   -0.04389979787509817   -0.0011148271208550988
-0.003962569165257958   -0.039165831165857264   -0.0009154214226098664
-0.0018470233765746863   -0.04379630028611908   -0.001001779311621422
-0.0038961208459015496   -0.043828288499613254   -0.0011160303548669334
-0.003962569165257958   -0.039165831165857264   -0.0009154214226098664
-0.003922731941945097   -0.04389979787509817   -0.0011148271208550988
-0.0018470233765746863   -0.04379630028611908   -0.001001779311621422
-0.003962569165257958   -0.039165831165857264   -0.0009154214226098664
-0.0012652571413536728   -0.0391524795225681   -0.0007979215685924055
-0.0012729454113831406   -0.0392353985390429   -0.0007637533308996933
-0.0018470233765746863   -0.04379630028611908   -0.001001779311621422
-0.003962569165257958   -0.039165831165857264   -0.0009154214226098664
-0.0012729454113831406   -0.0392353985390429   -0.0007637533308996933
-0.003922731941945097   -0.04389979787509817   -0.0011148271208550988
-0.0018470233765746863   -0.04379630028611908   -0.001001779311621422
-0.0012652571413536728   -0.0391524795225681   -0.0007979215685924055
-0.0038961208459015496   -0.043828288499613254   -0.0011160303548669334
-0.0018056472383189102   -0.04374220201338649   -0.001045226652549146
-0.0012652571413536728   -0.0391524795225681   -0.0007979215685924055
-0.003962569165257958   -0.039165831165857264   -0.0009154214226098664
-0.0038961208459015496   -0.043828288499613254   -0.0011160303548669334
-0.0039626595850245985   -0.03911615857542072   -0.0009070122225041138
-0.0018056472383189102   -0.04374220201338649   -0.001045226652549146
-0.003868747258660353   -0.04378296562029508   -0.0011117986003408818
-0.0039626595850245985   -0.03911615857542072   -0.0009070122225041138
-0.0038961208459015496   -0.043828288499613254   -0.0011160303548669334
-0.0018056472383189102   -0.04374220201338649   -0.001045226652549146
-0.0039626595850245985   -0.03911615857542072   -0.0009070122225041138
-0.0012554549321845102   -0.039092702213544266   -0.0008268959334687074
-0.0012652571413536728   -0.0391524795225681   -0.0007979215685924055
-0.0018056472383189102   -0.04374220201338649   -0.001045226652549146
-0.0039626595850245985   -0.03911615857542072   -0.0009070122225041138
-0.0012652571413536728   -0.0391524795225681   -0.0007979215685924055
-0.0038961208459015496   -0.043828288499613254   -0.0011160303548669334
-0.0018056472383189102   -0.04374220201338649   -0.001045226652549146
-0.0012554549321845102   -0.039092702213544266   -0.0008268959334687074
-0.003868747258660353   -0.04378296562029508   -0.0011117986003408818
-0.001780901406268132   -0.043715753620582096   -0.0010835645463003036
-0.0012554549321845102   -0.039092702213544266   -0.0008268959334687074
-0.0039626595850245985   -0.03911615857542072   -0.0009070122225041138
-0.003868747258660353   -0.04378296562029508   -0.0011117986003408818
-0.003966337444488406   -0.039086919478816526   -0.000893698866725945
-0.001780901406268132   -0.043715753620582096   -0.0010835645463003036
-0.003844808718552401   -0.04376340529666392   -0.001102498142907756
-0.003966337444488406   -0.039086919478816526   -0.000893698866725945
-0.003868747258660353   -0.04378296562029508   -0.0011117986003408818
-0.001780901406268132   -0.043715753620582096   -0.0010835645463003036
-0.003966337444488406   -0.039086919478816526   -0.000893698866725945
-0.0012598770610579733   -0.039054135033111496   -0.000851054800309774
-0.0012554549321845102   -0.039092702213544266   -0.0008268959334687074
-0.001780901406268132   -0.043715753620582096   -0.0010835645463003036
-0.003966337444488406   -0.039086919478816526   -0.000893698866725945
-0.0012554549321845102   -0.039092702213544266   -0.0008268959334687074
-0.003868747258660353   -0.04378296562029508   -0.0011117986003408818
-0.003922731941945097   -0.04389979787509817   -0.0011148271208550988
-0.003962293839999276   -0.03923589990453646   -0.0009186538892553718
-0.005930404840350538   -0.043834712669047246   -0.0012611869330611334
-0.0038961208459015496   -0.043828288499613254   -0.0011160303548669334
-0.003962293839999276   -0.03923589990453646   -0.0009186538892553718
-0.006606237874917612   -0.03916885279972505   -0.001054259148642524
-0.005930404840350538   -0.043834712669047246   -0.0012611869330611334
-0.006608513147107263   -0.03911004798376444   -0.0010140807624499663
-0.0038961208459015496   -0.043828288499613254   -0.0011160303548669334
-0.005905635245322768   -0.04377303233210096   -0.001215628070120644
-0.006608513147107263   -0.03911004798376444   -0.0010140807624499663
-0.005930404840350538   -0.043834712669047246   -0.0012611869330611334
-0.0038961208459015496   -0.043828288499613254   -0.0011160303548669334
-0.006608513147107263   -0.03911004798376444   -0.0010140807624499663
-0.003962569165257958   -0.039165831165857264   -0.0009154214226098664
-0.003962293839999276   -0.03923589990453646   -0.0009186538892553718
-0.0038961208459015496   -0.043828288499613254   -0.0011160303548669334
-0.006608513147107263   -0.03911004798376444   -0.0010140807624499663
-0.003962293839999276   -0.03923589990453646   -0.0009186538892553718
-0.005930404840350538   -0.043834712669047246   -0.0012611869330611334
-0.0038961208459015496   -0.043828288499613254   -0.0011160303548669334
-0.003962569165257958   -0.039165831165857264   -0.0009154214226098664
-0.005905635245322768   -0.04377303233210096   -0.001215628070120644
-0.003868747258660353   -0.04378296562029508   -0.0011117986003408818
-0.003962569165257958   -0.039165831165857264   -0.0009154214226098664
-0.006608513147107263   -0.03911004798376444   -0.0010140807624499663
-0.005905635245322768   -0.04377303233210096   -0.001215628070120644
-0.006606289787666374   -0.039071459264184996   -0.0009688282386725986
-0.003868747258660353   -0.04378296562029508   -0.0011117986003408818
-0.00587569911300291   -0.04373725194587099   -0.0011647545866220945
-0.006606289787666374   -0.039071459264184996   -0.0009688282386725986
-0.005905635245322768   -0.04377303233210096   -0.001215628070120644
-0.003868747258660353   -0.04378296562029508   -0.0011117986003408818
-0.006606289787666374   -0.039071459264184996   -0.0009688282386725986
-0.0039626595850245985   -0.03911615857542072   -0.0009070122225041138
-0.003962569165257958   -0.039165831165857264   -0.0009154214226098664
-0.003868747258660353   -0.04378296562029508   -0.0011117986003408818
-0.006606289787666374   -0.039071459264184996   -0.0009688282386725986
-0.003962569165257958   -0.039165831165857264   -0.0009154214226098664
-0.005905635245322768   -0.04377303233210096   -0.001215628070120644
-0.003868747258660353   -0.04378296562029508   -0.0011117986003408818
-0.0039626595850245985   -0.03911615857542072   -0.0009070122225041138
-0.00587569911300291   -0.04373725194587099   -0.0011647545866220945
-0.003844808718552401   -0.04376340529666392   -0.001102498142907756
-0.0039626595850245985   -0.03911615857542072   -0.0009070122225041138
-0.006606289787666374   -0.039071459264184996   -0.0009688282386725986
-0.00587569911300291   -0.04373725194587099   -0.0011647545866220945
-0.006604887070670611   -0.039052735719510734   -0.000918648497899632
-0.003844808718552401   -0.04376340529666392   -0.001102498142907756
-0.00584660146934312   -0.04372618350265589   -0.0011087295487267293
-0.006604887070670611   -0.039052735719510734   -0.000918648497899632
-0.00587569911300291   -0.04373725194587099   -0.0011647545866220945
-0.003844808718552401   -0.04376340529666392   -0.001102498142907756
-0.006604887070670611   -0.039052735719510734   -0.000918648497899632
-0.003966337444488406   -0.039086919478816526   -0.000893698866725945
-0.0039626595850245985   -0.03911615857542072   -0.0009070122225041138
-0.003844808718552401   -0.04376340529666392   -0.001102498142907756
-0.006604887070670611   -0.039052735719510734   -0.000918648497899632
-0.0039626595850245985   -0.03911615857542072   -0.0009070122225041138
-0.00587569911300291   -0.04373725194587099   -0.0011647545866220945
-0.005930404840350538   -0.043834712669047246   -0.0012611869330611334
-0.006606237874917612   -0.03916885279972505   -0.001054259148642524
-0.008033974262257524   -0.04368667146999664   -0.001391232761652468
-0.005905635245322768   -0.04377303233210096   -0.001215628070120644
-0.006606237874917612   -0.03916885279972505   -0.001054259148642524
-0.009332412852381627   -0.03903676276052818   -0.001170863186472255
-0.008033974262257524   -0.04368667146999664   -0.001391232761652468
-0.009329085062996732   -0.038988721800205274   -0.0010932953477242996
-0.005905635245322768   -0.04377303233210096   -0.001215628070120644
-0.008001534033444035   -0.04363434782384133   -0.0012988393680661984
-0.009329085062996732   -0.038988721800205274   -0.0010932953477242996
-0.008033974262257524   -0.04368667146999664   -0.001391232761652468
-0.005905635245322768   -0.04377303233210096   -0.001215628070120644
-0.009329085062996732   -0.038988721800205274   -0.0010932953477242996
-0.006608513147107263   -0.03911004798376444   -0.0010140807624499663
-0.006606237874917612   -0.03916885279972505   -0.001054259148642524
-0.005905635245322768   -0.04377303233210096   -0.001215628070120644
-0.009329085062996732   -0.038988721800205274   -0.0010932953477242996
-0.006606237874917612   -0.03916885279972505   -0.001054259148642524
-0.008033974262257524   -0.04368667146999664   -0.001391232761652468
-0.005905635245322768   -0.04377303233210096   -0.001215628070120644
-0.006608513147107263   -0.03911004798376444   -0.0010140807624499663
-0.008001534033444035   -0.04363434782384133   -0.0012988393680661984
-0.00587569911300291   -0.04373725194587099   -0.0011647545866220945
-0.006608513147107263   -0.03911004798376444   -0.0010140807624499663
-0.009329085062996732   -0.038988721800205274   -0.0010932953477242996
-0.008001534033444035   -0.04363434782384133   -0.0012988393680661984
-0.009306072610274737   -0.03896018427928221   -0.0010114196615336856
-0.00587569911300291   -0.04373725194587099   -0.0011647545866220945
-0.007946491742681423   -0.043607218455914046   -0.0012019519738427353
-0.009306072610274737   -0.03896018427928221   -0.0010114196615336856
-0.008001534033444035   -0.04363434782384133   -0.0012988393680661984
-0.00587569911300291   -0.04373725194587099   -0.0011647545866220945
-0.009306072610274737   -0.03896018427928221   -0.0010114196615336856
-0.006606289787666374   -0.039071459264184996   -0.0009688282386725986
-0.006608513147107263   -0.03911004798376444   -0.0010140807624499663
-0.00587569911300291   -0.04373725194587099   -0.0011647545866220945
-0.009306072610274737   -0.03896018427928221   -0.0010114196615336856
-0.006608513147107263   -0.03911004798376444   -0.0010140807624499663
-0.008001534033444035   -0.04363434782384133   -0.0012988393680661984
-0.00587569911300291   -0.04373725194587099   -0.0011647545866220945
-0.006606289787666374   -0.039071459264184996   -0.0009688282386725986
-0.007946491742681423   -0.043607218455914046   -0.0012019519738427353
-0.00584660146934312   -0.04372618350265589   -0.0011087295487267293
-0.006606289787666374   -0.039071459264184996   -0.0009688282386725986
-0.009306072610274737   -0.03896018427928221   -0.0010114196615336856
-0.007946491742681423   -0.043607218455914046   -0.0012019519738427353
-0.009290727457413541   -0.03895318560279921   -0.000924218561979415
-0.00584660146934312   -0.04372618350265589   -0.0011087295487267293
-0.007901881743217945   -0.043606737786704076   -0.001099161058156605
-0.009290727457413541   -0.03895318560279921   -0.000924218561979415
-0.007946491742681423   -0.043607218455914046   -0.0012019519738427353
-0.00584660146934312   -0.04372618350265589   -0.0011087295487267293
-0.009290727457413541   -0.03895318560279921   -0.000924218561979415
-0.006604887070670611   -0.039052735719510734   -0.000918648497899632
-0.006606289787666374   -0.039071459264184996   -0.0009688282386725986
-0.00584660146934312   -0.04372618350265589   -0.0011087295487267293
-0.009290727457413541   -0.03895318560279921   -0.000924218561979415
-0.006606289787666374   -0.039071459264184996   -0.0009688282386725986
-0.007946491742681423   -0.043607218455914046   -0.0012019519738427353
-0.008033974262257524   -0.04368667146999664   -0.001391232761652468
-0.009332412852381627   -0.03903676276052818   -0.001170863186472255
-0.01048702155475706   -0.04347324245781119   -0.0015127250947516045
-0.008001534033444035   -0.04363434782384133   -0.0012988393680661984
-0.009332412852381627   -0.03903676276052818   -0.001170863186472255
-0.012377576288438184   -0.03885443467383853   -0.0012761412774037174
-0.01048702155475706   -0.04347324245781119   -0.0015127250947516045
-0.01226295635701083   -0.038807221246874704   -0.0011573992659499566
-0.008001534033444035   -0.04363434782384133   -0.0012988393680661984
-0.010320037882949096   -0.04341856352551674   -0.0013680502108258795
-0.01226295635701083   -0.038807221246874704   -0.0011573992659499566
-0.01048702155475706   -0.04347324245781119   -0.0015127250947516045
-0.008001534033444035   -0.04363434782384133   -0.0012988393680661984
-0.01226295635701083   -0.038807221246874704   -0.0011573992659499566
-0.009329085062996732   -0.038988721800205274   -0.0010932953477242996
-0.009332412852381627   -0.03903676276052818   -0.001170863186472255
-0.008001534033444035   -0.04363434782384133   -0.0012988393680661984
-0.01226295635701083   -0.038807221246874704   -0.0011573992659499566
-0.009332412852381627   -0.03903676276052818   -0.001170863186472255
-0.01048702155475706   -0.04347324245781119   -0.0015127250947516045
-0.008001534033444035   -0.04363434782384133   -0.0012988393680661984
-0.009329085062996732   -0.038988721800205274   -0.0010932953477242996
-0.010320037882949096   -0.04341856352551674   -0.0013680502108258795
-0.007946491742681423   -0.043607218455914046   -0.0012019519738427353
-0.009329085062996732   -0.038988721800205274   -0.0010932953477242996
-0.01226295635701083   -0.038807221246874704   -0.0011573992659499566
-0.010320037882949096   -0.04341856352551674   -0.0013680502108258795
-0.012165028734733876   -0.03878235439050824   -0.0010314074364765138
-0.007946491742681423   -0.043607218455914046   -0.0012019519738427353
-0.010175266588117205   -0.0433937834641007   -0.0012159540768959377
-0.012165028734733876   -0.03878235439050824   -0.0010314074364765138
-0.010320037882949096   -0.04341856352551674   -0.0013680502108258795
-0.007946491742681423   -0.043607218455914046   -0.0012019519738427353
-0.012165028734733876   -0.03878235439050824   -0.0010314074364765138
-0.009306072610274737   -0.03896018427928221   -0.0010114196615336856
-0.009329085062996732   -0.038988721800205274   -0.0010932953477242996
-0.007946491742681423   -0.043607218455914046   -0.0012019519738427353
-0.012165028734733876   -0.03878235439050824   -0.0010314074364765138
-0.009329085062996732   -0.038988721800205274   -0.0010932953477242996
-0.010320037882949096   -0.04341856352551674   -0.0013680502108258795
-0.007946491742681423   -0.043607218455914046   -0.0012019519738427353
-0.009306072610274737   -0.03896018427928221   -0.0010114196615336856
-0.010175266588117205   -0.0433937834641007   -0.0012159540768959377
-0.007901881743217945   -0.043606737786704076   -0.001099161058156605
-0.009306072610274737   -0.03896018427928221   -0.0010114196615336856
-0.012165028734733876   -0.03878235439050824   -0.0010314074364765138
-0.010175266588117205   -0.0433937834641007   -0.0012159540768959377
-0.012023837263971979   -0.03879161486628481   -0.0008991638616406809
-0.007901881743217945   -0.043606737786704076   -0.001099161058156605
-0.009980288029543143   -0.043409695129432234   -0.0010574036962728098
-0.012023837263971979   -0.03879161486628481   -0.0008991638616406809
-0.010175266588117205   -0.0433937834641007   -0.0012159540768959377
-0.007901881743217945   -0.043606737786704076   -0.001099161058156605
-0.012023837263971979   -0.03879161486628481   -0.0008991638616406809
-0.009290727457413541   -0.03895318560279921   -0.000924218561979415
-0.009306072610274737   -0.03896018427928221   -0.0010114196615336856
-0.007901881743217945   -0.043606737786704076   -0.001099161058156605
-0.012023837263971979   -0.03879161486628481   -0.0008991638616406809
-0.009306072610274737   -0.03896018427928221   -0.0010114196615336856
-0.010175266588117205   -0.0433937834641007   -0.0012159540768959377
0.0015206170960260005   -0.03916567104871694   -0.0005756121411421043
0.002417847258087721   -0.033613743288939006   -0.000383602801647725
-0.0012729454113831406   -0.0392353985390429   -0.0007637533308996933
0.0016026645359972628   -0.03906794887392782   -0.0006586867588358994
0.002417847258087721   -0.033613743288939006   -0.000383602801647725
-0.0009004293559209008   -0.03364832117636093   -0.0005605859046989192
-0.0012729454113831406   -0.0392353985390429   -0.0007637533308996933
-0.0009157749078381726   -0.033567441427448615   -0.0005791336715279011
0.0016026645359972628   -0.03906794887392782   -0.0006586867588358994
-0.0012652571413536728   -0.0391524795225681   -0.0007979215685924055
-0.0009157749078381726   -0.033567441427448615   -0.0005791336715279011
-0.0012729454113831406   -0.0392353985390429   -0.0007637533308996933
0.0016026645359972628   -0.03906794887392782   -0.0006586867588358994
-0.0009157749078381726   -0.033567441427448615   -0.0005791336715279011
0.0024508079715987886   -0.03351959038799338   -0.0004382855136006693
0.002417847258087721   -0.033613743288939006   -0.000383602801647725
0.0016026645359972628   -0.03906794887392782   -0.0006586867588358994
-0.0009157749078381726   -0.033567441427448615   -0.0005791336715279011
0.002417847258087721   -0.033613743288939006   -0.000383602801647725
-0.0012729454113831406   -0.0392353985390429   -0.0007637533308996933
0.0016026645359972628   -0.03906794887392782   -0.0006586867588358994
0.0024508079715987886   -0.03351959038799338   -0.0004382855136006693
-0.0012652571413536728   -0.0391524795225681   -0.0007979215685924055
0.0016552422784153048   -0.03900423173099785   -0.0007344187307219709
0.0024508079715987886   -0.03351959038799338   -0.0004382855136006693
-0.0009157749078381726   -0.033567441427448615   -0.0005791336715279011
-0.0012652571413536728   -0.0391524795225681   -0.0007979215685924055
-0.0009318705375621282   -0.03350376251124204   -0.0005930318777348043
0.0016552422784153048   -0.03900423173099785   -0.0007344187307219709
-0.0012554549321845102   -0.039092702213544266   -0.0008268959334687074
-0.0009318705375621282   -0.03350376251124204   -0.0005930318777348043
-0.0012652571413536728   -0.0391524795225681   -0.0007979215685924055
0.0016552422784153048   -0.03900423173099785   -0.0007344187307219709
-0.0009318705375621282   -0.03350376251124204   -0.0005930318777348043
0.0024612199101763633   -0.033451359267278116   -0.0004861055594185502
0.0024508079715987886   -0.03351959038799338   -0.0004382855136006693
0.0016552422784153048   -0.03900423173099785   -0.0007344187307219709
-0.0009318705375621282   -0.03350376251124204   -0.0005930318777348043
0.0024508079715987886   -0.03351959038799338   -0.0004382855136006693
-0.0012652571413536728   -0.0391524795225681   -0.0007979215685924055
0.0016552422784153048   -0.03900423173099785   -0.0007344187307219709
0.0024612199101763633   -0.033451359267278116   -0.0004861055594185502
-0.0012554549321845102   -0.039092702213544266   -0.0008268959334687074
0.001709410971153068   -0.03896205127505933   -0.0008029646970569227
0.0024612199101763633   -0.033451359267278116   -0.0004861055594185502
-0.0009318705375621282   -0.03350376251124204   -0.0005930318777348043
-0.0012554549321845102   -0.039092702213544266   -0.0008268959334687074
-0.0009595190287077337   -0.033455262117485375   -0.0006024370189396875
0.001709410971153068   -0.03896205127505933   -0.0008029646970569227
-0.0012598770610579733   -0.039054135033111496   -0.000851054800309774
-0.0009595190287077337   -0.033455262117485375   -0.0006024370189396875
-0.0012554549321845102   -0.039092702213544266   -0.0008268959334687074
0.001709410971153068   -0.03896205127505933   -0.0008029646970569227
-0.0009595190287077337   -0.033455262117485375   -0.0006024370189396875
0.0024675157349273234   -0.03339689605369066   -0.0005273893294001689
0.0024612199101763633   -0.033451359267278116   -0.0004861055594185502
0.001709410971153068   -0.03896205127505933   -0.0008029646970569227
-0.0009595190287077337   -0.033455262117485375   -0.0006024370189396875
0.0024612199101763633   -0.033451359267278116   -0.0004861055594185502
-0.0012554549321845102   -0.039092702213544266   -0.0008268959334687074
-0.0012729454113831406   -0.0392353985390429   -0.0007637533308996933
-0.0009004293559209008   -0.03364832117636093   -0.0005605859046989192
-0.003962293839999276   -0.03923589990453646   -0.0009186538892553718
-0.0012652571413536728   -0.0391524795225681   -0.0007979215685924055
-0.0009004293559209008   -0.03364832117636093   -0.0005605859046989192
-0.004081907979599823   -0.033630930959677834   -0.0007060103352151099
-0.003962293839999276   -0.03923589990453646   -0.0009186538892553718
-0.004103360190515786   -0.03356345820808956   -0.0006974433855422461
-0.0012652571413536728   -0.0391524795225681   -0.0007979215685924055
-0.003962569165257958   -0.039165831165857264   -0.0009154214226098664
-0.004103360190515786   -0.03356345820808956   -0.0006974433855422461
-0.003962293839999276   -0.03923589990453646   -0.0009186538892553718
-0.0012652571413536728   -0.0391524795225681   -0.0007979215685924055
-0.004103360190515786   -0.03356345820808956   -0.0006974433855422461
-0.0009157749078381726   -0.033567441427448615   -0.0005791336715279011
-0.0009004293559209008   -0.03364832117636093   -0.0005605859046989192
-0.0012652571413536728   -0.0391524795225681   -0.0007979215685924055
-0.004103360190515786   -0.03356345820808956   -0.0006974433855422461
-0.0009004293559209008   -0.03364832117636093   -0.0005605859046989192
-0.003962293839999276   -0.03923589990453646   -0.0009186538892553718
-0.0012652571413536728   -0.0391524795225681   -0.0007979215685924055
-0.0009157749078381726   -0.033567441427448615   -0.0005791336715279011
-0.003962569165257958   -0.039165831165857264   -0.0009154214226098664
-0.0012554549321845102   -0.039092702213544266   -0.0008268959334687074
-0.0009157749078381726   -0.033567441427448615   -0.0005791336715279011
-0.004103360190515786   -0.03356345820808956   -0.0006974433855422461
-0.003962569165257958   -0.039165831165857264   -0.0009154214226098664
-0.004125108591406448   -0.03351072695748727   -0.0006840868683914498
-0.0012554549321845102   -0.039092702213544266   -0.0008268959334687074
-0.0039626595850245985   -0.03911615857542072   -0.0009070122225041138
-0.004125108591406448   -0.03351072695748727   -0.0006840868683914498
-0.003962569165257958   -0.039165831165857264   -0.0009154214226098664
-0.0012554549321845102   -0.039092702213544266   -0.0008268959334687074
-0.004125108591406448   -0.03351072695748727   -0.0006840868683914498
-0.0009318705375621282   -0.03350376251124204   -0.0005930318777348043
-0.0009157749078381726   -0.033567441427448615   -0.0005791336715279011
-0.0012554549321845102   -0.039092702213544266   -0.0008268959334687074
-0.004125108591406448   -0.03351072695748727   -0.0006840868683914498
-0.0009157749078381726   -0.033567441427448615   -0.0005791336715279011
-0.003962569165257958   -0.039165831165857264   -0.0009154214226098664
-0.0012554549321845102   -0.039092702213544266   -0.0008268959334687074
-0.0009318705375621282   -0.03350376251124204   -0.0005930318777348043
-0.0039626595850245985   -0.03911615857542072   -0.0009070122225041138
-0.0012598770610579733   -0.039054135033111496   -0.000851054800309774
-0.0009318705375621282   -0.03350376251124204   -0.0005930318777348043
-0.004125108591406448   -0.03351072695748727   -0.0006840868683914498
-0.0039626595850245985   -0.03911615857542072   -0.0009070122225041138
-0.00415026715039999   -0.03347298601085473   -0.0006661754316649638
-0.0012598770610579733   -0.039054135033111496   -0.000851054800309774
-0.003966337444488406   -0.039086919478816526   -0.000893698866725945
-0.00415026715039999   -0.03347298601085473   -0.0006661754316649638
-0.0039626595850245985   -0.03911615857542072   -0.0009070122225041138
-0.0012598770610579733   -0.039054135033111496   -0.000851054800309774
-0.00415026715039999   -0.03347298601085473   -0.0006661754316649638
-0.0009595190287077337   -0.033455262117485375   -0.0006024370189396875
-0.0009318705375621282   -0.03350376251124204   -0.0005930318777348043
-0.0012598770610579733   -0.039054135033111496   -0.000851054800309774
-0.00415026715039999   -0.03347298601085473   -0.0006661754316649638
-0.0009318705375621282   -0.03350376251124204   -0.0005930318777348043
-0.0039626595850245985   -0.03911615857542072   -0.0009070122225041138
-0.003962293839999276   -0.03923589990453646   -0.0009186538892553718
-0.004081907979599823   -0.033630930959677834   -0.0007060103352151099
-0.006606237874917612   -0.03916885279972505   -0.001054259148642524
-0.003962569165257958   -0.039165831165857264   -0.0009154214226098664
-0.004081907979599823   -0.033630930959677834   -0.0007060103352151099
-0.007209779215718085   -0.03356487298858106   -0.0008302973333384179
-0.006606237874917612   -0.03916885279972505   -0.001054259148642524
-0.007232960617430476   -0.0335095576715758   -0.0007947542628701306
-0.003962569165257958   -0.039165831165857264   -0.0009154214226098664
-0.006608513147107263   -0.03911004798376444   -0.0010140807624499663
-0.007232960617430476   -0.0335095576715758   -0.0007947542628701306
-0.006606237874917612   -0.03916885279972505   -0.001054259148642524
-0.003962569165257958   -0.039165831165857264   -0.0009154214226098664
-0.007232960617430476   -0.0335095576715758   -0.0007947542628701306
-0.004103360190515786   -0.03356345820808956   -0.0006974433855422461
-0.004081907979599823   -0.033630930959677834   -0.0007060103352151099
-0.003962569165257958   -0.039165831165857264   -0.0009154214226098664
-0.007232960617430476   -0.0335095576715758   -0.0007947542628701306
-0.004081907979599823   -0.033630930959677834   -0.0007060103352151099
-0.006606237874917612   -0.03916885279972505   -0.001054259148642524
-0.003962569165257958   -0.039165831165857264   -0.0009154214226098664
-0.004103360190515786   -0.03356345820808956   -0.0006974433855422461
-0.006608513147107263   -0.03911004798376444   -0.0010140807624499663
-0.0039626595850245985   -0.03911615857542072   -0.0009070122225041138
-0.004103360190515786   -0.03356345820808956   -0.0006974433855422461
-0.007232960617430476   -0.0335095576715758   -0.0007947542628701306
-0.006608513147107263   -0.03911004798376444   -0.0010140807624499663
-0.007252140828918669   -0.03346884359370842   -0.000754508109797829
-0.0039626595850245985   -0.03911615857542072   -0.0009070122225041138
-0.006606289787666374   -0.039071459264184996   -0.0009688282386725986
-0.007252140828918669   -0.03346884359370842   -0.000754508109797829
-0.006608513147107263   -0.03911004798376444   -0.0010140807624499663
-0.0039626595850245985   -0.03911615857542072   -0.0009070122225041138
-0.007252140828918669   -0.03346884359370842   -0.000754508109797829
-0.004125108591406448   -0.03351072695748727   -0.0006840868683914498
-0.004103360190515786   -0.03356345820808956   -0.0006974433855422461
-0.0039626595850245985   -0.03911615857542072   -0.0009070122225041138
-0.007252140828918669   -0.03346884359370842   -0.000754508109797829
-0.004103360190515786   -0.03356345820808956   -0.0006974433855422461
-0.006608513147107263   -0.03911004798376444   -0.0010140807624499663
-0.0039626595850245985   -0.03911615857542072   -0.0009070122225041138
-0.004125108591406448   -0.03351072695748727   -0.0006840868683914498
-0.006606289787666374   -0.039071459264184996   -0.0009688282386725986
-0.003966337444488406   -0.039086919478816526   -0.000893698866725945
-0.004125108591406448   -0.03351072695748727   -0.0006840868683914498
-0.007252140828918669   -0.03346884359370842   -0.000754508109797829
-0.006606289787666374   -0.039071459264184996   -0.0009688282386725986
-0.007271887157736238   -0.03344266829762015   -0.0007096961573972659
-0.003966337444488406   -0.039086919478816526   -0.000893698866725945
-0.006604887070670611   -0.039052735719510734   -0.000918648497899632
-0.007271887157736238   -0.03344266829762015   -0.0007096961573972659
-0.006606289787666374   -0.039071459264184996   -0.0009688282386725986
-0.003966337444488406   -0.039086919478816526   -0.000893698866725945
-0.007271887157736238   -0.03344266829762015   -0.0007096961573972659
-0.00415026715039999   -0.03347298601085473   -0.0006661754316649638
-0.004125108591406448   -0.03351072695748727   -0.0006840868683914498
-0.003966337444488406   -0.039086919478816526   -0.000893698866725945
-0.007271887157736238   -0.03344266829762015   -0.0007096961573972659
-0.004125108591406448   -0.03351072695748727   -0.0006840868683914498
-0.006606289787666374   -0.039071459264184996   -0.0009688282386725986
-0.006606237874917612   -0.03916885279972505   -0.001054259148642524
-0.007209779215718085   -0.03356487298858106   -0.0008302973333384179
-0.009332412852381627   -0.03903676276052818   -0.001170863186472255
-0.006608513147107263   -0.03911004798376444   -0.0010140807624499663
-0.007209779215718085   -0.03356487298858106   -0.0008302973333384179
-0.010412026595453745   -0.03345144972723925   -0.0009339519338453556
-0.009332412852381627   -0.03903676276052818   -0.001170863186472255
-0.010431140083697178   -0.03340799335025513   -0.0008710619269512833
-0.006608513147107263   -0.03911004798376444   -0.0010140807624499663
-0.009329085062996732   -0.038988721800205274   -0.0010932953477242996
-0.010431140083697178   -0.03340799335025513   -0.0008710619269512833
-0.009332412852381627   -0.03903676276052818   -0.001170863186472255
-0.006608513147107263   -0.03911004798376444   -0.0010140807624499663
-0.010431140083697178   -0.03340799335025513   -0.0008710619269512833
-0.007232960617430476   -0.0335095576715758   -0.0007947542628701306
-0.007209779215718085   -0.03356487298858106   -0.0008302973333384179
-0.006608513147107263   -0.03911004798376444   -0.0010140807624499663
-0.010431140083697178   -0.03340799335025513   -0.0008710619269512833
-0.007209779215718085   -0.03356487298858106   -0.0008302973333384179
-0.009332412852381627   -0.03903676276052818   -0.001170863186472255
-0.006608513147107263   -0.03911004798376444   -0.0010140807624499663
-0.007232960617430476   -0.0335095576715758   -0.0007947542628701306
-0.009329085062996732   -0.038988721800205274   -0.0010932953477242996
-0.006606289787666374   -0.039071459264184996   -0.0009688282386725986
-0.007232960617430476   -0.0335095576715758   -0.0007947542628701306
-0.010431140083697178   -0.03340799335025513   -0.0008710619269512833
-0.009329085062996732   -0.038988721800205274   -0.0010932953477242996
-0.010433369223554784   -0.03337827084050673   -0.0008041190189474836
-0.006606289787666374   -0.039071459264184996   -0.0009688282386725986
-0.009306072610274737   -0.03896018427928221   -0.0010114196615336856
-0.010433369223554784   -0.03337827084050673   -0.0008041190189474836
-0.009329085062996732   -0.038988721800205274   -0.0010932953477242996
-0.006606289787666374   -0.039071459264184996   -0.0009688282386725986
-0.010433369223554784   -0.03337827084050673   -0.0008041190189474836
-0.007252140828918669   -0.03346884359370842   -0.000754508109797829
-0.007232960617430476   -0.0335095576715758   -0.0007947542628701306
-0.006606289787666374   -0.039071459264184996   -0.0009688282386725986
-0.010433369223554784   -0.03337827084050673   -0.0008041190189474836
-0.007232960617430476   -0.0335095576715758   -0.0007947542628701306
-0.009329085062996732   -0.038988721800205274   -0.0010932953477242996
-0.006606289787666374   -0.039071459264184996   -0.0009688282386725986
-0.007252140828918669   -0.03346884359370842   -0.000754508109797829
-0.009306072610274737   -0.03896018427928221   -0.0010114196615336856
-0.006604887070670611   -0.039052735719510734   -0.000918648497899632
-0.007252140828918669   -0.03346884359370842   -0.000754508109797829
-0.010433369223554784   -0.03337827084050673   -0.0008041190189474836
-0.009306072610274737   -0.03896018427928221   -0.0010114196615336856
-0.01044044310107297   -0.03336440096437179   -0.0007322629557489232
-0.006604887070670611   -0.039052735719510734   -0.000918648497899632
-0.009290727457413541   -0.03895318560279921   -0.000924218561979415
-0.01044044310107297   -0.03336440096437179   -0.0007322629557489232
-0.009306072610274737   -0.03896018427928221   -0.0010114196615336856
-0.006604887070670611   -0.039052735719510734   -0.000918648497899632
-0.01044044310107297   -0.03336440096437179   -0.0007322629557489232
-0.007271887157736238   -0.03344266829762015   -0.0007096961573972659
-0.007252140828918669   -0.03346884359370842   -0.000754508109797829
-0.006604887070670611   -0.039052735719510734   -0.000918648497899632
-0.01044044310107297   -0.03336440096437179   -0.0007322629557489232
-0.007252140828918669   -0.03346884359370842   -0.000754508109797829
-0.009306072610274737   -0.03896018427928221   -0.0010114196615336856
-0.009332412852381627   -0.03903676276052818   -0.001170863186472255
-0.010412026595453745   -0.03345144972723925   -0.0009339519338453556
-0.012377576288438184   -0.03885443467383853   -0.0012761412774037174
-0.009329085062996732   -0.038988721800205274   -0.0010932953477242996
-0.010412026595453745   -0.03345144972723925   -0.0009339519338453556
-0.013904395696908371   -0.033302402546742584   -0.0010225124768586163
-0.012377576288438184   -0.03885443467383853   -0.0012761412774037174
-0.013836756129528954   -0.03326270374370097   -0.0009306230732830065
-0.009329085062996732   -0.038988721800205274   -0.0010932953477242996
-0.01226295635701083   -0.038807221246874704   -0.0011573992659499566
-0.013836756129528954   -0.03326270374370097   -0.0009306230732830065
-0.012377576288438184   -0.03885443467383853   -0.0012761412774037174
-0.009329085062996732   -0.038988721800205274   -0.0010932953477242996
-0.013836756129528954   -0.03326270374370097   -0.0009306230732830065
-0.010431140083697178   -0.03340799335025513   -0.0008710619269512833
-0.010412026595453745   -0.03345144972723925   -0.0009339519338453556
-0.009329085062996732   -0.038988721800205274   -0.0010932953477242996
-0.013836756129528954   -0.03326270374370097   -0.0009306230732830065
-0.010412026595453745   -0.03345144972723925   -0.0009339519338453556
-0.012377576288438184   -0.03885443467383853   -0.0012761412774037174
-0.009329085062996732   -0.038988721800205274   -0.0010932953477242996
-0.010431140083697178   -0.03340799335025513   -0.0008710619269512833
-0.01226295635701083   -0.038807221246874704   -0.0011573992659499566
-0.009306072610274737   -0.03896018427928221   -0.0010114196615336856
-0.010431140083697178   -0.03340799335025513   -0.0008710619269512833
-0.013836756129528954   -0.03326270374370097   -0.0009306230732830065
-0.01226295635701083   -0.038807221246874704   -0.0011573992659499566
-0.013779778952190968   -0.033237645036005875   -0.0008316521192072762
-0.009306072610274737   -0.03896018427928221   -0.0010114196615336856
-0.012165028734733876   -0.03878235439050824   -0.0010314074364765138
-0.013779778952190968   -0.033237645036005875   -0.0008316521192072762
-0.01226295635701083   -0.038807221246874704   -0.0011573992659499566
-0.009306072610274737   -0.03896018427928221   -0.0010114196615336856
-0.013779778952190968   -0.033237645036005875   -0.0008316521192072762
-0.010433369223554784   -0.03337827084050673   -0.0008041190189474836
-0.010431140083697178   -0.03340799335025513   -0.0008710619269512833
-0.009306072610274737   -0.03896018427928221   -0.0010114196615336856
-0.013779778952190968   -0.033237645036005875   -0.0008316521192072762
-0.010431140083697178   -0.03340799335025513   -0.0008710619269512833
-0.01226295635701083   -0.038807221246874704   -0.0011573992659499566
-0.009306072610274737   -0.03896018427928221   -0.0010114196615336856
-0.010433369223554784   -0.03337827084050673   -0.0008041190189474836
-0.012165028734733876   -0.03878235439050824   -0.0010314074364765138
-0.009290727457413541   -0.03895318560279921   -0.000924218561979415
-0.010433369223554784   -0.03337827084050673   -0.0008041190189474836
-0.013779778952190968   -0.033237645036005875   -0.0008316521192072762
-0.012165028734733876   -0.03878235439050824   -0.0010314074364765138
-0.01368605580837753   -0.033239480936247436   -0.0007264840534469432
-0.009290727457413541   -0.03895318560279921   -0.000924218561979415
-0.012023837263971979   -0.03879161486628481   -0.0008991638616406809
-0.01368605580837753   -0.033239480936247436   -0.0007264840534469432
-0.012165028734733876   -0.03878235439050824   -0.0010314074364765138
-0.009290727457413541   -0.03895318560279921   -0.000924218561979415
-0.01368605580837753   -0.033239480936247436   -0.0007264840534469432
-0.01044044310107297   -0.03336440096437179   -0.0007322629557489232
-0.010433369223554784   -0.03337827084050673   -0.0008041190189474836
-0.009290727457413541   -0.03895318560279921   -0.000924218561979415
-0.01368605580837753   -0.033239480936247436   -0.0007264840534469432
-0.010433369223554784   -0.03337827084050673   -0.0008041190189474836
-0.012165028734733876   -0.03878235439050824   -0.0010314074364765138
0.002417847258087721   -0.033613743288939006   -0.000383602801647725
0.002919819963294258   -0.027376200615267146   -0.00019587362365622727
-0.0009004293559209008   -0.03364832117636093   -0.0005605859046989192
0.0024508079715987886   -0.03351959038799338   -0.0004382855136006693
0.002919819963294258   -0.027376200615267146   -0.00019587362365622727
-0.0007677362730045803   -0.027375893632095184   -0.00035988669222829944
-0.0009004293559209008   -0.03364832117636093   -0.0005605859046989192
-0.0008003698772637792   -0.027297707120028238   -0.00036256895575326203
0.0024508079715987886   -0.03351959038799338   -0.0004382855136006693
-0.0009157749078381726   -0.033567441427448615   -0.0005791336715279011
-0.0008003698772637792   -0.027297707120028238   -0.00036256895575326203
-0.0009004293559209008   -0.03364832117636093   -0.0005605859046989192
0.0024508079715987886   -0.03351959038799338   -0.0004382855136006693
-0.0008003698772637792   -0.027297707120028238   -0.00036256895575326203
0.002910005628979456   -0.027286099005663336   -0.00022240046782998182
0.002919819963294258   -0.027376200615267146   -0.00019587362365622727
0.0024508079715987886   -0.03351959038799338   -0.0004382855136006693
-0.0008003698772637792   -0.027297707120028238   -0.00036256895575326203
0.002919819963294258   -0.027376200615267146   -0.00019587362365622727
-0.0009004293559209008   -0.03364832117636093   -0.0005605859046989192
0.0024508079715987886   -0.03351959038799338   -0.0004382855136006693
0.002910005628979456   -0.027286099005663336   -0.00022240046782998182
-0.0009157749078381726   -0.033567441427448615   -0.0005791336715279011
0.0024612199101763633   -0.033451359267278116   -0.0004861055594185502
0.002910005628979456   -0.027286099005663336   -0.00022240046782998182
-0.0008003698772637792   -0.027297707120028238   -0.00036256895575326203
-0.0009157749078381726   -0.033567441427448615   -0.0005791336715279011
-0.0008366381931579457   -0.027230660848498223   -0.00036111565872645046
0.0024612199101763633   -0.033451359267278116   -0.0004861055594185502
-0.0009318705375621282   -0.03350376251124204   -0.0005930318777348043
-0.0008366381931579457   -0.027230660848498223   -0.00036111565872645046
-0.0009157749078381726   -0.033567441427448615   -0.0005791336715279011
0.0024612199101763633   -0.033451359267278116   -0.0004861055594185502
-0.0008366381931579457   -0.027230660848498223   -0.00036111565872645046
0.002884171846147663   -0.027213939471622813   -0.0002422986479166918
0.002910005628979456   -0.027286099005663336   -0.00022240046782998182
0.0024612199101763633   -0.033451359267278116   -0.0004861055594185502
-0.0008366381931579457   -0.027230660848498223   -0.00036111565872645046
0.002910005628979456   -0.027286099005663336   -0.00022240046782998182
-0.0009157749078381726   -0.033567441427448615   -0.0005791336715279011
0.0024612199101763633   -0.033451359267278116   -0.0004861055594185502
0.002884171846147663   -0.027213939471622813   -0.0002422986479166918
-0.0009318705375621282   -0.03350376251124204   -0.0005930318777348043
0.0024675157349273234   -0.03339689605369066   -0.0005273893294001689
0.002884171846147663   -0.027213939471622813   -0.0002422986479166918
-0.0008366381931579457   -0.027230660848498223   -0.00036111565872645046
-0.0009318705375621282   -0.03350376251124204   -0.0005930318777348043
-0.00088177753685955   -0.027172997747326292   -0.00035536376213958905
0.0024675157349273234   -0.03339689605369066   -0.0005273893294001689
-0.0009595190287077337   -0.033455262117485375   -0.0006024370189396875
-0.00088177753685955   -0.027172997747326292   -0.00035536376213958905
-0.0009318705375621282   -0.03350376251124204   -0.0005930318777348043
0.0024675157349273234   -0.03339689605369066   -0.0005273893294001689
-0.00088177753685955   -0.027172997747326292   -0.00035536376213958905
0.0028479829700855334   -0.027147804599245692   -0.0002560312076185108
0.002884171846147663   -0.027213939471622813   -0.0002422986479166918
0.0024675157349273234   -0.03339689605369066   -0.0005273893294001689
-0.00088177753685955   -0.027172997747326292   -0.00035536376213958905
0.002884171846147663   -0.027213939471622813   -0.0002422986479166918
-0.0009318705375621282   -0.03350376251124204   -0.0005930318777348043
-0.0009004293559209008   -0.03364832117636093   -0.0005605859046989192
-0.0007677362730045803   -0.027375893632095184   -0.00035988669222829944
-0.004081907979599823   -0.033630930959677834   -0.0007060103352151099
-0.0009157749078381726   -0.033567441427448615   -0.0005791336715279011
-0.0007677362730045803   -0.027375893632095184   -0.00035988669222829944
-0.0042854029006085875   -0.027342658295051937   -0.0004948908886317196
-0.004081907979599823   -0.033630930959677834   -0.0007060103352151099
-0.004322055724304243   -0.02727790390638837   -0.00048052651199257366
-0.0009157749078381726   -0.033567441427448615   -0.0005791336715279011
-0.004103360190515786   -0.03356345820808956   -0.0006974433855422461
-0.004322055724304243   -0.02727790390638837   -0.00048052651199257366
-0.004081907979599823   -0.033630930959677834   -0.0007060103352151099
-0.0009157749078381726   -0.033567441427448615   -0.0005791336715279011
-0.004322055724304243   -0.02727790390638837   -0.00048052651199257366
-0.0008003698772637792   -0.027297707120028238   -0.00036256895575326203
-0.0007677362730045803   -0.027375893632095184   -0.00035988669222829944
-0.0009157749078381726   -0.033567441427448615   -0.0005791336715279011
-0.004322055724304243   -0.02727790390638837   -0.00048052651199257366
-0.0007677362730045803   -0.027375893632095184   -0.00035988669222829944
-0.004081907979599823   -0.033630930959677834   -0.0007060103352151099
-0.0009157749078381726   -0.033567441427448615   -0.0005791336715279011
-0.0008003698772637792   -0.027297707120028238   -0.00036256895575326203
-0.004103360190515786   -0.03356345820808956   -0.0006974433855422461
-0.0009318705375621282   -0.03350376251124204   -0.0005930318777348043
-0.0008003698772637792   -0.027297707120028238   -0.00036256895575326203
-0.004322055724304243   -0.02727790390638837   -0.00048052651199257366
-0.004103360190515786   -0.03356345820808956   -0.0006974433855422461
-0.004359454273571311   -0.027222217562734723   -0.00046185114376012055
-0.0009318705375621282   -0.03350376251124204   -0.0005930318777348043
-0.004125108591406448   -0.03351072695748727   -0.0006840868683914498
-0.004359454273571311   -0.027222217562734723   -0.00046185114376012055
-0.004103360190515786   -0.03356345820808956   -0.0006974433855422461
-0.0009318705375621282   -0.03350376251124204   -0.0005930318777348043
-0.004359454273571311   -0.027222217562734723   -0.00046185114376012055
-0.0008366381931579457   -0.027230660848498223   -0.00036111565872645046
-0.0008003698772637792   -0.027297707120028238   -0.00036256895575326203
-0.0009318705375621282   -0.03350376251124204   -0.0005930318777348043
-0.004359454273571311   -0.027222217562734723   -0.00046185114376012055
-0.0008003698772637792   -0.027297707120028238   -0.00036256895575326203
-0.004103360190515786   -0.03356345820808956   -0.0006974433855422461
-0.0009318705375621282   -0.03350376251124204   -0.0005930318777348043
-0.0008366381931579457   -0.027230660848498223   -0.00036111565872645046
-0.004125108591406448   -0.03351072695748727   -0.0006840868683914498
-0.0009595190287077337   -0.033455262117485375   -0.0006024370189396875
-0.0008366381931579457   -0.027230660848498223   -0.00036111565872645046
-0.004359454273571311   -0.027222217562734723   -0.00046185114376012055
-0.004125108591406448   -0.03351072695748727   -0.0006840868683914498
-0.004400035957150573   -0.02717613433663263   -0.00043907053598057086
-0.0009595190287077337   -0.033455262117485375   -0.0006024370189396875
-0.00415026715039999   -0.03347298601085473   -0.0006661754316649638
-0.004400035957150573   -0.02717613433663263   -0.00043907053598057086
-0.004125108591406448   -0.03351072695748727   -0.0006840868683914498
-0.0009595190287077337   -0.033455262117485375   -0.0006024370189396875
-0.004400035957150573   -0.02717613433663263   -0.00043907053598057086
-0.00088177753685955   -0.027172997747326292   -0.00035536376213958905
-0.0008366381931579457   -0.027230660848498223   -0.00036111565872645046
-0.0009595190287077337   -0.033455262117485375   -0.0006024370189396875
-0.004400035957150573   -0.02717613433663263   -0.00043907053598057086
-0.0008366381931579457   -0.027230660848498223   -0.00036111565872645046
-0.004125108591406448   -0.03351072695748727   -0.0006840868683914498
-0.004081907979599823   -0.033630930959677834   -0.0007060103352151099
-0.0042854029006085875   -0.027342658295051937   -0.0004948908886317196
-0.007209779215718085   -0.03356487298858106   -0.0008302973333384179
-0.004103360190515786   -0.03356345820808956   -0.0006974433855422461
-0.0042854029006085875   -0.027342658295051937   -0.0004948908886317196
-0.0077436105916182125   -0.027280311600728847   -0.0006085861343628226
-0.007209779215718085   -0.03356487298858106   -0.0008302973333384179
-0.007781388808398622   -0.027227916405639922   -0.0005772167007073629
-0.004103360190515786   -0.03356345820808956   -0.0006974433855422461
-0.007232960617430476   -0.0335095576715758   -0.0007947542628701306
-0.007781388808398622   -0.027227916405639922   -0.0005772167007073629
-0.007209779215718085   -0.03356487298858106   -0.0008302973333384179
-0.004103360190515786   -0.03356345820808956   -0.0006974433855422461
-0.007781388808398622   -0.027227916405639922   -0.0005772167007073629
-0.004322055724304243   -0.02727790390638837   -0.00048052651199257366
-0.0042854029006085875   -0.027342658295051937   -0.0004948908886317196
-0.004103360190515786   -0.03356345820808956   -0.0006974433855422461
-0.007781388808398622   -0.027227916405639922   -0.0005772167007073629
-0.0042854029006085875   -0.027342658295051937   -0.0004948908886317196
-0.007209779215718085   -0.03356487298858106   -0.0008302973333384179
-0.004103360190515786   -0.03356345820808956   -0.0006974433855422461
-0.004322055724304243   -0.02727790390638837   -0.00048052651199257366
-0.007232960617430476   -0.0335095576715758   -0.0007947542628701306
-0.004125108591406448   -0.03351072695748727   -0.0006840868683914498
-0.004322055724304243   -0.02727790390638837   -0.00048052651199257366
-0.007781388808398622   -0.027227916405639922   -0.0005772167007073629
-0.007232960617430476   -0.0335095576715758   -0.0007947542628701306
-0.007815639796050707   -0.027184525257278044   -0.0005416379030323018
-0.004125108591406448   -0.03351072695748727   -0.0006840868683914498
-0.007252140828918669   -0.03346884359370842   -0.000754508109797829
-0.007815639796050707   -0.027184525257278044   -0.0005416379030323018
-0.007232960617430476   -0.0335095576715758   -0.0007947542628701306
-0.004125108591406448   -0.03351072695748727   -0.0006840868683914498
-0.007815639796050707   -0.027184525257278044   -0.0005416379030323018
-0.004359454273571311   -0.027222217562734723   -0.00046185114376012055
-0.004322055724304243   -0.02727790390638837   -0.00048052651199257366
-0.004125108591406448   -0.03351072695748727   -0.0006840868683914498
-0.007815639796050707   -0.027184525257278044   -0.0005416379030323018
-0.004322055724304243   -0.02727790390638837   -0.00048052651199257366
-0.007232960617430476   -0.0335095576715758   -0.0007947542628701306
-0.004125108591406448   -0.03351072695748727   -0.0006840868683914498
-0.004359454273571311   -0.027222217562734723   -0.00046185114376012055
-0.007252140828918669   -0.03346884359370842   -0.000754508109797829
-0.00415026715039999   -0.03347298601085473   -0.0006661754316649638
-0.004359454273571311   -0.027222217562734723   -0.00046185114376012055
-0.007815639796050707   -0.027184525257278044   -0.0005416379030323018
-0.007252140828918669   -0.03346884359370842   -0.000754508109797829
-0.007850218366995192   -0.027150208724297447   -0.0005020088684929235
-0.00415026715039999   -0.03347298601085473   -0.0006661754316649638
-0.007271887157736238   -0.03344266829762015   -0.0007096961573972659
-0.007850218366995192   -0.027150208724297447   -0.0005020088684929235
-0.007252140828918669   -0.03346884359370842   -0.000754508109797829
-0.00415026715039999   -0.03347298601085473   -0.0006661754316649638
-0.007850218366995192   -0.027150208724297447   -0.0005020088684929235
-0.004400035957150573   -0.02717613433663263   -0.00043907053598057086
-0.004359454273571311   -0.027222217562734723   -0.00046185114376012055
-0.00415026715039999   -0.03347298601085473   -0.0006661754316649638
-0.007850218366995192   -0.027150208724297447   -0.0005020088684929235
-0.004359454273571311   -0.027222217562734723   -0.00046185114376012055
-0.007252140828918669   -0.03346884359370842   -0.000754508109797829
-0.007209779215718085   -0.03356487298858106   -0.0008302973333384179
-0.0077436105916182125   -0.027280311600728847   -0.0006085861343628226
-0.010412026595453745   -0.03345144972723925   -0.0009339519338453556
-0.007232960617430476   -0.0335095576715758   -0.0007947542628701306
-0.0077436105916182125   -0.027280311600728847   -0.0006085861343628226
-0.01127040210919631   -0.02718753405901128   -0.0007012511098368933
-0.010412026595453745   -0.03345144972723925   -0.0009339519338453556
-0.011305438916104164   -0.027147591983156125   -0.0006527446535606089
-0.007232960617430476   -0.0335095576715758   -0.0007947542628701306
-0.010431140083697178   -0.03340799335025513   -0.0008710619269512833
-0.011305438916104164   -0.027147591983156125   -0.0006527446535606089
-0.010412026595453745   -0.03345144972723925   -0.0009339519338453556
-0.007232960617430476   -0.0335095576715758   -0.0007947542628701306
-0.011305438916104164   -0.027147591983156125   -0.0006527446535606089
-0.007781388808398622   -0.027227916405639922   -0.0005772167007073629
-0.0077436105916182125   -0.027280311600728847   -0.0006085861343628226
-0.007232960617430476   -0.0335095576715758   -0.0007947542628701306
-0.011305438916104164   -0.027147591983156125   -0.0006527446535606089
-0.0077436105916182125   -0.027280311600728847   -0.0006085861343628226
-0.010412026595453745   -0.03345144972723925   -0.0009339519338453556
-0.007232960617430476   -0.0335095576715758   -0.0007947542628701306
-0.007781388808398622   -0.027227916405639922   -0.0005772167007073629
-0.010431140083697178   -0.03340799335025513   -0.0008710619269512833
-0.007252140828918669   -0.03346884359370842   -0.000754508109797829
-0.007781388808398622   -0.027227916405639922   -0.0005772167007073629
-0.011305438916104164   -0.027147591983156125   -0.0006527446535606089
-0.010431140083697178   -0.03340799335025513   -0.0008710619269512833
-0.011326510088588008   -0.0271155380650745   -0.0006005937669268276
-0.007252140828918669   -0.03346884359370842   -0.000754508109797829
-0.010433369223554784   -0.03337827084050673   -0.0008041190189474836
-0.011326510088588008   -0.0271155380650745   -0.0006005937669268276
-0.010431140083697178   -0.03340799335025513   -0.0008710619269512833
-0.007252140828918669   -0.03346884359370842   -0.000754508109797829
-0.011326510088588008   -0.0271155380650745   -0.0006005937669268276
-0.007815639796050707   -0.027184525257278044   -0.0005416379030323018
-0.007781388808398622   -0.027227916405639922   -0.0005772167007073629
-0.007252140828918669   -0.03346884359370842   -0.000754508109797829
-0.011326510088588008   -0.0271155380650745   -0.0006005937669268276
-0.007781388808398622   -0.027227916405639922   -0.0005772167007073629
-0.010431140083697178   -0.03340799335025513   -0.0008710619269512833
-0.007252140828918669   -0.03346884359370842   -0.000754508109797829
-0.007815639796050707   -0.027184525257278044   -0.0005416379030323018
-0.010433369223554784   -0.03337827084050673   -0.0008041190189474836
-0.007271887157736238   -0.03344266829762015   -0.0007096961573972659
-0.007815639796050707   -0.027184525257278044   -0.0005416379030323018
-0.011326510088588008   -0.0271155380650745   -0.0006005937669268276
-0.010433369223554784   -0.03337827084050673   -0.0008041190189474836
-0.011349733004297816   -0.027093353318509147   -0.0005440463945303722
-0.007271887157736238   -0.03344266829762015   -0.0007096961573972659
-0.01044044310107297   -0.03336440096437179   -0.0007322629557489232
-0.011349733004297816   -0.027093353318509147   -0.0005440463945303722
-0.010433369223554784   -0.03337827084050673   -0.0008041190189474836
-0.007271887157736238   -0.03344266829762015   -0.0007096961573972659
-0.011349733004297816   -0.027093353318509147   -0.0005440463945303722
-0.007850218366995192   -0.027150208724297447   -0.0005020088684929235
-0.007815639796050707   -0.027184525257278044   -0.0005416379030323018
-0.007271887157736238   -0.03344266829762015   -0.0007096961573972659
-0.011349733004297816   -0.027093353318509147   -0.0005440463945303722
-0.007815639796050707   -0.027184525257278044   -0.0005416379030323018
-0.010433369223554784   -0.03337827084050673   -0.0008041190189474836
-0.010412026595453745   -0.03345144972723925   -0.0009339519338453556
-0.01127040210919631   -0.02718753405901128   -0.0007012511098368933
-0.013904395696908371   -0.033302402546742584   -0.0010225124768586163
-0.010431140083697178   -0.03340799335025513   -0.0008710619269512833
-0.01127040210919631   -0.02718753405901128   -0.0007012511098368933
-0.015056271473255311   -0.027073139128076698   -0.0007747880215172083
-0.013904395696908371   -0.033302402546742584   -0.0010225124768586163
-0.015029487846052243   -0.027039555814365956   -0.000710008513962424
-0.010431140083697178   -0.03340799335025513   -0.0008710619269512833
-0.013836756129528954   -0.03326270374370097   -0.0009306230732830065
-0.015029487846052243   -0.027039555814365956   -0.000710008513962424
-0.013904395696908371   -0.033302402546742584   -0.0010225124768586163
-0.010431140083697178   -0.03340799335025513   -0.0008710619269512833
-0.015029487846052243   -0.027039555814365956   -0.000710008513962424
-0.011305438916104164   -0.027147591983156125   -0.0006527446535606089
-0.01127040210919631   -0.02718753405901128   -0.0007012511098368933
-0.010431140083697178   -0.03340799335025513   -0.0008710619269512833
-0.015029487846052243   -0.027039555814365956   -0.000710008513962424
-0.01127040210919631   -0.02718753405901128   -0.0007012511098368933
-0.013904395696908371   -0.033302402546742584   -0.0010225124768586163
-0.010431140083697178   -0.03340799335025513   -0.0008710619269512833
-0.011305438916104164   -0.027147591983156125   -0.0006527446535606089
-0.013836756129528954   -0.03326270374370097   -0.0009306230732830065
-0.010433369223554784   -0.03337827084050673   -0.0008041190189474836
-0.011305438916104164   -0.027147591983156125   -0.0006527446535606089
-0.015029487846052243   -0.027039555814365956   -0.000710008513962424
-0.013836756129528954   -0.03326270374370097   -0.0009306230732830065
-0.01500765096278765   -0.027012845789841214   -0.0006385411458293311
-0.010433369223554784   -0.03337827084050673   -0.0008041190189474836
-0.013779778952190968   -0.033237645036005875   -0.0008316521192072762
-0.01500765096278765   -0.027012845789841214   -0.0006385411458293311
-0.013836756129528954   -0.03326270374370097   -0.0009306230732830065
-0.010433369223554784   -0.03337827084050673   -0.0008041190189474836
-0.01500765096278765   -0.027012845789841214   -0.0006385411458293311
-0.011326510088588008   -0.0271155380650745   -0.0006005937669268276
-0.011305438916104164   -0.027147591983156125   -0.0006527446535606089
-0.010433369223554784   -0.03337827084050673   -0.0008041190189474836
-0.01500765096278765   -0.027012845789841214   -0.0006385411458293311
-0.011305438916104164   -0.027147591983156125   -0.0006527446535606089
-0.013836756129528954   -0.03326270374370097   -0.0009306230732830065
-0.010433369223554784   -0.03337827084050673   -0.0008041190189474836
-0.011326510088588008   -0.0271155380650745   -0.0006005937669268276
-0.013779778952190968   -0.033237645036005875   -0.0008316521192072762
-0.01044044310107297   -0.03336440096437179   -0.0007322629557489232
-0.011326510088588008   -0.0271155380650745   -0.0006005937669268276
-0.01500765096278765   -0.027012845789841214   -0.0006385411458293311
-0.013779778952190968   -0.033237645036005875   -0.0008316521192072762
-0.01495594503940729   -0.02700524636949649   -0.000561147766905911
-0.01044044310107297   -0.03336440096437179   -0.0007322629557489232
-0.01368605580837753   -0.033239480936247436   -0.0007264840534469432
-0.01495594503940729   -0.02700524636949649   -0.000561147766905911
-0.013779778952190968   -0.033237645036005875   -0.0008316521192072762
-0.01044044310107297   -0.03336440096437179   -0.0007322629557489232
-0.01495594503940729   -0.02700524636949649   -0.000561147766905911
-0.011349733004297816   -0.027093353318509147   -0.0005440463945303722
-0.011326510088588008   -0.0271155380650745   -0.0006005937669268276
-0.01044044310107297   -0.03336440096437179   -0.0007322629557489232
-0.01495594503940729   -0.02700524636949649   -0.000561147766905911
-0.011326510088588008   -0.0271155380650745   -0.0006005937669268276
-0.013779778952190968   -0.033237645036005875   -0.0008316521192072762
0.002919819963294258   -0.027376200615267146   -0.00019587362365622727
0.0030255956535529477   -0.020700751973238916   -3.155940061283933e-05
-0.0007677362730045803   -0.027375893632095184   -0.00035988669222829944
0.002910005628979456   -0.027286099005663336   -0.00022240046782998182
0.0030255956535529477   -0.020700751973238916   -3.155940061283933e-05
-0.0008748219188510495   -0.020666874551251782   -0.00017880332304523545
-0.0007677362730045803   -0.027375893632095184   -0.00035988669222829944
-0.0009197786378318709   -0.020592119728606022   -0.0001655753950346476
0.002910005628979456   -0.027286099005663336   -0.00022240046782998182
-0.0008003698772637792   -0.027297707120028238   -0.00036256895575326203
-0.0009197786378318709   -0.020592119728606022   -0.0001655753950346476
-0.0007677362730045803   -0.027375893632095184   -0.00035988669222829944
0.002910005628979456   -0.027286099005663336   -0.00022240046782998182
-0.0009197786378318709   -0.020592119728606022   -0.0001655753950346476
0.002978342199499526   -0.02061487863220689   -2.936820817836951e-05
0.0030255956535529477   -0.020700751973238916   -3.155940061283933e-05
0.002910005628979456   -0.027286099005663336   -0.00022240046782998182
-0.0009197786378318709   -0.020592119728606022   -0.0001655753950346476
0.0030255956535529477   -0.020700751973238916   -3.155940061283933e-05
-0.0007677362730045803   -0.027375893632095184   -0.00035988669222829944
0.002910005628979456   -0.027286099005663336   -0.00022240046782998182
0.002978342199499526   -0.02061487863220689   -2.936820817836951e-05
-0.0008003698772637792   -0.027297707120028238   -0.00036256895575326203
0.002884171846147663   -0.027213939471622813   -0.0002422986479166918
0.002978342199499526   -0.02061487863220689   -2.936820817836951e-05
-0.0009197786378318709   -0.020592119728606022   -0.0001655753950346476
-0.0008003698772637792   -0.027297707120028238   -0.00036256895575326203
-0.0009712832232966989   -0.020521743463605347   -0.00014858642289141972
0.002884171846147663   -0.027213939471622813   -0.0002422986479166918
-0.0008366381931579457   -0.027230660848498223   -0.00036111565872645046
-0.0009712832232966989   -0.020521743463605347   -0.00014858642289141972
-0.0008003698772637792   -0.027297707120028238   -0.00036256895575326203
0.002884171846147663   -0.027213939471622813   -0.0002422986479166918
-0.0009712832232966989   -0.020521743463605347   -0.00014858642289141972
0.002919986098466066   -0.020538415995058804   -1.9499685608214554e-05
0.002978342199499526   -0.02061487863220689   -2.936820817836951e-05
0.002884171846147663   -0.027213939471622813   -0.0002422986479166918
-0.0009712832232966989   -0.020521743463605347   -0.00014858642289141972
0.002978342199499526   -0.02061487863220689   -2.936820817836951e-05
-0.0008003698772637792   -0.027297707120028238   -0.00036256895575326203
0.002884171846147663   -0.027213939471622813   -0.0002422986479166918
0.002919986098466066   -0.020538415995058804   -1.9499685608214554e-05
-0.0008366381931579457   -0.027230660848498223   -0.00036111565872645046
0.0028479829700855334   -0.027147804599245692   -0.0002560312076185108
0.002919986098466066   -0.020538415995058804   -1.9499685608214554e-05
-0.0009712832232966989   -0.020521743463605347   -0.00014858642289141972
-0.0008366381931579457   -0.027230660848498223   -0.00036111565872645046
-0.0010291789061002044   -0.02045477341309789   -0.00012689507854609728
0.0028479829700855334   -0.027147804599245692   -0.0002560312076185108
-0.00088177753685955   -0.027172997747326292   -0.00035536376213958905
-0.0010291789061002044   -0.02045477341309789   -0.00012689507854609728
-0.0008366381931579457   -0.027230660848498223   -0.00036111565872645046
0.0028479829700855334   -0.027147804599245692   -0.0002560312076185108
-0.0010291789061002044   -0.02045477341309789   -0.00012689507854609728
0.0028429684567822825   -0.020458569888053627   -2.2989101644422378e-06
0.002919986098466066   -0.020538415995058804   -1.9499685608214554e-05
0.0028479829700855334   -0.027147804599245692   -0.0002560312076185108
-0.0010291789061002044   -0.02045477341309789   -0.00012689507854609728
0.002919986098466066   -0.020538415995058804   -1.9499685608214554e-05
-0.0008366381931579457   -0.027230660848498223   -0.00036111565872645046
-0.0007677362730045803   -0.027375893632095184   -0.00035988669222829944
-0.0008748219188510495   -0.020666874551251782   -0.00017880332304523545
-0.0042854029006085875   -0.027342658295051937   -0.0004948908886317196
-0.0008003698772637792   -0.027297707120028238   -0.00036256895575326203
-0.0008748219188510495   -0.020666874551251782   -0.00017880332304523545
-0.004570544157782192   -0.020626951069252726   -0.00030304118611451414
-0.0042854029006085875   -0.027342658295051937   -0.0004948908886317196
-0.0046165183860918235   -0.020564594453178122   -0.00028248880514623187
-0.0008003698772637792   -0.027297707120028238   -0.00036256895575326203
-0.004322055724304243   -0.02727790390638837   -0.00048052651199257366
-0.0046165183860918235   -0.020564594453178122   -0.00028248880514623187
-0.0042854029006085875   -0.027342658295051937   -0.0004948908886317196
-0.0008003698772637792   -0.027297707120028238   -0.00036256895575326203
-0.0046165183860918235   -0.020564594453178122   -0.00028248880514623187
-0.0009197786378318709   -0.020592119728606022   -0.0001655753950346476
-0.0008748219188510495   -0.020666874551251782   -0.00017880332304523545
-0.0008003698772637792   -0.027297707120028238   -0.00036256895575326203
-0.0046165183860918235   -0.020564594453178122   -0.00028248880514623187
-0.0008748219188510495   -0.020666874551251782   -0.00017880332304523545
-0.0042854029006085875   -0.027342658295051937   -0.0004948908886317196
-0.0008003698772637792   -0.027297707120028238   -0.00036256895575326203
-0.0009197786378318709   -0.020592119728606022   -0.0001655753950346476
-0.004322055724304243   -0.02727790390638837   -0.00048052651199257366
-0.0008366381931579457   -0.027230660848498223   -0.00036111565872645046
-0.0009197786378318709   -0.020592119728606022   -0.0001655753950346476
-0.0046165183860918235   -0.020564594453178122   -0.00028248880514623187
-0.004322055724304243   -0.02727790390638837   -0.00048052651199257366
-0.004663535432949121   -0.020505632558436057   -0.0002583463613619489
-0.0008366381931579457   -0.027230660848498223   -0.00036111565872645046
-0.004359454273571311   -0.027222217562734723   -0.00046185114376012055
-0.004663535432949121   -0.020505632558436057   -0.0002583463613619489
-0.004322055724304243   -0.02727790390638837   -0.00048052651199257366
-0.0008366381931579457   -0.027230660848498223   -0.00036111565872645046
-0.004663535432949121   -0.020505632558436057   -0.0002583463613619489
-0.0009712832232966989   -0.020521743463605347   -0.00014858642289141972
-0.0009197786378318709   -0.020592119728606022   -0.0001655753950346476
-0.0008366381931579457   -0.027230660848498223   -0.00036111565872645046
-0.004663535432949121   -0.020505632558436057   -0.0002583463613619489
-0.0009197786378318709   -0.020592119728606022   -0.0001655753950346476
-0.004322055724304243   -0.02727790390638837   -0.00048052651199257366
-0.0008366381931579457   -0.027230660848498223   -0.00036111565872645046
-0.0009712832232966989   -0.020521743463605347   -0.00014858642289141972
-0.004359454273571311   -0.027222217562734723   -0.00046185114376012055
-0.00088177753685955   -0.027172997747326292   -0.00035536376213958905
-0.0009712832232966989   -0.020521743463605347   -0.00014858642289141972
-0.004663535432949121   -0.020505632558436057   -0.0002583463613619489
-0.004359454273571311   -0.027222217562734723   -0.00046185114376012055
-0.00471356287823092   -0.020450996438009725   -0.00023057960111967665
-0.00088177753685955   -0.027172997747326292   -0.00035536376213958905
-0.004400035957150573   -0.02717613433663263   -0.00043907053598057086
-0.00471356287823092   -0.020450996438009725   -0.00023057960111967665
-0.004359454273571311   -0.027222217562734723   -0.00046185114376012055
-0.00088177753685955   -0.027172997747326292   -0.00035536376213958905
-0.00471356287823092   -0.020450996438009725   -0.00023057960111967665
-0.0010291789061002044   -0.02045477341309789   -0.00012689507854609728
-0.0009712832232966989   -0.020521743463605347   -0.00014858642289141972
-0.00088177753685955   -0.027172997747326292   -0.00035536376213958905
-0.00471356287823092   -0.020450996438009725   -0.00023057960111967665
-0.0009712832232966989   -0.020521743463605347   -0.00014858642289141972
-0.004359454273571311   -0.027222217562734723   -0.00046185114376012055
-0.0042854029006085875   -0.027342658295051937   -0.0004948908886317196
-0.004570544157782192   -0.020626951069252726   -0.00030304118611451414
-0.0077436105916182125   -0.027280311600728847   -0.0006085861343628226
-0.004322055724304243   -0.02727790390638837   -0.00048052651199257366
-0.004570544157782192   -0.020626951069252726   -0.00030304118611451414
-0.008205914921816002   -0.02057887444653038   -0.0004083274279393259
-0.0077436105916182125   -0.027280311600728847   -0.0006085861343628226
-0.008251600674308532   -0.020527983181864013   -0.0003804731533537089
-0.004322055724304243   -0.02727790390638837   -0.00048052651199257366
-0.007781388808398622   -0.027227916405639922   -0.0005772167007073629
-0.008251600674308532   -0.020527983181864013   -0.0003804731533537089
-0.0077436105916182125   -0.027280311600728847   -0.0006085861343628226
-0.004322055724304243   -0.02727790390638837   -0.00048052651199257366
-0.008251600674308532   -0.020527983181864013   -0.0003804731533537089
-0.0046165183860918235   -0.020564594453178122   -0.00028248880514623187
-0.004570544157782192   -0.020626951069252726   -0.00030304118611451414
-0.004322055724304243   -0.02727790390638837   -0.00048052651199257366
-0.008251600674308532   -0.020527983181864013   -0.0003804731533537089
-0.004570544157782192   -0.020626951069252726   -0.00030304118611451414
-0.0077436105916182125   -0.027280311600728847   -0.0006085861343628226
-0.004322055724304243   -0.02727790390638837   -0.00048052651199257366
-0.0046165183860918235   -0.020564594453178122   -0.00028248880514623187
-0.007781388808398622   -0.027227916405639922   -0.0005772167007073629
-0.004359454273571311   -0.027222217562734723   -0.00046185114376012055
-0.0046165183860918235   -0.020564594453178122   -0.00028248880514623187
-0.008251600674308532   -0.020527983181864013   -0.0003804731533537089
-0.007781388808398622   -0.027227916405639922   -0.0005772167007073629
-0.00829431798652775   -0.020480671560131256   -0.0003491512875951905
-0.004359454273571311   -0.027222217562734723   -0.00046185114376012055
-0.007815639796050707   -0.027184525257278044   -0.0005416379030323018
-0.00829431798652775   -0.020480671560131256   -0.0003491512875951905
-0.007781388808398622   -0.027227916405639922   -0.0005772167007073629
-0.004359454273571311   -0.027222217562734723   -0.00046185114376012055
-0.00829431798652775   -0.020480671560131256   -0.0003491512875951905
-0.004663535432949121   -0.020505632558436057   -0.0002583463613619489
-0.0046165183860918235   -0.020564594453178122   -0.00028248880514623187
-0.004359454273571311   -0.027222217562734723   -0.00046185114376012055
-0.00829431798652775   -0.020480671560131256   -0.0003491512875951905
-0.0046165183860918235   -0.020564594453178122   -0.00028248880514623187
-0.007781388808398622   -0.027227916405639922   -0.0005772167007073629
-0.004359454273571311   -0.027222217562734723   -0.00046185114376012055
-0.004663535432949121   -0.020505632558436057   -0.0002583463613619489
-0.007815639796050707   -0.027184525257278044   -0.0005416379030323018
-0.004400035957150573   -0.02717613433663263   -0.00043907053598057086
-0.004663535432949121   -0.020505632558436057   -0.0002583463613619489
-0.00829431798652775   -0.020480671560131256   -0.0003491512875951905
-0.007815639796050707   -0.027184525257278044   -0.0005416379030323018
-0.008337188511708194   -0.02043706790346631   -0.0003145322311212791
-0.004400035957150573   -0.02717613433663263   -0.00043907053598057086
-0.007850218366995192   -0.027150208724297447   -0.0005020088684929235
-0.008337188511708194   -0.02043706790346631   -0.0003145322311212791
-0.007815639796050707   -0.027184525257278044   -0.0005416379030323018
-0.004400035957150573   -0.02717613433663263   -0.00043907053598057086
-0.008337188511708194   -0.02043706790346631   -0.0003145322311212791
-0.00471356287823092   -0.020450996438009725   -0.00023057960111967665
-0.004663535432949121   -0.020505632558436057   -0.0002583463613619489
-0.004400035957150573   -0.02717613433663263   -0.00043907053598057086
-0.008337188511708194   -0.02043706790346631   -0.0003145322311212791
-0.004663535432949121   -0.020505632558436057   -0.0002583463613619489
-0.007815639796050707   -0.027184525257278044   -0.0005416379030323018
-0.0077436105916182125   -0.027280311600728847   -0.0006085861343628226
-0.008205914921816002   -0.02057887444653038   -0.0004083274279393259
-0.01127040210919631   -0.02718753405901128   -0.0007012511098368933
-0.007781388808398622   -0.027227916405639922   -0.0005772167007073629
-0.008205914921816002   -0.02057887444653038   -0.0004083274279393259
-0.011907086444521615   -0.020513749533245324   -0.0004937588386029102
-0.01127040210919631   -0.02718753405901128   -0.0007012511098368933
-0.011950818157170251   -0.020474917860535596   -0.0004586904353240903
-0.007781388808398622   -0.027227916405639922   -0.0005772167007073629
-0.011305438916104164   -0.027147591983156125   -0.0006527446535606089
-0.011950818157170251   -0.020474917860535596   -0.0004586904353240903
-0.01127040210919631   -0.02718753405901128   -0.0007012511098368933
-0.007781388808398622   -0.027227916405639922   -0.0005772167007073629
-0.011950818157170251   -0.020474917860535596   -0.0004586904353240903
-0.008251600674308532   -0.020527983181864013   -0.0003804731533537089
-0.008205914921816002   -0.02057887444653038   -0.0004083274279393259
-0.007781388808398622   -0.027227916405639922   -0.0005772167007073629
-0.011950818157170251   -0.020474917860535596   -0.0004586904353240903
-0.008205914921816002   -0.02057887444653038   -0.0004083274279393259
-0.01127040210919631   -0.02718753405901128   -0.0007012511098368933
-0.007781388808398622   -0.027227916405639922   -0.0005772167007073629
-0.008251600674308532   -0.020527983181864013   -0.0003804731533537089
-0.011305438916104164   -0.027147591983156125   -0.0006527446535606089
-0.007815639796050707   -0.027184525257278044   -0.0005416379030323018
-0.008251600674308532   -0.020527983181864013   -0.0003804731533537089
-0.011950818157170251   -0.020474917860535596   -0.0004586904353240903
-0.011305438916104164   -0.027147591983156125   -0.0006527446535606089
-0.011983867291224422   -0.020438346673074485   -0.0004207203347210881
-0.007815639796050707   -0.027184525257278044   -0.0005416379030323018
-0.011326510088588008   -0.0271155380650745   -0.0006005937669268276
-0.011983867291224422   -0.020438346673074485   -0.0004207203347210881
-0.011305438916104164   -0.027147591983156125   -0.0006527446535606089
-0.007815639796050707   -0.027184525257278044   -0.0005416379030323018
-0.011983867291224422   -0.020438346673074485   -0.0004207203347210881
-0.00829431798652775   -0.020480671560131256   -0.0003491512875951905
-0.008251600674308532   -0.020527983181864013   -0.0003804731533537089
-0.007815639796050707   -0.027184525257278044   -0.0005416379030323018
-0.011983867291224422   -0.020438346673074485   -0.0004207203347210881
-0.008251600674308532   -0.020527983181864013   -0.0003804731533537089
-0.011305438916104164   -0.027147591983156125   -0.0006527446535606089
-0.007815639796050707   -0.027184525257278044   -0.0005416379030323018
-0.00829431798652775   -0.020480671560131256   -0.0003491512875951905
-0.011326510088588008   -0.0271155380650745   -0.0006005937669268276
-0.007850218366995192   -0.027150208724297447   -0.0005020088684929235
-0.00829431798652775   -0.020480671560131256   -0.0003491512875951905
-0.011983867291224422   -0.020438346673074485   -0.0004207203347210881
-0.011326510088588008   -0.0271155380650745   -0.0006005937669268276
-0.012016683766820156   -0.02040569697194374   -0.0003790970719613499
-0.007850218366995192   -0.027150208724297447   -0.0005020088684929235
-0.011349733004297816   -0.027093353318509147   -0.0005440463945303722
-0.012016683766820156   -0.02040569697194374   -0.0003790970719613499
-0.011326510088588008   -0.0271155380650745   -0.0006005937669268276
-0.007850218366995192   -0.027150208724297447   -0.0005020088684929235
-0.012016683766820156   -0.02040569697194374   -0.0003790970719613499
-0.008337188511708194   -0.02043706790346631   -0.0003145322311212791
-0.00829431798652775   -0.020480671560131256   -0.0003491512875951905
-0.007850218366995192   -0.027150208724297447   -0.0005020088684929235
-0.012016683766820156   -0.02040569697194374   -0.0003790970719613499
-0.00829431798652775   -0.020480671560131256   -0.0003491512875951905
-0.011326510088588008   -0.0271155380650745   -0.0006005937669268276
-0.01127040210919631   -0.02718753405901128   -0.0007012511098368933
-0.011907086444521615   -0.020513749533245324   -0.0004937588386029102
-0.015056271473255311   -0.027073139128076698   -0.0007747880215172083
-0.011305438916104164   -0.027147591983156125   -0.0006527446535606089
-0.011907086444521615   -0.020513749533245324   -0.0004937588386029102
-0.015830832475188912   -0.020436580740633918   -0.000556836047339995
-0.015056271473255311   -0.027073139128076698   -0.0007747880215172083
-0.01583691634618374   -0.020405770464882282   -0.0005179025202975494
-0.011305438916104164   -0.027147591983156125   -0.0006527446535606089
-0.015029487846052243   -0.027039555814365956   -0.000710008513962424
-0.01583691634618374   -0.020405770464882282   -0.0005179025202975494
-0.015056271473255311   -0.027073139128076698   -0.0007747880215172083
-0.011305438916104164   -0.027147591983156125   -0.0006527446535606089
-0.01583691634618374   -0.020405770464882282   -0.0005179025202975494
-0.011950818157170251   -0.020474917860535596   -0.0004586904353240903
-0.011907086444521615   -0.020513749533245324   -0.0004937588386029102
-0.011305438916104164   -0.027147591983156125   -0.0006527446535606089
-0.01583691634618374   -0.020405770464882282   -0.0005179025202975494
-0.011907086444521615   -0.020513749533245324   -0.0004937588386029102
-0.015056271473255311   -0.027073139128076698   -0.0007747880215172083
-0.011305438916104164   -0.027147591983156125   -0.0006527446535606089
-0.011950818157170251   -0.020474917860535596   -0.0004586904353240903
-0.015029487846052243   -0.027039555814365956   -0.000710008513962424
-0.011326510088588008   -0.0271155380650745   -0.0006005937669268276
-0.011950818157170251   -0.020474917860535596   -0.0004586904353240903
-0.01583691634618374   -0.020405770464882282   -0.0005179025202975494
-0.015029487846052243   -0.027039555814365956   -0.000710008513962424
-0.01584326891629428   -0.02037471843920705   -0.0004731337742972634
-0.011326510088588008   -0.0271155380650745   -0.0006005937669268276
-0.01500765096278765   -0.027012845789841214   -0.0006385411458293311
-0.01584326891629428   -0.02037471843920705   -0.0004731337742972634
-0.015029487846052243   -0.027039555814365956   -0.000710008513962424
-0.011326510088588008   -0.0271155380650745   -0.0006005937669268276
-0.01584326891629428   -0.02037471843920705   -0.0004731337742972634
-0.011983867291224422   -0.020438346673074485   -0.0004207203347210881
-0.011950818157170251   -0.020474917860535596   -0.0004586904353240903
-0.011326510088588008   -0.0271155380650745   -0.0006005937669268276
-0.01584326891629428   -0.02037471843920705   -0.0004731337742972634
-0.011950818157170251   -0.020474917860535596   -0.0004586904353240903
-0.015029487846052243   -0.027039555814365956   -0.000710008513962424
-0.011326510088588008   -0.0271155380650745   -0.0006005937669268276
-0.011983867291224422   -0.020438346673074485   -0.0004207203347210881
-0.01500765096278765   -0.027012845789841214   -0.0006385411458293311
-0.011349733004297816   -0.027093353318509147   -0.0005440463945303722
-0.011983867291224422   -0.020438346673074485   -0.0004207203347210881
-0.01584326891629428   -0.02037471843920705   -0.0004731337742972634
-0.01500765096278765   -0.027012845789841214   -0.0006385411458293311
-0.015827394229293072   -0.02035479305683709   -0.0004232180016748185
-0.011349733004297816   -0.027093353318509147   -0.0005440463945303722
-0.01495594503940729   -0.02700524636949649   -0.000561147766905911
-0.015827394229293072   -0.02035479305683709   -0.0004232180016748185
-0.01500765096278765   -0.027012845789841214   -0.0006385411458293311
-0.011349733004297816   -0.027093353318509147   -0.0005440463945303722
-0.015827394229293072   -0.02035479305683709   -0.0004232180016748185
-0.012016683766820156   -0.02040569697194374   -0.0003790970719613499
-0.011983867291224422   -0.020438346673074485   -0.0004207203347210881
-0.011349733004297816   -0.027093353318509147   -0.0005440463945303722
-0.015827394229293072   -0.02035479305683709   -0.0004232180016748185
-0.011983867291224422   -0.020438346673074485   -0.0004207203347210881
-0.01500765096278765   -0.027012845789841214   -0.0006385411458293311
0.0030255956535529477   -0.020700751973238916   -3.155940061283933e-05
0.0027170737955229877   -0.013820520962431014   8.191912642465984e-05
-0.0008748219188510495   -0.020666874551251782   -0.00017880332304523545
0.002978342199499526   -0.02061487863220689   -2.936820817836951e-05
0.0027170737955229877   -0.013820520962431014   8.191912642465984e-05
-0.001215957263099224   -0.013756125661143911   -3.462320904417312e-05
-0.0008748219188510495   -0.020666874551251782   -0.00017880332304523545
-0.0012698753926925997   -0.013688571087748397   -6.69486632678037e-06
0.002978342199499526   -0.02061487863220689   -2.936820817836951e-05
-0.0009197786378318709   -0.020592119728606022   -0.0001655753950346476
-0.0012698753926925997   -0.013688571087748397   -6.69486632678037e-06
-0.0008748219188510495   -0.020666874551251782   -0.00017880332304523545
0.002978342199499526   -0.02061487863220689   -2.936820817836951e-05
-0.0012698753926925997   -0.013688571087748397   -6.69486632678037e-06
0.002632476997904127   -0.013738799603631915   0.00011640070423293213
0.0027170737955229877   -0.013820520962431014   8.191912642465984e-05
0.002978342199499526   -0.02061487863220689   -2.936820817836951e-05
-0.0012698753926925997   -0.013688571087748397   -6.69486632678037e-06
0.0027170737955229877   -0.013820520962431014   8.191912642465984e-05
-0.0008748219188510495   -0.020666874551251782   -0.00017880332304523545
0.002978342199499526   -0.02061487863220689   -2.936820817836951e-05
0.002632476997904127   -0.013738799603631915   0.00011640070423293213
-0.0009197786378318709   -0.020592119728606022   -0.0001655753950346476
0.002919986098466066   -0.020538415995058804   -1.9499685608214554e-05
0.002632476997904127   -0.013738799603631915   0.00011640070423293213
-0.0012698753926925997   -0.013688571087748397   -6.69486632678037e-06
-0.0009197786378318709   -0.020592119728606022   -0.0001655753950346476
-0.0013330037731589459   -0.01361734360552298   2.6244859032483257e-05
0.002919986098466066   -0.020538415995058804   -1.9499685608214554e-05
-0.0009712832232966989   -0.020521743463605347   -0.00014858642289141972
-0.0013330037731589459   -0.01361734360552298   2.6244859032483257e-05
-0.0009197786378318709   -0.020592119728606022   -0.0001655753950346476
0.002919986098466066   -0.020538415995058804   -1.9499685608214554e-05
-0.0013330037731589459   -0.01361734360552298   2.6244859032483257e-05
0.0025377576108114785   -0.013657810837663932   0.00016618067390176898
0.002632476997904127   -0.013738799603631915   0.00011640070423293213
0.002919986098466066   -0.020538415995058804   -1.9499685608214554e-05
-0.0013330037731589459   -0.01361734360552298   2.6244859032483257e-05
0.002632476997904127   -0.013738799603631915   0.00011640070423293213
-0.0009197786378318709   -0.020592119728606022   -0.0001655753950346476
0.002919986098466066   -0.020538415995058804   -1.9499685608214554e-05
0.0025377576108114785   -0.013657810837663932   0.00016618067390176898
-0.0009712832232966989   -0.020521743463605347   -0.00014858642289141972
0.0028429684567822825   -0.020458569888053627   -2.2989101644422378e-06
0.0025377576108114785   -0.013657810837663932   0.00016618067390176898
-0.0013330037731589459   -0.01361734360552298   2.6244859032483257e-05
-0.0009712832232966989   -0.020521743463605347   -0.00014858642289141972
-0.0013983658128944114   -0.013541778918193697   6.413763550254212e-05
0.0028429684567822825   -0.020458569888053627   -2.2989101644422378e-06
-0.0010291789061002044   -0.02045477341309789   -0.00012689507854609728
-0.0013983658128944114   -0.013541778918193697   6.413763550254212e-05
-0.0009712832232966989   -0.020521743463605347   -0.00014858642289141972
0.0028429684567822825   -0.020458569888053627   -2.2989101644422378e-06
-0.0013983658128944114   -0.013541778918193697   6.413763550254212e-05
0.002421995625972724   -0.013558255187404153   0.00022100090150911733
0.0025377576108114785   -0.013657810837663932   0.00016618067390176898
0.0028429684567822825   -0.020458569888053627   -2.2989101644422378e-06
-0.0013983658128944114   -0.013541778918193697   6.413763550254212e-05
0.0025377576108114785   -0.013657810837663932   0.00016618067390176898
-0.0009712832232966989   -0.020521743463605347   -0.00014858642289141972
-0.0008748219188510495   -0.020666874551251782   -0.00017880332304523545
-0.001215957263099224   -0.013756125661143911   -3.462320904417312e-05
-0.004570544157782192   -0.020626951069252726   -0.00030304118611451414
-0.0009197786378318709   -0.020592119728606022   -0.0001655753950346476
-0.001215957263099224   -0.013756125661143911   -3.462320904417312e-05
-0.004918619262716451   -0.013739436786086181   -0.00014674815462487157
-0.004570544157782192   -0.020626951069252726   -0.00030304118611451414
-0.004967464638911186   -0.013680634760892192   -0.00012062722708814407
-0.0009197786378318709   -0.020592119728606022   -0.0001655753950346476
-0.0046165183860918235   -0.020564594453178122   -0.00028248880514623187
-0.004967464638911186   -0.013680634760892192   -0.00012062722708814407
-0.004570544157782192   -0.020626951069252726   -0.00030304118611451414
-0.0009197786378318709   -0.020592119728606022   -0.0001655753950346476
-0.004967464638911186   -0.013680634760892192   -0.00012062722708814407
-0.0012698753926925997   -0.013688571087748397   -6.69486632678037e-06
-0.001215957263099224   -0.013756125661143911   -3.462320904417312e-05
-0.0009197786378318709   -0.020592119728606022   -0.0001655753950346476
-0.004967464638911186   -0.013680634760892192   -0.00012062722708814407
-0.001215957263099224   -0.013756125661143911   -3.462320904417312e-05
-0.004570544157782192   -0.020626951069252726   -0.00030304118611451414
-0.0009197786378318709   -0.020592119728606022   -0.0001655753950346476
-0.0012698753926925997   -0.013688571087748397   -6.69486632678037e-06
-0.0046165183860918235   -0.020564594453178122   -0.00028248880514623187
-0.0009712832232966989   -0.020521743463605347   -0.00014858642289141972
-0.0012698753926925997   -0.013688571087748397   -6.69486632678037e-06
-0.004967464638911186   -0.013680634760892192   -0.00012062722708814407
-0.0046165183860918235   -0.020564594453178122   -0.00028248880514623187
-0.005018019461763685   -0.013619497004523603   -9.188898938057455e-05
-0.0009712832232966989   -0.020521743463605347   -0.00014858642289141972
-0.004663535432949121   -0.020505632558436057   -0.0002583463613619489
-0.005018019461763685   -0.013619497004523603   -9.188898938057455e-05
-0.0046165183860918235   -0.020564594453178122   -0.00028248880514623187
-0.0009712832232966989   -0.020521743463605347   -0.00014858642289141972
-0.005018019461763685   -0.013619497004523603   -9.188898938057455e-05
-0.0013330037731589459   -0.01361734360552298   2.6244859032483257e-05
-0.0012698753926925997   -0.013688571087748397   -6.69486632678037e-06
-0.0009712832232966989   -0.020521743463605347   -0.00014858642289141972
-0.005018019461763685   -0.013619497004523603   -9.188898938057455e-05
-0.0012698753926925997   -0.013688571087748397   -6.69486632678037e-06
-0.0046165183860918235   -0.020564594453178122   -0.00028248880514623187
-0.0009712832232966989   -0.020521743463605347   -0.00014858642289141972
-0.0013330037731589459   -0.01361734360552298   2.6244859032483257e-05
-0.004663535432949121   -0.020505632558436057   -0.0002583463613619489
-0.0010291789061002044   -0.02045477341309789   -0.00012689507854609728
-0.0013330037731589459   -0.01361734360552298   2.6244859032483257e-05
-0.005018019461763685   -0.013619497004523603   -9.188898938057455e-05
-0.004663535432949121   -0.020505632558436057   -0.0002583463613619489
-0.005070677890522109   -0.013557154469847444   -6.001628132669265e-05
-0.0010291789061002044   -0.02045477341309789   -0.00012689507854609728
-0.00471356287823092   -0.020450996438009725   -0.00023057960111967665
-0.005070677890522109   -0.013557154469847444   -6.001628132669265e-05
-0.004663535432949121   -0.020505632558436057   -0.0002583463613619489
-0.0010291789061002044   -0.02045477341309789   -0.00012689507854609728
-0.005070677890522109   -0.013557154469847444   -6.001628132669265e-05
-0.0013983658128944114   -0.013541778918193697   6.413763550254212e-05
-0.0013330037731589459   -0.01361734360552298   2.6244859032483257e-05
-0.0010291789061002044   -0.02045477341309789   -0.00012689507854609728
-0.005070677890522109   -0.013557154469847444   -6.001628132669265e-05
-0.0013330037731589459   -0.01361734360552298   2.6244859032483257e-05
-0.004663535432949121   -0.020505632558436057   -0.0002583463613619489
-0.004570544157782192   -0.020626951069252726   -0.00030304118611451414
-0.004918619262716451   -0.013739436786086181   -0.00014674815462487157
-0.008205914921816002   -0.02057887444653038   -0.0004083274279393259
-0.0046165183860918235   -0.020564594453178122   -0.00028248880514623187
-0.004918619262716451   -0.013739436786086181   -0.00014674815462487157
-0.00858260864632846   -0.013734763903812628   -0.00024796739626468896
-0.008205914921816002   -0.02057887444653038   -0.0004083274279393259
-0.008629357456021355   -0.013683318382026901   -0.00022293249680679236
-0.0046165183860918235   -0.020564594453178122   -0.00028248880514623187
-0.008251600674308532   -0.020527983181864013   -0.0003804731533537089
-0.008629357456021355   -0.013683318382026901   -0.00022293249680679236
-0.008205914921816002   -0.02057887444653038   -0.0004083274279393259
-0.0046165183860918235   -0.020564594453178122   -0.00028248880514623187
-0.008629357456021355   -0.013683318382026901   -0.00022293249680679236
-0.004967464638911186   -0.013680634760892192   -0.00012062722708814407
-0.004918619262716451   -0.013739436786086181   -0.00014674815462487157
-0.0046165183860918235   -0.020564594453178122   -0.00028248880514623187
-0.008629357456021355   -0.013683318382026901   -0.00022293249680679236
-0.004918619262716451   -0.013739436786086181   -0.00014674815462487157
-0.008205914921816002   -0.02057887444653038   -0.0004083274279393259
-0.0046165183860918235   -0.020564594453178122   -0.00028248880514623187
-0.004967464638911186   -0.013680634760892192   -0.00012062722708814407
-0.008251600674308532   -0.020527983181864013   -0.0003804731533537089
-0.004663535432949121   -0.020505632558436057   -0.0002583463613619489
-0.004967464638911186   -0.013680634760892192   -0.00012062722708814407
-0.008629357456021355   -0.013683318382026901   -0.00022293249680679236
-0.008251600674308532   -0.020527983181864013   -0.0003804731533537089
-0.008673893756054304   -0.013630987027540134   -0.00019560461989816673
-0.004663535432949121   -0.020505632558436057   -0.0002583463613619489
-0.00829431798652775   -0.020480671560131256   -0.0003491512875951905
-0.008673893756054304   -0.013630987027540134   -0.00019560461989816673
-0.008251600674308532   -0.020527983181864013   -0.0003804731533537089
-0.004663535432949121   -0.020505632558436057   -0.0002583463613619489
-0.008673893756054304   -0.013630987027540134   -0.00019560461989816673
-0.005018019461763685   -0.013619497004523603   -9.188898938057455e-05
-0.004967464638911186   -0.013680634760892192   -0.00012062722708814407
-0.004663535432949121   -0.020505632558436057   -0.0002583463613619489
-0.008673893756054304   -0.013630987027540134   -0.00019560461989816673
-0.004967464638911186   -0.013680634760892192   -0.00012062722708814407
-0.008251600674308532   -0.020527983181864013   -0.0003804731533537089
-0.004663535432949121   -0.020505632558436057   -0.0002583463613619489
-0.005018019461763685   -0.013619497004523603   -9.188898938057455e-05
-0.00829431798652775   -0.020480671560131256   -0.0003491512875951905
-0.00471356287823092   -0.020450996438009725   -0.00023057960111967665
-0.005018019461763685   -0.013619497004523603   -9.188898938057455e-05
-0.008673893756054304   -0.013630987027540134   -0.00019560461989816673
-0.00829431798652775   -0.020480671560131256   -0.0003491512875951905
-0.008717984944040162   -0.013577464387905516   -0.00016610970296991517
-0.00471356287823092   -0.020450996438009725   -0.00023057960111967665
-0.008337188511708194   -0.02043706790346631   -0.0003145322311212791
-0.008717984944040162   -0.013577464387905516   -0.00016610970296991517
-0.00829431798652775   -0.020480671560131256   -0.0003491512875951905
-0.00471356287823092   -0.020450996438009725   -0.00023057960111967665
-0.008717984944040162   -0.013577464387905516   -0.00016610970296991517
-0.005070677890522109   -0.013557154469847444   -6.001628132669265e-05
-0.005018019461763685   -0.013619497004523603   -9.188898938057455e-05
-0.00471356287823092   -0.020450996438009725   -0.00023057960111967665
-0.008717984944040162   -0.013577464387905516   -0.00016610970296991517
-0.005018019461763685   -0.013619497004523603   -9.188898938057455e-05
-0.00829431798652775   -0.020480671560131256   -0.0003491512875951905
-0.008205914921816002   -0.02057887444653038   -0.0004083274279393259
-0.00858260864632846   -0.013734763903812628   -0.00024796739626468896
-0.011907086444521615   -0.020513749533245324   -0.0004937588386029102
-0.008251600674308532   -0.020527983181864013   -0.0003804731533537089
-0.00858260864632846   -0.013734763903812628   -0.00024796739626468896
-0.0123243204781476   -0.01371331509373197   -0.000332729514689816
-0.011907086444521615   -0.020513749533245324   -0.0004937588386029102
-0.012368885242821133   -0.01367157415747932   -0.0003089216827755964
-0.008251600674308532   -0.020527983181864013   -0.0003804731533537089
-0.011950818157170251   -0.020474917860535596   -0.0004586904353240903
-0.012368885242821133   -0.01367157415747932   -0.0003089216827755964
-0.011907086444521615   -0.020513749533245324   -0.0004937588386029102
-0.008251600674308532   -0.020527983181864013   -0.0003804731533537089
-0.012368885242821133   -0.01367157415747932   -0.0003089216827755964
-0.008629357456021355   -0.013683318382026901   -0.00022293249680679236
-0.00858260864632846   -0.013734763903812628   -0.00024796739626468896
-0.008251600674308532   -0.020527983181864013   -0.0003804731533537089
-0.012368885242821133   -0.01367157415747932   -0.0003089216827755964
-0.00858260864632846   -0.013734763903812628   -0.00024796739626468896
-0.011907086444521615   -0.020513749533245324   -0.0004937588386029102
-0.008251600674308532   -0.020527983181864013   -0.0003804731533537089
-0.008629357456021355   -0.013683318382026901   -0.00022293249680679236
-0.011950818157170251   -0.020474917860535596   -0.0004586904353240903
-0.00829431798652775   -0.020480671560131256   -0.0003491512875951905
-0.008629357456021355   -0.013683318382026901   -0.00022293249680679236
-0.012368885242821133   -0.01367157415747932   -0.0003089216827755964
-0.011950818157170251   -0.020474917860535596   -0.0004586904353240903
-0.012406587563483165   -0.01362755958402991   -0.0002834729465276103
-0.00829431798652775   -0.020480671560131256   -0.0003491512875951905
-0.011983867291224422   -0.020438346673074485   -0.0004207203347210881
-0.012406587563483165   -0.01362755958402991   -0.0002834729465276103
-0.011950818157170251   -0.020474917860535596   -0.0004586904353240903
-0.00829431798652775   -0.020480671560131256   -0.0003491512875951905
-0.012406587563483165   -0.01362755958402991   -0.0002834729465276103
-0.008673893756054304   -0.013630987027540134   -0.00019560461989816673
-0.008629357456021355   -0.013683318382026901   -0.00022293249680679236
-0.00829431798652775   -0.020480671560131256   -0.0003491512875951905
-0.012406587563483165   -0.01362755958402991   -0.0002834729465276103
-0.008629357456021355   -0.013683318382026901   -0.00022293249680679236
-0.011950818157170251   -0.020474917860535596   -0.0004586904353240903
-0.00829431798652775   -0.020480671560131256   -0.0003491512875951905
-0.008673893756054304   -0.013630987027540134   -0.00019560461989816673
-0.011983867291224422   -0.020438346673074485   -0.0004207203347210881
-0.008337188511708194   -0.02043706790346631   -0.0003145322311212791
-0.008673893756054304   -0.013630987027540134   -0.00019560461989816673
-0.012406587563483165   -0.01362755958402991   -0.0002834729465276103
-0.011983867291224422   -0.020438346673074485   -0.0004207203347210881
-0.01244221850453759   -0.013582425333210418   -0.0002556806163647713
-0.008337188511708194   -0.02043706790346631   -0.0003145322311212791
-0.012016683766820156   -0.02040569697194374   -0.0003790970719613499
-0.01244221850453759   -0.013582425333210418   -0.0002556806163647713
-0.011983867291224422   -0.020438346673074485   -0.0004207203347210881
-0.008337188511708194   -0.02043706790346631   -0.0003145322311212791
-0.01244221850453759   -0.013582425333210418   -0.0002556806163647713
-0.008717984944040162   -0.013577464387905516   -0.00016610970296991517
-0.008673893756054304   -0.013630987027540134   -0.00019560461989816673
-0.008337188511708194   -0.02043706790346631   -0.0003145322311212791
-0.01244221850453759   -0.013582425333210418   -0.0002556806163647713
-0.008673893756054304   -0.013630987027540134   -0.00019560461989816673
-0.011983867291224422   -0.020438346673074485   -0.0004207203347210881
-0.011907086444521615   -0.020513749533245324   -0.0004937588386029102
-0.0123243204781476   -0.01371331509373197   -0.000332729514689816
-0.015830832475188912   -0.020436580740633918   -0.000556836047339995
-0.011950818157170251   -0.020474917860535596   -0.0004586904353240903
-0.0123243204781476   -0.01371331509373197   -0.000332729514689816
-0.01624500066528735   -0.013677813927947854   -0.00039502076895121016
-0.015830832475188912   -0.020436580740633918   -0.000556836047339995
-0.01627239231677666   -0.013642959858149806   -0.00037697979240244655
-0.011950818157170251   -0.020474917860535596   -0.0004586904353240903
-0.01583691634618374   -0.020405770464882282   -0.0005179025202975494
-0.01627239231677666   -0.013642959858149806   -0.00037697979240244655
-0.015830832475188912   -0.020436580740633918   -0.000556836047339995
-0.011950818157170251   -0.020474917860535596   -0.0004586904353240903
-0.01627239231677666   -0.013642959858149806   -0.00037697979240244655
-0.012368885242821133   -0.01367157415747932   -0.0003089216827755964
-0.0123243204781476   -0.01371331509373197   -0.000332729514689816
-0.011950818157170251   -0.020474917860535596   -0.0004586904353240903
-0.01627239231677666   -0.013642959858149806   -0.00037697979240244655
-0.0123243204781476   -0.01371331509373197   -0.000332729514689816
-0.015830832475188912   -0.020436580740633918   -0.000556836047339995
-0.011950818157170251   -0.020474917860535596   -0.0004586904353240903
-0.012368885242821133   -0.01367157415747932   -0.0003089216827755964
-0.01583691634618374   -0.020405770464882282   -0.0005179025202975494
-0.011983867291224422   -0.020438346673074485   -0.0004207203347210881
-0.012368885242821133   -0.01367157415747932   -0.0003089216827755964
-0.01627239231677666   -0.013642959858149806   -0.00037697979240244655
-0.01583691634618374   -0.020405770464882282   -0.0005179025202975494
-0.016297439030458206   -0.01360344367182396   -0.0003549390847643351
-0.011983867291224422   -0.020438346673074485   -0.0004207203347210881
-0.01584326891629428   -0.02037471843920705   -0.0004731337742972634
-0.016297439030458206   -0.01360344367182396   -0.0003549390847643351
-0.01583691634618374   -0.020405770464882282   -0.0005179025202975494
-0.011983867291224422   -0.020438346673074485   -0.0004207203347210881
-0.016297439030458206   -0.01360344367182396   -0.0003549390847643351
-0.012406587563483165   -0.01362755958402991   -0.0002834729465276103
-0.012368885242821133   -0.01367157415747932   -0.0003089216827755964
-0.011983867291224422   -0.020438346673074485   -0.0004207203347210881
-0.016297439030458206   -0.01360344367182396   -0.0003549390847643351
-0.012368885242821133   -0.01367157415747932   -0.0003089216827755964
-0.01583691634618374   -0.020405770464882282   -0.0005179025202975494
-0.011983867291224422   -0.020438346673074485   -0.0004207203347210881
-0.012406587563483165   -0.01362755958402991   -0.0002834729465276103
-0.01584326891629428   -0.02037471843920705   -0.0004731337742972634
-0.012016683766820156   -0.02040569697194374   -0.0003790970719613499
-0.012406587563483165   -0.01362755958402991   -0.0002834729465276103
-0.016297439030458206   -0.01360344367182396   -0.0003549390847643351
-0.01584326891629428   -0.02037471843920705   -0.0004731337742972634
-0.016309234817587646   -0.01356741222847663   -0.00032988419406074026
-0.012016683766820156   -0.02040569697194374   -0.0003790970719613499
-0.015827394229293072   -0.02035479305683709   -0.0004232180016748185
-0.016309234817587646   -0.01356741222847663   -0.00032988419406074026
-0.01584326891629428   -0.02037471843920705   -0.0004731337742972634
-0.012016683766820156   -0.02040569697194374   -0.0003790970719613499
-0.016309234817587646   -0.01356741222847663   -0.00032988419406074026
-0.01244221850453759   -0.013582425333210418   -0.0002556806163647713
-0.012406587563483165   -0.01362755958402991   -0.0002834729465276103
-0.012016683766820156   -0.02040569697194374   -0.0003790970719613499
-0.016309234817587646   -0.01356741222847663   -0.00032988419406074026
-0.012406587563483165   -0.01362755958402991   -0.0002834729465276103
-0.01584326891629428   -0.02037471843920705   -0.0004731337742972634
0.0027170737955229877   -0.013820520962431014   8.191912642465984e-05
0.0019068940701643152   -0.006946649301130931   8.839155782792105e-05
-0.001215957263099224   -0.013756125661143911   -3.462320904417312e-05
0.002632476997904127   -0.013738799603631915   0.00011640070423293213
0.0019068940701643152   -0.006946649301130931   8.839155782792105e-05
-0.0017645621101031721   -0.006857602912639067   4.664031643149687e-05
-0.001215957263099224   -0.013756125661143911   -3.462320904417312e-05
-0.0018183310660928223   -0.006824010705228679   8.565072808574597e-05
0.002632476997904127   -0.013738799603631915   0.00011640070423293213
-0.0012698753926925997   -0.013688571087748397   -6.69486632678037e-06
-0.0018183310660928223   -0.006824010705228679   8.565072808574597e-05
-0.001215957263099224   -0.013756125661143911   -3.462320904417312e-05
0.002632476997904127   -0.013738799603631915   0.00011640070423293213
-0.0018183310660928223   -0.006824010705228679   8.565072808574597e-05
0.001739150947728675   -0.006859604885226118   0.00018475985554189885
0.0019068940701643152   -0.006946649301130931   8.839155782792105e-05
0.002632476997904127   -0.013738799603631915   0.00011640070423293213
-0.0018183310660928223   -0.006824010705228679   8.565072808574597e-05
0.0019068940701643152   -0.006946649301130931   8.839155782792105e-05
-0.001215957263099224   -0.013756125661143911   -3.462320904417312e-05
0.002632476997904127   -0.013738799603631915   0.00011640070423293213
0.001739150947728675   -0.006859604885226118   0.00018475985554189885
-0.0012698753926925997   -0.013688571087748397   -6.69486632678037e-06
0.0025377576108114785   -0.013657810837663932   0.00016618067390176898
0.001739150947728675   -0.006859604885226118   0.00018475985554189885
-0.0018183310660928223   -0.006824010705228679   8.565072808574597e-05
-0.0012698753926925997   -0.013688571087748397   -6.69486632678037e-06
-0.0018892279915442161   -0.006763403863656982   0.00013308701683890358
0.0025377576108114785   -0.013657810837663932   0.00016618067390176898
-0.0013330037731589459   -0.01361734360552298   2.6244859032483257e-05
-0.0018892279915442161   -0.006763403863656982   0.00013308701683890358
-0.0012698753926925997   -0.013688571087748397   -6.69486632678037e-06
0.0025377576108114785   -0.013657810837663932   0.00016618067390176898
-0.0018892279915442161   -0.006763403863656982   0.00013308701683890358
0.001641027379953168   -0.006788775444605564   0.00025654740855731464
0.001739150947728675   -0.006859604885226118   0.00018475985554189885
0.0025377576108114785   -0.013657810837663932   0.00016618067390176898
-0.0018892279915442161   -0.006763403863656982   0.00013308701683890358
0.001739150947728675   -0.006859604885226118   0.00018475985554189885
-0.0012698753926925997   -0.013688571087748397   -6.69486632678037e-06
0.0025377576108114785   -0.013657810837663932   0.00016618067390176898
0.001641027379953168   -0.006788775444605564   0.00025654740855731464
-0.0013330037731589459   -0.01361734360552298   2.6244859032483257e-05
0.002421995625972724   -0.013558255187404153   0.00022100090150911733
0.001641027379953168   -0.006788775444605564   0.00025654740855731464
-0.0018892279915442161   -0.006763403863656982   0.00013308701683890358
-0.0013330037731589459   -0.01361734360552298   2.6244859032483257e-05
-0.0019489351293896808   -0.0066983784659195985   0.00017483067563118832
0.002421995625972724   -0.013558255187404153   0.00022100090150911733
-0.0013983658128944114   -0.013541778918193697   6.413763550254212e-05
-0.0019489351293896808   -0.0066983784659195985   0.00017483067563118832
-0.0013330037731589459   -0.01361734360552298   2.6244859032483257e-05
0.002421995625972724   -0.013558255187404153   0.00022100090150911733
-0.0019489351293896808   -0.0066983784659195985   0.00017483067563118832
0.0015151116658942655   -0.006680176666527855   0.000338807298764447
0.001641027379953168   -0.006788775444605564   0.00025654740855731464
0.002421995625972724   -0.013558255187404153   0.00022100090150911733
-0.0019489351293896808   -0.0066983784659195985   0.00017483067563118832
0.001641027379953168   -0.006788775444605564   0.00025654740855731464
-0.0013330037731589459   -0.01361734360552298   2.6244859032483257e-05
-0.001215957263099224   -0.013756125661143911   -3.462320904417312e-05
-0.0017645621101031721   -0.006857602912639067   4.664031643149687e-05
-0.004918619262716451   -0.013739436786086181   -0.00014674815462487157
-0.0012698753926925997   -0.013688571087748397   -6.69486632678037e-06
-0.0017645621101031721   -0.006857602912639067   4.664031643149687e-05
-0.00525602622614878   -0.0069596964100887585   -4.2040876940228066e-05
-0.004918619262716451   -0.013739436786086181   -0.00014674815462487157
-0.0053057405936551595   -0.006907776709199481   -1.4324618806889955e-05
-0.0012698753926925997   -0.013688571087748397   -6.69486632678037e-06
-0.004967464638911186   -0.013680634760892192   -0.00012062722708814407
-0.0053057405936551595   -0.006907776709199481   -1.4324618806889955e-05
-0.004918619262716451   -0.013739436786086181   -0.00014674815462487157
-0.0012698753926925997   -0.013688571087748397   -6.69486632678037e-06
-0.0053057405936551595   -0.006907776709199481   -1.4324618806889955e-05
-0.0018183310660928223   -0.006824010705228679   8.565072808574597e-05
-0.0017645621101031721   -0.006857602912639067   4.664031643149687e-05
-0.0012698753926925997   -0.013688571087748397   -6.69486632678037e-06
-0.0053057405936551595   -0.006907776709199481   -1.4324618806889955e-05
-0.0017645621101031721   -0.006857602912639067   4.664031643149687e-05
-0.004918619262716451   -0.013739436786086181   -0.00014674815462487157
-0.0012698753926925997   -0.013688571087748397   -6.69486632678037e-06
-0.0018183310660928223   -0.006824010705228679   8.565072808574597e-05
-0.004967464638911186   -0.013680634760892192   -0.00012062722708814407
-0.0013330037731589459   -0.01361734360552298   2.6244859032483257e-05
-0.0018183310660928223   -0.006824010705228679   8.565072808574597e-05
-0.0053057405936551595   -0.006907776709199481   -1.4324618806889955e-05
-0.004967464638911186   -0.013680634760892192   -0.00012062722708814407
-0.005357889003137152   -0.0068490127076619315   1.5063777771056569e-05
-0.0013330037731589459   -0.01361734360552298   2.6244859032483257e-05
-0.005018019461763685   -0.013619497004523603   -9.188898938057455e-05
-0.005357889003137152   -0.0068490127076619315   1.5063777771056569e-05
-0.004967464638911186   -0.013680634760892192   -0.00012062722708814407
-0.0013330037731589459   -0.01361734360552298   2.6244859032483257e-05
-0.005357889003137152   -0.0068490127076619315   1.5063777771056569e-05
-0.0018892279915442161   -0.006763403863656982   0.00013308701683890358
-0.0018183310660928223   -0.006824010705228679   8.565072808574597e-05
-0.0013330037731589459   -0.01361734360552298   2.6244859032483257e-05
-0.005357889003137152   -0.0068490127076619315   1.5063777771056569e-05
-0.0018183310660928223   -0.006824010705228679   8.565072808574597e-05
-0.004967464638911186   -0.013680634760892192   -0.00012062722708814407
-0.0013330037731589459   -0.01361734360552298   2.6244859032483257e-05
-0.0018892279915442161   -0.006763403863656982   0.00013308701683890358
-0.005018019461763685   -0.013619497004523603   -9.188898938057455e-05
-0.0013983658128944114   -0.013541778918193697   6.413763550254212e-05
-0.0018892279915442161   -0.006763403863656982   0.00013308701683890358
-0.005357889003137152   -0.0068490127076619315   1.5063777771056569e-05
-0.005018019461763685   -0.013619497004523603   -9.188898938057455e-05
-0.005407547623886185   -0.006784605717300613   4.7507805862563994e-05
-0.0013983658128944114   -0.013541778918193697   6.413763550254212e-05
-0.005070677890522109   -0.013557154469847444   -6.001628132669265e-05
-0.005407547623886185   -0.006784605717300613   4.7507805862563994e-05
-0.005018019461763685   -0.013619497004523603   -9.188898938057455e-05
-0.0013983658128944114   -0.013541778918193697   6.413763550254212e-05
-0.005407547623886185   -0.006784605717300613   4.7507805862563994e-05
-0.0019489351293896808   -0.0066983784659195985   0.00017483067563118832
-0.0018892279915442161   -0.006763403863656982   0.00013308701683890358
-0.0013983658128944114   -0.013541778918193697   6.413763550254212e-05
-0.005407547623886185   -0.006784605717300613   4.7507805862563994e-05
-0.0018892279915442161   -0.006763403863656982   0.00013308701683890358
-0.005018019461763685   -0.013619497004523603   -9.188898938057455e-05
-0.004918619262716451   -0.013739436786086181   -0.00014674815462487157
-0.00525602622614878   -0.0069596964100887585   -4.2040876940228066e-05
-0.00858260864632846   -0.013734763903812628   -0.00024796739626468896
-0.004967464638911186   -0.013680634760892192   -0.00012062722708814407
-0.00525602622614878   -0.0069596964100887585   -4.2040876940228066e-05
-0.008831859487775458   -0.007039469968083112   -0.00014068413977594093
-0.00858260864632846   -0.013734763903812628   -0.00024796739626468896
-0.008876599977083432   -0.0069861244390375336   -0.0001191388188240079
-0.004967464638911186   -0.013680634760892192   -0.00012062722708814407
-0.008629357456021355   -0.013683318382026901   -0.00022293249680679236
-0.008876599977083432   -0.0069861244390375336   -0.0001191388188240079
-0.00858260864632846   -0.013734763903812628   -0.00024796739626468896
-0.004967464638911186   -0.013680634760892192   -0.00012062722708814407
-0.008876599977083432   -0.0069861244390375336   -0.0001191388188240079
-0.0053057405936551595   -0.006907776709199481   -1.4324618806889955e-05
-0.00525602622614878   -0.0069596964100887585   -4.2040876940228066e-05
-0.004967464638911186   -0.013680634760892192   -0.00012062722708814407
-0.008876599977083432   -0.0069861244390375336   -0.0001191388188240079
-0.00525602622614878   -0.0069596964100887585   -4.2040876940228066e-05
-0.00858260864632846   -0.013734763903812628   -0.00024796739626468896
-0.004967464638911186   -0.013680634760892192   -0.00012062722708814407
-0.0053057405936551595   -0.006907776709199481   -1.4324618806889955e-05
-0.008629357456021355   -0.013683318382026901   -0.00022293249680679236
-0.005018019461763685   -0.013619497004523603   -9.188898938057455e-05
-0.0053057405936551595   -0.006907776709199481   -1.4324618806889955e-05
-0.008876599977083432   -0.0069861244390375336   -0.0001191388188240079
-0.008629357456021355   -0.013683318382026901   -0.00022293249680679236
-0.00891948727805601   -0.006929719889774791   -9.762387393019858e-05
-0.005018019461763685   -0.013619497004523603   -9.188898938057455e-05
-0.008673893756054304   -0.013630987027540134   -0.00019560461989816673
-0.00891948727805601   -0.006929719889774791   -9.762387393019858e-05
-0.008629357456021355   -0.013683318382026901   -0.00022293249680679236
-0.005018019461763685   -0.013619497004523603   -9.188898938057455e-05
-0.00891948727805601   -0.006929719889774791   -9.762387393019858e-05
-0.005357889003137152   -0.0068490127076619315   1.5063777771056569e-05
-0.0053057405936551595   -0.006907776709199481   -1.4324618806889955e-05
-0.005018019461763685   -0.013619497004523603   -9.188898938057455e-05
-0.00891948727805601   -0.006929719889774791   -9.762387393019858e-05
-0.0053057405936551595   -0.006907776709199481   -1.4324618806889955e-05
-0.008629357456021355   -0.013683318382026901   -0.00022293249680679236
-0.005018019461763685   -0.013619497004523603   -9.188898938057455e-05
-0.005357889003137152   -0.0068490127076619315   1.5063777771056569e-05
-0.008673893756054304   -0.013630987027540134   -0.00019560461989816673
-0.005070677890522109   -0.013557154469847444   -6.001628132669265e-05
-0.005357889003137152   -0.0068490127076619315   1.5063777771056569e-05
-0.00891948727805601   -0.006929719889774791   -9.762387393019858e-05
-0.008673893756054304   -0.013630987027540134   -0.00019560461989816673
-0.008959069982572546   -0.0068686017211430075   -7.415856297202465e-05
-0.005070677890522109   -0.013557154469847444   -6.001628132669265e-05
-0.008717984944040162   -0.013577464387905516   -0.00016610970296991517
-0.008959069982572546   -0.0068686017211430075   -7.415856297202465e-05
-0.008673893756054304   -0.013630987027540134   -0.00019560461989816673
-0.005070677890522109   -0.013557154469847444   -6.001628132669265e-05
-0.008959069982572546   -0.0068686017211430075   -7.415856297202465e-05
-0.005407547623886185   -0.006784605717300613   4.7507805862563994e-05
-0.005357889003137152   -0.0068490127076619315   1.5063777771056569e-05
-0.005070677890522109   -0.013557154469847444   -6.001628132669265e-05
-0.008959069982572546   -0.0068686017211430075   -7.415856297202465e-05
-0.005357889003137152   -0.0068490127076619315   1.5063777771056569e-05
-0.008673893756054304   -0.013630987027540134   -0.00019560461989816673
-0.00858260864632846   -0.013734763903812628   -0.00024796739626468896
-0.008831859487775458   -0.007039469968083112   -0.00014068413977594093
-0.0123243204781476   -0.01371331509373197   -0.000332729514689816
-0.008629357456021355   -0.013683318382026901   -0.00022293249680679236
-0.008831859487775458   -0.007039469968083112   -0.00014068413977594093
-0.012533334005348838   -0.0070722656418306116   -0.0002316666050766589
-0.0123243204781476   -0.01371331509373197   -0.000332729514689816
-0.012573661127586757   -0.0070244569742966235   -0.00021590525563906432
-0.008629357456021355   -0.013683318382026901   -0.00022293249680679236
-0.012368885242821133   -0.01367157415747932   -0.0003089216827755964
-0.012573661127586757   -0.0070244569742966235   -0.00021590525563906432
-0.0123243204781476   -0.01371331509373197   -0.000332729514689816
-0.008629357456021355   -0.013683318382026901   -0.00022293249680679236
-0.012573661127586757   -0.0070244569742966235   -0.00021590525563906432
-0.008876599977083432   -0.0069861244390375336   -0.0001191388188240079
-0.008831859487775458   -0.007039469968083112   -0.00014068413977594093
-0.008629357456021355   -0.013683318382026901   -0.00022293249680679236
-0.012573661127586757   -0.0070244569742966235   -0.00021590525563906432
-0.008831859487775458   -0.007039469968083112   -0.00014068413977594093
-0.0123243204781476   -0.01371331509373197   -0.000332729514689816
-0.008629357456021355   -0.013683318382026901   -0.00022293249680679236
-0.008876599977083432   -0.0069861244390375336   -0.0001191388188240079
-0.012368885242821133   -0.01367157415747932   -0.0003089216827755964
-0.008673893756054304   -0.013630987027540134   -0.00019560461989816673
-0.008876599977083432   -0.0069861244390375336   -0.0001191388188240079
-0.012573661127586757   -0.0070244569742966235   -0.00021590525563906432
-0.012368885242821133   -0.01367157415747932   -0.0003089216827755964
-0.012609600895204739   -0.00697230151572685   -0.0002005570564441283
-0.008673893756054304   -0.013630987027540134   -0.00019560461989816673
-0.012406587563483165   -0.01362755958402991   -0.0002834729465276103
-0.012609600895204739   -0.00697230151572685   -0.0002005570564441283
-0.012368885242821133   -0.01367157415747932   -0.0003089216827755964
-0.008673893756054304   -0.013630987027540134   -0.00019560461989816673
-0.012609600895204739   -0.00697230151572685   -0.0002005570564441283
-0.00891948727805601   -0.006929719889774791   -9.762387393019858e-05
-0.008876599977083432   -0.0069861244390375336   -0.0001191388188240079
-0.008673893756054304   -0.013630987027540134   -0.00019560461989816673
-0.012609600895204739   -0.00697230151572685   -0.0002005570564441283
-0.008876599977083432   -0.0069861244390375336   -0.0001191388188240079
-0.012368885242821133   -0.01367157415747932   -0.0003089216827755964
-0.008673893756054304   -0.013630987027540134   -0.00019560461989816673
-0.00891948727805601   -0.006929719889774791   -9.762387393019858e-05
-0.012406587563483165   -0.01362755958402991   -0.0002834729465276103
-0.008717984944040162   -0.013577464387905516   -0.00016610970296991517
-0.00891948727805601   -0.006929719889774791   -9.762387393019858e-05
-0.012609600895204739   -0.00697230151572685   -0.0002005570564441283
-0.012406587563483165   -0.01362755958402991   -0.0002834729465276103
-0.012642160618970714   -0.006916741554832456   -0.00018471084801003403
-0.008717984944040162   -0.013577464387905516   -0.00016610970296991517
-0.01244221850453759   -0.013582425333210418   -0.0002556806163647713
-0.012642160618970714   -0.006916741554832456   -0.00018471084801003403
-0.012406587563483165   -0.01362755958402991   -0.0002834729465276103
-0.008717984944040162   -0.013577464387905516   -0.00016610970296991517
-0.012642160618970714   -0.006916741554832456   -0.00018471084801003403
-0.008959069982572546   -0.0068686017211430075   -7.415856297202465e-05
-0.00891948727805601   -0.006929719889774791   -9.762387393019858e-05
-0.008717984944040162   -0.013577464387905516   -0.00016610970296991517
-0.012642160618970714   -0.006916741554832456   -0.00018471084801003403
-0.00891948727805601   -0.006929719889774791   -9.762387393019858e-05
-0.012406587563483165   -0.01362755958402991   -0.0002834729465276103
-0.0123243204781476   -0.01371331509373197   -0.000332729514689816
-0.012533334005348838   -0.0070722656418306116   -0.0002316666050766589
-0.01624500066528735   -0.013677813927947854   -0.00039502076895121016
-0.012368885242821133   -0.01367157415747932   -0.0003089216827755964
-0.012533334005348838   -0.0070722656418306116   -0.0002316666050766589
-0.016367741254816874   -0.007075835806067394   -0.00030692015107978076
-0.01624500066528735   -0.013677813927947854   -0.00039502076895121016
-0.01640230212560495   -0.007029476425583808   -0.0003000471645557435
-0.012368885242821133   -0.01367157415747932   -0.0003089216827755964
-0.01627239231677666   -0.013642959858149806   -0.00037697979240244655
-0.01640230212560495   -0.007029476425583808   -0.0003000471645557435
-0.01624500066528735   -0.013677813927947854   -0.00039502076895121016
-0.012368885242821133   -0.01367157415747932   -0.0003089216827755964
-0.01640230212560495   -0.007029476425583808   -0.0003000471645557435
-0.012573661127586757   -0.0070244569742966235   -0.00021590525563906432
-0.012533334005348838   -0.0070722656418306116   -0.0002316666050766589
-0.012368885242821133   -0.01367157415747932   -0.0003089216827755964
-0.01640230212560495   -0.007029476425583808   -0.0003000471645557435
-0.012533334005348838   -0.0070722656418306116   -0.0002316666050766589
-0.01624500066528735   -0.013677813927947854   -0.00039502076895121016
-0.012368885242821133   -0.01367157415747932   -0.0003089216827755964
-0.012573661127586757   -0.0070244569742966235   -0.00021590525563906432
-0.01627239231677666   -0.013642959858149806   -0.00037697979240244655
-0.012406587563483165   -0.01362755958402991   -0.0002834729465276103
-0.012573661127586757   -0.0070244569742966235   -0.00021590525563906432
-0.01640230212560495   -0.007029476425583808   -0.0003000471645557435
-0.01627239231677666   -0.013642959858149806   -0.00037697979240244655
-0.016433265749711278   -0.0069792690504125515   -0.0002919891271963924
-0.012406587563483165   -0.01362755958402991   -0.0002834729465276103
-0.016297439030458206   -0.01360344367182396   -0.0003549390847643351
-0.016433265749711278   -0.0069792690504125515   -0.0002919891271963924
-0.01627239231677666   -0.013642959858149806   -0.00037697979240244655
-0.012406587563483165   -0.01362755958402991   -0.0002834729465276103
-0.016433265749711278   -0.0069792690504125515   -0.0002919891271963924
-0.012609600895204739   -0.00697230151572685   -0.0002005570564441283
-0.012573661127586757   -0.0070244569742966235   -0.00021590525563906432
-0.012406587563483165   -0.01362755958402991   -0.0002834729465276103
-0.016433265749711278   -0.0069792690504125515   -0.0002919891271963924
-0.012573661127586757   -0.0070244569742966235   -0.00021590525563906432
-0.01627239231677666   -0.013642959858149806   -0.00037697979240244655
-0.012406587563483165   -0.01362755958402991   -0.0002834729465276103
-0.012609600895204739   -0.00697230151572685   -0.0002005570564441283
-0.016297439030458206   -0.01360344367182396   -0.0003549390847643351
-0.01244221850453759   -0.013582425333210418   -0.0002556806163647713
-0.012609600895204739   -0.00697230151572685   -0.0002005570564441283
-0.016433265749711278   -0.0069792690504125515   -0.0002919891271963924
-0.016297439030458206   -0.01360344367182396   -0.0003549390847643351
-0.016459190086472574   -0.006926120121151908   -0.00028442715133993924
-0.01244221850453759   -0.013582425333210418   -0.0002556806163647713
-0.016309234817587646   -0.01356741222847663   -0.00032988419406074026
-0.016459190086472574   -0.006926120121151908   -0.00028442715133993924
-0.016297439030458206   -0.01360344367182396   -0.0003549390847643351
-0.01244221850453759   -0.013582425333210418   -0.0002556806163647713
-0.016459190086472574   -0.006926120121151908   -0.00028442715133993924
-0.012642160618970714   -0.006916741554832456   -0.00018471084801003403
-0.012609600895204739   -0.00697230151572685   -0.0002005570564441283
-0.01244221850453759   -0.013582425333210418   -0.0002556806163647713
-0.016459190086472574   -0.006926120121151908   -0.00028442715133993924
-0.012609600895204739   -0.00697230151572685   -0.0002005570564441283
-0.016297439030458206   -0.01360344367182396   -0.0003549390847643351
0.0019068940701643152   -0.006946649301130931   8.839155782792105e-05
0.0   0.0   0.0
-0.0017645621101031721   -0.006857602912639067   4.664031643149687e-05
0.001739150947728675   -0.006859604885226118   0.00018475985554189885
0.0   0.0   0.0
-0.002211654650555638   -0.0005667329328634232   -1.7220511420272394e-05
-0.0017645621101031721   -0.006857602912639067   4.664031643149687e-05
-0.002343923081724477   -0.0004416478263860475   5.957225893563356e-05
0.001739150947728675   -0.006859604885226118   0.00018475985554189885
-0.0018183310660928223   -0.006824010705228679   8.565072808574597e-05
-0.002343923081724477   -0.0004416478263860475   5.957225893563356e-05
-0.0017645621101031721   -0.006857602912639067   4.664031643149687e-05
0.001739150947728675   -0.006859604885226118   0.00018475985554189885
-0.002343923081724477   -0.0004416478263860475   5.957225893563356e-05
0.0   0.0   0.0
0.0   0.0   0.0
0.001739150947728675   -0.006859604885226118   0.00018475985554189885
-0.002343923081724477   -0.0004416478263860475   5.957225893563356e-05
0.0   0.0   0.0
-0.0017645621101031721   -0.006857602912639067   4.664031643149687e-05
0.001739150947728675   -0.006859604885226118   0.00018475985554189885
0.0   0.0   0.0
-0.0018183310660928223   -0.006824010705228679   8.565072808574597e-05
0.001641027379953168   -0.006788775444605564   0.00025654740855731464
0.0   0.0   0.0
-0.002343923081724477   -0.0004416478263860475   5.957225893563356e-05
-0.0018183310660928223   -0.006824010705228679   8.565072808574597e-05
-0.0024271143261513106   -0.0003815289793229969   0.00010410154135085021
0.001641027379953168   -0.006788775444605564   0.00025654740855731464
-0.0018892279915442161   -0.006763403863656982   0.00013308701683890358
-0.0024271143261513106   -0.0003815289793229969   0.00010410154135085021
-0.0018183310660928223   -0.006824010705228679   8.565072808574597e-05
0.001641027379953168   -0.006788775444605564   0.00025654740855731464
-0.0024271143261513106   -0.0003815289793229969   0.00010410154135085021
0.0   0.0   0.0
0.0   0.0   0.0
0.001641027379953168   -0.006788775444605564   0.00025654740855731464
-0.0024271143261513106   -0.0003815289793229969   0.00010410154135085021
0.0   0.0   0.0
-0.0018183310660928223   -0.006824010705228679   8.565072808574597e-05
0.001641027379953168   -0.006788775444605564   0.00025654740855731464
0.0   0.0   0.0
-0.0018892279915442161   -0.006763403863656982   0.00013308701683890358
0.0015151116658942655   -0.006680176666527855   0.000338807298764447
0.0   0.0   0.0
-0.0024271143261513106   -0.0003815289793229969   0.00010410154135085021
-0.0018892279915442161   -0.006763403863656982   0.00013308701683890358
-0.0025389656991480418   -0.0003015927323364783   0.00015525213934934937
0.0015151116658942655   -0.006680176666527855   0.000338807298764447
-0.0019489351293896808   -0.0066983784659195985   0.00017483067563118832
-0.0025389656991480418   -0.0003015927323364783   0.00015525213934934937
-0.0018892279915442161   -0.006763403863656982   0.00013308701683890358
0.0015151116658942655   -0.006680176666527855   0.000338807298764447
-0.0025389656991480418   -0.0003015927323364783   0.00015525213934934937
0.0   0.0   0.0
0.0   0.0   0.0
0.0015151116658942655   -0.006680176666527855   0.000338807298764447
-0.0025389656991480418   -0.0003015927323364783   0.00015525213934934937
0.0   0.0   0.0
-0.0018892279915442161   -0.006763403863656982   0.00013308701683890358
-0.0017645621101031721   -0.006857602912639067   4.664031643149687e-05
-0.002211654650555638   -0.0005667329328634232   -1.7220511420272394e-05
-0.00525602622614878   -0.0069596964100887585   -4.2040876940228066e-05
-0.0018183310660928223   -0.006824010705228679   8.565072808574597e-05
-0.002211654650555638   -0.0005667329328634232   -1.7220511420272394e-05
-0.005411416599321389   -0.0007445315185088145   -1.4194482834469638e-05
-0.00525602622614878   -0.0069596964100887585   -4.2040876940228066e-05
-0.005479809400269612   -0.0006764953784561359   5.755553022353954e-06
-0.0018183310660928223   -0.006824010705228679   8.565072808574597e-05
-0.0053057405936551595   -0.006907776709199481   -1.4324618806889955e-05
-0.005479809400269612   -0.0006764953784561359   5.755553022353954e-06
-0.00525602622614878   -0.0069596964100887585   -4.2040876940228066e-05
-0.0018183310660928223   -0.006824010705228679   8.565072808574597e-05
-0.005479809400269612   -0.0006764953784561359   5.755553022353954e-06
-0.002343923081724477   -0.0004416478263860475   5.957225893563356e-05
-0.002211654650555638   -0.0005667329328634232   -1.7220511420272394e-05
-0.0018183310660928223   -0.006824010705228679   8.565072808574597e-05
-0.005479809400269612   -0.0006764953784561359   5.755553022353954e-06
-0.002211654650555638   -0.0005667329328634232   -1.7220511420272394e-05
-0.00525602622614878   -0.0069596964100887585   -4.2040876940228066e-05
-0.0018183310660928223   -0.006824010705228679   8.565072808574597e-05
-0.002343923081724477   -0.0004416478263860475   5.957225893563356e-05
-0.0053057405936551595   -0.006907776709199481   -1.4324618806889955e-05
-0.0018892279915442161   -0.006763403863656982   0.00013308701683890358
-0.002343923081724477   -0.0004416478263860475   5.957225893563356e-05
-0.005479809400269612   -0.0006764953784561359   5.755553022353954e-06
-0.0053057405936551595   -0.006907776709199481   -1.4324618806889955e-05
-0.0055479975748890225   -0.0005968034918861534   4.12905064375104e-05
-0.0018892279915442161   -0.006763403863656982   0.00013308701683890358
-0.005357889003137152   -0.0068490127076619315   1.5063777771056569e-05
-0.0055479975748890225   -0.0005968034918861534   4.12905064375104e-05
-0.0053057405936551595   -0.006907776709199481   -1.4324618806889955e-05
-0.0018892279915442161   -0.006763403863656982   0.00013308701683890358
-0.0055479975748890225   -0.0005968034918861534   4.12905064375104e-05
-0.0024271143261513106   -0.0003815289793229969   0.00010410154135085021
-0.002343923081724477   -0.0004416478263860475   5.957225893563356e-05
-0.0018892279915442161   -0.006763403863656982   0.00013308701683890358
-0.0055479975748890225   -0.0005968034918861534   4.12905064375104e-05
-0.002343923081724477   -0.0004416478263860475   5.957225893563356e-05
-0.0053057405936551595   -0.006907776709199481   -1.4324618806889955e-05
-0.0018892279915442161   -0.006763403863656982   0.00013308701683890358
-0.0024271143261513106   -0.0003815289793229969   0.00010410154135085021
-0.005357889003137152   -0.0068490127076619315   1.5063777771056569e-05
-0.0019489351293896808   -0.0066983784659195985   0.00017483067563118832
-0.0024271143261513106   -0.0003815289793229969   0.00010410154135085021
-0.0055479975748890225   -0.0005968034918861534   4.12905064375104e-05
-0.005357889003137152   -0.0068490127076619315   1.5063777771056569e-05
-0.005623828218514686   -0.000504469947969283   7.544044515971365e-05
-0.0019489351293896808   -0.0066983784659195985   0.00017483067563118832
-0.005407547623886185   -0.006784605717300613   4.7507805862563994e-05
-0.005623828218514686   -0.000504469947969283   7.544044515971365e-05
-0.005357889003137152   -0.0068490127076619315   1.5063777771056569e-05
-0.0019489351293896808   -0.0066983784659195985   0.00017483067563118832
-0.005623828218514686   -0.000504469947969283   7.544044515971365e-05
-0.0025389656991480418   -0.0003015927323364783   0.00015525213934934937
-0.0024271143261513106   -0.0003815289793229969   0.00010410154135085021
-0.0019489351293896808   -0.0066983784659195985   0.00017483067563118832
-0.005623828218514686   -0.000504469947969283   7.544044515971365e-05
-0.0024271143261513106   -0.0003815289793229969   0.00010410154135085021
-0.005357889003137152   -0.0068490127076619315   1.5063777771056569e-05
-0.00525602622614878   -0.0069596964100887585   -4.2040876940228066e-05
-0.005411416599321389   -0.0007445315185088145   -1.4194482834469638e-05
-0.008831859487775458   -0.007039469968083112   -0.00014068413977594093
-0.0053057405936551595   -0.006907776709199481   -1.4324618806889955e-05
-0.005411416599321389   -0.0007445315185088145   -1.4194482834469638e-05
-0.008918772489795656   -0.0007953998451474891   -7.588928990424112e-05
-0.008831859487775458   -0.007039469968083112   -0.00014068413977594093
-0.008960392143440972   -0.0007426875915650265   -7.025972139162052e-05
-0.0053057405936551595   -0.006907776709199481   -1.4324618806889955e-05
-0.008876599977083432   -0.0069861244390375336   -0.0001191388188240079
-0.008960392143440972   -0.0007426875915650265   -7.025972139162052e-05
-0.008831859487775458   -0.007039469968083112   -0.00014068413977594093
-0.0053057405936551595   -0.006907776709199481   -1.4324618806889955e-05
-0.008960392143440972   -0.0007426875915650265   -7.025972139162052e-05
-0.005479809400269612   -0.0006764953784561359   5.755553022353954e-06
-0.005411416599321389   -0.0007445315185088145   -1.4194482834469638e-05
-0.0053057405936551595   -0.006907776709199481   -1.4324618806889955e-05
-0.008960392143440972   -0.0007426875915650265   -7.025972139162052e-05
-0.005411416599321389   -0.0007445315185088145   -1.4194482834469638e-05
-0.008831859487775458   -0.007039469968083112   -0.00014068413977594093
-0.0053057405936551595   -0.006907776709199481   -1.4324618806889955e-05
-0.005479809400269612   -0.0006764953784561359   5.755553022353954e-06
-0.008876599977083432   -0.0069861244390375336   -0.0001191388188240079
-0.005357889003137152   -0.0068490127076619315   1.5063777771056569e-05
-0.005479809400269612   -0.0006764953784561359   5.755553022353954e-06
-0.008960392143440972   -0.0007426875915650265   -7.025972139162052e-05
-0.008876599977083432   -0.0069861244390375336   -0.0001191388188240079
-0.009003690677299453   -0.0006813371486999838   -6.0439366781692334e-05
-0.005357889003137152   -0.0068490127076619315   1.5063777771056569e-05
-0.00891948727805601   -0.006929719889774791   -9.762387393019858e-05
-0.009003690677299453   -0.0006813371486999838   -6.0439366781692334e-05
-0.008876599977083432   -0.0069861244390375336   -0.0001191388188240079
-0.005357889003137152   -0.0068490127076619315   1.5063777771056569e-05
-0.009003690677299453   -0.0006813371486999838   -6.0439366781692334e-05
-0.0055479975748890225   -0.0005968034918861534   4.12905064375104e-05
-0.005479809400269612   -0.0006764953784561359   5.755553022353954e-06
-0.005357889003137152   -0.0068490127076619315   1.5063777771056569e-05
-0.009003690677299453   -0.0006813371486999838   -6.0439366781692334e-05
-0.005479809400269612   -0.0006764953784561359   5.755553022353954e-06
-0.008876599977083432   -0.0069861244390375336   -0.0001191388188240079
-0.005357889003137152   -0.0068490127076619315   1.5063777771056569e-05
-0.0055479975748890225   -0.0005968034918861534   4.12905064375104e-05
-0.00891948727805601   -0.006929719889774791   -9.762387393019858e-05
-0.005407547623886185   -0.006784605717300613   4.7507805862563994e-05
-0.0055479975748890225   -0.0005968034918861534   4.12905064375104e-05
-0.009003690677299453   -0.0006813371486999838   -6.0439366781692334e-05
-0.00891948727805601   -0.006929719889774791   -9.762387393019858e-05
-0.009045040910318105   -0.0006064103199926933   -4.744500563884474e-05
-0.005407547623886185   -0.006784605717300613   4.7507805862563994e-05
-0.008959069982572546   -0.0068686017211430075   -7.415856297202465e-05
-0.009045040910318105   -0.0006064103199926933   -4.744500563884474e-05
-0.00891948727805601   -0.006929719889774791   -9.762387393019858e-05
-0.005407547623886185   -0.006784605717300613   4.7507805862563994e-05
-0.009045040910318105   -0.0006064103199926933   -4.744500563884474e-05
-0.005623828218514686   -0.000504469947969283   7.544044515971365e-05
-0.0055479975748890225   -0.0005968034918861534   4.12905064375104e-05
-0.005407547623886185   -0.006784605717300613   4.7507805862563994e-05
-0.009045040910318105   -0.0006064103199926933   -4.744500563884474e-05
-0.0055479975748890225   -0.0005968034918861534   4.12905064375104e-05
-0.00891948727805601   -0.006929719889774791   -9.762387393019858e-05
-0.008831859487775458   -0.007039469968083112   -0.00014068413977594093
-0.008918772489795656   -0.0007953998451474891   -7.588928990424112e-05
-0.012533334005348838   -0.0070722656418306116   -0.0002316666050766589
-0.008876599977083432   -0.0069861244390375336   -0.0001191388188240079
-0.008918772489795656   -0.0007953998451474891   -7.588928990424112e-05
-0.012598386157125205   -0.0007880107703562731   -0.000165501202639914
-0.012533334005348838   -0.0070722656418306116   -0.0002316666050766589
-0.012626528681122543   -0.0007408980127171504   -0.00016307536547868068
-0.008876599977083432   -0.0069861244390375336   -0.0001191388188240079
-0.012573661127586757   -0.0070244569742966235   -0.00021590525563906432
-0.012626528681122543   -0.0007408980127171504   -0.00016307536547868068
-0.012533334005348838   -0.0070722656418306116   -0.0002316666050766589
-0.008876599977083432   -0.0069861244390375336   -0.0001191388188240079
-0.012626528681122543   -0.0007408980127171504   -0.00016307536547868068
-0.008960392143440972   -0.0007426875915650265   -7.025972139162052e-05
-0.008918772489795656   -0.0007953998451474891   -7.588928990424112e-05
-0.008876599977083432   -0.0069861244390375336   -0.0001191388188240079
-0.012626528681122543   -0.0007408980127171504   -0.00016307536547868068
-0.008918772489795656   -0.0007953998451474891   -7.588928990424112e-05
-0.012533334005348838   -0.0070722656418306116   -0.0002316666050766589
-0.008876599977083432   -0.0069861244390375336   -0.0001191388188240079
-0.008960392143440972   -0.0007426875915650265   -7.025972139162052e-05
-0.012573661127586757   -0.0070244569742966235   -0.00021590525563906432
-0.00891948727805601   -0.006929719889774791   -9.762387393019858e-05
-0.008960392143440972   -0.0007426875915650265   -7.025972139162052e-05
-0.012626528681122543   -0.0007408980127171504   -0.00016307536547868068
-0.012573661127586757   -0.0070244569742966235   -0.00021590525563906432
-0.012655882045600038   -0.0006882951960622888   -0.00016130056547536124
-0.00891948727805601   -0.006929719889774791   -9.762387393019858e-05
-0.012609600895204739   -0.00697230151572685   -0.0002005570564441283
-0.012655882045600038   -0.0006882951960622888   -0.00016130056547536124
-0.012573661127586757   -0.0070244569742966235   -0.00021590525563906432
-0.00891948727805601   -0.006929719889774791   -9.762387393019858e-05
-0.012655882045600038   -0.0006882951960622888   -0.00016130056547536124
-0.009003690677299453   -0.0006813371486999838   -6.0439366781692334e-05
-0.008960392143440972   -0.0007426875915650265   -7.025972139162052e-05
-0.00891948727805601   -0.006929719889774791   -9.762387393019858e-05
-0.012655882045600038   -0.0006882951960622888   -0.00016130056547536124
-0.008960392143440972   -0.0007426875915650265   -7.025972139162052e-05
-0.012573661127586757   -0.0070244569742966235   -0.00021590525563906432
-0.00891948727805601   -0.006929719889774791   -9.762387393019858e-05
-0.009003690677299453   -0.0006813371486999838   -6.0439366781692334e-05
-0.012609600895204739   -0.00697230151572685   -0.0002005570564441283
-0.008959069982572546   -0.0068686017211430075   -7.415856297202465e-05
-0.009003690677299453   -0.0006813371486999838   -6.0439366781692334e-05
-0.012655882045600038   -0.0006882951960622888   -0.00016130056547536124
-0.012609600895204739   -0.00697230151572685   -0.0002005570564441283
-0.012678353382790468   -0.0006311733449004797   -0.00016029349054456319
-0.008959069982572546   -0.0068686017211430075   -7.415856297202465e-05
-0.012642160618970714   -0.006916741554832456   -0.00018471084801003403
-0.012678353382790468   -0.0006311733449004797   -0.00016029349054456319
-0.012609600895204739   -0.00697230151572685   -0.0002005570564441283
-0.008959069982572546   -0.0068686017211430075   -7.415856297202465e-05
-0.012678353382790468   -0.0006311733449004797   -0.00016029349054456319
-0.009045040910318105   -0.0006064103199926933   -4.744500563884474e-05
-0.009003690677299453   -0.0006813371486999838   -6.0439366781692334e-05
-0.008959069982572546   -0.0068686017211430075   -7.415856297202465e-05
-0.012678353382790468   -0.0006311733449004797   -0.00016029349054456319
-0.009003690677299453   -0.0006813371486999838   -6.0439366781692334e-05
-0.012609600895204739   -0.00697230151572685   -0.0002005570564441283
-0.012533334005348838   -0.0070722656418306116   -0.0002316666050766589
-0.012598386157125205   -0.0007880107703562731   -0.000165501202639914
-0.016367741254816874   -0.007075835806067394   -0.00030692015107978076
-0.012573661127586757   -0.0070244569742966235   -0.00021590525563906432
-0.012598386157125205   -0.0007880107703562731   -0.000165501202639914
-0.01638038140566719   -0.0007825521978000094   -0.00025380147563549616
-0.016367741254816874   -0.007075835806067394   -0.00030692015107978076
-0.016402997176062   -0.000731505956894939   -0.00025370526344663046
-0.012573661127586757   -0.0070244569742966235   -0.00021590525563906432
-0.01640230212560495   -0.007029476425583808   -0.0003000471645557435
-0.016402997176062   -0.000731505956894939   -0.00025370526344663046
-0.016367741254816874   -0.007075835806067394   -0.00030692015107978076
-0.012573661127586757   -0.0070244569742966235   -0.00021590525563906432
-0.016402997176062   -0.000731505956894939   -0.00025370526344663046
-0.012626528681122543   -0.0007408980127171504   -0.00016307536547868068
-0.012598386157125205   -0.0007880107703562731   -0.000165501202639914
-0.012573661127586757   -0.0070244569742966235   -0.00021590525563906432
-0.016402997176062   -0.000731505956894939   -0.00025370526344663046
-0.012598386157125205   -0.0007880107703562731   -0.000165501202639914
-0.016367741254816874   -0.007075835806067394   -0.00030692015107978076
-0.012573661127586757   -0.0070244569742966235   -0.00021590525563906432
-0.012626528681122543   -0.0007408980127171504   -0.00016307536547868068
-0.01640230212560495   -0.007029476425583808   -0.0003000471645557435
-0.012609600895204739   -0.00697230151572685   -0.0002005570564441283
-0.012626528681122543   -0.0007408980127171504   -0.00016307536547868068
-0.016402997176062   -0.000731505956894939   -0.00025370526344663046
-0.01640230212560495   -0.007029476425583808   -0.0003000471645557435
-0.01642780814459547   -0.0006803990763817031   -0.00025759802514713047
-0.012609600895204739   -0.00697230151572685   -0.0002005570564441283
-0.016433265749711278   -0.0069792690504125515   -0.0002919891271963924
-0.01642780814459547   -0.0006803990763817031   -0.00025759802514713047
-0.01640230212560495   -0.007029476425583808   -0.0003000471645557435
-0.012609600895204739   -0.00697230151572685   -0.0002005570564441283
-0.01642780814459547   -0.0006803990763817031   -0.00025759802514713047
-0.012655882045600038   -0.0006882951960622888   -0.00016130056547536124
-0.012626528681122543   -0.0007408980127171504   -0.00016307536547868068
-0.012609600895204739   -0.00697230151572685   -0.0002005570564441283
-0.01642780814459547   -0.0006803990763817031   -0.00025759802514713047
-0.012626528681122543   -0.0007408980127171504   -0.00016307536547868068
-0.01640230212560495   -0.007029476425583808   -0.0003000471645557435
-0.012609600895204739   -0.00697230151572685   -0.0002005570564441283
-0.012655882045600038   -0.0006882951960622888   -0.00016130056547536124
-0.016433265749711278   -0.0069792690504125515   -0.0002919891271963924
-0.012642160618970714   -0.006916741554832456   -0.00018471084801003403
-0.012655882045600038   -0.0006882951960622888   -0.00016130056547536124
-0.01642780814459547   -0.0006803990763817031   -0.00025759802514713047
-0.016433265749711278   -0.0069792690504125515   -0.0002919891271963924
-0.016446145124590257   -0.0006246804644787926   -0.0002617108320848984
-0.012642160618970714   -0.006916741554832456   -0.00018471084801003403
-0.016459190086472574   -0.006926120121151908   -0.00028442715133993924
-0.016446145124590257   -0.0006246804644787926   -0.0002617108320848984
-0.016433265749711278   -0.0069792690504125515   -0.0002919891271963924
-0.012642160618970714   -0.006916741554832456   -0.00018471084801003403
-0.016446145124590257   -0.0006246804644787926   -0.0002617108320848984
-0.012678353382790468   -0.0006311733449004797   -0.00016029349054456319
-0.012655882045600038   -0.0006882951960622888   -0.00016130056547536124
-0.012642160618970714   -0.006916741554832456   -0.00018471084801003403
-0.016446145124590257   -0.0006246804644787926   -0.0002617108320848984
-0.012655882045600038   -0.0006882951960622888   -0.00016130056547536124
-0.016433265749711278   -0.0069792690504125515   -0.0002919891271963924
              </DataArray>   
          </PointData>  
       </Piece>  
   </UnstructuredGrid> 
</VTKFile> 
