<?xml version="1.0"?> 
<VTKFile type="UnstructuredGrid"> 
   <UnstructuredGrid> 
      <Piece NumberOfPoints="6000"  NumberOfCells="1500">  
          <Points>  
             <DataArray type="Float64" NumberOfComponents="3" format="ascii">   
-500.0   0.0   0.0
-450.0   0.0   0.0
-500.0   30.0   0.0
-500.0   0.0   16.666666666666668
-450.0   0.0   0.0
-450.0   30.0   0.0
-500.0   30.0   0.0
-450.0   30.0   16.666666666666668
-500.0   0.0   16.666666666666668
-500.0   30.0   16.666666666666668
-450.0   30.0   16.666666666666668
-500.0   30.0   0.0
-500.0   0.0   16.666666666666668
-450.0   30.0   16.666666666666668
-450.0   0.0   16.666666666666668
-450.0   0.0   0.0
-500.0   0.0   16.666666666666668
-450.0   30.0   16.666666666666668
-450.0   0.0   0.0
-500.0   30.0   0.0
-500.0   0.0   16.666666666666668
-450.0   0.0   16.666666666666668
-500.0   30.0   16.666666666666668
-500.0   0.0   33.333333333333336
-450.0   0.0   16.666666666666668
-450.0   30.0   16.666666666666668
-500.0   30.0   16.666666666666668
-450.0   30.0   33.333333333333336
-500.0   0.0   33.333333333333336
-500.0   30.0   33.333333333333336
-450.0   30.0   33.333333333333336
-500.0   30.0   16.666666666666668
-500.0   0.0   33.333333333333336
-450.0   30.0   33.333333333333336
-450.0   0.0   33.333333333333336
-450.0   0.0   16.666666666666668
-500.0   0.0   33.333333333333336
-450.0   30.0   33.333333333333336
-450.0   0.0   16.666666666666668
-500.0   30.0   16.666666666666668
-500.0   0.0   33.333333333333336
-450.0   0.0   33.333333333333336
-500.0   30.0   33.333333333333336
-500.0   0.0   50.0
-450.0   0.0   33.333333333333336
-450.0   30.0   33.333333333333336
-500.0   30.0   33.333333333333336
-450.0   30.0   50.0
-500.0   0.0   50.0
-500.0   30.0   50.0
-450.0   30.0   50.0
-500.0   30.0   33.333333333333336
-500.0   0.0   50.0
-450.0   30.0   50.0
-450.0   0.0   50.0
-450.0   0.0   33.333333333333336
-500.0   0.0   50.0
-450.0   30.0   50.0
-450.0   0.0   33.333333333333336
-500.0   30.0   33.333333333333336
-500.0   30.0   0.0
-450.0   30.0   0.0
-500.0   60.0   0.0
-500.0   30.0   16.666666666666668
-450.0   30.0   0.0
-450.0   60.0   0.0
-500.0   60.0   0.0
-450.0   60.0   16.666666666666668
-500.0   30.0   16.666666666666668
-500.0   60.0   16.666666666666668
-450.0   60.0   16.666666666666668
-500.0   60.0   0.0
-500.0   30.0   16.666666666666668
-450.0   60.0   16.666666666666668
-450.0   30.0   16.666666666666668
-450.0   30.0   0.0
-500.0   30.0   16.666666666666668
-450.0   60.0   16.666666666666668
-450.0   30.0   0.0
-500.0   60.0   0.0
-500.0   30.0   16.666666666666668
-450.0   30.0   16.666666666666668
-500.0   60.0   16.666666666666668
-500.0   30.0   33.333333333333336
-450.0   30.0   16.666666666666668
-450.0   60.0   16.666666666666668
-500.0   60.0   16.666666666666668
-450.0   60.0   33.333333333333336
-500.0   30.0   33.333333333333336
-500.0   60.0   33.333333333333336
-450.0   60.0   33.333333333333336
-500.0   60.0   16.666666666666668
-500.0   30.0   33.333333333333336
-450.0   60.0   33.333333333333336
-450.0   30.0   33.333333333333336
-450.0   30.0   16.666666666666668
-500.0   30.0   33.333333333333336
-450.0   60.0   33.333333333333336
-450.0   30.0   16.666666666666668
-500.0   60.0   16.666666666666668
-500.0   30.0   33.333333333333336
-450.0   30.0   33.333333333333336
-500.0   60.0   33.333333333333336
-500.0   30.0   50.0
-450.0   30.0   33.333333333333336
-450.0   60.0   33.333333333333336
-500.0   60.0   33.333333333333336
-450.0   60.0   50.0
-500.0   30.0   50.0
-500.0   60.0   50.0
-450.0   60.0   50.0
-500.0   60.0   33.333333333333336
-500.0   30.0   50.0
-450.0   60.0   50.0
-450.0   30.0   50.0
-450.0   30.0   33.333333333333336
-500.0   30.0   50.0
-450.0   60.0   50.0
-450.0   30.0   33.333333333333336
-500.0   60.0   33.333333333333336
-500.0   60.0   0.0
-450.0   60.0   0.0
-500.0   90.0   0.0
-500.0   60.0   16.666666666666668
-450.0   60.0   0.0
-450.0   90.0   0.0
-500.0   90.0   0.0
-450.0   90.0   16.666666666666668
-500.0   60.0   16.666666666666668
-500.0   90.0   16.666666666666668
-450.0   90.0   16.666666666666668
-500.0   90.0   0.0
-500.0   60.0   16.666666666666668
-450.0   90.0   16.666666666666668
-450.0   60.0   16.666666666666668
-450.0   60.0   0.0
-500.0   60.0   16.666666666666668
-450.0   90.0   16.666666666666668
-450.0   60.0   0.0
-500.0   90.0   0.0
-500.0   60.0   16.666666666666668
-450.0   60.0   16.666666666666668
-500.0   90.0   16.666666666666668
-500.0   60.0   33.333333333333336
-450.0   60.0   16.666666666666668
-450.0   90.0   16.666666666666668
-500.0   90.0   16.666666666666668
-450.0   90.0   33.333333333333336
-500.0   60.0   33.333333333333336
-500.0   90.0   33.333333333333336
-450.0   90.0   33.333333333333336
-500.0   90.0   16.666666666666668
-500.0   60.0   33.333333333333336
-450.0   90.0   33.333333333333336
-450.0   60.0   33.333333333333336
-450.0   60.0   16.666666666666668
-500.0   60.0   33.333333333333336
-450.0   90.0   33.333333333333336
-450.0   60.0   16.666666666666668
-500.0   90.0   16.666666666666668
-500.0   60.0   33.333333333333336
-450.0   60.0   33.333333333333336
-500.0   90.0   33.333333333333336
-500.0   60.0   50.0
-450.0   60.0   33.333333333333336
-450.0   90.0   33.333333333333336
-500.0   90.0   33.333333333333336
-450.0   90.0   50.0
-500.0   60.0   50.0
-500.0   90.0   50.0
-450.0   90.0   50.0
-500.0   90.0   33.333333333333336
-500.0   60.0   50.0
-450.0   90.0   50.0
-450.0   60.0   50.0
-450.0   60.0   33.333333333333336
-500.0   60.0   50.0
-450.0   90.0   50.0
-450.0   60.0   33.333333333333336
-500.0   90.0   33.333333333333336
-500.0   90.0   0.0
-450.0   90.0   0.0
-500.0   120.0   0.0
-500.0   90.0   16.666666666666668
-450.0   90.0   0.0
-450.0   120.0   0.0
-500.0   120.0   0.0
-450.0   120.0   16.666666666666668
-500.0   90.0   16.666666666666668
-500.0   120.0   16.666666666666668
-450.0   120.0   16.666666666666668
-500.0   120.0   0.0
-500.0   90.0   16.666666666666668
-450.0   120.0   16.666666666666668
-450.0   90.0   16.666666666666668
-450.0   90.0   0.0
-500.0   90.0   16.666666666666668
-450.0   120.0   16.666666666666668
-450.0   90.0   0.0
-500.0   120.0   0.0
-500.0   90.0   16.666666666666668
-450.0   90.0   16.666666666666668
-500.0   120.0   16.666666666666668
-500.0   90.0   33.333333333333336
-450.0   90.0   16.666666666666668
-450.0   120.0   16.666666666666668
-500.0   120.0   16.666666666666668
-450.0   120.0   33.333333333333336
-500.0   90.0   33.333333333333336
-500.0   120.0   33.333333333333336
-450.0   120.0   33.333333333333336
-500.0   120.0   16.666666666666668
-500.0   90.0   33.333333333333336
-450.0   120.0   33.333333333333336
-450.0   90.0   33.333333333333336
-450.0   90.0   16.666666666666668
-500.0   90.0   33.333333333333336
-450.0   120.0   33.333333333333336
-450.0   90.0   16.666666666666668
-500.0   120.0   16.666666666666668
-500.0   90.0   33.333333333333336
-450.0   90.0   33.333333333333336
-500.0   120.0   33.333333333333336
-500.0   90.0   50.0
-450.0   90.0   33.333333333333336
-450.0   120.0   33.333333333333336
-500.0   120.0   33.333333333333336
-450.0   120.0   50.0
-500.0   90.0   50.0
-500.0   120.0   50.0
-450.0   120.0   50.0
-500.0   120.0   33.333333333333336
-500.0   90.0   50.0
-450.0   120.0   50.0
-450.0   90.0   50.0
-450.0   90.0   33.333333333333336
-500.0   90.0   50.0
-450.0   120.0   50.0
-450.0   90.0   33.333333333333336
-500.0   120.0   33.333333333333336
-500.0   120.0   0.0
-450.0   120.0   0.0
-500.0   150.0   0.0
-500.0   120.0   16.666666666666668
-450.0   120.0   0.0
-450.0   150.0   0.0
-500.0   150.0   0.0
-450.0   150.0   16.666666666666668
-500.0   120.0   16.666666666666668
-500.0   150.0   16.666666666666668
-450.0   150.0   16.666666666666668
-500.0   150.0   0.0
-500.0   120.0   16.666666666666668
-450.0   150.0   16.666666666666668
-450.0   120.0   16.666666666666668
-450.0   120.0   0.0
-500.0   120.0   16.666666666666668
-450.0   150.0   16.666666666666668
-450.0   120.0   0.0
-500.0   150.0   0.0
-500.0   120.0   16.666666666666668
-450.0   120.0   16.666666666666668
-500.0   150.0   16.666666666666668
-500.0   120.0   33.333333333333336
-450.0   120.0   16.666666666666668
-450.0   150.0   16.666666666666668
-500.0   150.0   16.666666666666668
-450.0   150.0   33.333333333333336
-500.0   120.0   33.333333333333336
-500.0   150.0   33.333333333333336
-450.0   150.0   33.333333333333336
-500.0   150.0   16.666666666666668
-500.0   120.0   33.333333333333336
-450.0   150.0   33.333333333333336
-450.0   120.0   33.333333333333336
-450.0   120.0   16.666666666666668
-500.0   120.0   33.333333333333336
-450.0   150.0   33.333333333333336
-450.0   120.0   16.666666666666668
-500.0   150.0   16.666666666666668
-500.0   120.0   33.333333333333336
-450.0   120.0   33.333333333333336
-500.0   150.0   33.333333333333336
-500.0   120.0   50.0
-450.0   120.0   33.333333333333336
-450.0   150.0   33.333333333333336
-500.0   150.0   33.333333333333336
-450.0   150.0   50.0
-500.0   120.0   50.0
-500.0   150.0   50.0
-450.0   150.0   50.0
-500.0   150.0   33.333333333333336
-500.0   120.0   50.0
-450.0   150.0   50.0
-450.0   120.0   50.0
-450.0   120.0   33.333333333333336
-500.0   120.0   50.0
-450.0   150.0   50.0
-450.0   120.0   33.333333333333336
-500.0   150.0   33.333333333333336
-450.0   0.0   0.0
-400.0   0.0   0.0
-450.0   30.0   0.0
-450.0   0.0   16.666666666666668
-400.0   0.0   0.0
-400.0   30.0   0.0
-450.0   30.0   0.0
-400.0   30.0   16.666666666666668
-450.0   0.0   16.666666666666668
-450.0   30.0   16.666666666666668
-400.0   30.0   16.666666666666668
-450.0   30.0   0.0
-450.0   0.0   16.666666666666668
-400.0   30.0   16.666666666666668
-400.0   0.0   16.666666666666668
-400.0   0.0   0.0
-450.0   0.0   16.666666666666668
-400.0   30.0   16.666666666666668
-400.0   0.0   0.0
-450.0   30.0   0.0
-450.0   0.0   16.666666666666668
-400.0   0.0   16.666666666666668
-450.0   30.0   16.666666666666668
-450.0   0.0   33.333333333333336
-400.0   0.0   16.666666666666668
-400.0   30.0   16.666666666666668
-450.0   30.0   16.666666666666668
-400.0   30.0   33.333333333333336
-450.0   0.0   33.333333333333336
-450.0   30.0   33.333333333333336
-400.0   30.0   33.333333333333336
-450.0   30.0   16.666666666666668
-450.0   0.0   33.333333333333336
-400.0   30.0   33.333333333333336
-400.0   0.0   33.333333333333336
-400.0   0.0   16.666666666666668
-450.0   0.0   33.333333333333336
-400.0   30.0   33.333333333333336
-400.0   0.0   16.666666666666668
-450.0   30.0   16.666666666666668
-450.0   0.0   33.333333333333336
-400.0   0.0   33.333333333333336
-450.0   30.0   33.333333333333336
-450.0   0.0   50.0
-400.0   0.0   33.333333333333336
-400.0   30.0   33.333333333333336
-450.0   30.0   33.333333333333336
-400.0   30.0   50.0
-450.0   0.0   50.0
-450.0   30.0   50.0
-400.0   30.0   50.0
-450.0   30.0   33.333333333333336
-450.0   0.0   50.0
-400.0   30.0   50.0
-400.0   0.0   50.0
-400.0   0.0   33.333333333333336
-450.0   0.0   50.0
-400.0   30.0   50.0
-400.0   0.0   33.333333333333336
-450.0   30.0   33.333333333333336
-450.0   30.0   0.0
-400.0   30.0   0.0
-450.0   60.0   0.0
-450.0   30.0   16.666666666666668
-400.0   30.0   0.0
-400.0   60.0   0.0
-450.0   60.0   0.0
-400.0   60.0   16.666666666666668
-450.0   30.0   16.666666666666668
-450.0   60.0   16.666666666666668
-400.0   60.0   16.666666666666668
-450.0   60.0   0.0
-450.0   30.0   16.666666666666668
-400.0   60.0   16.666666666666668
-400.0   30.0   16.666666666666668
-400.0   30.0   0.0
-450.0   30.0   16.666666666666668
-400.0   60.0   16.666666666666668
-400.0   30.0   0.0
-450.0   60.0   0.0
-450.0   30.0   16.666666666666668
-400.0   30.0   16.666666666666668
-450.0   60.0   16.666666666666668
-450.0   30.0   33.333333333333336
-400.0   30.0   16.666666666666668
-400.0   60.0   16.666666666666668
-450.0   60.0   16.666666666666668
-400.0   60.0   33.333333333333336
-450.0   30.0   33.333333333333336
-450.0   60.0   33.333333333333336
-400.0   60.0   33.333333333333336
-450.0   60.0   16.666666666666668
-450.0   30.0   33.333333333333336
-400.0   60.0   33.333333333333336
-400.0   30.0   33.333333333333336
-400.0   30.0   16.666666666666668
-450.0   30.0   33.333333333333336
-400.0   60.0   33.333333333333336
-400.0   30.0   16.666666666666668
-450.0   60.0   16.666666666666668
-450.0   30.0   33.333333333333336
-400.0   30.0   33.333333333333336
-450.0   60.0   33.333333333333336
-450.0   30.0   50.0
-400.0   30.0   33.333333333333336
-400.0   60.0   33.333333333333336
-450.0   60.0   33.333333333333336
-400.0   60.0   50.0
-450.0   30.0   50.0
-450.0   60.0   50.0
-400.0   60.0   50.0
-450.0   60.0   33.333333333333336
-450.0   30.0   50.0
-400.0   60.0   50.0
-400.0   30.0   50.0
-400.0   30.0   33.333333333333336
-450.0   30.0   50.0
-400.0   60.0   50.0
-400.0   30.0   33.333333333333336
-450.0   60.0   33.333333333333336
-450.0   60.0   0.0
-400.0   60.0   0.0
-450.0   90.0   0.0
-450.0   60.0   16.666666666666668
-400.0   60.0   0.0
-400.0   90.0   0.0
-450.0   90.0   0.0
-400.0   90.0   16.666666666666668
-450.0   60.0   16.666666666666668
-450.0   90.0   16.666666666666668
-400.0   90.0   16.666666666666668
-450.0   90.0   0.0
-450.0   60.0   16.666666666666668
-400.0   90.0   16.666666666666668
-400.0   60.0   16.666666666666668
-400.0   60.0   0.0
-450.0   60.0   16.666666666666668
-400.0   90.0   16.666666666666668
-400.0   60.0   0.0
-450.0   90.0   0.0
-450.0   60.0   16.666666666666668
-400.0   60.0   16.666666666666668
-450.0   90.0   16.666666666666668
-450.0   60.0   33.333333333333336
-400.0   60.0   16.666666666666668
-400.0   90.0   16.666666666666668
-450.0   90.0   16.666666666666668
-400.0   90.0   33.333333333333336
-450.0   60.0   33.333333333333336
-450.0   90.0   33.333333333333336
-400.0   90.0   33.333333333333336
-450.0   90.0   16.666666666666668
-450.0   60.0   33.333333333333336
-400.0   90.0   33.333333333333336
-400.0   60.0   33.333333333333336
-400.0   60.0   16.666666666666668
-450.0   60.0   33.333333333333336
-400.0   90.0   33.333333333333336
-400.0   60.0   16.666666666666668
-450.0   90.0   16.666666666666668
-450.0   60.0   33.333333333333336
-400.0   60.0   33.333333333333336
-450.0   90.0   33.333333333333336
-450.0   60.0   50.0
-400.0   60.0   33.333333333333336
-400.0   90.0   33.333333333333336
-450.0   90.0   33.333333333333336
-400.0   90.0   50.0
-450.0   60.0   50.0
-450.0   90.0   50.0
-400.0   90.0   50.0
-450.0   90.0   33.333333333333336
-450.0   60.0   50.0
-400.0   90.0   50.0
-400.0   60.0   50.0
-400.0   60.0   33.333333333333336
-450.0   60.0   50.0
-400.0   90.0   50.0
-400.0   60.0   33.333333333333336
-450.0   90.0   33.333333333333336
-450.0   90.0   0.0
-400.0   90.0   0.0
-450.0   120.0   0.0
-450.0   90.0   16.666666666666668
-400.0   90.0   0.0
-400.0   120.0   0.0
-450.0   120.0   0.0
-400.0   120.0   16.666666666666668
-450.0   90.0   16.666666666666668
-450.0   120.0   16.666666666666668
-400.0   120.0   16.666666666666668
-450.0   120.0   0.0
-450.0   90.0   16.666666666666668
-400.0   120.0   16.666666666666668
-400.0   90.0   16.666666666666668
-400.0   90.0   0.0
-450.0   90.0   16.666666666666668
-400.0   120.0   16.666666666666668
-400.0   90.0   0.0
-450.0   120.0   0.0
-450.0   90.0   16.666666666666668
-400.0   90.0   16.666666666666668
-450.0   120.0   16.666666666666668
-450.0   90.0   33.333333333333336
-400.0   90.0   16.666666666666668
-400.0   120.0   16.666666666666668
-450.0   120.0   16.666666666666668
-400.0   120.0   33.333333333333336
-450.0   90.0   33.333333333333336
-450.0   120.0   33.333333333333336
-400.0   120.0   33.333333333333336
-450.0   120.0   16.666666666666668
-450.0   90.0   33.333333333333336
-400.0   120.0   33.333333333333336
-400.0   90.0   33.333333333333336
-400.0   90.0   16.666666666666668
-450.0   90.0   33.333333333333336
-400.0   120.0   33.333333333333336
-400.0   90.0   16.666666666666668
-450.0   120.0   16.666666666666668
-450.0   90.0   33.333333333333336
-400.0   90.0   33.333333333333336
-450.0   120.0   33.333333333333336
-450.0   90.0   50.0
-400.0   90.0   33.333333333333336
-400.0   120.0   33.333333333333336
-450.0   120.0   33.333333333333336
-400.0   120.0   50.0
-450.0   90.0   50.0
-450.0   120.0   50.0
-400.0   120.0   50.0
-450.0   120.0   33.333333333333336
-450.0   90.0   50.0
-400.0   120.0   50.0
-400.0   90.0   50.0
-400.0   90.0   33.333333333333336
-450.0   90.0   50.0
-400.0   120.0   50.0
-400.0   90.0   33.333333333333336
-450.0   120.0   33.333333333333336
-450.0   120.0   0.0
-400.0   120.0   0.0
-450.0   150.0   0.0
-450.0   120.0   16.666666666666668
-400.0   120.0   0.0
-400.0   150.0   0.0
-450.0   150.0   0.0
-400.0   150.0   16.666666666666668
-450.0   120.0   16.666666666666668
-450.0   150.0   16.666666666666668
-400.0   150.0   16.666666666666668
-450.0   150.0   0.0
-450.0   120.0   16.666666666666668
-400.0   150.0   16.666666666666668
-400.0   120.0   16.666666666666668
-400.0   120.0   0.0
-450.0   120.0   16.666666666666668
-400.0   150.0   16.666666666666668
-400.0   120.0   0.0
-450.0   150.0   0.0
-450.0   120.0   16.666666666666668
-400.0   120.0   16.666666666666668
-450.0   150.0   16.666666666666668
-450.0   120.0   33.333333333333336
-400.0   120.0   16.666666666666668
-400.0   150.0   16.666666666666668
-450.0   150.0   16.666666666666668
-400.0   150.0   33.333333333333336
-450.0   120.0   33.333333333333336
-450.0   150.0   33.333333333333336
-400.0   150.0   33.333333333333336
-450.0   150.0   16.666666666666668
-450.0   120.0   33.333333333333336
-400.0   150.0   33.333333333333336
-400.0   120.0   33.333333333333336
-400.0   120.0   16.666666666666668
-450.0   120.0   33.333333333333336
-400.0   150.0   33.333333333333336
-400.0   120.0   16.666666666666668
-450.0   150.0   16.666666666666668
-450.0   120.0   33.333333333333336
-400.0   120.0   33.333333333333336
-450.0   150.0   33.333333333333336
-450.0   120.0   50.0
-400.0   120.0   33.333333333333336
-400.0   150.0   33.333333333333336
-450.0   150.0   33.333333333333336
-400.0   150.0   50.0
-450.0   120.0   50.0
-450.0   150.0   50.0
-400.0   150.0   50.0
-450.0   150.0   33.333333333333336
-450.0   120.0   50.0
-400.0   150.0   50.0
-400.0   120.0   50.0
-400.0   120.0   33.333333333333336
-450.0   120.0   50.0
-400.0   150.0   50.0
-400.0   120.0   33.333333333333336
-450.0   150.0   33.333333333333336
-400.0   0.0   0.0
-350.0   0.0   0.0
-400.0   30.0   0.0
-400.0   0.0   16.666666666666668
-350.0   0.0   0.0
-350.0   30.0   0.0
-400.0   30.0   0.0
-350.0   30.0   16.666666666666668
-400.0   0.0   16.666666666666668
-400.0   30.0   16.666666666666668
-350.0   30.0   16.666666666666668
-400.0   30.0   0.0
-400.0   0.0   16.666666666666668
-350.0   30.0   16.666666666666668
-350.0   0.0   16.666666666666668
-350.0   0.0   0.0
-400.0   0.0   16.666666666666668
-350.0   30.0   16.666666666666668
-350.0   0.0   0.0
-400.0   30.0   0.0
-400.0   0.0   16.666666666666668
-350.0   0.0   16.666666666666668
-400.0   30.0   16.666666666666668
-400.0   0.0   33.333333333333336
-350.0   0.0   16.666666666666668
-350.0   30.0   16.666666666666668
-400.0   30.0   16.666666666666668
-350.0   30.0   33.333333333333336
-400.0   0.0   33.333333333333336
-400.0   30.0   33.333333333333336
-350.0   30.0   33.333333333333336
-400.0   30.0   16.666666666666668
-400.0   0.0   33.333333333333336
-350.0   30.0   33.333333333333336
-350.0   0.0   33.333333333333336
-350.0   0.0   16.666666666666668
-400.0   0.0   33.333333333333336
-350.0   30.0   33.333333333333336
-350.0   0.0   16.666666666666668
-400.0   30.0   16.666666666666668
-400.0   0.0   33.333333333333336
-350.0   0.0   33.333333333333336
-400.0   30.0   33.333333333333336
-400.0   0.0   50.0
-350.0   0.0   33.333333333333336
-350.0   30.0   33.333333333333336
-400.0   30.0   33.333333333333336
-350.0   30.0   50.0
-400.0   0.0   50.0
-400.0   30.0   50.0
-350.0   30.0   50.0
-400.0   30.0   33.333333333333336
-400.0   0.0   50.0
-350.0   30.0   50.0
-350.0   0.0   50.0
-350.0   0.0   33.333333333333336
-400.0   0.0   50.0
-350.0   30.0   50.0
-350.0   0.0   33.333333333333336
-400.0   30.0   33.333333333333336
-400.0   30.0   0.0
-350.0   30.0   0.0
-400.0   60.0   0.0
-400.0   30.0   16.666666666666668
-350.0   30.0   0.0
-350.0   60.0   0.0
-400.0   60.0   0.0
-350.0   60.0   16.666666666666668
-400.0   30.0   16.666666666666668
-400.0   60.0   16.666666666666668
-350.0   60.0   16.666666666666668
-400.0   60.0   0.0
-400.0   30.0   16.666666666666668
-350.0   60.0   16.666666666666668
-350.0   30.0   16.666666666666668
-350.0   30.0   0.0
-400.0   30.0   16.666666666666668
-350.0   60.0   16.666666666666668
-350.0   30.0   0.0
-400.0   60.0   0.0
-400.0   30.0   16.666666666666668
-350.0   30.0   16.666666666666668
-400.0   60.0   16.666666666666668
-400.0   30.0   33.333333333333336
-350.0   30.0   16.666666666666668
-350.0   60.0   16.666666666666668
-400.0   60.0   16.666666666666668
-350.0   60.0   33.333333333333336
-400.0   30.0   33.333333333333336
-400.0   60.0   33.333333333333336
-350.0   60.0   33.333333333333336
-400.0   60.0   16.666666666666668
-400.0   30.0   33.333333333333336
-350.0   60.0   33.333333333333336
-350.0   30.0   33.333333333333336
-350.0   30.0   16.666666666666668
-400.0   30.0   33.333333333333336
-350.0   60.0   33.333333333333336
-350.0   30.0   16.666666666666668
-400.0   60.0   16.666666666666668
-400.0   30.0   33.333333333333336
-350.0   30.0   33.333333333333336
-400.0   60.0   33.333333333333336
-400.0   30.0   50.0
-350.0   30.0   33.333333333333336
-350.0   60.0   33.333333333333336
-400.0   60.0   33.333333333333336
-350.0   60.0   50.0
-400.0   30.0   50.0
-400.0   60.0   50.0
-350.0   60.0   50.0
-400.0   60.0   33.333333333333336
-400.0   30.0   50.0
-350.0   60.0   50.0
-350.0   30.0   50.0
-350.0   30.0   33.333333333333336
-400.0   30.0   50.0
-350.0   60.0   50.0
-350.0   30.0   33.333333333333336
-400.0   60.0   33.333333333333336
-400.0   60.0   0.0
-350.0   60.0   0.0
-400.0   90.0   0.0
-400.0   60.0   16.666666666666668
-350.0   60.0   0.0
-350.0   90.0   0.0
-400.0   90.0   0.0
-350.0   90.0   16.666666666666668
-400.0   60.0   16.666666666666668
-400.0   90.0   16.666666666666668
-350.0   90.0   16.666666666666668
-400.0   90.0   0.0
-400.0   60.0   16.666666666666668
-350.0   90.0   16.666666666666668
-350.0   60.0   16.666666666666668
-350.0   60.0   0.0
-400.0   60.0   16.666666666666668
-350.0   90.0   16.666666666666668
-350.0   60.0   0.0
-400.0   90.0   0.0
-400.0   60.0   16.666666666666668
-350.0   60.0   16.666666666666668
-400.0   90.0   16.666666666666668
-400.0   60.0   33.333333333333336
-350.0   60.0   16.666666666666668
-350.0   90.0   16.666666666666668
-400.0   90.0   16.666666666666668
-350.0   90.0   33.333333333333336
-400.0   60.0   33.333333333333336
-400.0   90.0   33.333333333333336
-350.0   90.0   33.333333333333336
-400.0   90.0   16.666666666666668
-400.0   60.0   33.333333333333336
-350.0   90.0   33.333333333333336
-350.0   60.0   33.333333333333336
-350.0   60.0   16.666666666666668
-400.0   60.0   33.333333333333336
-350.0   90.0   33.333333333333336
-350.0   60.0   16.666666666666668
-400.0   90.0   16.666666666666668
-400.0   60.0   33.333333333333336
-350.0   60.0   33.333333333333336
-400.0   90.0   33.333333333333336
-400.0   60.0   50.0
-350.0   60.0   33.333333333333336
-350.0   90.0   33.333333333333336
-400.0   90.0   33.333333333333336
-350.0   90.0   50.0
-400.0   60.0   50.0
-400.0   90.0   50.0
-350.0   90.0   50.0
-400.0   90.0   33.333333333333336
-400.0   60.0   50.0
-350.0   90.0   50.0
-350.0   60.0   50.0
-350.0   60.0   33.333333333333336
-400.0   60.0   50.0
-350.0   90.0   50.0
-350.0   60.0   33.333333333333336
-400.0   90.0   33.333333333333336
-400.0   90.0   0.0
-350.0   90.0   0.0
-400.0   120.0   0.0
-400.0   90.0   16.666666666666668
-350.0   90.0   0.0
-350.0   120.0   0.0
-400.0   120.0   0.0
-350.0   120.0   16.666666666666668
-400.0   90.0   16.666666666666668
-400.0   120.0   16.666666666666668
-350.0   120.0   16.666666666666668
-400.0   120.0   0.0
-400.0   90.0   16.666666666666668
-350.0   120.0   16.666666666666668
-350.0   90.0   16.666666666666668
-350.0   90.0   0.0
-400.0   90.0   16.666666666666668
-350.0   120.0   16.666666666666668
-350.0   90.0   0.0
-400.0   120.0   0.0
-400.0   90.0   16.666666666666668
-350.0   90.0   16.666666666666668
-400.0   120.0   16.666666666666668
-400.0   90.0   33.333333333333336
-350.0   90.0   16.666666666666668
-350.0   120.0   16.666666666666668
-400.0   120.0   16.666666666666668
-350.0   120.0   33.333333333333336
-400.0   90.0   33.333333333333336
-400.0   120.0   33.333333333333336
-350.0   120.0   33.333333333333336
-400.0   120.0   16.666666666666668
-400.0   90.0   33.333333333333336
-350.0   120.0   33.333333333333336
-350.0   90.0   33.333333333333336
-350.0   90.0   16.666666666666668
-400.0   90.0   33.333333333333336
-350.0   120.0   33.333333333333336
-350.0   90.0   16.666666666666668
-400.0   120.0   16.666666666666668
-400.0   90.0   33.333333333333336
-350.0   90.0   33.333333333333336
-400.0   120.0   33.333333333333336
-400.0   90.0   50.0
-350.0   90.0   33.333333333333336
-350.0   120.0   33.333333333333336
-400.0   120.0   33.333333333333336
-350.0   120.0   50.0
-400.0   90.0   50.0
-400.0   120.0   50.0
-350.0   120.0   50.0
-400.0   120.0   33.333333333333336
-400.0   90.0   50.0
-350.0   120.0   50.0
-350.0   90.0   50.0
-350.0   90.0   33.333333333333336
-400.0   90.0   50.0
-350.0   120.0   50.0
-350.0   90.0   33.333333333333336
-400.0   120.0   33.333333333333336
-400.0   120.0   0.0
-350.0   120.0   0.0
-400.0   150.0   0.0
-400.0   120.0   16.666666666666668
-350.0   120.0   0.0
-350.0   150.0   0.0
-400.0   150.0   0.0
-350.0   150.0   16.666666666666668
-400.0   120.0   16.666666666666668
-400.0   150.0   16.666666666666668
-350.0   150.0   16.666666666666668
-400.0   150.0   0.0
-400.0   120.0   16.666666666666668
-350.0   150.0   16.666666666666668
-350.0   120.0   16.666666666666668
-350.0   120.0   0.0
-400.0   120.0   16.666666666666668
-350.0   150.0   16.666666666666668
-350.0   120.0   0.0
-400.0   150.0   0.0
-400.0   120.0   16.666666666666668
-350.0   120.0   16.666666666666668
-400.0   150.0   16.666666666666668
-400.0   120.0   33.333333333333336
-350.0   120.0   16.666666666666668
-350.0   150.0   16.666666666666668
-400.0   150.0   16.666666666666668
-350.0   150.0   33.333333333333336
-400.0   120.0   33.333333333333336
-400.0   150.0   33.333333333333336
-350.0   150.0   33.333333333333336
-400.0   150.0   16.666666666666668
-400.0   120.0   33.333333333333336
-350.0   150.0   33.333333333333336
-350.0   120.0   33.333333333333336
-350.0   120.0   16.666666666666668
-400.0   120.0   33.333333333333336
-350.0   150.0   33.333333333333336
-350.0   120.0   16.666666666666668
-400.0   150.0   16.666666666666668
-400.0   120.0   33.333333333333336
-350.0   120.0   33.333333333333336
-400.0   150.0   33.333333333333336
-400.0   120.0   50.0
-350.0   120.0   33.333333333333336
-350.0   150.0   33.333333333333336
-400.0   150.0   33.333333333333336
-350.0   150.0   50.0
-400.0   120.0   50.0
-400.0   150.0   50.0
-350.0   150.0   50.0
-400.0   150.0   33.333333333333336
-400.0   120.0   50.0
-350.0   150.0   50.0
-350.0   120.0   50.0
-350.0   120.0   33.333333333333336
-400.0   120.0   50.0
-350.0   150.0   50.0
-350.0   120.0   33.333333333333336
-400.0   150.0   33.333333333333336
-350.0   0.0   0.0
-300.0   0.0   0.0
-350.0   30.0   0.0
-350.0   0.0   16.666666666666668
-300.0   0.0   0.0
-300.0   30.0   0.0
-350.0   30.0   0.0
-300.0   30.0   16.666666666666668
-350.0   0.0   16.666666666666668
-350.0   30.0   16.666666666666668
-300.0   30.0   16.666666666666668
-350.0   30.0   0.0
-350.0   0.0   16.666666666666668
-300.0   30.0   16.666666666666668
-300.0   0.0   16.666666666666668
-300.0   0.0   0.0
-350.0   0.0   16.666666666666668
-300.0   30.0   16.666666666666668
-300.0   0.0   0.0
-350.0   30.0   0.0
-350.0   0.0   16.666666666666668
-300.0   0.0   16.666666666666668
-350.0   30.0   16.666666666666668
-350.0   0.0   33.333333333333336
-300.0   0.0   16.666666666666668
-300.0   30.0   16.666666666666668
-350.0   30.0   16.666666666666668
-300.0   30.0   33.333333333333336
-350.0   0.0   33.333333333333336
-350.0   30.0   33.333333333333336
-300.0   30.0   33.333333333333336
-350.0   30.0   16.666666666666668
-350.0   0.0   33.333333333333336
-300.0   30.0   33.333333333333336
-300.0   0.0   33.333333333333336
-300.0   0.0   16.666666666666668
-350.0   0.0   33.333333333333336
-300.0   30.0   33.333333333333336
-300.0   0.0   16.666666666666668
-350.0   30.0   16.666666666666668
-350.0   0.0   33.333333333333336
-300.0   0.0   33.333333333333336
-350.0   30.0   33.333333333333336
-350.0   0.0   50.0
-300.0   0.0   33.333333333333336
-300.0   30.0   33.333333333333336
-350.0   30.0   33.333333333333336
-300.0   30.0   50.0
-350.0   0.0   50.0
-350.0   30.0   50.0
-300.0   30.0   50.0
-350.0   30.0   33.333333333333336
-350.0   0.0   50.0
-300.0   30.0   50.0
-300.0   0.0   50.0
-300.0   0.0   33.333333333333336
-350.0   0.0   50.0
-300.0   30.0   50.0
-300.0   0.0   33.333333333333336
-350.0   30.0   33.333333333333336
-350.0   30.0   0.0
-300.0   30.0   0.0
-350.0   60.0   0.0
-350.0   30.0   16.666666666666668
-300.0   30.0   0.0
-300.0   60.0   0.0
-350.0   60.0   0.0
-300.0   60.0   16.666666666666668
-350.0   30.0   16.666666666666668
-350.0   60.0   16.666666666666668
-300.0   60.0   16.666666666666668
-350.0   60.0   0.0
-350.0   30.0   16.666666666666668
-300.0   60.0   16.666666666666668
-300.0   30.0   16.666666666666668
-300.0   30.0   0.0
-350.0   30.0   16.666666666666668
-300.0   60.0   16.666666666666668
-300.0   30.0   0.0
-350.0   60.0   0.0
-350.0   30.0   16.666666666666668
-300.0   30.0   16.666666666666668
-350.0   60.0   16.666666666666668
-350.0   30.0   33.333333333333336
-300.0   30.0   16.666666666666668
-300.0   60.0   16.666666666666668
-350.0   60.0   16.666666666666668
-300.0   60.0   33.333333333333336
-350.0   30.0   33.333333333333336
-350.0   60.0   33.333333333333336
-300.0   60.0   33.333333333333336
-350.0   60.0   16.666666666666668
-350.0   30.0   33.333333333333336
-300.0   60.0   33.333333333333336
-300.0   30.0   33.333333333333336
-300.0   30.0   16.666666666666668
-350.0   30.0   33.333333333333336
-300.0   60.0   33.333333333333336
-300.0   30.0   16.666666666666668
-350.0   60.0   16.666666666666668
-350.0   30.0   33.333333333333336
-300.0   30.0   33.333333333333336
-350.0   60.0   33.333333333333336
-350.0   30.0   50.0
-300.0   30.0   33.333333333333336
-300.0   60.0   33.333333333333336
-350.0   60.0   33.333333333333336
-300.0   60.0   50.0
-350.0   30.0   50.0
-350.0   60.0   50.0
-300.0   60.0   50.0
-350.0   60.0   33.333333333333336
-350.0   30.0   50.0
-300.0   60.0   50.0
-300.0   30.0   50.0
-300.0   30.0   33.333333333333336
-350.0   30.0   50.0
-300.0   60.0   50.0
-300.0   30.0   33.333333333333336
-350.0   60.0   33.333333333333336
-350.0   60.0   0.0
-300.0   60.0   0.0
-350.0   90.0   0.0
-350.0   60.0   16.666666666666668
-300.0   60.0   0.0
-300.0   90.0   0.0
-350.0   90.0   0.0
-300.0   90.0   16.666666666666668
-350.0   60.0   16.666666666666668
-350.0   90.0   16.666666666666668
-300.0   90.0   16.666666666666668
-350.0   90.0   0.0
-350.0   60.0   16.666666666666668
-300.0   90.0   16.666666666666668
-300.0   60.0   16.666666666666668
-300.0   60.0   0.0
-350.0   60.0   16.666666666666668
-300.0   90.0   16.666666666666668
-300.0   60.0   0.0
-350.0   90.0   0.0
-350.0   60.0   16.666666666666668
-300.0   60.0   16.666666666666668
-350.0   90.0   16.666666666666668
-350.0   60.0   33.333333333333336
-300.0   60.0   16.666666666666668
-300.0   90.0   16.666666666666668
-350.0   90.0   16.666666666666668
-300.0   90.0   33.333333333333336
-350.0   60.0   33.333333333333336
-350.0   90.0   33.333333333333336
-300.0   90.0   33.333333333333336
-350.0   90.0   16.666666666666668
-350.0   60.0   33.333333333333336
-300.0   90.0   33.333333333333336
-300.0   60.0   33.333333333333336
-300.0   60.0   16.666666666666668
-350.0   60.0   33.333333333333336
-300.0   90.0   33.333333333333336
-300.0   60.0   16.666666666666668
-350.0   90.0   16.666666666666668
-350.0   60.0   33.333333333333336
-300.0   60.0   33.333333333333336
-350.0   90.0   33.333333333333336
-350.0   60.0   50.0
-300.0   60.0   33.333333333333336
-300.0   90.0   33.333333333333336
-350.0   90.0   33.333333333333336
-300.0   90.0   50.0
-350.0   60.0   50.0
-350.0   90.0   50.0
-300.0   90.0   50.0
-350.0   90.0   33.333333333333336
-350.0   60.0   50.0
-300.0   90.0   50.0
-300.0   60.0   50.0
-300.0   60.0   33.333333333333336
-350.0   60.0   50.0
-300.0   90.0   50.0
-300.0   60.0   33.333333333333336
-350.0   90.0   33.333333333333336
-350.0   90.0   0.0
-300.0   90.0   0.0
-350.0   120.0   0.0
-350.0   90.0   16.666666666666668
-300.0   90.0   0.0
-300.0   120.0   0.0
-350.0   120.0   0.0
-300.0   120.0   16.666666666666668
-350.0   90.0   16.666666666666668
-350.0   120.0   16.666666666666668
-300.0   120.0   16.666666666666668
-350.0   120.0   0.0
-350.0   90.0   16.666666666666668
-300.0   120.0   16.666666666666668
-300.0   90.0   16.666666666666668
-300.0   90.0   0.0
-350.0   90.0   16.666666666666668
-300.0   120.0   16.666666666666668
-300.0   90.0   0.0
-350.0   120.0   0.0
-350.0   90.0   16.666666666666668
-300.0   90.0   16.666666666666668
-350.0   120.0   16.666666666666668
-350.0   90.0   33.333333333333336
-300.0   90.0   16.666666666666668
-300.0   120.0   16.666666666666668
-350.0   120.0   16.666666666666668
-300.0   120.0   33.333333333333336
-350.0   90.0   33.333333333333336
-350.0   120.0   33.333333333333336
-300.0   120.0   33.333333333333336
-350.0   120.0   16.666666666666668
-350.0   90.0   33.333333333333336
-300.0   120.0   33.333333333333336
-300.0   90.0   33.333333333333336
-300.0   90.0   16.666666666666668
-350.0   90.0   33.333333333333336
-300.0   120.0   33.333333333333336
-300.0   90.0   16.666666666666668
-350.0   120.0   16.666666666666668
-350.0   90.0   33.333333333333336
-300.0   90.0   33.333333333333336
-350.0   120.0   33.333333333333336
-350.0   90.0   50.0
-300.0   90.0   33.333333333333336
-300.0   120.0   33.333333333333336
-350.0   120.0   33.333333333333336
-300.0   120.0   50.0
-350.0   90.0   50.0
-350.0   120.0   50.0
-300.0   120.0   50.0
-350.0   120.0   33.333333333333336
-350.0   90.0   50.0
-300.0   120.0   50.0
-300.0   90.0   50.0
-300.0   90.0   33.333333333333336
-350.0   90.0   50.0
-300.0   120.0   50.0
-300.0   90.0   33.333333333333336
-350.0   120.0   33.333333333333336
-350.0   120.0   0.0
-300.0   120.0   0.0
-350.0   150.0   0.0
-350.0   120.0   16.666666666666668
-300.0   120.0   0.0
-300.0   150.0   0.0
-350.0   150.0   0.0
-300.0   150.0   16.666666666666668
-350.0   120.0   16.666666666666668
-350.0   150.0   16.666666666666668
-300.0   150.0   16.666666666666668
-350.0   150.0   0.0
-350.0   120.0   16.666666666666668
-300.0   150.0   16.666666666666668
-300.0   120.0   16.666666666666668
-300.0   120.0   0.0
-350.0   120.0   16.666666666666668
-300.0   150.0   16.666666666666668
-300.0   120.0   0.0
-350.0   150.0   0.0
-350.0   120.0   16.666666666666668
-300.0   120.0   16.666666666666668
-350.0   150.0   16.666666666666668
-350.0   120.0   33.333333333333336
-300.0   120.0   16.666666666666668
-300.0   150.0   16.666666666666668
-350.0   150.0   16.666666666666668
-300.0   150.0   33.333333333333336
-350.0   120.0   33.333333333333336
-350.0   150.0   33.333333333333336
-300.0   150.0   33.333333333333336
-350.0   150.0   16.666666666666668
-350.0   120.0   33.333333333333336
-300.0   150.0   33.333333333333336
-300.0   120.0   33.333333333333336
-300.0   120.0   16.666666666666668
-350.0   120.0   33.333333333333336
-300.0   150.0   33.333333333333336
-300.0   120.0   16.666666666666668
-350.0   150.0   16.666666666666668
-350.0   120.0   33.333333333333336
-300.0   120.0   33.333333333333336
-350.0   150.0   33.333333333333336
-350.0   120.0   50.0
-300.0   120.0   33.333333333333336
-300.0   150.0   33.333333333333336
-350.0   150.0   33.333333333333336
-300.0   150.0   50.0
-350.0   120.0   50.0
-350.0   150.0   50.0
-300.0   150.0   50.0
-350.0   150.0   33.333333333333336
-350.0   120.0   50.0
-300.0   150.0   50.0
-300.0   120.0   50.0
-300.0   120.0   33.333333333333336
-350.0   120.0   50.0
-300.0   150.0   50.0
-300.0   120.0   33.333333333333336
-350.0   150.0   33.333333333333336
-300.0   0.0   0.0
-250.0   0.0   0.0
-300.0   30.0   0.0
-300.0   0.0   16.666666666666668
-250.0   0.0   0.0
-250.0   30.0   0.0
-300.0   30.0   0.0
-250.0   30.0   16.666666666666668
-300.0   0.0   16.666666666666668
-300.0   30.0   16.666666666666668
-250.0   30.0   16.666666666666668
-300.0   30.0   0.0
-300.0   0.0   16.666666666666668
-250.0   30.0   16.666666666666668
-250.0   0.0   16.666666666666668
-250.0   0.0   0.0
-300.0   0.0   16.666666666666668
-250.0   30.0   16.666666666666668
-250.0   0.0   0.0
-300.0   30.0   0.0
-300.0   0.0   16.666666666666668
-250.0   0.0   16.666666666666668
-300.0   30.0   16.666666666666668
-300.0   0.0   33.333333333333336
-250.0   0.0   16.666666666666668
-250.0   30.0   16.666666666666668
-300.0   30.0   16.666666666666668
-250.0   30.0   33.333333333333336
-300.0   0.0   33.333333333333336
-300.0   30.0   33.333333333333336
-250.0   30.0   33.333333333333336
-300.0   30.0   16.666666666666668
-300.0   0.0   33.333333333333336
-250.0   30.0   33.333333333333336
-250.0   0.0   33.333333333333336
-250.0   0.0   16.666666666666668
-300.0   0.0   33.333333333333336
-250.0   30.0   33.333333333333336
-250.0   0.0   16.666666666666668
-300.0   30.0   16.666666666666668
-300.0   0.0   33.333333333333336
-250.0   0.0   33.333333333333336
-300.0   30.0   33.333333333333336
-300.0   0.0   50.0
-250.0   0.0   33.333333333333336
-250.0   30.0   33.333333333333336
-300.0   30.0   33.333333333333336
-250.0   30.0   50.0
-300.0   0.0   50.0
-300.0   30.0   50.0
-250.0   30.0   50.0
-300.0   30.0   33.333333333333336
-300.0   0.0   50.0
-250.0   30.0   50.0
-250.0   0.0   50.0
-250.0   0.0   33.333333333333336
-300.0   0.0   50.0
-250.0   30.0   50.0
-250.0   0.0   33.333333333333336
-300.0   30.0   33.333333333333336
-300.0   30.0   0.0
-250.0   30.0   0.0
-300.0   60.0   0.0
-300.0   30.0   16.666666666666668
-250.0   30.0   0.0
-250.0   60.0   0.0
-300.0   60.0   0.0
-250.0   60.0   16.666666666666668
-300.0   30.0   16.666666666666668
-300.0   60.0   16.666666666666668
-250.0   60.0   16.666666666666668
-300.0   60.0   0.0
-300.0   30.0   16.666666666666668
-250.0   60.0   16.666666666666668
-250.0   30.0   16.666666666666668
-250.0   30.0   0.0
-300.0   30.0   16.666666666666668
-250.0   60.0   16.666666666666668
-250.0   30.0   0.0
-300.0   60.0   0.0
-300.0   30.0   16.666666666666668
-250.0   30.0   16.666666666666668
-300.0   60.0   16.666666666666668
-300.0   30.0   33.333333333333336
-250.0   30.0   16.666666666666668
-250.0   60.0   16.666666666666668
-300.0   60.0   16.666666666666668
-250.0   60.0   33.333333333333336
-300.0   30.0   33.333333333333336
-300.0   60.0   33.333333333333336
-250.0   60.0   33.333333333333336
-300.0   60.0   16.666666666666668
-300.0   30.0   33.333333333333336
-250.0   60.0   33.333333333333336
-250.0   30.0   33.333333333333336
-250.0   30.0   16.666666666666668
-300.0   30.0   33.333333333333336
-250.0   60.0   33.333333333333336
-250.0   30.0   16.666666666666668
-300.0   60.0   16.666666666666668
-300.0   30.0   33.333333333333336
-250.0   30.0   33.333333333333336
-300.0   60.0   33.333333333333336
-300.0   30.0   50.0
-250.0   30.0   33.333333333333336
-250.0   60.0   33.333333333333336
-300.0   60.0   33.333333333333336
-250.0   60.0   50.0
-300.0   30.0   50.0
-300.0   60.0   50.0
-250.0   60.0   50.0
-300.0   60.0   33.333333333333336
-300.0   30.0   50.0
-250.0   60.0   50.0
-250.0   30.0   50.0
-250.0   30.0   33.333333333333336
-300.0   30.0   50.0
-250.0   60.0   50.0
-250.0   30.0   33.333333333333336
-300.0   60.0   33.333333333333336
-300.0   60.0   0.0
-250.0   60.0   0.0
-300.0   90.0   0.0
-300.0   60.0   16.666666666666668
-250.0   60.0   0.0
-250.0   90.0   0.0
-300.0   90.0   0.0
-250.0   90.0   16.666666666666668
-300.0   60.0   16.666666666666668
-300.0   90.0   16.666666666666668
-250.0   90.0   16.666666666666668
-300.0   90.0   0.0
-300.0   60.0   16.666666666666668
-250.0   90.0   16.666666666666668
-250.0   60.0   16.666666666666668
-250.0   60.0   0.0
-300.0   60.0   16.666666666666668
-250.0   90.0   16.666666666666668
-250.0   60.0   0.0
-300.0   90.0   0.0
-300.0   60.0   16.666666666666668
-250.0   60.0   16.666666666666668
-300.0   90.0   16.666666666666668
-300.0   60.0   33.333333333333336
-250.0   60.0   16.666666666666668
-250.0   90.0   16.666666666666668
-300.0   90.0   16.666666666666668
-250.0   90.0   33.333333333333336
-300.0   60.0   33.333333333333336
-300.0   90.0   33.333333333333336
-250.0   90.0   33.333333333333336
-300.0   90.0   16.666666666666668
-300.0   60.0   33.333333333333336
-250.0   90.0   33.333333333333336
-250.0   60.0   33.333333333333336
-250.0   60.0   16.666666666666668
-300.0   60.0   33.333333333333336
-250.0   90.0   33.333333333333336
-250.0   60.0   16.666666666666668
-300.0   90.0   16.666666666666668
-300.0   60.0   33.333333333333336
-250.0   60.0   33.333333333333336
-300.0   90.0   33.333333333333336
-300.0   60.0   50.0
-250.0   60.0   33.333333333333336
-250.0   90.0   33.333333333333336
-300.0   90.0   33.333333333333336
-250.0   90.0   50.0
-300.0   60.0   50.0
-300.0   90.0   50.0
-250.0   90.0   50.0
-300.0   90.0   33.333333333333336
-300.0   60.0   50.0
-250.0   90.0   50.0
-250.0   60.0   50.0
-250.0   60.0   33.333333333333336
-300.0   60.0   50.0
-250.0   90.0   50.0
-250.0   60.0   33.333333333333336
-300.0   90.0   33.333333333333336
-300.0   90.0   0.0
-250.0   90.0   0.0
-300.0   120.0   0.0
-300.0   90.0   16.666666666666668
-250.0   90.0   0.0
-250.0   120.0   0.0
-300.0   120.0   0.0
-250.0   120.0   16.666666666666668
-300.0   90.0   16.666666666666668
-300.0   120.0   16.666666666666668
-250.0   120.0   16.666666666666668
-300.0   120.0   0.0
-300.0   90.0   16.666666666666668
-250.0   120.0   16.666666666666668
-250.0   90.0   16.666666666666668
-250.0   90.0   0.0
-300.0   90.0   16.666666666666668
-250.0   120.0   16.666666666666668
-250.0   90.0   0.0
-300.0   120.0   0.0
-300.0   90.0   16.666666666666668
-250.0   90.0   16.666666666666668
-300.0   120.0   16.666666666666668
-300.0   90.0   33.333333333333336
-250.0   90.0   16.666666666666668
-250.0   120.0   16.666666666666668
-300.0   120.0   16.666666666666668
-250.0   120.0   33.333333333333336
-300.0   90.0   33.333333333333336
-300.0   120.0   33.333333333333336
-250.0   120.0   33.333333333333336
-300.0   120.0   16.666666666666668
-300.0   90.0   33.333333333333336
-250.0   120.0   33.333333333333336
-250.0   90.0   33.333333333333336
-250.0   90.0   16.666666666666668
-300.0   90.0   33.333333333333336
-250.0   120.0   33.333333333333336
-250.0   90.0   16.666666666666668
-300.0   120.0   16.666666666666668
-300.0   90.0   33.333333333333336
-250.0   90.0   33.333333333333336
-300.0   120.0   33.333333333333336
-300.0   90.0   50.0
-250.0   90.0   33.333333333333336
-250.0   120.0   33.333333333333336
-300.0   120.0   33.333333333333336
-250.0   120.0   50.0
-300.0   90.0   50.0
-300.0   120.0   50.0
-250.0   120.0   50.0
-300.0   120.0   33.333333333333336
-300.0   90.0   50.0
-250.0   120.0   50.0
-250.0   90.0   50.0
-250.0   90.0   33.333333333333336
-300.0   90.0   50.0
-250.0   120.0   50.0
-250.0   90.0   33.333333333333336
-300.0   120.0   33.333333333333336
-300.0   120.0   0.0
-250.0   120.0   0.0
-300.0   150.0   0.0
-300.0   120.0   16.666666666666668
-250.0   120.0   0.0
-250.0   150.0   0.0
-300.0   150.0   0.0
-250.0   150.0   16.666666666666668
-300.0   120.0   16.666666666666668
-300.0   150.0   16.666666666666668
-250.0   150.0   16.666666666666668
-300.0   150.0   0.0
-300.0   120.0   16.666666666666668
-250.0   150.0   16.666666666666668
-250.0   120.0   16.666666666666668
-250.0   120.0   0.0
-300.0   120.0   16.666666666666668
-250.0   150.0   16.666666666666668
-250.0   120.0   0.0
-300.0   150.0   0.0
-300.0   120.0   16.666666666666668
-250.0   120.0   16.666666666666668
-300.0   150.0   16.666666666666668
-300.0   120.0   33.333333333333336
-250.0   120.0   16.666666666666668
-250.0   150.0   16.666666666666668
-300.0   150.0   16.666666666666668
-250.0   150.0   33.333333333333336
-300.0   120.0   33.333333333333336
-300.0   150.0   33.333333333333336
-250.0   150.0   33.333333333333336
-300.0   150.0   16.666666666666668
-300.0   120.0   33.333333333333336
-250.0   150.0   33.333333333333336
-250.0   120.0   33.333333333333336
-250.0   120.0   16.666666666666668
-300.0   120.0   33.333333333333336
-250.0   150.0   33.333333333333336
-250.0   120.0   16.666666666666668
-300.0   150.0   16.666666666666668
-300.0   120.0   33.333333333333336
-250.0   120.0   33.333333333333336
-300.0   150.0   33.333333333333336
-300.0   120.0   50.0
-250.0   120.0   33.333333333333336
-250.0   150.0   33.333333333333336
-300.0   150.0   33.333333333333336
-250.0   150.0   50.0
-300.0   120.0   50.0
-300.0   150.0   50.0
-250.0   150.0   50.0
-300.0   150.0   33.333333333333336
-300.0   120.0   50.0
-250.0   150.0   50.0
-250.0   120.0   50.0
-250.0   120.0   33.333333333333336
-300.0   120.0   50.0
-250.0   150.0   50.0
-250.0   120.0   33.333333333333336
-300.0   150.0   33.333333333333336
-250.0   0.0   0.0
-200.0   0.0   0.0
-250.0   30.0   0.0
-250.0   0.0   16.666666666666668
-200.0   0.0   0.0
-200.0   30.0   0.0
-250.0   30.0   0.0
-200.0   30.0   16.666666666666668
-250.0   0.0   16.666666666666668
-250.0   30.0   16.666666666666668
-200.0   30.0   16.666666666666668
-250.0   30.0   0.0
-250.0   0.0   16.666666666666668
-200.0   30.0   16.666666666666668
-200.0   0.0   16.666666666666668
-200.0   0.0   0.0
-250.0   0.0   16.666666666666668
-200.0   30.0   16.666666666666668
-200.0   0.0   0.0
-250.0   30.0   0.0
-250.0   0.0   16.666666666666668
-200.0   0.0   16.666666666666668
-250.0   30.0   16.666666666666668
-250.0   0.0   33.333333333333336
-200.0   0.0   16.666666666666668
-200.0   30.0   16.666666666666668
-250.0   30.0   16.666666666666668
-200.0   30.0   33.333333333333336
-250.0   0.0   33.333333333333336
-250.0   30.0   33.333333333333336
-200.0   30.0   33.333333333333336
-250.0   30.0   16.666666666666668
-250.0   0.0   33.333333333333336
-200.0   30.0   33.333333333333336
-200.0   0.0   33.333333333333336
-200.0   0.0   16.666666666666668
-250.0   0.0   33.333333333333336
-200.0   30.0   33.333333333333336
-200.0   0.0   16.666666666666668
-250.0   30.0   16.666666666666668
-250.0   0.0   33.333333333333336
-200.0   0.0   33.333333333333336
-250.0   30.0   33.333333333333336
-250.0   0.0   50.0
-200.0   0.0   33.333333333333336
-200.0   30.0   33.333333333333336
-250.0   30.0   33.333333333333336
-200.0   30.0   50.0
-250.0   0.0   50.0
-250.0   30.0   50.0
-200.0   30.0   50.0
-250.0   30.0   33.333333333333336
-250.0   0.0   50.0
-200.0   30.0   50.0
-200.0   0.0   50.0
-200.0   0.0   33.333333333333336
-250.0   0.0   50.0
-200.0   30.0   50.0
-200.0   0.0   33.333333333333336
-250.0   30.0   33.333333333333336
-250.0   30.0   0.0
-200.0   30.0   0.0
-250.0   60.0   0.0
-250.0   30.0   16.666666666666668
-200.0   30.0   0.0
-200.0   60.0   0.0
-250.0   60.0   0.0
-200.0   60.0   16.666666666666668
-250.0   30.0   16.666666666666668
-250.0   60.0   16.666666666666668
-200.0   60.0   16.666666666666668
-250.0   60.0   0.0
-250.0   30.0   16.666666666666668
-200.0   60.0   16.666666666666668
-200.0   30.0   16.666666666666668
-200.0   30.0   0.0
-250.0   30.0   16.666666666666668
-200.0   60.0   16.666666666666668
-200.0   30.0   0.0
-250.0   60.0   0.0
-250.0   30.0   16.666666666666668
-200.0   30.0   16.666666666666668
-250.0   60.0   16.666666666666668
-250.0   30.0   33.333333333333336
-200.0   30.0   16.666666666666668
-200.0   60.0   16.666666666666668
-250.0   60.0   16.666666666666668
-200.0   60.0   33.333333333333336
-250.0   30.0   33.333333333333336
-250.0   60.0   33.333333333333336
-200.0   60.0   33.333333333333336
-250.0   60.0   16.666666666666668
-250.0   30.0   33.333333333333336
-200.0   60.0   33.333333333333336
-200.0   30.0   33.333333333333336
-200.0   30.0   16.666666666666668
-250.0   30.0   33.333333333333336
-200.0   60.0   33.333333333333336
-200.0   30.0   16.666666666666668
-250.0   60.0   16.666666666666668
-250.0   30.0   33.333333333333336
-200.0   30.0   33.333333333333336
-250.0   60.0   33.333333333333336
-250.0   30.0   50.0
-200.0   30.0   33.333333333333336
-200.0   60.0   33.333333333333336
-250.0   60.0   33.333333333333336
-200.0   60.0   50.0
-250.0   30.0   50.0
-250.0   60.0   50.0
-200.0   60.0   50.0
-250.0   60.0   33.333333333333336
-250.0   30.0   50.0
-200.0   60.0   50.0
-200.0   30.0   50.0
-200.0   30.0   33.333333333333336
-250.0   30.0   50.0
-200.0   60.0   50.0
-200.0   30.0   33.333333333333336
-250.0   60.0   33.333333333333336
-250.0   60.0   0.0
-200.0   60.0   0.0
-250.0   90.0   0.0
-250.0   60.0   16.666666666666668
-200.0   60.0   0.0
-200.0   90.0   0.0
-250.0   90.0   0.0
-200.0   90.0   16.666666666666668
-250.0   60.0   16.666666666666668
-250.0   90.0   16.666666666666668
-200.0   90.0   16.666666666666668
-250.0   90.0   0.0
-250.0   60.0   16.666666666666668
-200.0   90.0   16.666666666666668
-200.0   60.0   16.666666666666668
-200.0   60.0   0.0
-250.0   60.0   16.666666666666668
-200.0   90.0   16.666666666666668
-200.0   60.0   0.0
-250.0   90.0   0.0
-250.0   60.0   16.666666666666668
-200.0   60.0   16.666666666666668
-250.0   90.0   16.666666666666668
-250.0   60.0   33.333333333333336
-200.0   60.0   16.666666666666668
-200.0   90.0   16.666666666666668
-250.0   90.0   16.666666666666668
-200.0   90.0   33.333333333333336
-250.0   60.0   33.333333333333336
-250.0   90.0   33.333333333333336
-200.0   90.0   33.333333333333336
-250.0   90.0   16.666666666666668
-250.0   60.0   33.333333333333336
-200.0   90.0   33.333333333333336
-200.0   60.0   33.333333333333336
-200.0   60.0   16.666666666666668
-250.0   60.0   33.333333333333336
-200.0   90.0   33.333333333333336
-200.0   60.0   16.666666666666668
-250.0   90.0   16.666666666666668
-250.0   60.0   33.333333333333336
-200.0   60.0   33.333333333333336
-250.0   90.0   33.333333333333336
-250.0   60.0   50.0
-200.0   60.0   33.333333333333336
-200.0   90.0   33.333333333333336
-250.0   90.0   33.333333333333336
-200.0   90.0   50.0
-250.0   60.0   50.0
-250.0   90.0   50.0
-200.0   90.0   50.0
-250.0   90.0   33.333333333333336
-250.0   60.0   50.0
-200.0   90.0   50.0
-200.0   60.0   50.0
-200.0   60.0   33.333333333333336
-250.0   60.0   50.0
-200.0   90.0   50.0
-200.0   60.0   33.333333333333336
-250.0   90.0   33.333333333333336
-250.0   90.0   0.0
-200.0   90.0   0.0
-250.0   120.0   0.0
-250.0   90.0   16.666666666666668
-200.0   90.0   0.0
-200.0   120.0   0.0
-250.0   120.0   0.0
-200.0   120.0   16.666666666666668
-250.0   90.0   16.666666666666668
-250.0   120.0   16.666666666666668
-200.0   120.0   16.666666666666668
-250.0   120.0   0.0
-250.0   90.0   16.666666666666668
-200.0   120.0   16.666666666666668
-200.0   90.0   16.666666666666668
-200.0   90.0   0.0
-250.0   90.0   16.666666666666668
-200.0   120.0   16.666666666666668
-200.0   90.0   0.0
-250.0   120.0   0.0
-250.0   90.0   16.666666666666668
-200.0   90.0   16.666666666666668
-250.0   120.0   16.666666666666668
-250.0   90.0   33.333333333333336
-200.0   90.0   16.666666666666668
-200.0   120.0   16.666666666666668
-250.0   120.0   16.666666666666668
-200.0   120.0   33.333333333333336
-250.0   90.0   33.333333333333336
-250.0   120.0   33.333333333333336
-200.0   120.0   33.333333333333336
-250.0   120.0   16.666666666666668
-250.0   90.0   33.333333333333336
-200.0   120.0   33.333333333333336
-200.0   90.0   33.333333333333336
-200.0   90.0   16.666666666666668
-250.0   90.0   33.333333333333336
-200.0   120.0   33.333333333333336
-200.0   90.0   16.666666666666668
-250.0   120.0   16.666666666666668
-250.0   90.0   33.333333333333336
-200.0   90.0   33.333333333333336
-250.0   120.0   33.333333333333336
-250.0   90.0   50.0
-200.0   90.0   33.333333333333336
-200.0   120.0   33.333333333333336
-250.0   120.0   33.333333333333336
-200.0   120.0   50.0
-250.0   90.0   50.0
-250.0   120.0   50.0
-200.0   120.0   50.0
-250.0   120.0   33.333333333333336
-250.0   90.0   50.0
-200.0   120.0   50.0
-200.0   90.0   50.0
-200.0   90.0   33.333333333333336
-250.0   90.0   50.0
-200.0   120.0   50.0
-200.0   90.0   33.333333333333336
-250.0   120.0   33.333333333333336
-250.0   120.0   0.0
-200.0   120.0   0.0
-250.0   150.0   0.0
-250.0   120.0   16.666666666666668
-200.0   120.0   0.0
-200.0   150.0   0.0
-250.0   150.0   0.0
-200.0   150.0   16.666666666666668
-250.0   120.0   16.666666666666668
-250.0   150.0   16.666666666666668
-200.0   150.0   16.666666666666668
-250.0   150.0   0.0
-250.0   120.0   16.666666666666668
-200.0   150.0   16.666666666666668
-200.0   120.0   16.666666666666668
-200.0   120.0   0.0
-250.0   120.0   16.666666666666668
-200.0   150.0   16.666666666666668
-200.0   120.0   0.0
-250.0   150.0   0.0
-250.0   120.0   16.666666666666668
-200.0   120.0   16.666666666666668
-250.0   150.0   16.666666666666668
-250.0   120.0   33.333333333333336
-200.0   120.0   16.666666666666668
-200.0   150.0   16.666666666666668
-250.0   150.0   16.666666666666668
-200.0   150.0   33.333333333333336
-250.0   120.0   33.333333333333336
-250.0   150.0   33.333333333333336
-200.0   150.0   33.333333333333336
-250.0   150.0   16.666666666666668
-250.0   120.0   33.333333333333336
-200.0   150.0   33.333333333333336
-200.0   120.0   33.333333333333336
-200.0   120.0   16.666666666666668
-250.0   120.0   33.333333333333336
-200.0   150.0   33.333333333333336
-200.0   120.0   16.666666666666668
-250.0   150.0   16.666666666666668
-250.0   120.0   33.333333333333336
-200.0   120.0   33.333333333333336
-250.0   150.0   33.333333333333336
-250.0   120.0   50.0
-200.0   120.0   33.333333333333336
-200.0   150.0   33.333333333333336
-250.0   150.0   33.333333333333336
-200.0   150.0   50.0
-250.0   120.0   50.0
-250.0   150.0   50.0
-200.0   150.0   50.0
-250.0   150.0   33.333333333333336
-250.0   120.0   50.0
-200.0   150.0   50.0
-200.0   120.0   50.0
-200.0   120.0   33.333333333333336
-250.0   120.0   50.0
-200.0   150.0   50.0
-200.0   120.0   33.333333333333336
-250.0   150.0   33.333333333333336
-200.0   0.0   0.0
-150.0   0.0   0.0
-200.0   30.0   0.0
-200.0   0.0   16.666666666666668
-150.0   0.0   0.0
-150.0   30.0   0.0
-200.0   30.0   0.0
-150.0   30.0   16.666666666666668
-200.0   0.0   16.666666666666668
-200.0   30.0   16.666666666666668
-150.0   30.0   16.666666666666668
-200.0   30.0   0.0
-200.0   0.0   16.666666666666668
-150.0   30.0   16.666666666666668
-150.0   0.0   16.666666666666668
-150.0   0.0   0.0
-200.0   0.0   16.666666666666668
-150.0   30.0   16.666666666666668
-150.0   0.0   0.0
-200.0   30.0   0.0
-200.0   0.0   16.666666666666668
-150.0   0.0   16.666666666666668
-200.0   30.0   16.666666666666668
-200.0   0.0   33.333333333333336
-150.0   0.0   16.666666666666668
-150.0   30.0   16.666666666666668
-200.0   30.0   16.666666666666668
-150.0   30.0   33.333333333333336
-200.0   0.0   33.333333333333336
-200.0   30.0   33.333333333333336
-150.0   30.0   33.333333333333336
-200.0   30.0   16.666666666666668
-200.0   0.0   33.333333333333336
-150.0   30.0   33.333333333333336
-150.0   0.0   33.333333333333336
-150.0   0.0   16.666666666666668
-200.0   0.0   33.333333333333336
-150.0   30.0   33.333333333333336
-150.0   0.0   16.666666666666668
-200.0   30.0   16.666666666666668
-200.0   0.0   33.333333333333336
-150.0   0.0   33.333333333333336
-200.0   30.0   33.333333333333336
-200.0   0.0   50.0
-150.0   0.0   33.333333333333336
-150.0   30.0   33.333333333333336
-200.0   30.0   33.333333333333336
-150.0   30.0   50.0
-200.0   0.0   50.0
-200.0   30.0   50.0
-150.0   30.0   50.0
-200.0   30.0   33.333333333333336
-200.0   0.0   50.0
-150.0   30.0   50.0
-150.0   0.0   50.0
-150.0   0.0   33.333333333333336
-200.0   0.0   50.0
-150.0   30.0   50.0
-150.0   0.0   33.333333333333336
-200.0   30.0   33.333333333333336
-200.0   30.0   0.0
-150.0   30.0   0.0
-200.0   60.0   0.0
-200.0   30.0   16.666666666666668
-150.0   30.0   0.0
-150.0   60.0   0.0
-200.0   60.0   0.0
-150.0   60.0   16.666666666666668
-200.0   30.0   16.666666666666668
-200.0   60.0   16.666666666666668
-150.0   60.0   16.666666666666668
-200.0   60.0   0.0
-200.0   30.0   16.666666666666668
-150.0   60.0   16.666666666666668
-150.0   30.0   16.666666666666668
-150.0   30.0   0.0
-200.0   30.0   16.666666666666668
-150.0   60.0   16.666666666666668
-150.0   30.0   0.0
-200.0   60.0   0.0
-200.0   30.0   16.666666666666668
-150.0   30.0   16.666666666666668
-200.0   60.0   16.666666666666668
-200.0   30.0   33.333333333333336
-150.0   30.0   16.666666666666668
-150.0   60.0   16.666666666666668
-200.0   60.0   16.666666666666668
-150.0   60.0   33.333333333333336
-200.0   30.0   33.333333333333336
-200.0   60.0   33.333333333333336
-150.0   60.0   33.333333333333336
-200.0   60.0   16.666666666666668
-200.0   30.0   33.333333333333336
-150.0   60.0   33.333333333333336
-150.0   30.0   33.333333333333336
-150.0   30.0   16.666666666666668
-200.0   30.0   33.333333333333336
-150.0   60.0   33.333333333333336
-150.0   30.0   16.666666666666668
-200.0   60.0   16.666666666666668
-200.0   30.0   33.333333333333336
-150.0   30.0   33.333333333333336
-200.0   60.0   33.333333333333336
-200.0   30.0   50.0
-150.0   30.0   33.333333333333336
-150.0   60.0   33.333333333333336
-200.0   60.0   33.333333333333336
-150.0   60.0   50.0
-200.0   30.0   50.0
-200.0   60.0   50.0
-150.0   60.0   50.0
-200.0   60.0   33.333333333333336
-200.0   30.0   50.0
-150.0   60.0   50.0
-150.0   30.0   50.0
-150.0   30.0   33.333333333333336
-200.0   30.0   50.0
-150.0   60.0   50.0
-150.0   30.0   33.333333333333336
-200.0   60.0   33.333333333333336
-200.0   60.0   0.0
-150.0   60.0   0.0
-200.0   90.0   0.0
-200.0   60.0   16.666666666666668
-150.0   60.0   0.0
-150.0   90.0   0.0
-200.0   90.0   0.0
-150.0   90.0   16.666666666666668
-200.0   60.0   16.666666666666668
-200.0   90.0   16.666666666666668
-150.0   90.0   16.666666666666668
-200.0   90.0   0.0
-200.0   60.0   16.666666666666668
-150.0   90.0   16.666666666666668
-150.0   60.0   16.666666666666668
-150.0   60.0   0.0
-200.0   60.0   16.666666666666668
-150.0   90.0   16.666666666666668
-150.0   60.0   0.0
-200.0   90.0   0.0
-200.0   60.0   16.666666666666668
-150.0   60.0   16.666666666666668
-200.0   90.0   16.666666666666668
-200.0   60.0   33.333333333333336
-150.0   60.0   16.666666666666668
-150.0   90.0   16.666666666666668
-200.0   90.0   16.666666666666668
-150.0   90.0   33.333333333333336
-200.0   60.0   33.333333333333336
-200.0   90.0   33.333333333333336
-150.0   90.0   33.333333333333336
-200.0   90.0   16.666666666666668
-200.0   60.0   33.333333333333336
-150.0   90.0   33.333333333333336
-150.0   60.0   33.333333333333336
-150.0   60.0   16.666666666666668
-200.0   60.0   33.333333333333336
-150.0   90.0   33.333333333333336
-150.0   60.0   16.666666666666668
-200.0   90.0   16.666666666666668
-200.0   60.0   33.333333333333336
-150.0   60.0   33.333333333333336
-200.0   90.0   33.333333333333336
-200.0   60.0   50.0
-150.0   60.0   33.333333333333336
-150.0   90.0   33.333333333333336
-200.0   90.0   33.333333333333336
-150.0   90.0   50.0
-200.0   60.0   50.0
-200.0   90.0   50.0
-150.0   90.0   50.0
-200.0   90.0   33.333333333333336
-200.0   60.0   50.0
-150.0   90.0   50.0
-150.0   60.0   50.0
-150.0   60.0   33.333333333333336
-200.0   60.0   50.0
-150.0   90.0   50.0
-150.0   60.0   33.333333333333336
-200.0   90.0   33.333333333333336
-200.0   90.0   0.0
-150.0   90.0   0.0
-200.0   120.0   0.0
-200.0   90.0   16.666666666666668
-150.0   90.0   0.0
-150.0   120.0   0.0
-200.0   120.0   0.0
-150.0   120.0   16.666666666666668
-200.0   90.0   16.666666666666668
-200.0   120.0   16.666666666666668
-150.0   120.0   16.666666666666668
-200.0   120.0   0.0
-200.0   90.0   16.666666666666668
-150.0   120.0   16.666666666666668
-150.0   90.0   16.666666666666668
-150.0   90.0   0.0
-200.0   90.0   16.666666666666668
-150.0   120.0   16.666666666666668
-150.0   90.0   0.0
-200.0   120.0   0.0
-200.0   90.0   16.666666666666668
-150.0   90.0   16.666666666666668
-200.0   120.0   16.666666666666668
-200.0   90.0   33.333333333333336
-150.0   90.0   16.666666666666668
-150.0   120.0   16.666666666666668
-200.0   120.0   16.666666666666668
-150.0   120.0   33.333333333333336
-200.0   90.0   33.333333333333336
-200.0   120.0   33.333333333333336
-150.0   120.0   33.333333333333336
-200.0   120.0   16.666666666666668
-200.0   90.0   33.333333333333336
-150.0   120.0   33.333333333333336
-150.0   90.0   33.333333333333336
-150.0   90.0   16.666666666666668
-200.0   90.0   33.333333333333336
-150.0   120.0   33.333333333333336
-150.0   90.0   16.666666666666668
-200.0   120.0   16.666666666666668
-200.0   90.0   33.333333333333336
-150.0   90.0   33.333333333333336
-200.0   120.0   33.333333333333336
-200.0   90.0   50.0
-150.0   90.0   33.333333333333336
-150.0   120.0   33.333333333333336
-200.0   120.0   33.333333333333336
-150.0   120.0   50.0
-200.0   90.0   50.0
-200.0   120.0   50.0
-150.0   120.0   50.0
-200.0   120.0   33.333333333333336
-200.0   90.0   50.0
-150.0   120.0   50.0
-150.0   90.0   50.0
-150.0   90.0   33.333333333333336
-200.0   90.0   50.0
-150.0   120.0   50.0
-150.0   90.0   33.333333333333336
-200.0   120.0   33.333333333333336
-200.0   120.0   0.0
-150.0   120.0   0.0
-200.0   150.0   0.0
-200.0   120.0   16.666666666666668
-150.0   120.0   0.0
-150.0   150.0   0.0
-200.0   150.0   0.0
-150.0   150.0   16.666666666666668
-200.0   120.0   16.666666666666668
-200.0   150.0   16.666666666666668
-150.0   150.0   16.666666666666668
-200.0   150.0   0.0
-200.0   120.0   16.666666666666668
-150.0   150.0   16.666666666666668
-150.0   120.0   16.666666666666668
-150.0   120.0   0.0
-200.0   120.0   16.666666666666668
-150.0   150.0   16.666666666666668
-150.0   120.0   0.0
-200.0   150.0   0.0
-200.0   120.0   16.666666666666668
-150.0   120.0   16.666666666666668
-200.0   150.0   16.666666666666668
-200.0   120.0   33.333333333333336
-150.0   120.0   16.666666666666668
-150.0   150.0   16.666666666666668
-200.0   150.0   16.666666666666668
-150.0   150.0   33.333333333333336
-200.0   120.0   33.333333333333336
-200.0   150.0   33.333333333333336
-150.0   150.0   33.333333333333336
-200.0   150.0   16.666666666666668
-200.0   120.0   33.333333333333336
-150.0   150.0   33.333333333333336
-150.0   120.0   33.333333333333336
-150.0   120.0   16.666666666666668
-200.0   120.0   33.333333333333336
-150.0   150.0   33.333333333333336
-150.0   120.0   16.666666666666668
-200.0   150.0   16.666666666666668
-200.0   120.0   33.333333333333336
-150.0   120.0   33.333333333333336
-200.0   150.0   33.333333333333336
-200.0   120.0   50.0
-150.0   120.0   33.333333333333336
-150.0   150.0   33.333333333333336
-200.0   150.0   33.333333333333336
-150.0   150.0   50.0
-200.0   120.0   50.0
-200.0   150.0   50.0
-150.0   150.0   50.0
-200.0   150.0   33.333333333333336
-200.0   120.0   50.0
-150.0   150.0   50.0
-150.0   120.0   50.0
-150.0   120.0   33.333333333333336
-200.0   120.0   50.0
-150.0   150.0   50.0
-150.0   120.0   33.333333333333336
-200.0   150.0   33.333333333333336
-150.0   0.0   0.0
-100.0   0.0   0.0
-150.0   30.0   0.0
-150.0   0.0   16.666666666666668
-100.0   0.0   0.0
-100.0   30.0   0.0
-150.0   30.0   0.0
-100.0   30.0   16.666666666666668
-150.0   0.0   16.666666666666668
-150.0   30.0   16.666666666666668
-100.0   30.0   16.666666666666668
-150.0   30.0   0.0
-150.0   0.0   16.666666666666668
-100.0   30.0   16.666666666666668
-100.0   0.0   16.666666666666668
-100.0   0.0   0.0
-150.0   0.0   16.666666666666668
-100.0   30.0   16.666666666666668
-100.0   0.0   0.0
-150.0   30.0   0.0
-150.0   0.0   16.666666666666668
-100.0   0.0   16.666666666666668
-150.0   30.0   16.666666666666668
-150.0   0.0   33.333333333333336
-100.0   0.0   16.666666666666668
-100.0   30.0   16.666666666666668
-150.0   30.0   16.666666666666668
-100.0   30.0   33.333333333333336
-150.0   0.0   33.333333333333336
-150.0   30.0   33.333333333333336
-100.0   30.0   33.333333333333336
-150.0   30.0   16.666666666666668
-150.0   0.0   33.333333333333336
-100.0   30.0   33.333333333333336
-100.0   0.0   33.333333333333336
-100.0   0.0   16.666666666666668
-150.0   0.0   33.333333333333336
-100.0   30.0   33.333333333333336
-100.0   0.0   16.666666666666668
-150.0   30.0   16.666666666666668
-150.0   0.0   33.333333333333336
-100.0   0.0   33.333333333333336
-150.0   30.0   33.333333333333336
-150.0   0.0   50.0
-100.0   0.0   33.333333333333336
-100.0   30.0   33.333333333333336
-150.0   30.0   33.333333333333336
-100.0   30.0   50.0
-150.0   0.0   50.0
-150.0   30.0   50.0
-100.0   30.0   50.0
-150.0   30.0   33.333333333333336
-150.0   0.0   50.0
-100.0   30.0   50.0
-100.0   0.0   50.0
-100.0   0.0   33.333333333333336
-150.0   0.0   50.0
-100.0   30.0   50.0
-100.0   0.0   33.333333333333336
-150.0   30.0   33.333333333333336
-150.0   30.0   0.0
-100.0   30.0   0.0
-150.0   60.0   0.0
-150.0   30.0   16.666666666666668
-100.0   30.0   0.0
-100.0   60.0   0.0
-150.0   60.0   0.0
-100.0   60.0   16.666666666666668
-150.0   30.0   16.666666666666668
-150.0   60.0   16.666666666666668
-100.0   60.0   16.666666666666668
-150.0   60.0   0.0
-150.0   30.0   16.666666666666668
-100.0   60.0   16.666666666666668
-100.0   30.0   16.666666666666668
-100.0   30.0   0.0
-150.0   30.0   16.666666666666668
-100.0   60.0   16.666666666666668
-100.0   30.0   0.0
-150.0   60.0   0.0
-150.0   30.0   16.666666666666668
-100.0   30.0   16.666666666666668
-150.0   60.0   16.666666666666668
-150.0   30.0   33.333333333333336
-100.0   30.0   16.666666666666668
-100.0   60.0   16.666666666666668
-150.0   60.0   16.666666666666668
-100.0   60.0   33.333333333333336
-150.0   30.0   33.333333333333336
-150.0   60.0   33.333333333333336
-100.0   60.0   33.333333333333336
-150.0   60.0   16.666666666666668
-150.0   30.0   33.333333333333336
-100.0   60.0   33.333333333333336
-100.0   30.0   33.333333333333336
-100.0   30.0   16.666666666666668
-150.0   30.0   33.333333333333336
-100.0   60.0   33.333333333333336
-100.0   30.0   16.666666666666668
-150.0   60.0   16.666666666666668
-150.0   30.0   33.333333333333336
-100.0   30.0   33.333333333333336
-150.0   60.0   33.333333333333336
-150.0   30.0   50.0
-100.0   30.0   33.333333333333336
-100.0   60.0   33.333333333333336
-150.0   60.0   33.333333333333336
-100.0   60.0   50.0
-150.0   30.0   50.0
-150.0   60.0   50.0
-100.0   60.0   50.0
-150.0   60.0   33.333333333333336
-150.0   30.0   50.0
-100.0   60.0   50.0
-100.0   30.0   50.0
-100.0   30.0   33.333333333333336
-150.0   30.0   50.0
-100.0   60.0   50.0
-100.0   30.0   33.333333333333336
-150.0   60.0   33.333333333333336
-150.0   60.0   0.0
-100.0   60.0   0.0
-150.0   90.0   0.0
-150.0   60.0   16.666666666666668
-100.0   60.0   0.0
-100.0   90.0   0.0
-150.0   90.0   0.0
-100.0   90.0   16.666666666666668
-150.0   60.0   16.666666666666668
-150.0   90.0   16.666666666666668
-100.0   90.0   16.666666666666668
-150.0   90.0   0.0
-150.0   60.0   16.666666666666668
-100.0   90.0   16.666666666666668
-100.0   60.0   16.666666666666668
-100.0   60.0   0.0
-150.0   60.0   16.666666666666668
-100.0   90.0   16.666666666666668
-100.0   60.0   0.0
-150.0   90.0   0.0
-150.0   60.0   16.666666666666668
-100.0   60.0   16.666666666666668
-150.0   90.0   16.666666666666668
-150.0   60.0   33.333333333333336
-100.0   60.0   16.666666666666668
-100.0   90.0   16.666666666666668
-150.0   90.0   16.666666666666668
-100.0   90.0   33.333333333333336
-150.0   60.0   33.333333333333336
-150.0   90.0   33.333333333333336
-100.0   90.0   33.333333333333336
-150.0   90.0   16.666666666666668
-150.0   60.0   33.333333333333336
-100.0   90.0   33.333333333333336
-100.0   60.0   33.333333333333336
-100.0   60.0   16.666666666666668
-150.0   60.0   33.333333333333336
-100.0   90.0   33.333333333333336
-100.0   60.0   16.666666666666668
-150.0   90.0   16.666666666666668
-150.0   60.0   33.333333333333336
-100.0   60.0   33.333333333333336
-150.0   90.0   33.333333333333336
-150.0   60.0   50.0
-100.0   60.0   33.333333333333336
-100.0   90.0   33.333333333333336
-150.0   90.0   33.333333333333336
-100.0   90.0   50.0
-150.0   60.0   50.0
-150.0   90.0   50.0
-100.0   90.0   50.0
-150.0   90.0   33.333333333333336
-150.0   60.0   50.0
-100.0   90.0   50.0
-100.0   60.0   50.0
-100.0   60.0   33.333333333333336
-150.0   60.0   50.0
-100.0   90.0   50.0
-100.0   60.0   33.333333333333336
-150.0   90.0   33.333333333333336
-150.0   90.0   0.0
-100.0   90.0   0.0
-150.0   120.0   0.0
-150.0   90.0   16.666666666666668
-100.0   90.0   0.0
-100.0   120.0   0.0
-150.0   120.0   0.0
-100.0   120.0   16.666666666666668
-150.0   90.0   16.666666666666668
-150.0   120.0   16.666666666666668
-100.0   120.0   16.666666666666668
-150.0   120.0   0.0
-150.0   90.0   16.666666666666668
-100.0   120.0   16.666666666666668
-100.0   90.0   16.666666666666668
-100.0   90.0   0.0
-150.0   90.0   16.666666666666668
-100.0   120.0   16.666666666666668
-100.0   90.0   0.0
-150.0   120.0   0.0
-150.0   90.0   16.666666666666668
-100.0   90.0   16.666666666666668
-150.0   120.0   16.666666666666668
-150.0   90.0   33.333333333333336
-100.0   90.0   16.666666666666668
-100.0   120.0   16.666666666666668
-150.0   120.0   16.666666666666668
-100.0   120.0   33.333333333333336
-150.0   90.0   33.333333333333336
-150.0   120.0   33.333333333333336
-100.0   120.0   33.333333333333336
-150.0   120.0   16.666666666666668
-150.0   90.0   33.333333333333336
-100.0   120.0   33.333333333333336
-100.0   90.0   33.333333333333336
-100.0   90.0   16.666666666666668
-150.0   90.0   33.333333333333336
-100.0   120.0   33.333333333333336
-100.0   90.0   16.666666666666668
-150.0   120.0   16.666666666666668
-150.0   90.0   33.333333333333336
-100.0   90.0   33.333333333333336
-150.0   120.0   33.333333333333336
-150.0   90.0   50.0
-100.0   90.0   33.333333333333336
-100.0   120.0   33.333333333333336
-150.0   120.0   33.333333333333336
-100.0   120.0   50.0
-150.0   90.0   50.0
-150.0   120.0   50.0
-100.0   120.0   50.0
-150.0   120.0   33.333333333333336
-150.0   90.0   50.0
-100.0   120.0   50.0
-100.0   90.0   50.0
-100.0   90.0   33.333333333333336
-150.0   90.0   50.0
-100.0   120.0   50.0
-100.0   90.0   33.333333333333336
-150.0   120.0   33.333333333333336
-150.0   120.0   0.0
-100.0   120.0   0.0
-150.0   150.0   0.0
-150.0   120.0   16.666666666666668
-100.0   120.0   0.0
-100.0   150.0   0.0
-150.0   150.0   0.0
-100.0   150.0   16.666666666666668
-150.0   120.0   16.666666666666668
-150.0   150.0   16.666666666666668
-100.0   150.0   16.666666666666668
-150.0   150.0   0.0
-150.0   120.0   16.666666666666668
-100.0   150.0   16.666666666666668
-100.0   120.0   16.666666666666668
-100.0   120.0   0.0
-150.0   120.0   16.666666666666668
-100.0   150.0   16.666666666666668
-100.0   120.0   0.0
-150.0   150.0   0.0
-150.0   120.0   16.666666666666668
-100.0   120.0   16.666666666666668
-150.0   150.0   16.666666666666668
-150.0   120.0   33.333333333333336
-100.0   120.0   16.666666666666668
-100.0   150.0   16.666666666666668
-150.0   150.0   16.666666666666668
-100.0   150.0   33.333333333333336
-150.0   120.0   33.333333333333336
-150.0   150.0   33.333333333333336
-100.0   150.0   33.333333333333336
-150.0   150.0   16.666666666666668
-150.0   120.0   33.333333333333336
-100.0   150.0   33.333333333333336
-100.0   120.0   33.333333333333336
-100.0   120.0   16.666666666666668
-150.0   120.0   33.333333333333336
-100.0   150.0   33.333333333333336
-100.0   120.0   16.666666666666668
-150.0   150.0   16.666666666666668
-150.0   120.0   33.333333333333336
-100.0   120.0   33.333333333333336
-150.0   150.0   33.333333333333336
-150.0   120.0   50.0
-100.0   120.0   33.333333333333336
-100.0   150.0   33.333333333333336
-150.0   150.0   33.333333333333336
-100.0   150.0   50.0
-150.0   120.0   50.0
-150.0   150.0   50.0
-100.0   150.0   50.0
-150.0   150.0   33.333333333333336
-150.0   120.0   50.0
-100.0   150.0   50.0
-100.0   120.0   50.0
-100.0   120.0   33.333333333333336
-150.0   120.0   50.0
-100.0   150.0   50.0
-100.0   120.0   33.333333333333336
-150.0   150.0   33.333333333333336
-100.0   0.0   0.0
-50.0   0.0   0.0
-100.0   30.0   0.0
-100.0   0.0   16.666666666666668
-50.0   0.0   0.0
-50.0   30.0   0.0
-100.0   30.0   0.0
-50.0   30.0   16.666666666666668
-100.0   0.0   16.666666666666668
-100.0   30.0   16.666666666666668
-50.0   30.0   16.666666666666668
-100.0   30.0   0.0
-100.0   0.0   16.666666666666668
-50.0   30.0   16.666666666666668
-50.0   0.0   16.666666666666668
-50.0   0.0   0.0
-100.0   0.0   16.666666666666668
-50.0   30.0   16.666666666666668
-50.0   0.0   0.0
-100.0   30.0   0.0
-100.0   0.0   16.666666666666668
-50.0   0.0   16.666666666666668
-100.0   30.0   16.666666666666668
-100.0   0.0   33.333333333333336
-50.0   0.0   16.666666666666668
-50.0   30.0   16.666666666666668
-100.0   30.0   16.666666666666668
-50.0   30.0   33.333333333333336
-100.0   0.0   33.333333333333336
-100.0   30.0   33.333333333333336
-50.0   30.0   33.333333333333336
-100.0   30.0   16.666666666666668
-100.0   0.0   33.333333333333336
-50.0   30.0   33.333333333333336
-50.0   0.0   33.333333333333336
-50.0   0.0   16.666666666666668
-100.0   0.0   33.333333333333336
-50.0   30.0   33.333333333333336
-50.0   0.0   16.666666666666668
-100.0   30.0   16.666666666666668
-100.0   0.0   33.333333333333336
-50.0   0.0   33.333333333333336
-100.0   30.0   33.333333333333336
-100.0   0.0   50.0
-50.0   0.0   33.333333333333336
-50.0   30.0   33.333333333333336
-100.0   30.0   33.333333333333336
-50.0   30.0   50.0
-100.0   0.0   50.0
-100.0   30.0   50.0
-50.0   30.0   50.0
-100.0   30.0   33.333333333333336
-100.0   0.0   50.0
-50.0   30.0   50.0
-50.0   0.0   50.0
-50.0   0.0   33.333333333333336
-100.0   0.0   50.0
-50.0   30.0   50.0
-50.0   0.0   33.333333333333336
-100.0   30.0   33.333333333333336
-100.0   30.0   0.0
-50.0   30.0   0.0
-100.0   60.0   0.0
-100.0   30.0   16.666666666666668
-50.0   30.0   0.0
-50.0   60.0   0.0
-100.0   60.0   0.0
-50.0   60.0   16.666666666666668
-100.0   30.0   16.666666666666668
-100.0   60.0   16.666666666666668
-50.0   60.0   16.666666666666668
-100.0   60.0   0.0
-100.0   30.0   16.666666666666668
-50.0   60.0   16.666666666666668
-50.0   30.0   16.666666666666668
-50.0   30.0   0.0
-100.0   30.0   16.666666666666668
-50.0   60.0   16.666666666666668
-50.0   30.0   0.0
-100.0   60.0   0.0
-100.0   30.0   16.666666666666668
-50.0   30.0   16.666666666666668
-100.0   60.0   16.666666666666668
-100.0   30.0   33.333333333333336
-50.0   30.0   16.666666666666668
-50.0   60.0   16.666666666666668
-100.0   60.0   16.666666666666668
-50.0   60.0   33.333333333333336
-100.0   30.0   33.333333333333336
-100.0   60.0   33.333333333333336
-50.0   60.0   33.333333333333336
-100.0   60.0   16.666666666666668
-100.0   30.0   33.333333333333336
-50.0   60.0   33.333333333333336
-50.0   30.0   33.333333333333336
-50.0   30.0   16.666666666666668
-100.0   30.0   33.333333333333336
-50.0   60.0   33.333333333333336
-50.0   30.0   16.666666666666668
-100.0   60.0   16.666666666666668
-100.0   30.0   33.333333333333336
-50.0   30.0   33.333333333333336
-100.0   60.0   33.333333333333336
-100.0   30.0   50.0
-50.0   30.0   33.333333333333336
-50.0   60.0   33.333333333333336
-100.0   60.0   33.333333333333336
-50.0   60.0   50.0
-100.0   30.0   50.0
-100.0   60.0   50.0
-50.0   60.0   50.0
-100.0   60.0   33.333333333333336
-100.0   30.0   50.0
-50.0   60.0   50.0
-50.0   30.0   50.0
-50.0   30.0   33.333333333333336
-100.0   30.0   50.0
-50.0   60.0   50.0
-50.0   30.0   33.333333333333336
-100.0   60.0   33.333333333333336
-100.0   60.0   0.0
-50.0   60.0   0.0
-100.0   90.0   0.0
-100.0   60.0   16.666666666666668
-50.0   60.0   0.0
-50.0   90.0   0.0
-100.0   90.0   0.0
-50.0   90.0   16.666666666666668
-100.0   60.0   16.666666666666668
-100.0   90.0   16.666666666666668
-50.0   90.0   16.666666666666668
-100.0   90.0   0.0
-100.0   60.0   16.666666666666668
-50.0   90.0   16.666666666666668
-50.0   60.0   16.666666666666668
-50.0   60.0   0.0
-100.0   60.0   16.666666666666668
-50.0   90.0   16.666666666666668
-50.0   60.0   0.0
-100.0   90.0   0.0
-100.0   60.0   16.666666666666668
-50.0   60.0   16.666666666666668
-100.0   90.0   16.666666666666668
-100.0   60.0   33.333333333333336
-50.0   60.0   16.666666666666668
-50.0   90.0   16.666666666666668
-100.0   90.0   16.666666666666668
-50.0   90.0   33.333333333333336
-100.0   60.0   33.333333333333336
-100.0   90.0   33.333333333333336
-50.0   90.0   33.333333333333336
-100.0   90.0   16.666666666666668
-100.0   60.0   33.333333333333336
-50.0   90.0   33.333333333333336
-50.0   60.0   33.333333333333336
-50.0   60.0   16.666666666666668
-100.0   60.0   33.333333333333336
-50.0   90.0   33.333333333333336
-50.0   60.0   16.666666666666668
-100.0   90.0   16.666666666666668
-100.0   60.0   33.333333333333336
-50.0   60.0   33.333333333333336
-100.0   90.0   33.333333333333336
-100.0   60.0   50.0
-50.0   60.0   33.333333333333336
-50.0   90.0   33.333333333333336
-100.0   90.0   33.333333333333336
-50.0   90.0   50.0
-100.0   60.0   50.0
-100.0   90.0   50.0
-50.0   90.0   50.0
-100.0   90.0   33.333333333333336
-100.0   60.0   50.0
-50.0   90.0   50.0
-50.0   60.0   50.0
-50.0   60.0   33.333333333333336
-100.0   60.0   50.0
-50.0   90.0   50.0
-50.0   60.0   33.333333333333336
-100.0   90.0   33.333333333333336
-100.0   90.0   0.0
-50.0   90.0   0.0
-100.0   120.0   0.0
-100.0   90.0   16.666666666666668
-50.0   90.0   0.0
-50.0   120.0   0.0
-100.0   120.0   0.0
-50.0   120.0   16.666666666666668
-100.0   90.0   16.666666666666668
-100.0   120.0   16.666666666666668
-50.0   120.0   16.666666666666668
-100.0   120.0   0.0
-100.0   90.0   16.666666666666668
-50.0   120.0   16.666666666666668
-50.0   90.0   16.666666666666668
-50.0   90.0   0.0
-100.0   90.0   16.666666666666668
-50.0   120.0   16.666666666666668
-50.0   90.0   0.0
-100.0   120.0   0.0
-100.0   90.0   16.666666666666668
-50.0   90.0   16.666666666666668
-100.0   120.0   16.666666666666668
-100.0   90.0   33.333333333333336
-50.0   90.0   16.666666666666668
-50.0   120.0   16.666666666666668
-100.0   120.0   16.666666666666668
-50.0   120.0   33.333333333333336
-100.0   90.0   33.333333333333336
-100.0   120.0   33.333333333333336
-50.0   120.0   33.333333333333336
-100.0   120.0   16.666666666666668
-100.0   90.0   33.333333333333336
-50.0   120.0   33.333333333333336
-50.0   90.0   33.333333333333336
-50.0   90.0   16.666666666666668
-100.0   90.0   33.333333333333336
-50.0   120.0   33.333333333333336
-50.0   90.0   16.666666666666668
-100.0   120.0   16.666666666666668
-100.0   90.0   33.333333333333336
-50.0   90.0   33.333333333333336
-100.0   120.0   33.333333333333336
-100.0   90.0   50.0
-50.0   90.0   33.333333333333336
-50.0   120.0   33.333333333333336
-100.0   120.0   33.333333333333336
-50.0   120.0   50.0
-100.0   90.0   50.0
-100.0   120.0   50.0
-50.0   120.0   50.0
-100.0   120.0   33.333333333333336
-100.0   90.0   50.0
-50.0   120.0   50.0
-50.0   90.0   50.0
-50.0   90.0   33.333333333333336
-100.0   90.0   50.0
-50.0   120.0   50.0
-50.0   90.0   33.333333333333336
-100.0   120.0   33.333333333333336
-100.0   120.0   0.0
-50.0   120.0   0.0
-100.0   150.0   0.0
-100.0   120.0   16.666666666666668
-50.0   120.0   0.0
-50.0   150.0   0.0
-100.0   150.0   0.0
-50.0   150.0   16.666666666666668
-100.0   120.0   16.666666666666668
-100.0   150.0   16.666666666666668
-50.0   150.0   16.666666666666668
-100.0   150.0   0.0
-100.0   120.0   16.666666666666668
-50.0   150.0   16.666666666666668
-50.0   120.0   16.666666666666668
-50.0   120.0   0.0
-100.0   120.0   16.666666666666668
-50.0   150.0   16.666666666666668
-50.0   120.0   0.0
-100.0   150.0   0.0
-100.0   120.0   16.666666666666668
-50.0   120.0   16.666666666666668
-100.0   150.0   16.666666666666668
-100.0   120.0   33.333333333333336
-50.0   120.0   16.666666666666668
-50.0   150.0   16.666666666666668
-100.0   150.0   16.666666666666668
-50.0   150.0   33.333333333333336
-100.0   120.0   33.333333333333336
-100.0   150.0   33.333333333333336
-50.0   150.0   33.333333333333336
-100.0   150.0   16.666666666666668
-100.0   120.0   33.333333333333336
-50.0   150.0   33.333333333333336
-50.0   120.0   33.333333333333336
-50.0   120.0   16.666666666666668
-100.0   120.0   33.333333333333336
-50.0   150.0   33.333333333333336
-50.0   120.0   16.666666666666668
-100.0   150.0   16.666666666666668
-100.0   120.0   33.333333333333336
-50.0   120.0   33.333333333333336
-100.0   150.0   33.333333333333336
-100.0   120.0   50.0
-50.0   120.0   33.333333333333336
-50.0   150.0   33.333333333333336
-100.0   150.0   33.333333333333336
-50.0   150.0   50.0
-100.0   120.0   50.0
-100.0   150.0   50.0
-50.0   150.0   50.0
-100.0   150.0   33.333333333333336
-100.0   120.0   50.0
-50.0   150.0   50.0
-50.0   120.0   50.0
-50.0   120.0   33.333333333333336
-100.0   120.0   50.0
-50.0   150.0   50.0
-50.0   120.0   33.333333333333336
-100.0   150.0   33.333333333333336
-50.0   0.0   0.0
0.0   0.0   0.0
-50.0   30.0   0.0
-50.0   0.0   16.666666666666668
0.0   0.0   0.0
0.0   30.0   0.0
-50.0   30.0   0.0
0.0   30.0   16.666666666666668
-50.0   0.0   16.666666666666668
-50.0   30.0   16.666666666666668
0.0   30.0   16.666666666666668
-50.0   30.0   0.0
-50.0   0.0   16.666666666666668
0.0   30.0   16.666666666666668
0.0   0.0   16.666666666666668
0.0   0.0   0.0
-50.0   0.0   16.666666666666668
0.0   30.0   16.666666666666668
0.0   0.0   0.0
-50.0   30.0   0.0
-50.0   0.0   16.666666666666668
0.0   0.0   16.666666666666668
-50.0   30.0   16.666666666666668
-50.0   0.0   33.333333333333336
0.0   0.0   16.666666666666668
0.0   30.0   16.666666666666668
-50.0   30.0   16.666666666666668
0.0   30.0   33.333333333333336
-50.0   0.0   33.333333333333336
-50.0   30.0   33.333333333333336
0.0   30.0   33.333333333333336
-50.0   30.0   16.666666666666668
-50.0   0.0   33.333333333333336
0.0   30.0   33.333333333333336
0.0   0.0   33.333333333333336
0.0   0.0   16.666666666666668
-50.0   0.0   33.333333333333336
0.0   30.0   33.333333333333336
0.0   0.0   16.666666666666668
-50.0   30.0   16.666666666666668
-50.0   0.0   33.333333333333336
0.0   0.0   33.333333333333336
-50.0   30.0   33.333333333333336
-50.0   0.0   50.0
0.0   0.0   33.333333333333336
0.0   30.0   33.333333333333336
-50.0   30.0   33.333333333333336
0.0   30.0   50.0
-50.0   0.0   50.0
-50.0   30.0   50.0
0.0   30.0   50.0
-50.0   30.0   33.333333333333336
-50.0   0.0   50.0
0.0   30.0   50.0
0.0   0.0   50.0
0.0   0.0   33.333333333333336
-50.0   0.0   50.0
0.0   30.0   50.0
0.0   0.0   33.333333333333336
-50.0   30.0   33.333333333333336
-50.0   30.0   0.0
0.0   30.0   0.0
-50.0   60.0   0.0
-50.0   30.0   16.666666666666668
0.0   30.0   0.0
0.0   60.0   0.0
-50.0   60.0   0.0
0.0   60.0   16.666666666666668
-50.0   30.0   16.666666666666668
-50.0   60.0   16.666666666666668
0.0   60.0   16.666666666666668
-50.0   60.0   0.0
-50.0   30.0   16.666666666666668
0.0   60.0   16.666666666666668
0.0   30.0   16.666666666666668
0.0   30.0   0.0
-50.0   30.0   16.666666666666668
0.0   60.0   16.666666666666668
0.0   30.0   0.0
-50.0   60.0   0.0
-50.0   30.0   16.666666666666668
0.0   30.0   16.666666666666668
-50.0   60.0   16.666666666666668
-50.0   30.0   33.333333333333336
0.0   30.0   16.666666666666668
0.0   60.0   16.666666666666668
-50.0   60.0   16.666666666666668
0.0   60.0   33.333333333333336
-50.0   30.0   33.333333333333336
-50.0   60.0   33.333333333333336
0.0   60.0   33.333333333333336
-50.0   60.0   16.666666666666668
-50.0   30.0   33.333333333333336
0.0   60.0   33.333333333333336
0.0   30.0   33.333333333333336
0.0   30.0   16.666666666666668
-50.0   30.0   33.333333333333336
0.0   60.0   33.333333333333336
0.0   30.0   16.666666666666668
-50.0   60.0   16.666666666666668
-50.0   30.0   33.333333333333336
0.0   30.0   33.333333333333336
-50.0   60.0   33.333333333333336
-50.0   30.0   50.0
0.0   30.0   33.333333333333336
0.0   60.0   33.333333333333336
-50.0   60.0   33.333333333333336
0.0   60.0   50.0
-50.0   30.0   50.0
-50.0   60.0   50.0
0.0   60.0   50.0
-50.0   60.0   33.333333333333336
-50.0   30.0   50.0
0.0   60.0   50.0
0.0   30.0   50.0
0.0   30.0   33.333333333333336
-50.0   30.0   50.0
0.0   60.0   50.0
0.0   30.0   33.333333333333336
-50.0   60.0   33.333333333333336
-50.0   60.0   0.0
0.0   60.0   0.0
-50.0   90.0   0.0
-50.0   60.0   16.666666666666668
0.0   60.0   0.0
0.0   90.0   0.0
-50.0   90.0   0.0
0.0   90.0   16.666666666666668
-50.0   60.0   16.666666666666668
-50.0   90.0   16.666666666666668
0.0   90.0   16.666666666666668
-50.0   90.0   0.0
-50.0   60.0   16.666666666666668
0.0   90.0   16.666666666666668
0.0   60.0   16.666666666666668
0.0   60.0   0.0
-50.0   60.0   16.666666666666668
0.0   90.0   16.666666666666668
0.0   60.0   0.0
-50.0   90.0   0.0
-50.0   60.0   16.666666666666668
0.0   60.0   16.666666666666668
-50.0   90.0   16.666666666666668
-50.0   60.0   33.333333333333336
0.0   60.0   16.666666666666668
0.0   90.0   16.666666666666668
-50.0   90.0   16.666666666666668
0.0   90.0   33.333333333333336
-50.0   60.0   33.333333333333336
-50.0   90.0   33.333333333333336
0.0   90.0   33.333333333333336
-50.0   90.0   16.666666666666668
-50.0   60.0   33.333333333333336
0.0   90.0   33.333333333333336
0.0   60.0   33.333333333333336
0.0   60.0   16.666666666666668
-50.0   60.0   33.333333333333336
0.0   90.0   33.333333333333336
0.0   60.0   16.666666666666668
-50.0   90.0   16.666666666666668
-50.0   60.0   33.333333333333336
0.0   60.0   33.333333333333336
-50.0   90.0   33.333333333333336
-50.0   60.0   50.0
0.0   60.0   33.333333333333336
0.0   90.0   33.333333333333336
-50.0   90.0   33.333333333333336
0.0   90.0   50.0
-50.0   60.0   50.0
-50.0   90.0   50.0
0.0   90.0   50.0
-50.0   90.0   33.333333333333336
-50.0   60.0   50.0
0.0   90.0   50.0
0.0   60.0   50.0
0.0   60.0   33.333333333333336
-50.0   60.0   50.0
0.0   90.0   50.0
0.0   60.0   33.333333333333336
-50.0   90.0   33.333333333333336
-50.0   90.0   0.0
0.0   90.0   0.0
-50.0   120.0   0.0
-50.0   90.0   16.666666666666668
0.0   90.0   0.0
0.0   120.0   0.0
-50.0   120.0   0.0
0.0   120.0   16.666666666666668
-50.0   90.0   16.666666666666668
-50.0   120.0   16.666666666666668
0.0   120.0   16.666666666666668
-50.0   120.0   0.0
-50.0   90.0   16.666666666666668
0.0   120.0   16.666666666666668
0.0   90.0   16.666666666666668
0.0   90.0   0.0
-50.0   90.0   16.666666666666668
0.0   120.0   16.666666666666668
0.0   90.0   0.0
-50.0   120.0   0.0
-50.0   90.0   16.666666666666668
0.0   90.0   16.666666666666668
-50.0   120.0   16.666666666666668
-50.0   90.0   33.333333333333336
0.0   90.0   16.666666666666668
0.0   120.0   16.666666666666668
-50.0   120.0   16.666666666666668
0.0   120.0   33.333333333333336
-50.0   90.0   33.333333333333336
-50.0   120.0   33.333333333333336
0.0   120.0   33.333333333333336
-50.0   120.0   16.666666666666668
-50.0   90.0   33.333333333333336
0.0   120.0   33.333333333333336
0.0   90.0   33.333333333333336
0.0   90.0   16.666666666666668
-50.0   90.0   33.333333333333336
0.0   120.0   33.333333333333336
0.0   90.0   16.666666666666668
-50.0   120.0   16.666666666666668
-50.0   90.0   33.333333333333336
0.0   90.0   33.333333333333336
-50.0   120.0   33.333333333333336
-50.0   90.0   50.0
0.0   90.0   33.333333333333336
0.0   120.0   33.333333333333336
-50.0   120.0   33.333333333333336
0.0   120.0   50.0
-50.0   90.0   50.0
-50.0   120.0   50.0
0.0   120.0   50.0
-50.0   120.0   33.333333333333336
-50.0   90.0   50.0
0.0   120.0   50.0
0.0   90.0   50.0
0.0   90.0   33.333333333333336
-50.0   90.0   50.0
0.0   120.0   50.0
0.0   90.0   33.333333333333336
-50.0   120.0   33.333333333333336
-50.0   120.0   0.0
0.0   120.0   0.0
-50.0   150.0   0.0
-50.0   120.0   16.666666666666668
0.0   120.0   0.0
0.0   150.0   0.0
-50.0   150.0   0.0
0.0   150.0   16.666666666666668
-50.0   120.0   16.666666666666668
-50.0   150.0   16.666666666666668
0.0   150.0   16.666666666666668
-50.0   150.0   0.0
-50.0   120.0   16.666666666666668
0.0   150.0   16.666666666666668
0.0   120.0   16.666666666666668
0.0   120.0   0.0
-50.0   120.0   16.666666666666668
0.0   150.0   16.666666666666668
0.0   120.0   0.0
-50.0   150.0   0.0
-50.0   120.0   16.666666666666668
0.0   120.0   16.666666666666668
-50.0   150.0   16.666666666666668
-50.0   120.0   33.333333333333336
0.0   120.0   16.666666666666668
0.0   150.0   16.666666666666668
-50.0   150.0   16.666666666666668
0.0   150.0   33.333333333333336
-50.0   120.0   33.333333333333336
-50.0   150.0   33.333333333333336
0.0   150.0   33.333333333333336
-50.0   150.0   16.666666666666668
-50.0   120.0   33.333333333333336
0.0   150.0   33.333333333333336
0.0   120.0   33.333333333333336
0.0   120.0   16.666666666666668
-50.0   120.0   33.333333333333336
0.0   150.0   33.333333333333336
0.0   120.0   16.666666666666668
-50.0   150.0   16.666666666666668
-50.0   120.0   33.333333333333336
0.0   120.0   33.333333333333336
-50.0   150.0   33.333333333333336
-50.0   120.0   50.0
0.0   120.0   33.333333333333336
0.0   150.0   33.333333333333336
-50.0   150.0   33.333333333333336
0.0   150.0   50.0
-50.0   120.0   50.0
-50.0   150.0   50.0
0.0   150.0   50.0
-50.0   150.0   33.333333333333336
-50.0   120.0   50.0
0.0   150.0   50.0
0.0   120.0   50.0
0.0   120.0   33.333333333333336
-50.0   120.0   50.0
0.0   150.0   50.0
0.0   120.0   33.333333333333336
-50.0   150.0   33.333333333333336
0.0   0.0   0.0
50.0   0.0   0.0
0.0   30.0   0.0
0.0   0.0   16.666666666666668
50.0   0.0   0.0
50.0   30.0   0.0
0.0   30.0   0.0
50.0   30.0   16.666666666666668
0.0   0.0   16.666666666666668
0.0   30.0   16.666666666666668
50.0   30.0   16.666666666666668
0.0   30.0   0.0
0.0   0.0   16.666666666666668
50.0   30.0   16.666666666666668
50.0   0.0   16.666666666666668
50.0   0.0   0.0
0.0   0.0   16.666666666666668
50.0   30.0   16.666666666666668
50.0   0.0   0.0
0.0   30.0   0.0
0.0   0.0   16.666666666666668
50.0   0.0   16.666666666666668
0.0   30.0   16.666666666666668
0.0   0.0   33.333333333333336
50.0   0.0   16.666666666666668
50.0   30.0   16.666666666666668
0.0   30.0   16.666666666666668
50.0   30.0   33.333333333333336
0.0   0.0   33.333333333333336
0.0   30.0   33.333333333333336
50.0   30.0   33.333333333333336
0.0   30.0   16.666666666666668
0.0   0.0   33.333333333333336
50.0   30.0   33.333333333333336
50.0   0.0   33.333333333333336
50.0   0.0   16.666666666666668
0.0   0.0   33.333333333333336
50.0   30.0   33.333333333333336
50.0   0.0   16.666666666666668
0.0   30.0   16.666666666666668
0.0   0.0   33.333333333333336
50.0   0.0   33.333333333333336
0.0   30.0   33.333333333333336
0.0   0.0   50.0
50.0   0.0   33.333333333333336
50.0   30.0   33.333333333333336
0.0   30.0   33.333333333333336
50.0   30.0   50.0
0.0   0.0   50.0
0.0   30.0   50.0
50.0   30.0   50.0
0.0   30.0   33.333333333333336
0.0   0.0   50.0
50.0   30.0   50.0
50.0   0.0   50.0
50.0   0.0   33.333333333333336
0.0   0.0   50.0
50.0   30.0   50.0
50.0   0.0   33.333333333333336
0.0   30.0   33.333333333333336
0.0   30.0   0.0
50.0   30.0   0.0
0.0   60.0   0.0
0.0   30.0   16.666666666666668
50.0   30.0   0.0
50.0   60.0   0.0
0.0   60.0   0.0
50.0   60.0   16.666666666666668
0.0   30.0   16.666666666666668
0.0   60.0   16.666666666666668
50.0   60.0   16.666666666666668
0.0   60.0   0.0
0.0   30.0   16.666666666666668
50.0   60.0   16.666666666666668
50.0   30.0   16.666666666666668
50.0   30.0   0.0
0.0   30.0   16.666666666666668
50.0   60.0   16.666666666666668
50.0   30.0   0.0
0.0   60.0   0.0
0.0   30.0   16.666666666666668
50.0   30.0   16.666666666666668
0.0   60.0   16.666666666666668
0.0   30.0   33.333333333333336
50.0   30.0   16.666666666666668
50.0   60.0   16.666666666666668
0.0   60.0   16.666666666666668
50.0   60.0   33.333333333333336
0.0   30.0   33.333333333333336
0.0   60.0   33.333333333333336
50.0   60.0   33.333333333333336
0.0   60.0   16.666666666666668
0.0   30.0   33.333333333333336
50.0   60.0   33.333333333333336
50.0   30.0   33.333333333333336
50.0   30.0   16.666666666666668
0.0   30.0   33.333333333333336
50.0   60.0   33.333333333333336
50.0   30.0   16.666666666666668
0.0   60.0   16.666666666666668
0.0   30.0   33.333333333333336
50.0   30.0   33.333333333333336
0.0   60.0   33.333333333333336
0.0   30.0   50.0
50.0   30.0   33.333333333333336
50.0   60.0   33.333333333333336
0.0   60.0   33.333333333333336
50.0   60.0   50.0
0.0   30.0   50.0
0.0   60.0   50.0
50.0   60.0   50.0
0.0   60.0   33.333333333333336
0.0   30.0   50.0
50.0   60.0   50.0
50.0   30.0   50.0
50.0   30.0   33.333333333333336
0.0   30.0   50.0
50.0   60.0   50.0
50.0   30.0   33.333333333333336
0.0   60.0   33.333333333333336
0.0   60.0   0.0
50.0   60.0   0.0
0.0   90.0   0.0
0.0   60.0   16.666666666666668
50.0   60.0   0.0
50.0   90.0   0.0
0.0   90.0   0.0
50.0   90.0   16.666666666666668
0.0   60.0   16.666666666666668
0.0   90.0   16.666666666666668
50.0   90.0   16.666666666666668
0.0   90.0   0.0
0.0   60.0   16.666666666666668
50.0   90.0   16.666666666666668
50.0   60.0   16.666666666666668
50.0   60.0   0.0
0.0   60.0   16.666666666666668
50.0   90.0   16.666666666666668
50.0   60.0   0.0
0.0   90.0   0.0
0.0   60.0   16.666666666666668
50.0   60.0   16.666666666666668
0.0   90.0   16.666666666666668
0.0   60.0   33.333333333333336
50.0   60.0   16.666666666666668
50.0   90.0   16.666666666666668
0.0   90.0   16.666666666666668
50.0   90.0   33.333333333333336
0.0   60.0   33.333333333333336
0.0   90.0   33.333333333333336
50.0   90.0   33.333333333333336
0.0   90.0   16.666666666666668
0.0   60.0   33.333333333333336
50.0   90.0   33.333333333333336
50.0   60.0   33.333333333333336
50.0   60.0   16.666666666666668
0.0   60.0   33.333333333333336
50.0   90.0   33.333333333333336
50.0   60.0   16.666666666666668
0.0   90.0   16.666666666666668
0.0   60.0   33.333333333333336
50.0   60.0   33.333333333333336
0.0   90.0   33.333333333333336
0.0   60.0   50.0
50.0   60.0   33.333333333333336
50.0   90.0   33.333333333333336
0.0   90.0   33.333333333333336
50.0   90.0   50.0
0.0   60.0   50.0
0.0   90.0   50.0
50.0   90.0   50.0
0.0   90.0   33.333333333333336
0.0   60.0   50.0
50.0   90.0   50.0
50.0   60.0   50.0
50.0   60.0   33.333333333333336
0.0   60.0   50.0
50.0   90.0   50.0
50.0   60.0   33.333333333333336
0.0   90.0   33.333333333333336
0.0   90.0   0.0
50.0   90.0   0.0
0.0   120.0   0.0
0.0   90.0   16.666666666666668
50.0   90.0   0.0
50.0   120.0   0.0
0.0   120.0   0.0
50.0   120.0   16.666666666666668
0.0   90.0   16.666666666666668
0.0   120.0   16.666666666666668
50.0   120.0   16.666666666666668
0.0   120.0   0.0
0.0   90.0   16.666666666666668
50.0   120.0   16.666666666666668
50.0   90.0   16.666666666666668
50.0   90.0   0.0
0.0   90.0   16.666666666666668
50.0   120.0   16.666666666666668
50.0   90.0   0.0
0.0   120.0   0.0
0.0   90.0   16.666666666666668
50.0   90.0   16.666666666666668
0.0   120.0   16.666666666666668
0.0   90.0   33.333333333333336
50.0   90.0   16.666666666666668
50.0   120.0   16.666666666666668
0.0   120.0   16.666666666666668
50.0   120.0   33.333333333333336
0.0   90.0   33.333333333333336
0.0   120.0   33.333333333333336
50.0   120.0   33.333333333333336
0.0   120.0   16.666666666666668
0.0   90.0   33.333333333333336
50.0   120.0   33.333333333333336
50.0   90.0   33.333333333333336
50.0   90.0   16.666666666666668
0.0   90.0   33.333333333333336
50.0   120.0   33.333333333333336
50.0   90.0   16.666666666666668
0.0   120.0   16.666666666666668
0.0   90.0   33.333333333333336
50.0   90.0   33.333333333333336
0.0   120.0   33.333333333333336
0.0   90.0   50.0
50.0   90.0   33.333333333333336
50.0   120.0   33.333333333333336
0.0   120.0   33.333333333333336
50.0   120.0   50.0
0.0   90.0   50.0
0.0   120.0   50.0
50.0   120.0   50.0
0.0   120.0   33.333333333333336
0.0   90.0   50.0
50.0   120.0   50.0
50.0   90.0   50.0
50.0   90.0   33.333333333333336
0.0   90.0   50.0
50.0   120.0   50.0
50.0   90.0   33.333333333333336
0.0   120.0   33.333333333333336
0.0   120.0   0.0
50.0   120.0   0.0
0.0   150.0   0.0
0.0   120.0   16.666666666666668
50.0   120.0   0.0
50.0   150.0   0.0
0.0   150.0   0.0
50.0   150.0   16.666666666666668
0.0   120.0   16.666666666666668
0.0   150.0   16.666666666666668
50.0   150.0   16.666666666666668
0.0   150.0   0.0
0.0   120.0   16.666666666666668
50.0   150.0   16.666666666666668
50.0   120.0   16.666666666666668
50.0   120.0   0.0
0.0   120.0   16.666666666666668
50.0   150.0   16.666666666666668
50.0   120.0   0.0
0.0   150.0   0.0
0.0   120.0   16.666666666666668
50.0   120.0   16.666666666666668
0.0   150.0   16.666666666666668
0.0   120.0   33.333333333333336
50.0   120.0   16.666666666666668
50.0   150.0   16.666666666666668
0.0   150.0   16.666666666666668
50.0   150.0   33.333333333333336
0.0   120.0   33.333333333333336
0.0   150.0   33.333333333333336
50.0   150.0   33.333333333333336
0.0   150.0   16.666666666666668
0.0   120.0   33.333333333333336
50.0   150.0   33.333333333333336
50.0   120.0   33.333333333333336
50.0   120.0   16.666666666666668
0.0   120.0   33.333333333333336
50.0   150.0   33.333333333333336
50.0   120.0   16.666666666666668
0.0   150.0   16.666666666666668
0.0   120.0   33.333333333333336
50.0   120.0   33.333333333333336
0.0   150.0   33.333333333333336
0.0   120.0   50.0
50.0   120.0   33.333333333333336
50.0   150.0   33.333333333333336
0.0   150.0   33.333333333333336
50.0   150.0   50.0
0.0   120.0   50.0
0.0   150.0   50.0
50.0   150.0   50.0
0.0   150.0   33.333333333333336
0.0   120.0   50.0
50.0   150.0   50.0
50.0   120.0   50.0
50.0   120.0   33.333333333333336
0.0   120.0   50.0
50.0   150.0   50.0
50.0   120.0   33.333333333333336
0.0   150.0   33.333333333333336
50.0   0.0   0.0
100.0   0.0   0.0
50.0   30.0   0.0
50.0   0.0   16.666666666666668
100.0   0.0   0.0
100.0   30.0   0.0
50.0   30.0   0.0
100.0   30.0   16.666666666666668
50.0   0.0   16.666666666666668
50.0   30.0   16.666666666666668
100.0   30.0   16.666666666666668
50.0   30.0   0.0
50.0   0.0   16.666666666666668
100.0   30.0   16.666666666666668
100.0   0.0   16.666666666666668
100.0   0.0   0.0
50.0   0.0   16.666666666666668
100.0   30.0   16.666666666666668
100.0   0.0   0.0
50.0   30.0   0.0
50.0   0.0   16.666666666666668
100.0   0.0   16.666666666666668
50.0   30.0   16.666666666666668
50.0   0.0   33.333333333333336
100.0   0.0   16.666666666666668
100.0   30.0   16.666666666666668
50.0   30.0   16.666666666666668
100.0   30.0   33.333333333333336
50.0   0.0   33.333333333333336
50.0   30.0   33.333333333333336
100.0   30.0   33.333333333333336
50.0   30.0   16.666666666666668
50.0   0.0   33.333333333333336
100.0   30.0   33.333333333333336
100.0   0.0   33.333333333333336
100.0   0.0   16.666666666666668
50.0   0.0   33.333333333333336
100.0   30.0   33.333333333333336
100.0   0.0   16.666666666666668
50.0   30.0   16.666666666666668
50.0   0.0   33.333333333333336
100.0   0.0   33.333333333333336
50.0   30.0   33.333333333333336
50.0   0.0   50.0
100.0   0.0   33.333333333333336
100.0   30.0   33.333333333333336
50.0   30.0   33.333333333333336
100.0   30.0   50.0
50.0   0.0   50.0
50.0   30.0   50.0
100.0   30.0   50.0
50.0   30.0   33.333333333333336
50.0   0.0   50.0
100.0   30.0   50.0
100.0   0.0   50.0
100.0   0.0   33.333333333333336
50.0   0.0   50.0
100.0   30.0   50.0
100.0   0.0   33.333333333333336
50.0   30.0   33.333333333333336
50.0   30.0   0.0
100.0   30.0   0.0
50.0   60.0   0.0
50.0   30.0   16.666666666666668
100.0   30.0   0.0
100.0   60.0   0.0
50.0   60.0   0.0
100.0   60.0   16.666666666666668
50.0   30.0   16.666666666666668
50.0   60.0   16.666666666666668
100.0   60.0   16.666666666666668
50.0   60.0   0.0
50.0   30.0   16.666666666666668
100.0   60.0   16.666666666666668
100.0   30.0   16.666666666666668
100.0   30.0   0.0
50.0   30.0   16.666666666666668
100.0   60.0   16.666666666666668
100.0   30.0   0.0
50.0   60.0   0.0
50.0   30.0   16.666666666666668
100.0   30.0   16.666666666666668
50.0   60.0   16.666666666666668
50.0   30.0   33.333333333333336
100.0   30.0   16.666666666666668
100.0   60.0   16.666666666666668
50.0   60.0   16.666666666666668
100.0   60.0   33.333333333333336
50.0   30.0   33.333333333333336
50.0   60.0   33.333333333333336
100.0   60.0   33.333333333333336
50.0   60.0   16.666666666666668
50.0   30.0   33.333333333333336
100.0   60.0   33.333333333333336
100.0   30.0   33.333333333333336
100.0   30.0   16.666666666666668
50.0   30.0   33.333333333333336
100.0   60.0   33.333333333333336
100.0   30.0   16.666666666666668
50.0   60.0   16.666666666666668
50.0   30.0   33.333333333333336
100.0   30.0   33.333333333333336
50.0   60.0   33.333333333333336
50.0   30.0   50.0
100.0   30.0   33.333333333333336
100.0   60.0   33.333333333333336
50.0   60.0   33.333333333333336
100.0   60.0   50.0
50.0   30.0   50.0
50.0   60.0   50.0
100.0   60.0   50.0
50.0   60.0   33.333333333333336
50.0   30.0   50.0
100.0   60.0   50.0
100.0   30.0   50.0
100.0   30.0   33.333333333333336
50.0   30.0   50.0
100.0   60.0   50.0
100.0   30.0   33.333333333333336
50.0   60.0   33.333333333333336
50.0   60.0   0.0
100.0   60.0   0.0
50.0   90.0   0.0
50.0   60.0   16.666666666666668
100.0   60.0   0.0
100.0   90.0   0.0
50.0   90.0   0.0
100.0   90.0   16.666666666666668
50.0   60.0   16.666666666666668
50.0   90.0   16.666666666666668
100.0   90.0   16.666666666666668
50.0   90.0   0.0
50.0   60.0   16.666666666666668
100.0   90.0   16.666666666666668
100.0   60.0   16.666666666666668
100.0   60.0   0.0
50.0   60.0   16.666666666666668
100.0   90.0   16.666666666666668
100.0   60.0   0.0
50.0   90.0   0.0
50.0   60.0   16.666666666666668
100.0   60.0   16.666666666666668
50.0   90.0   16.666666666666668
50.0   60.0   33.333333333333336
100.0   60.0   16.666666666666668
100.0   90.0   16.666666666666668
50.0   90.0   16.666666666666668
100.0   90.0   33.333333333333336
50.0   60.0   33.333333333333336
50.0   90.0   33.333333333333336
100.0   90.0   33.333333333333336
50.0   90.0   16.666666666666668
50.0   60.0   33.333333333333336
100.0   90.0   33.333333333333336
100.0   60.0   33.333333333333336
100.0   60.0   16.666666666666668
50.0   60.0   33.333333333333336
100.0   90.0   33.333333333333336
100.0   60.0   16.666666666666668
50.0   90.0   16.666666666666668
50.0   60.0   33.333333333333336
100.0   60.0   33.333333333333336
50.0   90.0   33.333333333333336
50.0   60.0   50.0
100.0   60.0   33.333333333333336
100.0   90.0   33.333333333333336
50.0   90.0   33.333333333333336
100.0   90.0   50.0
50.0   60.0   50.0
50.0   90.0   50.0
100.0   90.0   50.0
50.0   90.0   33.333333333333336
50.0   60.0   50.0
100.0   90.0   50.0
100.0   60.0   50.0
100.0   60.0   33.333333333333336
50.0   60.0   50.0
100.0   90.0   50.0
100.0   60.0   33.333333333333336
50.0   90.0   33.333333333333336
50.0   90.0   0.0
100.0   90.0   0.0
50.0   120.0   0.0
50.0   90.0   16.666666666666668
100.0   90.0   0.0
100.0   120.0   0.0
50.0   120.0   0.0
100.0   120.0   16.666666666666668
50.0   90.0   16.666666666666668
50.0   120.0   16.666666666666668
100.0   120.0   16.666666666666668
50.0   120.0   0.0
50.0   90.0   16.666666666666668
100.0   120.0   16.666666666666668
100.0   90.0   16.666666666666668
100.0   90.0   0.0
50.0   90.0   16.666666666666668
100.0   120.0   16.666666666666668
100.0   90.0   0.0
50.0   120.0   0.0
50.0   90.0   16.666666666666668
100.0   90.0   16.666666666666668
50.0   120.0   16.666666666666668
50.0   90.0   33.333333333333336
100.0   90.0   16.666666666666668
100.0   120.0   16.666666666666668
50.0   120.0   16.666666666666668
100.0   120.0   33.333333333333336
50.0   90.0   33.333333333333336
50.0   120.0   33.333333333333336
100.0   120.0   33.333333333333336
50.0   120.0   16.666666666666668
50.0   90.0   33.333333333333336
100.0   120.0   33.333333333333336
100.0   90.0   33.333333333333336
100.0   90.0   16.666666666666668
50.0   90.0   33.333333333333336
100.0   120.0   33.333333333333336
100.0   90.0   16.666666666666668
50.0   120.0   16.666666666666668
50.0   90.0   33.333333333333336
100.0   90.0   33.333333333333336
50.0   120.0   33.333333333333336
50.0   90.0   50.0
100.0   90.0   33.333333333333336
100.0   120.0   33.333333333333336
50.0   120.0   33.333333333333336
100.0   120.0   50.0
50.0   90.0   50.0
50.0   120.0   50.0
100.0   120.0   50.0
50.0   120.0   33.333333333333336
50.0   90.0   50.0
100.0   120.0   50.0
100.0   90.0   50.0
100.0   90.0   33.333333333333336
50.0   90.0   50.0
100.0   120.0   50.0
100.0   90.0   33.333333333333336
50.0   120.0   33.333333333333336
50.0   120.0   0.0
100.0   120.0   0.0
50.0   150.0   0.0
50.0   120.0   16.666666666666668
100.0   120.0   0.0
100.0   150.0   0.0
50.0   150.0   0.0
100.0   150.0   16.666666666666668
50.0   120.0   16.666666666666668
50.0   150.0   16.666666666666668
100.0   150.0   16.666666666666668
50.0   150.0   0.0
50.0   120.0   16.666666666666668
100.0   150.0   16.666666666666668
100.0   120.0   16.666666666666668
100.0   120.0   0.0
50.0   120.0   16.666666666666668
100.0   150.0   16.666666666666668
100.0   120.0   0.0
50.0   150.0   0.0
50.0   120.0   16.666666666666668
100.0   120.0   16.666666666666668
50.0   150.0   16.666666666666668
50.0   120.0   33.333333333333336
100.0   120.0   16.666666666666668
100.0   150.0   16.666666666666668
50.0   150.0   16.666666666666668
100.0   150.0   33.333333333333336
50.0   120.0   33.333333333333336
50.0   150.0   33.333333333333336
100.0   150.0   33.333333333333336
50.0   150.0   16.666666666666668
50.0   120.0   33.333333333333336
100.0   150.0   33.333333333333336
100.0   120.0   33.333333333333336
100.0   120.0   16.666666666666668
50.0   120.0   33.333333333333336
100.0   150.0   33.333333333333336
100.0   120.0   16.666666666666668
50.0   150.0   16.666666666666668
50.0   120.0   33.333333333333336
100.0   120.0   33.333333333333336
50.0   150.0   33.333333333333336
50.0   120.0   50.0
100.0   120.0   33.333333333333336
100.0   150.0   33.333333333333336
50.0   150.0   33.333333333333336
100.0   150.0   50.0
50.0   120.0   50.0
50.0   150.0   50.0
100.0   150.0   50.0
50.0   150.0   33.333333333333336
50.0   120.0   50.0
100.0   150.0   50.0
100.0   120.0   50.0
100.0   120.0   33.333333333333336
50.0   120.0   50.0
100.0   150.0   50.0
100.0   120.0   33.333333333333336
50.0   150.0   33.333333333333336
100.0   0.0   0.0
150.0   0.0   0.0
100.0   30.0   0.0
100.0   0.0   16.666666666666668
150.0   0.0   0.0
150.0   30.0   0.0
100.0   30.0   0.0
150.0   30.0   16.666666666666668
100.0   0.0   16.666666666666668
100.0   30.0   16.666666666666668
150.0   30.0   16.666666666666668
100.0   30.0   0.0
100.0   0.0   16.666666666666668
150.0   30.0   16.666666666666668
150.0   0.0   16.666666666666668
150.0   0.0   0.0
100.0   0.0   16.666666666666668
150.0   30.0   16.666666666666668
150.0   0.0   0.0
100.0   30.0   0.0
100.0   0.0   16.666666666666668
150.0   0.0   16.666666666666668
100.0   30.0   16.666666666666668
100.0   0.0   33.333333333333336
150.0   0.0   16.666666666666668
150.0   30.0   16.666666666666668
100.0   30.0   16.666666666666668
150.0   30.0   33.333333333333336
100.0   0.0   33.333333333333336
100.0   30.0   33.333333333333336
150.0   30.0   33.333333333333336
100.0   30.0   16.666666666666668
100.0   0.0   33.333333333333336
150.0   30.0   33.333333333333336
150.0   0.0   33.333333333333336
150.0   0.0   16.666666666666668
100.0   0.0   33.333333333333336
150.0   30.0   33.333333333333336
150.0   0.0   16.666666666666668
100.0   30.0   16.666666666666668
100.0   0.0   33.333333333333336
150.0   0.0   33.333333333333336
100.0   30.0   33.333333333333336
100.0   0.0   50.0
150.0   0.0   33.333333333333336
150.0   30.0   33.333333333333336
100.0   30.0   33.333333333333336
150.0   30.0   50.0
100.0   0.0   50.0
100.0   30.0   50.0
150.0   30.0   50.0
100.0   30.0   33.333333333333336
100.0   0.0   50.0
150.0   30.0   50.0
150.0   0.0   50.0
150.0   0.0   33.333333333333336
100.0   0.0   50.0
150.0   30.0   50.0
150.0   0.0   33.333333333333336
100.0   30.0   33.333333333333336
100.0   30.0   0.0
150.0   30.0   0.0
100.0   60.0   0.0
100.0   30.0   16.666666666666668
150.0   30.0   0.0
150.0   60.0   0.0
100.0   60.0   0.0
150.0   60.0   16.666666666666668
100.0   30.0   16.666666666666668
100.0   60.0   16.666666666666668
150.0   60.0   16.666666666666668
100.0   60.0   0.0
100.0   30.0   16.666666666666668
150.0   60.0   16.666666666666668
150.0   30.0   16.666666666666668
150.0   30.0   0.0
100.0   30.0   16.666666666666668
150.0   60.0   16.666666666666668
150.0   30.0   0.0
100.0   60.0   0.0
100.0   30.0   16.666666666666668
150.0   30.0   16.666666666666668
100.0   60.0   16.666666666666668
100.0   30.0   33.333333333333336
150.0   30.0   16.666666666666668
150.0   60.0   16.666666666666668
100.0   60.0   16.666666666666668
150.0   60.0   33.333333333333336
100.0   30.0   33.333333333333336
100.0   60.0   33.333333333333336
150.0   60.0   33.333333333333336
100.0   60.0   16.666666666666668
100.0   30.0   33.333333333333336
150.0   60.0   33.333333333333336
150.0   30.0   33.333333333333336
150.0   30.0   16.666666666666668
100.0   30.0   33.333333333333336
150.0   60.0   33.333333333333336
150.0   30.0   16.666666666666668
100.0   60.0   16.666666666666668
100.0   30.0   33.333333333333336
150.0   30.0   33.333333333333336
100.0   60.0   33.333333333333336
100.0   30.0   50.0
150.0   30.0   33.333333333333336
150.0   60.0   33.333333333333336
100.0   60.0   33.333333333333336
150.0   60.0   50.0
100.0   30.0   50.0
100.0   60.0   50.0
150.0   60.0   50.0
100.0   60.0   33.333333333333336
100.0   30.0   50.0
150.0   60.0   50.0
150.0   30.0   50.0
150.0   30.0   33.333333333333336
100.0   30.0   50.0
150.0   60.0   50.0
150.0   30.0   33.333333333333336
100.0   60.0   33.333333333333336
100.0   60.0   0.0
150.0   60.0   0.0
100.0   90.0   0.0
100.0   60.0   16.666666666666668
150.0   60.0   0.0
150.0   90.0   0.0
100.0   90.0   0.0
150.0   90.0   16.666666666666668
100.0   60.0   16.666666666666668
100.0   90.0   16.666666666666668
150.0   90.0   16.666666666666668
100.0   90.0   0.0
100.0   60.0   16.666666666666668
150.0   90.0   16.666666666666668
150.0   60.0   16.666666666666668
150.0   60.0   0.0
100.0   60.0   16.666666666666668
150.0   90.0   16.666666666666668
150.0   60.0   0.0
100.0   90.0   0.0
100.0   60.0   16.666666666666668
150.0   60.0   16.666666666666668
100.0   90.0   16.666666666666668
100.0   60.0   33.333333333333336
150.0   60.0   16.666666666666668
150.0   90.0   16.666666666666668
100.0   90.0   16.666666666666668
150.0   90.0   33.333333333333336
100.0   60.0   33.333333333333336
100.0   90.0   33.333333333333336
150.0   90.0   33.333333333333336
100.0   90.0   16.666666666666668
100.0   60.0   33.333333333333336
150.0   90.0   33.333333333333336
150.0   60.0   33.333333333333336
150.0   60.0   16.666666666666668
100.0   60.0   33.333333333333336
150.0   90.0   33.333333333333336
150.0   60.0   16.666666666666668
100.0   90.0   16.666666666666668
100.0   60.0   33.333333333333336
150.0   60.0   33.333333333333336
100.0   90.0   33.333333333333336
100.0   60.0   50.0
150.0   60.0   33.333333333333336
150.0   90.0   33.333333333333336
100.0   90.0   33.333333333333336
150.0   90.0   50.0
100.0   60.0   50.0
100.0   90.0   50.0
150.0   90.0   50.0
100.0   90.0   33.333333333333336
100.0   60.0   50.0
150.0   90.0   50.0
150.0   60.0   50.0
150.0   60.0   33.333333333333336
100.0   60.0   50.0
150.0   90.0   50.0
150.0   60.0   33.333333333333336
100.0   90.0   33.333333333333336
100.0   90.0   0.0
150.0   90.0   0.0
100.0   120.0   0.0
100.0   90.0   16.666666666666668
150.0   90.0   0.0
150.0   120.0   0.0
100.0   120.0   0.0
150.0   120.0   16.666666666666668
100.0   90.0   16.666666666666668
100.0   120.0   16.666666666666668
150.0   120.0   16.666666666666668
100.0   120.0   0.0
100.0   90.0   16.666666666666668
150.0   120.0   16.666666666666668
150.0   90.0   16.666666666666668
150.0   90.0   0.0
100.0   90.0   16.666666666666668
150.0   120.0   16.666666666666668
150.0   90.0   0.0
100.0   120.0   0.0
100.0   90.0   16.666666666666668
150.0   90.0   16.666666666666668
100.0   120.0   16.666666666666668
100.0   90.0   33.333333333333336
150.0   90.0   16.666666666666668
150.0   120.0   16.666666666666668
100.0   120.0   16.666666666666668
150.0   120.0   33.333333333333336
100.0   90.0   33.333333333333336
100.0   120.0   33.333333333333336
150.0   120.0   33.333333333333336
100.0   120.0   16.666666666666668
100.0   90.0   33.333333333333336
150.0   120.0   33.333333333333336
150.0   90.0   33.333333333333336
150.0   90.0   16.666666666666668
100.0   90.0   33.333333333333336
150.0   120.0   33.333333333333336
150.0   90.0   16.666666666666668
100.0   120.0   16.666666666666668
100.0   90.0   33.333333333333336
150.0   90.0   33.333333333333336
100.0   120.0   33.333333333333336
100.0   90.0   50.0
150.0   90.0   33.333333333333336
150.0   120.0   33.333333333333336
100.0   120.0   33.333333333333336
150.0   120.0   50.0
100.0   90.0   50.0
100.0   120.0   50.0
150.0   120.0   50.0
100.0   120.0   33.333333333333336
100.0   90.0   50.0
150.0   120.0   50.0
150.0   90.0   50.0
150.0   90.0   33.333333333333336
100.0   90.0   50.0
150.0   120.0   50.0
150.0   90.0   33.333333333333336
100.0   120.0   33.333333333333336
100.0   120.0   0.0
150.0   120.0   0.0
100.0   150.0   0.0
100.0   120.0   16.666666666666668
150.0   120.0   0.0
150.0   150.0   0.0
100.0   150.0   0.0
150.0   150.0   16.666666666666668
100.0   120.0   16.666666666666668
100.0   150.0   16.666666666666668
150.0   150.0   16.666666666666668
100.0   150.0   0.0
100.0   120.0   16.666666666666668
150.0   150.0   16.666666666666668
150.0   120.0   16.666666666666668
150.0   120.0   0.0
100.0   120.0   16.666666666666668
150.0   150.0   16.666666666666668
150.0   120.0   0.0
100.0   150.0   0.0
100.0   120.0   16.666666666666668
150.0   120.0   16.666666666666668
100.0   150.0   16.666666666666668
100.0   120.0   33.333333333333336
150.0   120.0   16.666666666666668
150.0   150.0   16.666666666666668
100.0   150.0   16.666666666666668
150.0   150.0   33.333333333333336
100.0   120.0   33.333333333333336
100.0   150.0   33.333333333333336
150.0   150.0   33.333333333333336
100.0   150.0   16.666666666666668
100.0   120.0   33.333333333333336
150.0   150.0   33.333333333333336
150.0   120.0   33.333333333333336
150.0   120.0   16.666666666666668
100.0   120.0   33.333333333333336
150.0   150.0   33.333333333333336
150.0   120.0   16.666666666666668
100.0   150.0   16.666666666666668
100.0   120.0   33.333333333333336
150.0   120.0   33.333333333333336
100.0   150.0   33.333333333333336
100.0   120.0   50.0
150.0   120.0   33.333333333333336
150.0   150.0   33.333333333333336
100.0   150.0   33.333333333333336
150.0   150.0   50.0
100.0   120.0   50.0
100.0   150.0   50.0
150.0   150.0   50.0
100.0   150.0   33.333333333333336
100.0   120.0   50.0
150.0   150.0   50.0
150.0   120.0   50.0
150.0   120.0   33.333333333333336
100.0   120.0   50.0
150.0   150.0   50.0
150.0   120.0   33.333333333333336
100.0   150.0   33.333333333333336
150.0   0.0   0.0
200.0   0.0   0.0
150.0   30.0   0.0
150.0   0.0   16.666666666666668
200.0   0.0   0.0
200.0   30.0   0.0
150.0   30.0   0.0
200.0   30.0   16.666666666666668
150.0   0.0   16.666666666666668
150.0   30.0   16.666666666666668
200.0   30.0   16.666666666666668
150.0   30.0   0.0
150.0   0.0   16.666666666666668
200.0   30.0   16.666666666666668
200.0   0.0   16.666666666666668
200.0   0.0   0.0
150.0   0.0   16.666666666666668
200.0   30.0   16.666666666666668
200.0   0.0   0.0
150.0   30.0   0.0
150.0   0.0   16.666666666666668
200.0   0.0   16.666666666666668
150.0   30.0   16.666666666666668
150.0   0.0   33.333333333333336
200.0   0.0   16.666666666666668
200.0   30.0   16.666666666666668
150.0   30.0   16.666666666666668
200.0   30.0   33.333333333333336
150.0   0.0   33.333333333333336
150.0   30.0   33.333333333333336
200.0   30.0   33.333333333333336
150.0   30.0   16.666666666666668
150.0   0.0   33.333333333333336
200.0   30.0   33.333333333333336
200.0   0.0   33.333333333333336
200.0   0.0   16.666666666666668
150.0   0.0   33.333333333333336
200.0   30.0   33.333333333333336
200.0   0.0   16.666666666666668
150.0   30.0   16.666666666666668
150.0   0.0   33.333333333333336
200.0   0.0   33.333333333333336
150.0   30.0   33.333333333333336
150.0   0.0   50.0
200.0   0.0   33.333333333333336
200.0   30.0   33.333333333333336
150.0   30.0   33.333333333333336
200.0   30.0   50.0
150.0   0.0   50.0
150.0   30.0   50.0
200.0   30.0   50.0
150.0   30.0   33.333333333333336
150.0   0.0   50.0
200.0   30.0   50.0
200.0   0.0   50.0
200.0   0.0   33.333333333333336
150.0   0.0   50.0
200.0   30.0   50.0
200.0   0.0   33.333333333333336
150.0   30.0   33.333333333333336
150.0   30.0   0.0
200.0   30.0   0.0
150.0   60.0   0.0
150.0   30.0   16.666666666666668
200.0   30.0   0.0
200.0   60.0   0.0
150.0   60.0   0.0
200.0   60.0   16.666666666666668
150.0   30.0   16.666666666666668
150.0   60.0   16.666666666666668
200.0   60.0   16.666666666666668
150.0   60.0   0.0
150.0   30.0   16.666666666666668
200.0   60.0   16.666666666666668
200.0   30.0   16.666666666666668
200.0   30.0   0.0
150.0   30.0   16.666666666666668
200.0   60.0   16.666666666666668
200.0   30.0   0.0
150.0   60.0   0.0
150.0   30.0   16.666666666666668
200.0   30.0   16.666666666666668
150.0   60.0   16.666666666666668
150.0   30.0   33.333333333333336
200.0   30.0   16.666666666666668
200.0   60.0   16.666666666666668
150.0   60.0   16.666666666666668
200.0   60.0   33.333333333333336
150.0   30.0   33.333333333333336
150.0   60.0   33.333333333333336
200.0   60.0   33.333333333333336
150.0   60.0   16.666666666666668
150.0   30.0   33.333333333333336
200.0   60.0   33.333333333333336
200.0   30.0   33.333333333333336
200.0   30.0   16.666666666666668
150.0   30.0   33.333333333333336
200.0   60.0   33.333333333333336
200.0   30.0   16.666666666666668
150.0   60.0   16.666666666666668
150.0   30.0   33.333333333333336
200.0   30.0   33.333333333333336
150.0   60.0   33.333333333333336
150.0   30.0   50.0
200.0   30.0   33.333333333333336
200.0   60.0   33.333333333333336
150.0   60.0   33.333333333333336
200.0   60.0   50.0
150.0   30.0   50.0
150.0   60.0   50.0
200.0   60.0   50.0
150.0   60.0   33.333333333333336
150.0   30.0   50.0
200.0   60.0   50.0
200.0   30.0   50.0
200.0   30.0   33.333333333333336
150.0   30.0   50.0
200.0   60.0   50.0
200.0   30.0   33.333333333333336
150.0   60.0   33.333333333333336
150.0   60.0   0.0
200.0   60.0   0.0
150.0   90.0   0.0
150.0   60.0   16.666666666666668
200.0   60.0   0.0
200.0   90.0   0.0
150.0   90.0   0.0
200.0   90.0   16.666666666666668
150.0   60.0   16.666666666666668
150.0   90.0   16.666666666666668
200.0   90.0   16.666666666666668
150.0   90.0   0.0
150.0   60.0   16.666666666666668
200.0   90.0   16.666666666666668
200.0   60.0   16.666666666666668
200.0   60.0   0.0
150.0   60.0   16.666666666666668
200.0   90.0   16.666666666666668
200.0   60.0   0.0
150.0   90.0   0.0
150.0   60.0   16.666666666666668
200.0   60.0   16.666666666666668
150.0   90.0   16.666666666666668
150.0   60.0   33.333333333333336
200.0   60.0   16.666666666666668
200.0   90.0   16.666666666666668
150.0   90.0   16.666666666666668
200.0   90.0   33.333333333333336
150.0   60.0   33.333333333333336
150.0   90.0   33.333333333333336
200.0   90.0   33.333333333333336
150.0   90.0   16.666666666666668
150.0   60.0   33.333333333333336
200.0   90.0   33.333333333333336
200.0   60.0   33.333333333333336
200.0   60.0   16.666666666666668
150.0   60.0   33.333333333333336
200.0   90.0   33.333333333333336
200.0   60.0   16.666666666666668
150.0   90.0   16.666666666666668
150.0   60.0   33.333333333333336
200.0   60.0   33.333333333333336
150.0   90.0   33.333333333333336
150.0   60.0   50.0
200.0   60.0   33.333333333333336
200.0   90.0   33.333333333333336
150.0   90.0   33.333333333333336
200.0   90.0   50.0
150.0   60.0   50.0
150.0   90.0   50.0
200.0   90.0   50.0
150.0   90.0   33.333333333333336
150.0   60.0   50.0
200.0   90.0   50.0
200.0   60.0   50.0
200.0   60.0   33.333333333333336
150.0   60.0   50.0
200.0   90.0   50.0
200.0   60.0   33.333333333333336
150.0   90.0   33.333333333333336
150.0   90.0   0.0
200.0   90.0   0.0
150.0   120.0   0.0
150.0   90.0   16.666666666666668
200.0   90.0   0.0
200.0   120.0   0.0
150.0   120.0   0.0
200.0   120.0   16.666666666666668
150.0   90.0   16.666666666666668
150.0   120.0   16.666666666666668
200.0   120.0   16.666666666666668
150.0   120.0   0.0
150.0   90.0   16.666666666666668
200.0   120.0   16.666666666666668
200.0   90.0   16.666666666666668
200.0   90.0   0.0
150.0   90.0   16.666666666666668
200.0   120.0   16.666666666666668
200.0   90.0   0.0
150.0   120.0   0.0
150.0   90.0   16.666666666666668
200.0   90.0   16.666666666666668
150.0   120.0   16.666666666666668
150.0   90.0   33.333333333333336
200.0   90.0   16.666666666666668
200.0   120.0   16.666666666666668
150.0   120.0   16.666666666666668
200.0   120.0   33.333333333333336
150.0   90.0   33.333333333333336
150.0   120.0   33.333333333333336
200.0   120.0   33.333333333333336
150.0   120.0   16.666666666666668
150.0   90.0   33.333333333333336
200.0   120.0   33.333333333333336
200.0   90.0   33.333333333333336
200.0   90.0   16.666666666666668
150.0   90.0   33.333333333333336
200.0   120.0   33.333333333333336
200.0   90.0   16.666666666666668
150.0   120.0   16.666666666666668
150.0   90.0   33.333333333333336
200.0   90.0   33.333333333333336
150.0   120.0   33.333333333333336
150.0   90.0   50.0
200.0   90.0   33.333333333333336
200.0   120.0   33.333333333333336
150.0   120.0   33.333333333333336
200.0   120.0   50.0
150.0   90.0   50.0
150.0   120.0   50.0
200.0   120.0   50.0
150.0   120.0   33.333333333333336
150.0   90.0   50.0
200.0   120.0   50.0
200.0   90.0   50.0
200.0   90.0   33.333333333333336
150.0   90.0   50.0
200.0   120.0   50.0
200.0   90.0   33.333333333333336
150.0   120.0   33.333333333333336
150.0   120.0   0.0
200.0   120.0   0.0
150.0   150.0   0.0
150.0   120.0   16.666666666666668
200.0   120.0   0.0
200.0   150.0   0.0
150.0   150.0   0.0
200.0   150.0   16.666666666666668
150.0   120.0   16.666666666666668
150.0   150.0   16.666666666666668
200.0   150.0   16.666666666666668
150.0   150.0   0.0
150.0   120.0   16.666666666666668
200.0   150.0   16.666666666666668
200.0   120.0   16.666666666666668
200.0   120.0   0.0
150.0   120.0   16.666666666666668
200.0   150.0   16.666666666666668
200.0   120.0   0.0
150.0   150.0   0.0
150.0   120.0   16.666666666666668
200.0   120.0   16.666666666666668
150.0   150.0   16.666666666666668
150.0   120.0   33.333333333333336
200.0   120.0   16.666666666666668
200.0   150.0   16.666666666666668
150.0   150.0   16.666666666666668
200.0   150.0   33.333333333333336
150.0   120.0   33.333333333333336
150.0   150.0   33.333333333333336
200.0   150.0   33.333333333333336
150.0   150.0   16.666666666666668
150.0   120.0   33.333333333333336
200.0   150.0   33.333333333333336
200.0   120.0   33.333333333333336
200.0   120.0   16.666666666666668
150.0   120.0   33.333333333333336
200.0   150.0   33.333333333333336
200.0   120.0   16.666666666666668
150.0   150.0   16.666666666666668
150.0   120.0   33.333333333333336
200.0   120.0   33.333333333333336
150.0   150.0   33.333333333333336
150.0   120.0   50.0
200.0   120.0   33.333333333333336
200.0   150.0   33.333333333333336
150.0   150.0   33.333333333333336
200.0   150.0   50.0
150.0   120.0   50.0
150.0   150.0   50.0
200.0   150.0   50.0
150.0   150.0   33.333333333333336
150.0   120.0   50.0
200.0   150.0   50.0
200.0   120.0   50.0
200.0   120.0   33.333333333333336
150.0   120.0   50.0
200.0   150.0   50.0
200.0   120.0   33.333333333333336
150.0   150.0   33.333333333333336
200.0   0.0   0.0
250.0   0.0   0.0
200.0   30.0   0.0
200.0   0.0   16.666666666666668
250.0   0.0   0.0
250.0   30.0   0.0
200.0   30.0   0.0
250.0   30.0   16.666666666666668
200.0   0.0   16.666666666666668
200.0   30.0   16.666666666666668
250.0   30.0   16.666666666666668
200.0   30.0   0.0
200.0   0.0   16.666666666666668
250.0   30.0   16.666666666666668
250.0   0.0   16.666666666666668
250.0   0.0   0.0
200.0   0.0   16.666666666666668
250.0   30.0   16.666666666666668
250.0   0.0   0.0
200.0   30.0   0.0
200.0   0.0   16.666666666666668
250.0   0.0   16.666666666666668
200.0   30.0   16.666666666666668
200.0   0.0   33.333333333333336
250.0   0.0   16.666666666666668
250.0   30.0   16.666666666666668
200.0   30.0   16.666666666666668
250.0   30.0   33.333333333333336
200.0   0.0   33.333333333333336
200.0   30.0   33.333333333333336
250.0   30.0   33.333333333333336
200.0   30.0   16.666666666666668
200.0   0.0   33.333333333333336
250.0   30.0   33.333333333333336
250.0   0.0   33.333333333333336
250.0   0.0   16.666666666666668
200.0   0.0   33.333333333333336
250.0   30.0   33.333333333333336
250.0   0.0   16.666666666666668
200.0   30.0   16.666666666666668
200.0   0.0   33.333333333333336
250.0   0.0   33.333333333333336
200.0   30.0   33.333333333333336
200.0   0.0   50.0
250.0   0.0   33.333333333333336
250.0   30.0   33.333333333333336
200.0   30.0   33.333333333333336
250.0   30.0   50.0
200.0   0.0   50.0
200.0   30.0   50.0
250.0   30.0   50.0
200.0   30.0   33.333333333333336
200.0   0.0   50.0
250.0   30.0   50.0
250.0   0.0   50.0
250.0   0.0   33.333333333333336
200.0   0.0   50.0
250.0   30.0   50.0
250.0   0.0   33.333333333333336
200.0   30.0   33.333333333333336
200.0   30.0   0.0
250.0   30.0   0.0
200.0   60.0   0.0
200.0   30.0   16.666666666666668
250.0   30.0   0.0
250.0   60.0   0.0
200.0   60.0   0.0
250.0   60.0   16.666666666666668
200.0   30.0   16.666666666666668
200.0   60.0   16.666666666666668
250.0   60.0   16.666666666666668
200.0   60.0   0.0
200.0   30.0   16.666666666666668
250.0   60.0   16.666666666666668
250.0   30.0   16.666666666666668
250.0   30.0   0.0
200.0   30.0   16.666666666666668
250.0   60.0   16.666666666666668
250.0   30.0   0.0
200.0   60.0   0.0
200.0   30.0   16.666666666666668
250.0   30.0   16.666666666666668
200.0   60.0   16.666666666666668
200.0   30.0   33.333333333333336
250.0   30.0   16.666666666666668
250.0   60.0   16.666666666666668
200.0   60.0   16.666666666666668
250.0   60.0   33.333333333333336
200.0   30.0   33.333333333333336
200.0   60.0   33.333333333333336
250.0   60.0   33.333333333333336
200.0   60.0   16.666666666666668
200.0   30.0   33.333333333333336
250.0   60.0   33.333333333333336
250.0   30.0   33.333333333333336
250.0   30.0   16.666666666666668
200.0   30.0   33.333333333333336
250.0   60.0   33.333333333333336
250.0   30.0   16.666666666666668
200.0   60.0   16.666666666666668
200.0   30.0   33.333333333333336
250.0   30.0   33.333333333333336
200.0   60.0   33.333333333333336
200.0   30.0   50.0
250.0   30.0   33.333333333333336
250.0   60.0   33.333333333333336
200.0   60.0   33.333333333333336
250.0   60.0   50.0
200.0   30.0   50.0
200.0   60.0   50.0
250.0   60.0   50.0
200.0   60.0   33.333333333333336
200.0   30.0   50.0
250.0   60.0   50.0
250.0   30.0   50.0
250.0   30.0   33.333333333333336
200.0   30.0   50.0
250.0   60.0   50.0
250.0   30.0   33.333333333333336
200.0   60.0   33.333333333333336
200.0   60.0   0.0
250.0   60.0   0.0
200.0   90.0   0.0
200.0   60.0   16.666666666666668
250.0   60.0   0.0
250.0   90.0   0.0
200.0   90.0   0.0
250.0   90.0   16.666666666666668
200.0   60.0   16.666666666666668
200.0   90.0   16.666666666666668
250.0   90.0   16.666666666666668
200.0   90.0   0.0
200.0   60.0   16.666666666666668
250.0   90.0   16.666666666666668
250.0   60.0   16.666666666666668
250.0   60.0   0.0
200.0   60.0   16.666666666666668
250.0   90.0   16.666666666666668
250.0   60.0   0.0
200.0   90.0   0.0
200.0   60.0   16.666666666666668
250.0   60.0   16.666666666666668
200.0   90.0   16.666666666666668
200.0   60.0   33.333333333333336
250.0   60.0   16.666666666666668
250.0   90.0   16.666666666666668
200.0   90.0   16.666666666666668
250.0   90.0   33.333333333333336
200.0   60.0   33.333333333333336
200.0   90.0   33.333333333333336
250.0   90.0   33.333333333333336
200.0   90.0   16.666666666666668
200.0   60.0   33.333333333333336
250.0   90.0   33.333333333333336
250.0   60.0   33.333333333333336
250.0   60.0   16.666666666666668
200.0   60.0   33.333333333333336
250.0   90.0   33.333333333333336
250.0   60.0   16.666666666666668
200.0   90.0   16.666666666666668
200.0   60.0   33.333333333333336
250.0   60.0   33.333333333333336
200.0   90.0   33.333333333333336
200.0   60.0   50.0
250.0   60.0   33.333333333333336
250.0   90.0   33.333333333333336
200.0   90.0   33.333333333333336
250.0   90.0   50.0
200.0   60.0   50.0
200.0   90.0   50.0
250.0   90.0   50.0
200.0   90.0   33.333333333333336
200.0   60.0   50.0
250.0   90.0   50.0
250.0   60.0   50.0
250.0   60.0   33.333333333333336
200.0   60.0   50.0
250.0   90.0   50.0
250.0   60.0   33.333333333333336
200.0   90.0   33.333333333333336
200.0   90.0   0.0
250.0   90.0   0.0
200.0   120.0   0.0
200.0   90.0   16.666666666666668
250.0   90.0   0.0
250.0   120.0   0.0
200.0   120.0   0.0
250.0   120.0   16.666666666666668
200.0   90.0   16.666666666666668
200.0   120.0   16.666666666666668
250.0   120.0   16.666666666666668
200.0   120.0   0.0
200.0   90.0   16.666666666666668
250.0   120.0   16.666666666666668
250.0   90.0   16.666666666666668
250.0   90.0   0.0
200.0   90.0   16.666666666666668
250.0   120.0   16.666666666666668
250.0   90.0   0.0
200.0   120.0   0.0
200.0   90.0   16.666666666666668
250.0   90.0   16.666666666666668
200.0   120.0   16.666666666666668
200.0   90.0   33.333333333333336
250.0   90.0   16.666666666666668
250.0   120.0   16.666666666666668
200.0   120.0   16.666666666666668
250.0   120.0   33.333333333333336
200.0   90.0   33.333333333333336
200.0   120.0   33.333333333333336
250.0   120.0   33.333333333333336
200.0   120.0   16.666666666666668
200.0   90.0   33.333333333333336
250.0   120.0   33.333333333333336
250.0   90.0   33.333333333333336
250.0   90.0   16.666666666666668
200.0   90.0   33.333333333333336
250.0   120.0   33.333333333333336
250.0   90.0   16.666666666666668
200.0   120.0   16.666666666666668
200.0   90.0   33.333333333333336
250.0   90.0   33.333333333333336
200.0   120.0   33.333333333333336
200.0   90.0   50.0
250.0   90.0   33.333333333333336
250.0   120.0   33.333333333333336
200.0   120.0   33.333333333333336
250.0   120.0   50.0
200.0   90.0   50.0
200.0   120.0   50.0
250.0   120.0   50.0
200.0   120.0   33.333333333333336
200.0   90.0   50.0
250.0   120.0   50.0
250.0   90.0   50.0
250.0   90.0   33.333333333333336
200.0   90.0   50.0
250.0   120.0   50.0
250.0   90.0   33.333333333333336
200.0   120.0   33.333333333333336
200.0   120.0   0.0
250.0   120.0   0.0
200.0   150.0   0.0
200.0   120.0   16.666666666666668
250.0   120.0   0.0
250.0   150.0   0.0
200.0   150.0   0.0
250.0   150.0   16.666666666666668
200.0   120.0   16.666666666666668
200.0   150.0   16.666666666666668
250.0   150.0   16.666666666666668
200.0   150.0   0.0
200.0   120.0   16.666666666666668
250.0   150.0   16.666666666666668
250.0   120.0   16.666666666666668
250.0   120.0   0.0
200.0   120.0   16.666666666666668
250.0   150.0   16.666666666666668
250.0   120.0   0.0
200.0   150.0   0.0
200.0   120.0   16.666666666666668
250.0   120.0   16.666666666666668
200.0   150.0   16.666666666666668
200.0   120.0   33.333333333333336
250.0   120.0   16.666666666666668
250.0   150.0   16.666666666666668
200.0   150.0   16.666666666666668
250.0   150.0   33.333333333333336
200.0   120.0   33.333333333333336
200.0   150.0   33.333333333333336
250.0   150.0   33.333333333333336
200.0   150.0   16.666666666666668
200.0   120.0   33.333333333333336
250.0   150.0   33.333333333333336
250.0   120.0   33.333333333333336
250.0   120.0   16.666666666666668
200.0   120.0   33.333333333333336
250.0   150.0   33.333333333333336
250.0   120.0   16.666666666666668
200.0   150.0   16.666666666666668
200.0   120.0   33.333333333333336
250.0   120.0   33.333333333333336
200.0   150.0   33.333333333333336
200.0   120.0   50.0
250.0   120.0   33.333333333333336
250.0   150.0   33.333333333333336
200.0   150.0   33.333333333333336
250.0   150.0   50.0
200.0   120.0   50.0
200.0   150.0   50.0
250.0   150.0   50.0
200.0   150.0   33.333333333333336
200.0   120.0   50.0
250.0   150.0   50.0
250.0   120.0   50.0
250.0   120.0   33.333333333333336
200.0   120.0   50.0
250.0   150.0   50.0
250.0   120.0   33.333333333333336
200.0   150.0   33.333333333333336
250.0   0.0   0.0
300.0   0.0   0.0
250.0   30.0   0.0
250.0   0.0   16.666666666666668
300.0   0.0   0.0
300.0   30.0   0.0
250.0   30.0   0.0
300.0   30.0   16.666666666666668
250.0   0.0   16.666666666666668
250.0   30.0   16.666666666666668
300.0   30.0   16.666666666666668
250.0   30.0   0.0
250.0   0.0   16.666666666666668
300.0   30.0   16.666666666666668
300.0   0.0   16.666666666666668
300.0   0.0   0.0
250.0   0.0   16.666666666666668
300.0   30.0   16.666666666666668
300.0   0.0   0.0
250.0   30.0   0.0
250.0   0.0   16.666666666666668
300.0   0.0   16.666666666666668
250.0   30.0   16.666666666666668
250.0   0.0   33.333333333333336
300.0   0.0   16.666666666666668
300.0   30.0   16.666666666666668
250.0   30.0   16.666666666666668
300.0   30.0   33.333333333333336
250.0   0.0   33.333333333333336
250.0   30.0   33.333333333333336
300.0   30.0   33.333333333333336
250.0   30.0   16.666666666666668
250.0   0.0   33.333333333333336
300.0   30.0   33.333333333333336
300.0   0.0   33.333333333333336
300.0   0.0   16.666666666666668
250.0   0.0   33.333333333333336
300.0   30.0   33.333333333333336
300.0   0.0   16.666666666666668
250.0   30.0   16.666666666666668
250.0   0.0   33.333333333333336
300.0   0.0   33.333333333333336
250.0   30.0   33.333333333333336
250.0   0.0   50.0
300.0   0.0   33.333333333333336
300.0   30.0   33.333333333333336
250.0   30.0   33.333333333333336
300.0   30.0   50.0
250.0   0.0   50.0
250.0   30.0   50.0
300.0   30.0   50.0
250.0   30.0   33.333333333333336
250.0   0.0   50.0
300.0   30.0   50.0
300.0   0.0   50.0
300.0   0.0   33.333333333333336
250.0   0.0   50.0
300.0   30.0   50.0
300.0   0.0   33.333333333333336
250.0   30.0   33.333333333333336
250.0   30.0   0.0
300.0   30.0   0.0
250.0   60.0   0.0
250.0   30.0   16.666666666666668
300.0   30.0   0.0
300.0   60.0   0.0
250.0   60.0   0.0
300.0   60.0   16.666666666666668
250.0   30.0   16.666666666666668
250.0   60.0   16.666666666666668
300.0   60.0   16.666666666666668
250.0   60.0   0.0
250.0   30.0   16.666666666666668
300.0   60.0   16.666666666666668
300.0   30.0   16.666666666666668
300.0   30.0   0.0
250.0   30.0   16.666666666666668
300.0   60.0   16.666666666666668
300.0   30.0   0.0
250.0   60.0   0.0
250.0   30.0   16.666666666666668
300.0   30.0   16.666666666666668
250.0   60.0   16.666666666666668
250.0   30.0   33.333333333333336
300.0   30.0   16.666666666666668
300.0   60.0   16.666666666666668
250.0   60.0   16.666666666666668
300.0   60.0   33.333333333333336
250.0   30.0   33.333333333333336
250.0   60.0   33.333333333333336
300.0   60.0   33.333333333333336
250.0   60.0   16.666666666666668
250.0   30.0   33.333333333333336
300.0   60.0   33.333333333333336
300.0   30.0   33.333333333333336
300.0   30.0   16.666666666666668
250.0   30.0   33.333333333333336
300.0   60.0   33.333333333333336
300.0   30.0   16.666666666666668
250.0   60.0   16.666666666666668
250.0   30.0   33.333333333333336
300.0   30.0   33.333333333333336
250.0   60.0   33.333333333333336
250.0   30.0   50.0
300.0   30.0   33.333333333333336
300.0   60.0   33.333333333333336
250.0   60.0   33.333333333333336
300.0   60.0   50.0
250.0   30.0   50.0
250.0   60.0   50.0
300.0   60.0   50.0
250.0   60.0   33.333333333333336
250.0   30.0   50.0
300.0   60.0   50.0
300.0   30.0   50.0
300.0   30.0   33.333333333333336
250.0   30.0   50.0
300.0   60.0   50.0
300.0   30.0   33.333333333333336
250.0   60.0   33.333333333333336
250.0   60.0   0.0
300.0   60.0   0.0
250.0   90.0   0.0
250.0   60.0   16.666666666666668
300.0   60.0   0.0
300.0   90.0   0.0
250.0   90.0   0.0
300.0   90.0   16.666666666666668
250.0   60.0   16.666666666666668
250.0   90.0   16.666666666666668
300.0   90.0   16.666666666666668
250.0   90.0   0.0
250.0   60.0   16.666666666666668
300.0   90.0   16.666666666666668
300.0   60.0   16.666666666666668
300.0   60.0   0.0
250.0   60.0   16.666666666666668
300.0   90.0   16.666666666666668
300.0   60.0   0.0
250.0   90.0   0.0
250.0   60.0   16.666666666666668
300.0   60.0   16.666666666666668
250.0   90.0   16.666666666666668
250.0   60.0   33.333333333333336
300.0   60.0   16.666666666666668
300.0   90.0   16.666666666666668
250.0   90.0   16.666666666666668
300.0   90.0   33.333333333333336
250.0   60.0   33.333333333333336
250.0   90.0   33.333333333333336
300.0   90.0   33.333333333333336
250.0   90.0   16.666666666666668
250.0   60.0   33.333333333333336
300.0   90.0   33.333333333333336
300.0   60.0   33.333333333333336
300.0   60.0   16.666666666666668
250.0   60.0   33.333333333333336
300.0   90.0   33.333333333333336
300.0   60.0   16.666666666666668
250.0   90.0   16.666666666666668
250.0   60.0   33.333333333333336
300.0   60.0   33.333333333333336
250.0   90.0   33.333333333333336
250.0   60.0   50.0
300.0   60.0   33.333333333333336
300.0   90.0   33.333333333333336
250.0   90.0   33.333333333333336
300.0   90.0   50.0
250.0   60.0   50.0
250.0   90.0   50.0
300.0   90.0   50.0
250.0   90.0   33.333333333333336
250.0   60.0   50.0
300.0   90.0   50.0
300.0   60.0   50.0
300.0   60.0   33.333333333333336
250.0   60.0   50.0
300.0   90.0   50.0
300.0   60.0   33.333333333333336
250.0   90.0   33.333333333333336
250.0   90.0   0.0
300.0   90.0   0.0
250.0   120.0   0.0
250.0   90.0   16.666666666666668
300.0   90.0   0.0
300.0   120.0   0.0
250.0   120.0   0.0
300.0   120.0   16.666666666666668
250.0   90.0   16.666666666666668
250.0   120.0   16.666666666666668
300.0   120.0   16.666666666666668
250.0   120.0   0.0
250.0   90.0   16.666666666666668
300.0   120.0   16.666666666666668
300.0   90.0   16.666666666666668
300.0   90.0   0.0
250.0   90.0   16.666666666666668
300.0   120.0   16.666666666666668
300.0   90.0   0.0
250.0   120.0   0.0
250.0   90.0   16.666666666666668
300.0   90.0   16.666666666666668
250.0   120.0   16.666666666666668
250.0   90.0   33.333333333333336
300.0   90.0   16.666666666666668
300.0   120.0   16.666666666666668
250.0   120.0   16.666666666666668
300.0   120.0   33.333333333333336
250.0   90.0   33.333333333333336
250.0   120.0   33.333333333333336
300.0   120.0   33.333333333333336
250.0   120.0   16.666666666666668
250.0   90.0   33.333333333333336
300.0   120.0   33.333333333333336
300.0   90.0   33.333333333333336
300.0   90.0   16.666666666666668
250.0   90.0   33.333333333333336
300.0   120.0   33.333333333333336
300.0   90.0   16.666666666666668
250.0   120.0   16.666666666666668
250.0   90.0   33.333333333333336
300.0   90.0   33.333333333333336
250.0   120.0   33.333333333333336
250.0   90.0   50.0
300.0   90.0   33.333333333333336
300.0   120.0   33.333333333333336
250.0   120.0   33.333333333333336
300.0   120.0   50.0
250.0   90.0   50.0
250.0   120.0   50.0
300.0   120.0   50.0
250.0   120.0   33.333333333333336
250.0   90.0   50.0
300.0   120.0   50.0
300.0   90.0   50.0
300.0   90.0   33.333333333333336
250.0   90.0   50.0
300.0   120.0   50.0
300.0   90.0   33.333333333333336
250.0   120.0   33.333333333333336
250.0   120.0   0.0
300.0   120.0   0.0
250.0   150.0   0.0
250.0   120.0   16.666666666666668
300.0   120.0   0.0
300.0   150.0   0.0
250.0   150.0   0.0
300.0   150.0   16.666666666666668
250.0   120.0   16.666666666666668
250.0   150.0   16.666666666666668
300.0   150.0   16.666666666666668
250.0   150.0   0.0
250.0   120.0   16.666666666666668
300.0   150.0   16.666666666666668
300.0   120.0   16.666666666666668
300.0   120.0   0.0
250.0   120.0   16.666666666666668
300.0   150.0   16.666666666666668
300.0   120.0   0.0
250.0   150.0   0.0
250.0   120.0   16.666666666666668
300.0   120.0   16.666666666666668
250.0   150.0   16.666666666666668
250.0   120.0   33.333333333333336
300.0   120.0   16.666666666666668
300.0   150.0   16.666666666666668
250.0   150.0   16.666666666666668
300.0   150.0   33.333333333333336
250.0   120.0   33.333333333333336
250.0   150.0   33.333333333333336
300.0   150.0   33.333333333333336
250.0   150.0   16.666666666666668
250.0   120.0   33.333333333333336
300.0   150.0   33.333333333333336
300.0   120.0   33.333333333333336
300.0   120.0   16.666666666666668
250.0   120.0   33.333333333333336
300.0   150.0   33.333333333333336
300.0   120.0   16.666666666666668
250.0   150.0   16.666666666666668
250.0   120.0   33.333333333333336
300.0   120.0   33.333333333333336
250.0   150.0   33.333333333333336
250.0   120.0   50.0
300.0   120.0   33.333333333333336
300.0   150.0   33.333333333333336
250.0   150.0   33.333333333333336
300.0   150.0   50.0
250.0   120.0   50.0
250.0   150.0   50.0
300.0   150.0   50.0
250.0   150.0   33.333333333333336
250.0   120.0   50.0
300.0   150.0   50.0
300.0   120.0   50.0
300.0   120.0   33.333333333333336
250.0   120.0   50.0
300.0   150.0   50.0
300.0   120.0   33.333333333333336
250.0   150.0   33.333333333333336
300.0   0.0   0.0
350.0   0.0   0.0
300.0   30.0   0.0
300.0   0.0   16.666666666666668
350.0   0.0   0.0
350.0   30.0   0.0
300.0   30.0   0.0
350.0   30.0   16.666666666666668
300.0   0.0   16.666666666666668
300.0   30.0   16.666666666666668
350.0   30.0   16.666666666666668
300.0   30.0   0.0
300.0   0.0   16.666666666666668
350.0   30.0   16.666666666666668
350.0   0.0   16.666666666666668
350.0   0.0   0.0
300.0   0.0   16.666666666666668
350.0   30.0   16.666666666666668
350.0   0.0   0.0
300.0   30.0   0.0
300.0   0.0   16.666666666666668
350.0   0.0   16.666666666666668
300.0   30.0   16.666666666666668
300.0   0.0   33.333333333333336
350.0   0.0   16.666666666666668
350.0   30.0   16.666666666666668
300.0   30.0   16.666666666666668
350.0   30.0   33.333333333333336
300.0   0.0   33.333333333333336
300.0   30.0   33.333333333333336
350.0   30.0   33.333333333333336
300.0   30.0   16.666666666666668
300.0   0.0   33.333333333333336
350.0   30.0   33.333333333333336
350.0   0.0   33.333333333333336
350.0   0.0   16.666666666666668
300.0   0.0   33.333333333333336
350.0   30.0   33.333333333333336
350.0   0.0   16.666666666666668
300.0   30.0   16.666666666666668
300.0   0.0   33.333333333333336
350.0   0.0   33.333333333333336
300.0   30.0   33.333333333333336
300.0   0.0   50.0
350.0   0.0   33.333333333333336
350.0   30.0   33.333333333333336
300.0   30.0   33.333333333333336
350.0   30.0   50.0
300.0   0.0   50.0
300.0   30.0   50.0
350.0   30.0   50.0
300.0   30.0   33.333333333333336
300.0   0.0   50.0
350.0   30.0   50.0
350.0   0.0   50.0
350.0   0.0   33.333333333333336
300.0   0.0   50.0
350.0   30.0   50.0
350.0   0.0   33.333333333333336
300.0   30.0   33.333333333333336
300.0   30.0   0.0
350.0   30.0   0.0
300.0   60.0   0.0
300.0   30.0   16.666666666666668
350.0   30.0   0.0
350.0   60.0   0.0
300.0   60.0   0.0
350.0   60.0   16.666666666666668
300.0   30.0   16.666666666666668
300.0   60.0   16.666666666666668
350.0   60.0   16.666666666666668
300.0   60.0   0.0
300.0   30.0   16.666666666666668
350.0   60.0   16.666666666666668
350.0   30.0   16.666666666666668
350.0   30.0   0.0
300.0   30.0   16.666666666666668
350.0   60.0   16.666666666666668
350.0   30.0   0.0
300.0   60.0   0.0
300.0   30.0   16.666666666666668
350.0   30.0   16.666666666666668
300.0   60.0   16.666666666666668
300.0   30.0   33.333333333333336
350.0   30.0   16.666666666666668
350.0   60.0   16.666666666666668
300.0   60.0   16.666666666666668
350.0   60.0   33.333333333333336
300.0   30.0   33.333333333333336
300.0   60.0   33.333333333333336
350.0   60.0   33.333333333333336
300.0   60.0   16.666666666666668
300.0   30.0   33.333333333333336
350.0   60.0   33.333333333333336
350.0   30.0   33.333333333333336
350.0   30.0   16.666666666666668
300.0   30.0   33.333333333333336
350.0   60.0   33.333333333333336
350.0   30.0   16.666666666666668
300.0   60.0   16.666666666666668
300.0   30.0   33.333333333333336
350.0   30.0   33.333333333333336
300.0   60.0   33.333333333333336
300.0   30.0   50.0
350.0   30.0   33.333333333333336
350.0   60.0   33.333333333333336
300.0   60.0   33.333333333333336
350.0   60.0   50.0
300.0   30.0   50.0
300.0   60.0   50.0
350.0   60.0   50.0
300.0   60.0   33.333333333333336
300.0   30.0   50.0
350.0   60.0   50.0
350.0   30.0   50.0
350.0   30.0   33.333333333333336
300.0   30.0   50.0
350.0   60.0   50.0
350.0   30.0   33.333333333333336
300.0   60.0   33.333333333333336
300.0   60.0   0.0
350.0   60.0   0.0
300.0   90.0   0.0
300.0   60.0   16.666666666666668
350.0   60.0   0.0
350.0   90.0   0.0
300.0   90.0   0.0
350.0   90.0   16.666666666666668
300.0   60.0   16.666666666666668
300.0   90.0   16.666666666666668
350.0   90.0   16.666666666666668
300.0   90.0   0.0
300.0   60.0   16.666666666666668
350.0   90.0   16.666666666666668
350.0   60.0   16.666666666666668
350.0   60.0   0.0
300.0   60.0   16.666666666666668
350.0   90.0   16.666666666666668
350.0   60.0   0.0
300.0   90.0   0.0
300.0   60.0   16.666666666666668
350.0   60.0   16.666666666666668
300.0   90.0   16.666666666666668
300.0   60.0   33.333333333333336
350.0   60.0   16.666666666666668
350.0   90.0   16.666666666666668
300.0   90.0   16.666666666666668
350.0   90.0   33.333333333333336
300.0   60.0   33.333333333333336
300.0   90.0   33.333333333333336
350.0   90.0   33.333333333333336
300.0   90.0   16.666666666666668
300.0   60.0   33.333333333333336
350.0   90.0   33.333333333333336
350.0   60.0   33.333333333333336
350.0   60.0   16.666666666666668
300.0   60.0   33.333333333333336
350.0   90.0   33.333333333333336
350.0   60.0   16.666666666666668
300.0   90.0   16.666666666666668
300.0   60.0   33.333333333333336
350.0   60.0   33.333333333333336
300.0   90.0   33.333333333333336
300.0   60.0   50.0
350.0   60.0   33.333333333333336
350.0   90.0   33.333333333333336
300.0   90.0   33.333333333333336
350.0   90.0   50.0
300.0   60.0   50.0
300.0   90.0   50.0
350.0   90.0   50.0
300.0   90.0   33.333333333333336
300.0   60.0   50.0
350.0   90.0   50.0
350.0   60.0   50.0
350.0   60.0   33.333333333333336
300.0   60.0   50.0
350.0   90.0   50.0
350.0   60.0   33.333333333333336
300.0   90.0   33.333333333333336
300.0   90.0   0.0
350.0   90.0   0.0
300.0   120.0   0.0
300.0   90.0   16.666666666666668
350.0   90.0   0.0
350.0   120.0   0.0
300.0   120.0   0.0
350.0   120.0   16.666666666666668
300.0   90.0   16.666666666666668
300.0   120.0   16.666666666666668
350.0   120.0   16.666666666666668
300.0   120.0   0.0
300.0   90.0   16.666666666666668
350.0   120.0   16.666666666666668
350.0   90.0   16.666666666666668
350.0   90.0   0.0
300.0   90.0   16.666666666666668
350.0   120.0   16.666666666666668
350.0   90.0   0.0
300.0   120.0   0.0
300.0   90.0   16.666666666666668
350.0   90.0   16.666666666666668
300.0   120.0   16.666666666666668
300.0   90.0   33.333333333333336
350.0   90.0   16.666666666666668
350.0   120.0   16.666666666666668
300.0   120.0   16.666666666666668
350.0   120.0   33.333333333333336
300.0   90.0   33.333333333333336
300.0   120.0   33.333333333333336
350.0   120.0   33.333333333333336
300.0   120.0   16.666666666666668
300.0   90.0   33.333333333333336
350.0   120.0   33.333333333333336
350.0   90.0   33.333333333333336
350.0   90.0   16.666666666666668
300.0   90.0   33.333333333333336
350.0   120.0   33.333333333333336
350.0   90.0   16.666666666666668
300.0   120.0   16.666666666666668
300.0   90.0   33.333333333333336
350.0   90.0   33.333333333333336
300.0   120.0   33.333333333333336
300.0   90.0   50.0
350.0   90.0   33.333333333333336
350.0   120.0   33.333333333333336
300.0   120.0   33.333333333333336
350.0   120.0   50.0
300.0   90.0   50.0
300.0   120.0   50.0
350.0   120.0   50.0
300.0   120.0   33.333333333333336
300.0   90.0   50.0
350.0   120.0   50.0
350.0   90.0   50.0
350.0   90.0   33.333333333333336
300.0   90.0   50.0
350.0   120.0   50.0
350.0   90.0   33.333333333333336
300.0   120.0   33.333333333333336
300.0   120.0   0.0
350.0   120.0   0.0
300.0   150.0   0.0
300.0   120.0   16.666666666666668
350.0   120.0   0.0
350.0   150.0   0.0
300.0   150.0   0.0
350.0   150.0   16.666666666666668
300.0   120.0   16.666666666666668
300.0   150.0   16.666666666666668
350.0   150.0   16.666666666666668
300.0   150.0   0.0
300.0   120.0   16.666666666666668
350.0   150.0   16.666666666666668
350.0   120.0   16.666666666666668
350.0   120.0   0.0
300.0   120.0   16.666666666666668
350.0   150.0   16.666666666666668
350.0   120.0   0.0
300.0   150.0   0.0
300.0   120.0   16.666666666666668
350.0   120.0   16.666666666666668
300.0   150.0   16.666666666666668
300.0   120.0   33.333333333333336
350.0   120.0   16.666666666666668
350.0   150.0   16.666666666666668
300.0   150.0   16.666666666666668
350.0   150.0   33.333333333333336
300.0   120.0   33.333333333333336
300.0   150.0   33.333333333333336
350.0   150.0   33.333333333333336
300.0   150.0   16.666666666666668
300.0   120.0   33.333333333333336
350.0   150.0   33.333333333333336
350.0   120.0   33.333333333333336
350.0   120.0   16.666666666666668
300.0   120.0   33.333333333333336
350.0   150.0   33.333333333333336
350.0   120.0   16.666666666666668
300.0   150.0   16.666666666666668
300.0   120.0   33.333333333333336
350.0   120.0   33.333333333333336
300.0   150.0   33.333333333333336
300.0   120.0   50.0
350.0   120.0   33.333333333333336
350.0   150.0   33.333333333333336
300.0   150.0   33.333333333333336
350.0   150.0   50.0
300.0   120.0   50.0
300.0   150.0   50.0
350.0   150.0   50.0
300.0   150.0   33.333333333333336
300.0   120.0   50.0
350.0   150.0   50.0
350.0   120.0   50.0
350.0   120.0   33.333333333333336
300.0   120.0   50.0
350.0   150.0   50.0
350.0   120.0   33.333333333333336
300.0   150.0   33.333333333333336
350.0   0.0   0.0
400.0   0.0   0.0
350.0   30.0   0.0
350.0   0.0   16.666666666666668
400.0   0.0   0.0
400.0   30.0   0.0
350.0   30.0   0.0
400.0   30.0   16.666666666666668
350.0   0.0   16.666666666666668
350.0   30.0   16.666666666666668
400.0   30.0   16.666666666666668
350.0   30.0   0.0
350.0   0.0   16.666666666666668
400.0   30.0   16.666666666666668
400.0   0.0   16.666666666666668
400.0   0.0   0.0
350.0   0.0   16.666666666666668
400.0   30.0   16.666666666666668
400.0   0.0   0.0
350.0   30.0   0.0
350.0   0.0   16.666666666666668
400.0   0.0   16.666666666666668
350.0   30.0   16.666666666666668
350.0   0.0   33.333333333333336
400.0   0.0   16.666666666666668
400.0   30.0   16.666666666666668
350.0   30.0   16.666666666666668
400.0   30.0   33.333333333333336
350.0   0.0   33.333333333333336
350.0   30.0   33.333333333333336
400.0   30.0   33.333333333333336
350.0   30.0   16.666666666666668
350.0   0.0   33.333333333333336
400.0   30.0   33.333333333333336
400.0   0.0   33.333333333333336
400.0   0.0   16.666666666666668
350.0   0.0   33.333333333333336
400.0   30.0   33.333333333333336
400.0   0.0   16.666666666666668
350.0   30.0   16.666666666666668
350.0   0.0   33.333333333333336
400.0   0.0   33.333333333333336
350.0   30.0   33.333333333333336
350.0   0.0   50.0
400.0   0.0   33.333333333333336
400.0   30.0   33.333333333333336
350.0   30.0   33.333333333333336
400.0   30.0   50.0
350.0   0.0   50.0
350.0   30.0   50.0
400.0   30.0   50.0
350.0   30.0   33.333333333333336
350.0   0.0   50.0
400.0   30.0   50.0
400.0   0.0   50.0
400.0   0.0   33.333333333333336
350.0   0.0   50.0
400.0   30.0   50.0
400.0   0.0   33.333333333333336
350.0   30.0   33.333333333333336
350.0   30.0   0.0
400.0   30.0   0.0
350.0   60.0   0.0
350.0   30.0   16.666666666666668
400.0   30.0   0.0
400.0   60.0   0.0
350.0   60.0   0.0
400.0   60.0   16.666666666666668
350.0   30.0   16.666666666666668
350.0   60.0   16.666666666666668
400.0   60.0   16.666666666666668
350.0   60.0   0.0
350.0   30.0   16.666666666666668
400.0   60.0   16.666666666666668
400.0   30.0   16.666666666666668
400.0   30.0   0.0
350.0   30.0   16.666666666666668
400.0   60.0   16.666666666666668
400.0   30.0   0.0
350.0   60.0   0.0
350.0   30.0   16.666666666666668
400.0   30.0   16.666666666666668
350.0   60.0   16.666666666666668
350.0   30.0   33.333333333333336
400.0   30.0   16.666666666666668
400.0   60.0   16.666666666666668
350.0   60.0   16.666666666666668
400.0   60.0   33.333333333333336
350.0   30.0   33.333333333333336
350.0   60.0   33.333333333333336
400.0   60.0   33.333333333333336
350.0   60.0   16.666666666666668
350.0   30.0   33.333333333333336
400.0   60.0   33.333333333333336
400.0   30.0   33.333333333333336
400.0   30.0   16.666666666666668
350.0   30.0   33.333333333333336
400.0   60.0   33.333333333333336
400.0   30.0   16.666666666666668
350.0   60.0   16.666666666666668
350.0   30.0   33.333333333333336
400.0   30.0   33.333333333333336
350.0   60.0   33.333333333333336
350.0   30.0   50.0
400.0   30.0   33.333333333333336
400.0   60.0   33.333333333333336
350.0   60.0   33.333333333333336
400.0   60.0   50.0
350.0   30.0   50.0
350.0   60.0   50.0
400.0   60.0   50.0
350.0   60.0   33.333333333333336
350.0   30.0   50.0
400.0   60.0   50.0
400.0   30.0   50.0
400.0   30.0   33.333333333333336
350.0   30.0   50.0
400.0   60.0   50.0
400.0   30.0   33.333333333333336
350.0   60.0   33.333333333333336
350.0   60.0   0.0
400.0   60.0   0.0
350.0   90.0   0.0
350.0   60.0   16.666666666666668
400.0   60.0   0.0
400.0   90.0   0.0
350.0   90.0   0.0
400.0   90.0   16.666666666666668
350.0   60.0   16.666666666666668
350.0   90.0   16.666666666666668
400.0   90.0   16.666666666666668
350.0   90.0   0.0
350.0   60.0   16.666666666666668
400.0   90.0   16.666666666666668
400.0   60.0   16.666666666666668
400.0   60.0   0.0
350.0   60.0   16.666666666666668
400.0   90.0   16.666666666666668
400.0   60.0   0.0
350.0   90.0   0.0
350.0   60.0   16.666666666666668
400.0   60.0   16.666666666666668
350.0   90.0   16.666666666666668
350.0   60.0   33.333333333333336
400.0   60.0   16.666666666666668
400.0   90.0   16.666666666666668
350.0   90.0   16.666666666666668
400.0   90.0   33.333333333333336
350.0   60.0   33.333333333333336
350.0   90.0   33.333333333333336
400.0   90.0   33.333333333333336
350.0   90.0   16.666666666666668
350.0   60.0   33.333333333333336
400.0   90.0   33.333333333333336
400.0   60.0   33.333333333333336
400.0   60.0   16.666666666666668
350.0   60.0   33.333333333333336
400.0   90.0   33.333333333333336
400.0   60.0   16.666666666666668
350.0   90.0   16.666666666666668
350.0   60.0   33.333333333333336
400.0   60.0   33.333333333333336
350.0   90.0   33.333333333333336
350.0   60.0   50.0
400.0   60.0   33.333333333333336
400.0   90.0   33.333333333333336
350.0   90.0   33.333333333333336
400.0   90.0   50.0
350.0   60.0   50.0
350.0   90.0   50.0
400.0   90.0   50.0
350.0   90.0   33.333333333333336
350.0   60.0   50.0
400.0   90.0   50.0
400.0   60.0   50.0
400.0   60.0   33.333333333333336
350.0   60.0   50.0
400.0   90.0   50.0
400.0   60.0   33.333333333333336
350.0   90.0   33.333333333333336
350.0   90.0   0.0
400.0   90.0   0.0
350.0   120.0   0.0
350.0   90.0   16.666666666666668
400.0   90.0   0.0
400.0   120.0   0.0
350.0   120.0   0.0
400.0   120.0   16.666666666666668
350.0   90.0   16.666666666666668
350.0   120.0   16.666666666666668
400.0   120.0   16.666666666666668
350.0   120.0   0.0
350.0   90.0   16.666666666666668
400.0   120.0   16.666666666666668
400.0   90.0   16.666666666666668
400.0   90.0   0.0
350.0   90.0   16.666666666666668
400.0   120.0   16.666666666666668
400.0   90.0   0.0
350.0   120.0   0.0
350.0   90.0   16.666666666666668
400.0   90.0   16.666666666666668
350.0   120.0   16.666666666666668
350.0   90.0   33.333333333333336
400.0   90.0   16.666666666666668
400.0   120.0   16.666666666666668
350.0   120.0   16.666666666666668
400.0   120.0   33.333333333333336
350.0   90.0   33.333333333333336
350.0   120.0   33.333333333333336
400.0   120.0   33.333333333333336
350.0   120.0   16.666666666666668
350.0   90.0   33.333333333333336
400.0   120.0   33.333333333333336
400.0   90.0   33.333333333333336
400.0   90.0   16.666666666666668
350.0   90.0   33.333333333333336
400.0   120.0   33.333333333333336
400.0   90.0   16.666666666666668
350.0   120.0   16.666666666666668
350.0   90.0   33.333333333333336
400.0   90.0   33.333333333333336
350.0   120.0   33.333333333333336
350.0   90.0   50.0
400.0   90.0   33.333333333333336
400.0   120.0   33.333333333333336
350.0   120.0   33.333333333333336
400.0   120.0   50.0
350.0   90.0   50.0
350.0   120.0   50.0
400.0   120.0   50.0
350.0   120.0   33.333333333333336
350.0   90.0   50.0
400.0   120.0   50.0
400.0   90.0   50.0
400.0   90.0   33.333333333333336
350.0   90.0   50.0
400.0   120.0   50.0
400.0   90.0   33.333333333333336
350.0   120.0   33.333333333333336
350.0   120.0   0.0
400.0   120.0   0.0
350.0   150.0   0.0
350.0   120.0   16.666666666666668
400.0   120.0   0.0
400.0   150.0   0.0
350.0   150.0   0.0
400.0   150.0   16.666666666666668
350.0   120.0   16.666666666666668
350.0   150.0   16.666666666666668
400.0   150.0   16.666666666666668
350.0   150.0   0.0
350.0   120.0   16.666666666666668
400.0   150.0   16.666666666666668
400.0   120.0   16.666666666666668
400.0   120.0   0.0
350.0   120.0   16.666666666666668
400.0   150.0   16.666666666666668
400.0   120.0   0.0
350.0   150.0   0.0
350.0   120.0   16.666666666666668
400.0   120.0   16.666666666666668
350.0   150.0   16.666666666666668
350.0   120.0   33.333333333333336
400.0   120.0   16.666666666666668
400.0   150.0   16.666666666666668
350.0   150.0   16.666666666666668
400.0   150.0   33.333333333333336
350.0   120.0   33.333333333333336
350.0   150.0   33.333333333333336
400.0   150.0   33.333333333333336
350.0   150.0   16.666666666666668
350.0   120.0   33.333333333333336
400.0   150.0   33.333333333333336
400.0   120.0   33.333333333333336
400.0   120.0   16.666666666666668
350.0   120.0   33.333333333333336
400.0   150.0   33.333333333333336
400.0   120.0   16.666666666666668
350.0   150.0   16.666666666666668
350.0   120.0   33.333333333333336
400.0   120.0   33.333333333333336
350.0   150.0   33.333333333333336
350.0   120.0   50.0
400.0   120.0   33.333333333333336
400.0   150.0   33.333333333333336
350.0   150.0   33.333333333333336
400.0   150.0   50.0
350.0   120.0   50.0
350.0   150.0   50.0
400.0   150.0   50.0
350.0   150.0   33.333333333333336
350.0   120.0   50.0
400.0   150.0   50.0
400.0   120.0   50.0
400.0   120.0   33.333333333333336
350.0   120.0   50.0
400.0   150.0   50.0
400.0   120.0   33.333333333333336
350.0   150.0   33.333333333333336
400.0   0.0   0.0
450.0   0.0   0.0
400.0   30.0   0.0
400.0   0.0   16.666666666666668
450.0   0.0   0.0
450.0   30.0   0.0
400.0   30.0   0.0
450.0   30.0   16.666666666666668
400.0   0.0   16.666666666666668
400.0   30.0   16.666666666666668
450.0   30.0   16.666666666666668
400.0   30.0   0.0
400.0   0.0   16.666666666666668
450.0   30.0   16.666666666666668
450.0   0.0   16.666666666666668
450.0   0.0   0.0
400.0   0.0   16.666666666666668
450.0   30.0   16.666666666666668
450.0   0.0   0.0
400.0   30.0   0.0
400.0   0.0   16.666666666666668
450.0   0.0   16.666666666666668
400.0   30.0   16.666666666666668
400.0   0.0   33.333333333333336
450.0   0.0   16.666666666666668
450.0   30.0   16.666666666666668
400.0   30.0   16.666666666666668
450.0   30.0   33.333333333333336
400.0   0.0   33.333333333333336
400.0   30.0   33.333333333333336
450.0   30.0   33.333333333333336
400.0   30.0   16.666666666666668
400.0   0.0   33.333333333333336
450.0   30.0   33.333333333333336
450.0   0.0   33.333333333333336
450.0   0.0   16.666666666666668
400.0   0.0   33.333333333333336
450.0   30.0   33.333333333333336
450.0   0.0   16.666666666666668
400.0   30.0   16.666666666666668
400.0   0.0   33.333333333333336
450.0   0.0   33.333333333333336
400.0   30.0   33.333333333333336
400.0   0.0   50.0
450.0   0.0   33.333333333333336
450.0   30.0   33.333333333333336
400.0   30.0   33.333333333333336
450.0   30.0   50.0
400.0   0.0   50.0
400.0   30.0   50.0
450.0   30.0   50.0
400.0   30.0   33.333333333333336
400.0   0.0   50.0
450.0   30.0   50.0
450.0   0.0   50.0
450.0   0.0   33.333333333333336
400.0   0.0   50.0
450.0   30.0   50.0
450.0   0.0   33.333333333333336
400.0   30.0   33.333333333333336
400.0   30.0   0.0
450.0   30.0   0.0
400.0   60.0   0.0
400.0   30.0   16.666666666666668
450.0   30.0   0.0
450.0   60.0   0.0
400.0   60.0   0.0
450.0   60.0   16.666666666666668
400.0   30.0   16.666666666666668
400.0   60.0   16.666666666666668
450.0   60.0   16.666666666666668
400.0   60.0   0.0
400.0   30.0   16.666666666666668
450.0   60.0   16.666666666666668
450.0   30.0   16.666666666666668
450.0   30.0   0.0
400.0   30.0   16.666666666666668
450.0   60.0   16.666666666666668
450.0   30.0   0.0
400.0   60.0   0.0
400.0   30.0   16.666666666666668
450.0   30.0   16.666666666666668
400.0   60.0   16.666666666666668
400.0   30.0   33.333333333333336
450.0   30.0   16.666666666666668
450.0   60.0   16.666666666666668
400.0   60.0   16.666666666666668
450.0   60.0   33.333333333333336
400.0   30.0   33.333333333333336
400.0   60.0   33.333333333333336
450.0   60.0   33.333333333333336
400.0   60.0   16.666666666666668
400.0   30.0   33.333333333333336
450.0   60.0   33.333333333333336
450.0   30.0   33.333333333333336
450.0   30.0   16.666666666666668
400.0   30.0   33.333333333333336
450.0   60.0   33.333333333333336
450.0   30.0   16.666666666666668
400.0   60.0   16.666666666666668
400.0   30.0   33.333333333333336
450.0   30.0   33.333333333333336
400.0   60.0   33.333333333333336
400.0   30.0   50.0
450.0   30.0   33.333333333333336
450.0   60.0   33.333333333333336
400.0   60.0   33.333333333333336
450.0   60.0   50.0
400.0   30.0   50.0
400.0   60.0   50.0
450.0   60.0   50.0
400.0   60.0   33.333333333333336
400.0   30.0   50.0
450.0   60.0   50.0
450.0   30.0   50.0
450.0   30.0   33.333333333333336
400.0   30.0   50.0
450.0   60.0   50.0
450.0   30.0   33.333333333333336
400.0   60.0   33.333333333333336
400.0   60.0   0.0
450.0   60.0   0.0
400.0   90.0   0.0
400.0   60.0   16.666666666666668
450.0   60.0   0.0
450.0   90.0   0.0
400.0   90.0   0.0
450.0   90.0   16.666666666666668
400.0   60.0   16.666666666666668
400.0   90.0   16.666666666666668
450.0   90.0   16.666666666666668
400.0   90.0   0.0
400.0   60.0   16.666666666666668
450.0   90.0   16.666666666666668
450.0   60.0   16.666666666666668
450.0   60.0   0.0
400.0   60.0   16.666666666666668
450.0   90.0   16.666666666666668
450.0   60.0   0.0
400.0   90.0   0.0
400.0   60.0   16.666666666666668
450.0   60.0   16.666666666666668
400.0   90.0   16.666666666666668
400.0   60.0   33.333333333333336
450.0   60.0   16.666666666666668
450.0   90.0   16.666666666666668
400.0   90.0   16.666666666666668
450.0   90.0   33.333333333333336
400.0   60.0   33.333333333333336
400.0   90.0   33.333333333333336
450.0   90.0   33.333333333333336
400.0   90.0   16.666666666666668
400.0   60.0   33.333333333333336
450.0   90.0   33.333333333333336
450.0   60.0   33.333333333333336
450.0   60.0   16.666666666666668
400.0   60.0   33.333333333333336
450.0   90.0   33.333333333333336
450.0   60.0   16.666666666666668
400.0   90.0   16.666666666666668
400.0   60.0   33.333333333333336
450.0   60.0   33.333333333333336
400.0   90.0   33.333333333333336
400.0   60.0   50.0
450.0   60.0   33.333333333333336
450.0   90.0   33.333333333333336
400.0   90.0   33.333333333333336
450.0   90.0   50.0
400.0   60.0   50.0
400.0   90.0   50.0
450.0   90.0   50.0
400.0   90.0   33.333333333333336
400.0   60.0   50.0
450.0   90.0   50.0
450.0   60.0   50.0
450.0   60.0   33.333333333333336
400.0   60.0   50.0
450.0   90.0   50.0
450.0   60.0   33.333333333333336
400.0   90.0   33.333333333333336
400.0   90.0   0.0
450.0   90.0   0.0
400.0   120.0   0.0
400.0   90.0   16.666666666666668
450.0   90.0   0.0
450.0   120.0   0.0
400.0   120.0   0.0
450.0   120.0   16.666666666666668
400.0   90.0   16.666666666666668
400.0   120.0   16.666666666666668
450.0   120.0   16.666666666666668
400.0   120.0   0.0
400.0   90.0   16.666666666666668
450.0   120.0   16.666666666666668
450.0   90.0   16.666666666666668
450.0   90.0   0.0
400.0   90.0   16.666666666666668
450.0   120.0   16.666666666666668
450.0   90.0   0.0
400.0   120.0   0.0
400.0   90.0   16.666666666666668
450.0   90.0   16.666666666666668
400.0   120.0   16.666666666666668
400.0   90.0   33.333333333333336
450.0   90.0   16.666666666666668
450.0   120.0   16.666666666666668
400.0   120.0   16.666666666666668
450.0   120.0   33.333333333333336
400.0   90.0   33.333333333333336
400.0   120.0   33.333333333333336
450.0   120.0   33.333333333333336
400.0   120.0   16.666666666666668
400.0   90.0   33.333333333333336
450.0   120.0   33.333333333333336
450.0   90.0   33.333333333333336
450.0   90.0   16.666666666666668
400.0   90.0   33.333333333333336
450.0   120.0   33.333333333333336
450.0   90.0   16.666666666666668
400.0   120.0   16.666666666666668
400.0   90.0   33.333333333333336
450.0   90.0   33.333333333333336
400.0   120.0   33.333333333333336
400.0   90.0   50.0
450.0   90.0   33.333333333333336
450.0   120.0   33.333333333333336
400.0   120.0   33.333333333333336
450.0   120.0   50.0
400.0   90.0   50.0
400.0   120.0   50.0
450.0   120.0   50.0
400.0   120.0   33.333333333333336
400.0   90.0   50.0
450.0   120.0   50.0
450.0   90.0   50.0
450.0   90.0   33.333333333333336
400.0   90.0   50.0
450.0   120.0   50.0
450.0   90.0   33.333333333333336
400.0   120.0   33.333333333333336
400.0   120.0   0.0
450.0   120.0   0.0
400.0   150.0   0.0
400.0   120.0   16.666666666666668
450.0   120.0   0.0
450.0   150.0   0.0
400.0   150.0   0.0
450.0   150.0   16.666666666666668
400.0   120.0   16.666666666666668
400.0   150.0   16.666666666666668
450.0   150.0   16.666666666666668
400.0   150.0   0.0
400.0   120.0   16.666666666666668
450.0   150.0   16.666666666666668
450.0   120.0   16.666666666666668
450.0   120.0   0.0
400.0   120.0   16.666666666666668
450.0   150.0   16.666666666666668
450.0   120.0   0.0
400.0   150.0   0.0
400.0   120.0   16.666666666666668
450.0   120.0   16.666666666666668
400.0   150.0   16.666666666666668
400.0   120.0   33.333333333333336
450.0   120.0   16.666666666666668
450.0   150.0   16.666666666666668
400.0   150.0   16.666666666666668
450.0   150.0   33.333333333333336
400.0   120.0   33.333333333333336
400.0   150.0   33.333333333333336
450.0   150.0   33.333333333333336
400.0   150.0   16.666666666666668
400.0   120.0   33.333333333333336
450.0   150.0   33.333333333333336
450.0   120.0   33.333333333333336
450.0   120.0   16.666666666666668
400.0   120.0   33.333333333333336
450.0   150.0   33.333333333333336
450.0   120.0   16.666666666666668
400.0   150.0   16.666666666666668
400.0   120.0   33.333333333333336
450.0   120.0   33.333333333333336
400.0   150.0   33.333333333333336
400.0   120.0   50.0
450.0   120.0   33.333333333333336
450.0   150.0   33.333333333333336
400.0   150.0   33.333333333333336
450.0   150.0   50.0
400.0   120.0   50.0
400.0   150.0   50.0
450.0   150.0   50.0
400.0   150.0   33.333333333333336
400.0   120.0   50.0
450.0   150.0   50.0
450.0   120.0   50.0
450.0   120.0   33.333333333333336
400.0   120.0   50.0
450.0   150.0   50.0
450.0   120.0   33.333333333333336
400.0   150.0   33.333333333333336
450.0   0.0   0.0
500.0   0.0   0.0
450.0   30.0   0.0
450.0   0.0   16.666666666666668
500.0   0.0   0.0
500.0   30.0   0.0
450.0   30.0   0.0
500.0   30.0   16.666666666666668
450.0   0.0   16.666666666666668
450.0   30.0   16.666666666666668
500.0   30.0   16.666666666666668
450.0   30.0   0.0
450.0   0.0   16.666666666666668
500.0   30.0   16.666666666666668
500.0   0.0   16.666666666666668
500.0   0.0   0.0
450.0   0.0   16.666666666666668
500.0   30.0   16.666666666666668
500.0   0.0   0.0
450.0   30.0   0.0
450.0   0.0   16.666666666666668
500.0   0.0   16.666666666666668
450.0   30.0   16.666666666666668
450.0   0.0   33.333333333333336
500.0   0.0   16.666666666666668
500.0   30.0   16.666666666666668
450.0   30.0   16.666666666666668
500.0   30.0   33.333333333333336
450.0   0.0   33.333333333333336
450.0   30.0   33.333333333333336
500.0   30.0   33.333333333333336
450.0   30.0   16.666666666666668
450.0   0.0   33.333333333333336
500.0   30.0   33.333333333333336
500.0   0.0   33.333333333333336
500.0   0.0   16.666666666666668
450.0   0.0   33.333333333333336
500.0   30.0   33.333333333333336
500.0   0.0   16.666666666666668
450.0   30.0   16.666666666666668
450.0   0.0   33.333333333333336
500.0   0.0   33.333333333333336
450.0   30.0   33.333333333333336
450.0   0.0   50.0
500.0   0.0   33.333333333333336
500.0   30.0   33.333333333333336
450.0   30.0   33.333333333333336
500.0   30.0   50.0
450.0   0.0   50.0
450.0   30.0   50.0
500.0   30.0   50.0
450.0   30.0   33.333333333333336
450.0   0.0   50.0
500.0   30.0   50.0
500.0   0.0   50.0
500.0   0.0   33.333333333333336
450.0   0.0   50.0
500.0   30.0   50.0
500.0   0.0   33.333333333333336
450.0   30.0   33.333333333333336
450.0   30.0   0.0
500.0   30.0   0.0
450.0   60.0   0.0
450.0   30.0   16.666666666666668
500.0   30.0   0.0
500.0   60.0   0.0
450.0   60.0   0.0
500.0   60.0   16.666666666666668
450.0   30.0   16.666666666666668
450.0   60.0   16.666666666666668
500.0   60.0   16.666666666666668
450.0   60.0   0.0
450.0   30.0   16.666666666666668
500.0   60.0   16.666666666666668
500.0   30.0   16.666666666666668
500.0   30.0   0.0
450.0   30.0   16.666666666666668
500.0   60.0   16.666666666666668
500.0   30.0   0.0
450.0   60.0   0.0
450.0   30.0   16.666666666666668
500.0   30.0   16.666666666666668
450.0   60.0   16.666666666666668
450.0   30.0   33.333333333333336
500.0   30.0   16.666666666666668
500.0   60.0   16.666666666666668
450.0   60.0   16.666666666666668
500.0   60.0   33.333333333333336
450.0   30.0   33.333333333333336
450.0   60.0   33.333333333333336
500.0   60.0   33.333333333333336
450.0   60.0   16.666666666666668
450.0   30.0   33.333333333333336
500.0   60.0   33.333333333333336
500.0   30.0   33.333333333333336
500.0   30.0   16.666666666666668
450.0   30.0   33.333333333333336
500.0   60.0   33.333333333333336
500.0   30.0   16.666666666666668
450.0   60.0   16.666666666666668
450.0   30.0   33.333333333333336
500.0   30.0   33.333333333333336
450.0   60.0   33.333333333333336
450.0   30.0   50.0
500.0   30.0   33.333333333333336
500.0   60.0   33.333333333333336
450.0   60.0   33.333333333333336
500.0   60.0   50.0
450.0   30.0   50.0
450.0   60.0   50.0
500.0   60.0   50.0
450.0   60.0   33.333333333333336
450.0   30.0   50.0
500.0   60.0   50.0
500.0   30.0   50.0
500.0   30.0   33.333333333333336
450.0   30.0   50.0
500.0   60.0   50.0
500.0   30.0   33.333333333333336
450.0   60.0   33.333333333333336
450.0   60.0   0.0
500.0   60.0   0.0
450.0   90.0   0.0
450.0   60.0   16.666666666666668
500.0   60.0   0.0
500.0   90.0   0.0
450.0   90.0   0.0
500.0   90.0   16.666666666666668
450.0   60.0   16.666666666666668
450.0   90.0   16.666666666666668
500.0   90.0   16.666666666666668
450.0   90.0   0.0
450.0   60.0   16.666666666666668
500.0   90.0   16.666666666666668
500.0   60.0   16.666666666666668
500.0   60.0   0.0
450.0   60.0   16.666666666666668
500.0   90.0   16.666666666666668
500.0   60.0   0.0
450.0   90.0   0.0
450.0   60.0   16.666666666666668
500.0   60.0   16.666666666666668
450.0   90.0   16.666666666666668
450.0   60.0   33.333333333333336
500.0   60.0   16.666666666666668
500.0   90.0   16.666666666666668
450.0   90.0   16.666666666666668
500.0   90.0   33.333333333333336
450.0   60.0   33.333333333333336
450.0   90.0   33.333333333333336
500.0   90.0   33.333333333333336
450.0   90.0   16.666666666666668
450.0   60.0   33.333333333333336
500.0   90.0   33.333333333333336
500.0   60.0   33.333333333333336
500.0   60.0   16.666666666666668
450.0   60.0   33.333333333333336
500.0   90.0   33.333333333333336
500.0   60.0   16.666666666666668
450.0   90.0   16.666666666666668
450.0   60.0   33.333333333333336
500.0   60.0   33.333333333333336
450.0   90.0   33.333333333333336
450.0   60.0   50.0
500.0   60.0   33.333333333333336
500.0   90.0   33.333333333333336
450.0   90.0   33.333333333333336
500.0   90.0   50.0
450.0   60.0   50.0
450.0   90.0   50.0
500.0   90.0   50.0
450.0   90.0   33.333333333333336
450.0   60.0   50.0
500.0   90.0   50.0
500.0   60.0   50.0
500.0   60.0   33.333333333333336
450.0   60.0   50.0
500.0   90.0   50.0
500.0   60.0   33.333333333333336
450.0   90.0   33.333333333333336
450.0   90.0   0.0
500.0   90.0   0.0
450.0   120.0   0.0
450.0   90.0   16.666666666666668
500.0   90.0   0.0
500.0   120.0   0.0
450.0   120.0   0.0
500.0   120.0   16.666666666666668
450.0   90.0   16.666666666666668
450.0   120.0   16.666666666666668
500.0   120.0   16.666666666666668
450.0   120.0   0.0
450.0   90.0   16.666666666666668
500.0   120.0   16.666666666666668
500.0   90.0   16.666666666666668
500.0   90.0   0.0
450.0   90.0   16.666666666666668
500.0   120.0   16.666666666666668
500.0   90.0   0.0
450.0   120.0   0.0
450.0   90.0   16.666666666666668
500.0   90.0   16.666666666666668
450.0   120.0   16.666666666666668
450.0   90.0   33.333333333333336
500.0   90.0   16.666666666666668
500.0   120.0   16.666666666666668
450.0   120.0   16.666666666666668
500.0   120.0   33.333333333333336
450.0   90.0   33.333333333333336
450.0   120.0   33.333333333333336
500.0   120.0   33.333333333333336
450.0   120.0   16.666666666666668
450.0   90.0   33.333333333333336
500.0   120.0   33.333333333333336
500.0   90.0   33.333333333333336
500.0   90.0   16.666666666666668
450.0   90.0   33.333333333333336
500.0   120.0   33.333333333333336
500.0   90.0   16.666666666666668
450.0   120.0   16.666666666666668
450.0   90.0   33.333333333333336
500.0   90.0   33.333333333333336
450.0   120.0   33.333333333333336
450.0   90.0   50.0
500.0   90.0   33.333333333333336
500.0   120.0   33.333333333333336
450.0   120.0   33.333333333333336
500.0   120.0   50.0
450.0   90.0   50.0
450.0   120.0   50.0
500.0   120.0   50.0
450.0   120.0   33.333333333333336
450.0   90.0   50.0
500.0   120.0   50.0
500.0   90.0   50.0
500.0   90.0   33.333333333333336
450.0   90.0   50.0
500.0   120.0   50.0
500.0   90.0   33.333333333333336
450.0   120.0   33.333333333333336
450.0   120.0   0.0
500.0   120.0   0.0
450.0   150.0   0.0
450.0   120.0   16.666666666666668
500.0   120.0   0.0
500.0   150.0   0.0
450.0   150.0   0.0
500.0   150.0   16.666666666666668
450.0   120.0   16.666666666666668
450.0   150.0   16.666666666666668
500.0   150.0   16.666666666666668
450.0   150.0   0.0
450.0   120.0   16.666666666666668
500.0   150.0   16.666666666666668
500.0   120.0   16.666666666666668
500.0   120.0   0.0
450.0   120.0   16.666666666666668
500.0   150.0   16.666666666666668
500.0   120.0   0.0
450.0   150.0   0.0
450.0   120.0   16.666666666666668
500.0   120.0   16.666666666666668
450.0   150.0   16.666666666666668
450.0   120.0   33.333333333333336
500.0   120.0   16.666666666666668
500.0   150.0   16.666666666666668
450.0   150.0   16.666666666666668
500.0   150.0   33.333333333333336
450.0   120.0   33.333333333333336
450.0   150.0   33.333333333333336
500.0   150.0   33.333333333333336
450.0   150.0   16.666666666666668
450.0   120.0   33.333333333333336
500.0   150.0   33.333333333333336
500.0   120.0   33.333333333333336
500.0   120.0   16.666666666666668
450.0   120.0   33.333333333333336
500.0   150.0   33.333333333333336
500.0   120.0   16.666666666666668
450.0   150.0   16.666666666666668
450.0   120.0   33.333333333333336
500.0   120.0   33.333333333333336
450.0   150.0   33.333333333333336
450.0   120.0   50.0
500.0   120.0   33.333333333333336
500.0   150.0   33.333333333333336
450.0   150.0   33.333333333333336
500.0   150.0   50.0
450.0   120.0   50.0
450.0   150.0   50.0
500.0   150.0   50.0
450.0   150.0   33.333333333333336
450.0   120.0   50.0
500.0   150.0   50.0
500.0   120.0   50.0
500.0   120.0   33.333333333333336
450.0   120.0   50.0
500.0   150.0   50.0
500.0   120.0   33.333333333333336
450.0   150.0   33.333333333333336
             </DataArray>   
          </Points>  
          <Cells>  
             <DataArray type="Int32" Name="connectivity" format="ascii">   
0   1   2   3
4   5   6   7
8   9   10   11
12   13   14   15
16   17   18   19
20   21   22   23
24   25   26   27
28   29   30   31
32   33   34   35
36   37   38   39
40   41   42   43
44   45   46   47
48   49   50   51
52   53   54   55
56   57   58   59
60   61   62   63
64   65   66   67
68   69   70   71
72   73   74   75
76   77   78   79
80   81   82   83
84   85   86   87
88   89   90   91
92   93   94   95
96   97   98   99
100   101   102   103
104   105   106   107
108   109   110   111
112   113   114   115
116   117   118   119
120   121   122   123
124   125   126   127
128   129   130   131
132   133   134   135
136   137   138   139
140   141   142   143
144   145   146   147
148   149   150   151
152   153   154   155
156   157   158   159
160   161   162   163
164   165   166   167
168   169   170   171
172   173   174   175
176   177   178   179
180   181   182   183
184   185   186   187
188   189   190   191
192   193   194   195
196   197   198   199
200   201   202   203
204   205   206   207
208   209   210   211
212   213   214   215
216   217   218   219
220   221   222   223
224   225   226   227
228   229   230   231
232   233   234   235
236   237   238   239
240   241   242   243
244   245   246   247
248   249   250   251
252   253   254   255
256   257   258   259
260   261   262   263
264   265   266   267
268   269   270   271
272   273   274   275
276   277   278   279
280   281   282   283
284   285   286   287
288   289   290   291
292   293   294   295
296   297   298   299
300   301   302   303
304   305   306   307
308   309   310   311
312   313   314   315
316   317   318   319
320   321   322   323
324   325   326   327
328   329   330   331
332   333   334   335
336   337   338   339
340   341   342   343
344   345   346   347
348   349   350   351
352   353   354   355
356   357   358   359
360   361   362   363
364   365   366   367
368   369   370   371
372   373   374   375
376   377   378   379
380   381   382   383
384   385   386   387
388   389   390   391
392   393   394   395
396   397   398   399
400   401   402   403
404   405   406   407
408   409   410   411
412   413   414   415
416   417   418   419
420   421   422   423
424   425   426   427
428   429   430   431
432   433   434   435
436   437   438   439
440   441   442   443
444   445   446   447
448   449   450   451
452   453   454   455
456   457   458   459
460   461   462   463
464   465   466   467
468   469   470   471
472   473   474   475
476   477   478   479
480   481   482   483
484   485   486   487
488   489   490   491
492   493   494   495
496   497   498   499
500   501   502   503
504   505   506   507
508   509   510   511
512   513   514   515
516   517   518   519
520   521   522   523
524   525   526   527
528   529   530   531
532   533   534   535
536   537   538   539
540   541   542   543
544   545   546   547
548   549   550   551
552   553   554   555
556   557   558   559
560   561   562   563
564   565   566   567
568   569   570   571
572   573   574   575
576   577   578   579
580   581   582   583
584   585   586   587
588   589   590   591
592   593   594   595
596   597   598   599
600   601   602   603
604   605   606   607
608   609   610   611
612   613   614   615
616   617   618   619
620   621   622   623
624   625   626   627
628   629   630   631
632   633   634   635
636   637   638   639
640   641   642   643
644   645   646   647
648   649   650   651
652   653   654   655
656   657   658   659
660   661   662   663
664   665   666   667
668   669   670   671
672   673   674   675
676   677   678   679
680   681   682   683
684   685   686   687
688   689   690   691
692   693   694   695
696   697   698   699
700   701   702   703
704   705   706   707
708   709   710   711
712   713   714   715
716   717   718   719
720   721   722   723
724   725   726   727
728   729   730   731
732   733   734   735
736   737   738   739
740   741   742   743
744   745   746   747
748   749   750   751
752   753   754   755
756   757   758   759
760   761   762   763
764   765   766   767
768   769   770   771
772   773   774   775
776   777   778   779
780   781   782   783
784   785   786   787
788   789   790   791
792   793   794   795
796   797   798   799
800   801   802   803
804   805   806   807
808   809   810   811
812   813   814   815
816   817   818   819
820   821   822   823
824   825   826   827
828   829   830   831
832   833   834   835
836   837   838   839
840   841   842   843
844   845   846   847
848   849   850   851
852   853   854   855
856   857   858   859
860   861   862   863
864   865   866   867
868   869   870   871
872   873   874   875
876   877   878   879
880   881   882   883
884   885   886   887
888   889   890   891
892   893   894   895
896   897   898   899
900   901   902   903
904   905   906   907
908   909   910   911
912   913   914   915
916   917   918   919
920   921   922   923
924   925   926   927
928   929   930   931
932   933   934   935
936   937   938   939
940   941   942   943
944   945   946   947
948   949   950   951
952   953   954   955
956   957   958   959
960   961   962   963
964   965   966   967
968   969   970   971
972   973   974   975
976   977   978   979
980   981   982   983
984   985   986   987
988   989   990   991
992   993   994   995
996   997   998   999
1000   1001   1002   1003
1004   1005   1006   1007
1008   1009   1010   1011
1012   1013   1014   1015
1016   1017   1018   1019
1020   1021   1022   1023
1024   1025   1026   1027
1028   1029   1030   1031
1032   1033   1034   1035
1036   1037   1038   1039
1040   1041   1042   1043
1044   1045   1046   1047
1048   1049   1050   1051
1052   1053   1054   1055
1056   1057   1058   1059
1060   1061   1062   1063
1064   1065   1066   1067
1068   1069   1070   1071
1072   1073   1074   1075
1076   1077   1078   1079
1080   1081   1082   1083
1084   1085   1086   1087
1088   1089   1090   1091
1092   1093   1094   1095
1096   1097   1098   1099
1100   1101   1102   1103
1104   1105   1106   1107
1108   1109   1110   1111
1112   1113   1114   1115
1116   1117   1118   1119
1120   1121   1122   1123
1124   1125   1126   1127
1128   1129   1130   1131
1132   1133   1134   1135
1136   1137   1138   1139
1140   1141   1142   1143
1144   1145   1146   1147
1148   1149   1150   1151
1152   1153   1154   1155
1156   1157   1158   1159
1160   1161   1162   1163
1164   1165   1166   1167
1168   1169   1170   1171
1172   1173   1174   1175
1176   1177   1178   1179
1180   1181   1182   1183
1184   1185   1186   1187
1188   1189   1190   1191
1192   1193   1194   1195
1196   1197   1198   1199
1200   1201   1202   1203
1204   1205   1206   1207
1208   1209   1210   1211
1212   1213   1214   1215
1216   1217   1218   1219
1220   1221   1222   1223
1224   1225   1226   1227
1228   1229   1230   1231
1232   1233   1234   1235
1236   1237   1238   1239
1240   1241   1242   1243
1244   1245   1246   1247
1248   1249   1250   1251
1252   1253   1254   1255
1256   1257   1258   1259
1260   1261   1262   1263
1264   1265   1266   1267
1268   1269   1270   1271
1272   1273   1274   1275
1276   1277   1278   1279
1280   1281   1282   1283
1284   1285   1286   1287
1288   1289   1290   1291
1292   1293   1294   1295
1296   1297   1298   1299
1300   1301   1302   1303
1304   1305   1306   1307
1308   1309   1310   1311
1312   1313   1314   1315
1316   1317   1318   1319
1320   1321   1322   1323
1324   1325   1326   1327
1328   1329   1330   1331
1332   1333   1334   1335
1336   1337   1338   1339
1340   1341   1342   1343
1344   1345   1346   1347
1348   1349   1350   1351
1352   1353   1354   1355
1356   1357   1358   1359
1360   1361   1362   1363
1364   1365   1366   1367
1368   1369   1370   1371
1372   1373   1374   1375
1376   1377   1378   1379
1380   1381   1382   1383
1384   1385   1386   1387
1388   1389   1390   1391
1392   1393   1394   1395
1396   1397   1398   1399
1400   1401   1402   1403
1404   1405   1406   1407
1408   1409   1410   1411
1412   1413   1414   1415
1416   1417   1418   1419
1420   1421   1422   1423
1424   1425   1426   1427
1428   1429   1430   1431
1432   1433   1434   1435
1436   1437   1438   1439
1440   1441   1442   1443
1444   1445   1446   1447
1448   1449   1450   1451
1452   1453   1454   1455
1456   1457   1458   1459
1460   1461   1462   1463
1464   1465   1466   1467
1468   1469   1470   1471
1472   1473   1474   1475
1476   1477   1478   1479
1480   1481   1482   1483
1484   1485   1486   1487
1488   1489   1490   1491
1492   1493   1494   1495
1496   1497   1498   1499
1500   1501   1502   1503
1504   1505   1506   1507
1508   1509   1510   1511
1512   1513   1514   1515
1516   1517   1518   1519
1520   1521   1522   1523
1524   1525   1526   1527
1528   1529   1530   1531
1532   1533   1534   1535
1536   1537   1538   1539
1540   1541   1542   1543
1544   1545   1546   1547
1548   1549   1550   1551
1552   1553   1554   1555
1556   1557   1558   1559
1560   1561   1562   1563
1564   1565   1566   1567
1568   1569   1570   1571
1572   1573   1574   1575
1576   1577   1578   1579
1580   1581   1582   1583
1584   1585   1586   1587
1588   1589   1590   1591
1592   1593   1594   1595
1596   1597   1598   1599
1600   1601   1602   1603
1604   1605   1606   1607
1608   1609   1610   1611
1612   1613   1614   1615
1616   1617   1618   1619
1620   1621   1622   1623
1624   1625   1626   1627
1628   1629   1630   1631
1632   1633   1634   1635
1636   1637   1638   1639
1640   1641   1642   1643
1644   1645   1646   1647
1648   1649   1650   1651
1652   1653   1654   1655
1656   1657   1658   1659
1660   1661   1662   1663
1664   1665   1666   1667
1668   1669   1670   1671
1672   1673   1674   1675
1676   1677   1678   1679
1680   1681   1682   1683
1684   1685   1686   1687
1688   1689   1690   1691
1692   1693   1694   1695
1696   1697   1698   1699
1700   1701   1702   1703
1704   1705   1706   1707
1708   1709   1710   1711
1712   1713   1714   1715
1716   1717   1718   1719
1720   1721   1722   1723
1724   1725   1726   1727
1728   1729   1730   1731
1732   1733   1734   1735
1736   1737   1738   1739
1740   1741   1742   1743
1744   1745   1746   1747
1748   1749   1750   1751
1752   1753   1754   1755
1756   1757   1758   1759
1760   1761   1762   1763
1764   1765   1766   1767
1768   1769   1770   1771
1772   1773   1774   1775
1776   1777   1778   1779
1780   1781   1782   1783
1784   1785   1786   1787
1788   1789   1790   1791
1792   1793   1794   1795
1796   1797   1798   1799
1800   1801   1802   1803
1804   1805   1806   1807
1808   1809   1810   1811
1812   1813   1814   1815
1816   1817   1818   1819
1820   1821   1822   1823
1824   1825   1826   1827
1828   1829   1830   1831
1832   1833   1834   1835
1836   1837   1838   1839
1840   1841   1842   1843
1844   1845   1846   1847
1848   1849   1850   1851
1852   1853   1854   1855
1856   1857   1858   1859
1860   1861   1862   1863
1864   1865   1866   1867
1868   1869   1870   1871
1872   1873   1874   1875
1876   1877   1878   1879
1880   1881   1882   1883
1884   1885   1886   1887
1888   1889   1890   1891
1892   1893   1894   1895
1896   1897   1898   1899
1900   1901   1902   1903
1904   1905   1906   1907
1908   1909   1910   1911
1912   1913   1914   1915
1916   1917   1918   1919
1920   1921   1922   1923
1924   1925   1926   1927
1928   1929   1930   1931
1932   1933   1934   1935
1936   1937   1938   1939
1940   1941   1942   1943
1944   1945   1946   1947
1948   1949   1950   1951
1952   1953   1954   1955
1956   1957   1958   1959
1960   1961   1962   1963
1964   1965   1966   1967
1968   1969   1970   1971
1972   1973   1974   1975
1976   1977   1978   1979
1980   1981   1982   1983
1984   1985   1986   1987
1988   1989   1990   1991
1992   1993   1994   1995
1996   1997   1998   1999
2000   2001   2002   2003
2004   2005   2006   2007
2008   2009   2010   2011
2012   2013   2014   2015
2016   2017   2018   2019
2020   2021   2022   2023
2024   2025   2026   2027
2028   2029   2030   2031
2032   2033   2034   2035
2036   2037   2038   2039
2040   2041   2042   2043
2044   2045   2046   2047
2048   2049   2050   2051
2052   2053   2054   2055
2056   2057   2058   2059
2060   2061   2062   2063
2064   2065   2066   2067
2068   2069   2070   2071
2072   2073   2074   2075
2076   2077   2078   2079
2080   2081   2082   2083
2084   2085   2086   2087
2088   2089   2090   2091
2092   2093   2094   2095
2096   2097   2098   2099
2100   2101   2102   2103
2104   2105   2106   2107
2108   2109   2110   2111
2112   2113   2114   2115
2116   2117   2118   2119
2120   2121   2122   2123
2124   2125   2126   2127
2128   2129   2130   2131
2132   2133   2134   2135
2136   2137   2138   2139
2140   2141   2142   2143
2144   2145   2146   2147
2148   2149   2150   2151
2152   2153   2154   2155
2156   2157   2158   2159
2160   2161   2162   2163
2164   2165   2166   2167
2168   2169   2170   2171
2172   2173   2174   2175
2176   2177   2178   2179
2180   2181   2182   2183
2184   2185   2186   2187
2188   2189   2190   2191
2192   2193   2194   2195
2196   2197   2198   2199
2200   2201   2202   2203
2204   2205   2206   2207
2208   2209   2210   2211
2212   2213   2214   2215
2216   2217   2218   2219
2220   2221   2222   2223
2224   2225   2226   2227
2228   2229   2230   2231
2232   2233   2234   2235
2236   2237   2238   2239
2240   2241   2242   2243
2244   2245   2246   2247
2248   2249   2250   2251
2252   2253   2254   2255
2256   2257   2258   2259
2260   2261   2262   2263
2264   2265   2266   2267
2268   2269   2270   2271
2272   2273   2274   2275
2276   2277   2278   2279
2280   2281   2282   2283
2284   2285   2286   2287
2288   2289   2290   2291
2292   2293   2294   2295
2296   2297   2298   2299
2300   2301   2302   2303
2304   2305   2306   2307
2308   2309   2310   2311
2312   2313   2314   2315
2316   2317   2318   2319
2320   2321   2322   2323
2324   2325   2326   2327
2328   2329   2330   2331
2332   2333   2334   2335
2336   2337   2338   2339
2340   2341   2342   2343
2344   2345   2346   2347
2348   2349   2350   2351
2352   2353   2354   2355
2356   2357   2358   2359
2360   2361   2362   2363
2364   2365   2366   2367
2368   2369   2370   2371
2372   2373   2374   2375
2376   2377   2378   2379
2380   2381   2382   2383
2384   2385   2386   2387
2388   2389   2390   2391
2392   2393   2394   2395
2396   2397   2398   2399
2400   2401   2402   2403
2404   2405   2406   2407
2408   2409   2410   2411
2412   2413   2414   2415
2416   2417   2418   2419
2420   2421   2422   2423
2424   2425   2426   2427
2428   2429   2430   2431
2432   2433   2434   2435
2436   2437   2438   2439
2440   2441   2442   2443
2444   2445   2446   2447
2448   2449   2450   2451
2452   2453   2454   2455
2456   2457   2458   2459
2460   2461   2462   2463
2464   2465   2466   2467
2468   2469   2470   2471
2472   2473   2474   2475
2476   2477   2478   2479
2480   2481   2482   2483
2484   2485   2486   2487
2488   2489   2490   2491
2492   2493   2494   2495
2496   2497   2498   2499
2500   2501   2502   2503
2504   2505   2506   2507
2508   2509   2510   2511
2512   2513   2514   2515
2516   2517   2518   2519
2520   2521   2522   2523
2524   2525   2526   2527
2528   2529   2530   2531
2532   2533   2534   2535
2536   2537   2538   2539
2540   2541   2542   2543
2544   2545   2546   2547
2548   2549   2550   2551
2552   2553   2554   2555
2556   2557   2558   2559
2560   2561   2562   2563
2564   2565   2566   2567
2568   2569   2570   2571
2572   2573   2574   2575
2576   2577   2578   2579
2580   2581   2582   2583
2584   2585   2586   2587
2588   2589   2590   2591
2592   2593   2594   2595
2596   2597   2598   2599
2600   2601   2602   2603
2604   2605   2606   2607
2608   2609   2610   2611
2612   2613   2614   2615
2616   2617   2618   2619
2620   2621   2622   2623
2624   2625   2626   2627
2628   2629   2630   2631
2632   2633   2634   2635
2636   2637   2638   2639
2640   2641   2642   2643
2644   2645   2646   2647
2648   2649   2650   2651
2652   2653   2654   2655
2656   2657   2658   2659
2660   2661   2662   2663
2664   2665   2666   2667
2668   2669   2670   2671
2672   2673   2674   2675
2676   2677   2678   2679
2680   2681   2682   2683
2684   2685   2686   2687
2688   2689   2690   2691
2692   2693   2694   2695
2696   2697   2698   2699
2700   2701   2702   2703
2704   2705   2706   2707
2708   2709   2710   2711
2712   2713   2714   2715
2716   2717   2718   2719
2720   2721   2722   2723
2724   2725   2726   2727
2728   2729   2730   2731
2732   2733   2734   2735
2736   2737   2738   2739
2740   2741   2742   2743
2744   2745   2746   2747
2748   2749   2750   2751
2752   2753   2754   2755
2756   2757   2758   2759
2760   2761   2762   2763
2764   2765   2766   2767
2768   2769   2770   2771
2772   2773   2774   2775
2776   2777   2778   2779
2780   2781   2782   2783
2784   2785   2786   2787
2788   2789   2790   2791
2792   2793   2794   2795
2796   2797   2798   2799
2800   2801   2802   2803
2804   2805   2806   2807
2808   2809   2810   2811
2812   2813   2814   2815
2816   2817   2818   2819
2820   2821   2822   2823
2824   2825   2826   2827
2828   2829   2830   2831
2832   2833   2834   2835
2836   2837   2838   2839
2840   2841   2842   2843
2844   2845   2846   2847
2848   2849   2850   2851
2852   2853   2854   2855
2856   2857   2858   2859
2860   2861   2862   2863
2864   2865   2866   2867
2868   2869   2870   2871
2872   2873   2874   2875
2876   2877   2878   2879
2880   2881   2882   2883
2884   2885   2886   2887
2888   2889   2890   2891
2892   2893   2894   2895
2896   2897   2898   2899
2900   2901   2902   2903
2904   2905   2906   2907
2908   2909   2910   2911
2912   2913   2914   2915
2916   2917   2918   2919
2920   2921   2922   2923
2924   2925   2926   2927
2928   2929   2930   2931
2932   2933   2934   2935
2936   2937   2938   2939
2940   2941   2942   2943
2944   2945   2946   2947
2948   2949   2950   2951
2952   2953   2954   2955
2956   2957   2958   2959
2960   2961   2962   2963
2964   2965   2966   2967
2968   2969   2970   2971
2972   2973   2974   2975
2976   2977   2978   2979
2980   2981   2982   2983
2984   2985   2986   2987
2988   2989   2990   2991
2992   2993   2994   2995
2996   2997   2998   2999
3000   3001   3002   3003
3004   3005   3006   3007
3008   3009   3010   3011
3012   3013   3014   3015
3016   3017   3018   3019
3020   3021   3022   3023
3024   3025   3026   3027
3028   3029   3030   3031
3032   3033   3034   3035
3036   3037   3038   3039
3040   3041   3042   3043
3044   3045   3046   3047
3048   3049   3050   3051
3052   3053   3054   3055
3056   3057   3058   3059
3060   3061   3062   3063
3064   3065   3066   3067
3068   3069   3070   3071
3072   3073   3074   3075
3076   3077   3078   3079
3080   3081   3082   3083
3084   3085   3086   3087
3088   3089   3090   3091
3092   3093   3094   3095
3096   3097   3098   3099
3100   3101   3102   3103
3104   3105   3106   3107
3108   3109   3110   3111
3112   3113   3114   3115
3116   3117   3118   3119
3120   3121   3122   3123
3124   3125   3126   3127
3128   3129   3130   3131
3132   3133   3134   3135
3136   3137   3138   3139
3140   3141   3142   3143
3144   3145   3146   3147
3148   3149   3150   3151
3152   3153   3154   3155
3156   3157   3158   3159
3160   3161   3162   3163
3164   3165   3166   3167
3168   3169   3170   3171
3172   3173   3174   3175
3176   3177   3178   3179
3180   3181   3182   3183
3184   3185   3186   3187
3188   3189   3190   3191
3192   3193   3194   3195
3196   3197   3198   3199
3200   3201   3202   3203
3204   3205   3206   3207
3208   3209   3210   3211
3212   3213   3214   3215
3216   3217   3218   3219
3220   3221   3222   3223
3224   3225   3226   3227
3228   3229   3230   3231
3232   3233   3234   3235
3236   3237   3238   3239
3240   3241   3242   3243
3244   3245   3246   3247
3248   3249   3250   3251
3252   3253   3254   3255
3256   3257   3258   3259
3260   3261   3262   3263
3264   3265   3266   3267
3268   3269   3270   3271
3272   3273   3274   3275
3276   3277   3278   3279
3280   3281   3282   3283
3284   3285   3286   3287
3288   3289   3290   3291
3292   3293   3294   3295
3296   3297   3298   3299
3300   3301   3302   3303
3304   3305   3306   3307
3308   3309   3310   3311
3312   3313   3314   3315
3316   3317   3318   3319
3320   3321   3322   3323
3324   3325   3326   3327
3328   3329   3330   3331
3332   3333   3334   3335
3336   3337   3338   3339
3340   3341   3342   3343
3344   3345   3346   3347
3348   3349   3350   3351
3352   3353   3354   3355
3356   3357   3358   3359
3360   3361   3362   3363
3364   3365   3366   3367
3368   3369   3370   3371
3372   3373   3374   3375
3376   3377   3378   3379
3380   3381   3382   3383
3384   3385   3386   3387
3388   3389   3390   3391
3392   3393   3394   3395
3396   3397   3398   3399
3400   3401   3402   3403
3404   3405   3406   3407
3408   3409   3410   3411
3412   3413   3414   3415
3416   3417   3418   3419
3420   3421   3422   3423
3424   3425   3426   3427
3428   3429   3430   3431
3432   3433   3434   3435
3436   3437   3438   3439
3440   3441   3442   3443
3444   3445   3446   3447
3448   3449   3450   3451
3452   3453   3454   3455
3456   3457   3458   3459
3460   3461   3462   3463
3464   3465   3466   3467
3468   3469   3470   3471
3472   3473   3474   3475
3476   3477   3478   3479
3480   3481   3482   3483
3484   3485   3486   3487
3488   3489   3490   3491
3492   3493   3494   3495
3496   3497   3498   3499
3500   3501   3502   3503
3504   3505   3506   3507
3508   3509   3510   3511
3512   3513   3514   3515
3516   3517   3518   3519
3520   3521   3522   3523
3524   3525   3526   3527
3528   3529   3530   3531
3532   3533   3534   3535
3536   3537   3538   3539
3540   3541   3542   3543
3544   3545   3546   3547
3548   3549   3550   3551
3552   3553   3554   3555
3556   3557   3558   3559
3560   3561   3562   3563
3564   3565   3566   3567
3568   3569   3570   3571
3572   3573   3574   3575
3576   3577   3578   3579
3580   3581   3582   3583
3584   3585   3586   3587
3588   3589   3590   3591
3592   3593   3594   3595
3596   3597   3598   3599
3600   3601   3602   3603
3604   3605   3606   3607
3608   3609   3610   3611
3612   3613   3614   3615
3616   3617   3618   3619
3620   3621   3622   3623
3624   3625   3626   3627
3628   3629   3630   3631
3632   3633   3634   3635
3636   3637   3638   3639
3640   3641   3642   3643
3644   3645   3646   3647
3648   3649   3650   3651
3652   3653   3654   3655
3656   3657   3658   3659
3660   3661   3662   3663
3664   3665   3666   3667
3668   3669   3670   3671
3672   3673   3674   3675
3676   3677   3678   3679
3680   3681   3682   3683
3684   3685   3686   3687
3688   3689   3690   3691
3692   3693   3694   3695
3696   3697   3698   3699
3700   3701   3702   3703
3704   3705   3706   3707
3708   3709   3710   3711
3712   3713   3714   3715
3716   3717   3718   3719
3720   3721   3722   3723
3724   3725   3726   3727
3728   3729   3730   3731
3732   3733   3734   3735
3736   3737   3738   3739
3740   3741   3742   3743
3744   3745   3746   3747
3748   3749   3750   3751
3752   3753   3754   3755
3756   3757   3758   3759
3760   3761   3762   3763
3764   3765   3766   3767
3768   3769   3770   3771
3772   3773   3774   3775
3776   3777   3778   3779
3780   3781   3782   3783
3784   3785   3786   3787
3788   3789   3790   3791
3792   3793   3794   3795
3796   3797   3798   3799
3800   3801   3802   3803
3804   3805   3806   3807
3808   3809   3810   3811
3812   3813   3814   3815
3816   3817   3818   3819
3820   3821   3822   3823
3824   3825   3826   3827
3828   3829   3830   3831
3832   3833   3834   3835
3836   3837   3838   3839
3840   3841   3842   3843
3844   3845   3846   3847
3848   3849   3850   3851
3852   3853   3854   3855
3856   3857   3858   3859
3860   3861   3862   3863
3864   3865   3866   3867
3868   3869   3870   3871
3872   3873   3874   3875
3876   3877   3878   3879
3880   3881   3882   3883
3884   3885   3886   3887
3888   3889   3890   3891
3892   3893   3894   3895
3896   3897   3898   3899
3900   3901   3902   3903
3904   3905   3906   3907
3908   3909   3910   3911
3912   3913   3914   3915
3916   3917   3918   3919
3920   3921   3922   3923
3924   3925   3926   3927
3928   3929   3930   3931
3932   3933   3934   3935
3936   3937   3938   3939
3940   3941   3942   3943
3944   3945   3946   3947
3948   3949   3950   3951
3952   3953   3954   3955
3956   3957   3958   3959
3960   3961   3962   3963
3964   3965   3966   3967
3968   3969   3970   3971
3972   3973   3974   3975
3976   3977   3978   3979
3980   3981   3982   3983
3984   3985   3986   3987
3988   3989   3990   3991
3992   3993   3994   3995
3996   3997   3998   3999
4000   4001   4002   4003
4004   4005   4006   4007
4008   4009   4010   4011
4012   4013   4014   4015
4016   4017   4018   4019
4020   4021   4022   4023
4024   4025   4026   4027
4028   4029   4030   4031
4032   4033   4034   4035
4036   4037   4038   4039
4040   4041   4042   4043
4044   4045   4046   4047
4048   4049   4050   4051
4052   4053   4054   4055
4056   4057   4058   4059
4060   4061   4062   4063
4064   4065   4066   4067
4068   4069   4070   4071
4072   4073   4074   4075
4076   4077   4078   4079
4080   4081   4082   4083
4084   4085   4086   4087
4088   4089   4090   4091
4092   4093   4094   4095
4096   4097   4098   4099
4100   4101   4102   4103
4104   4105   4106   4107
4108   4109   4110   4111
4112   4113   4114   4115
4116   4117   4118   4119
4120   4121   4122   4123
4124   4125   4126   4127
4128   4129   4130   4131
4132   4133   4134   4135
4136   4137   4138   4139
4140   4141   4142   4143
4144   4145   4146   4147
4148   4149   4150   4151
4152   4153   4154   4155
4156   4157   4158   4159
4160   4161   4162   4163
4164   4165   4166   4167
4168   4169   4170   4171
4172   4173   4174   4175
4176   4177   4178   4179
4180   4181   4182   4183
4184   4185   4186   4187
4188   4189   4190   4191
4192   4193   4194   4195
4196   4197   4198   4199
4200   4201   4202   4203
4204   4205   4206   4207
4208   4209   4210   4211
4212   4213   4214   4215
4216   4217   4218   4219
4220   4221   4222   4223
4224   4225   4226   4227
4228   4229   4230   4231
4232   4233   4234   4235
4236   4237   4238   4239
4240   4241   4242   4243
4244   4245   4246   4247
4248   4249   4250   4251
4252   4253   4254   4255
4256   4257   4258   4259
4260   4261   4262   4263
4264   4265   4266   4267
4268   4269   4270   4271
4272   4273   4274   4275
4276   4277   4278   4279
4280   4281   4282   4283
4284   4285   4286   4287
4288   4289   4290   4291
4292   4293   4294   4295
4296   4297   4298   4299
4300   4301   4302   4303
4304   4305   4306   4307
4308   4309   4310   4311
4312   4313   4314   4315
4316   4317   4318   4319
4320   4321   4322   4323
4324   4325   4326   4327
4328   4329   4330   4331
4332   4333   4334   4335
4336   4337   4338   4339
4340   4341   4342   4343
4344   4345   4346   4347
4348   4349   4350   4351
4352   4353   4354   4355
4356   4357   4358   4359
4360   4361   4362   4363
4364   4365   4366   4367
4368   4369   4370   4371
4372   4373   4374   4375
4376   4377   4378   4379
4380   4381   4382   4383
4384   4385   4386   4387
4388   4389   4390   4391
4392   4393   4394   4395
4396   4397   4398   4399
4400   4401   4402   4403
4404   4405   4406   4407
4408   4409   4410   4411
4412   4413   4414   4415
4416   4417   4418   4419
4420   4421   4422   4423
4424   4425   4426   4427
4428   4429   4430   4431
4432   4433   4434   4435
4436   4437   4438   4439
4440   4441   4442   4443
4444   4445   4446   4447
4448   4449   4450   4451
4452   4453   4454   4455
4456   4457   4458   4459
4460   4461   4462   4463
4464   4465   4466   4467
4468   4469   4470   4471
4472   4473   4474   4475
4476   4477   4478   4479
4480   4481   4482   4483
4484   4485   4486   4487
4488   4489   4490   4491
4492   4493   4494   4495
4496   4497   4498   4499
4500   4501   4502   4503
4504   4505   4506   4507
4508   4509   4510   4511
4512   4513   4514   4515
4516   4517   4518   4519
4520   4521   4522   4523
4524   4525   4526   4527
4528   4529   4530   4531
4532   4533   4534   4535
4536   4537   4538   4539
4540   4541   4542   4543
4544   4545   4546   4547
4548   4549   4550   4551
4552   4553   4554   4555
4556   4557   4558   4559
4560   4561   4562   4563
4564   4565   4566   4567
4568   4569   4570   4571
4572   4573   4574   4575
4576   4577   4578   4579
4580   4581   4582   4583
4584   4585   4586   4587
4588   4589   4590   4591
4592   4593   4594   4595
4596   4597   4598   4599
4600   4601   4602   4603
4604   4605   4606   4607
4608   4609   4610   4611
4612   4613   4614   4615
4616   4617   4618   4619
4620   4621   4622   4623
4624   4625   4626   4627
4628   4629   4630   4631
4632   4633   4634   4635
4636   4637   4638   4639
4640   4641   4642   4643
4644   4645   4646   4647
4648   4649   4650   4651
4652   4653   4654   4655
4656   4657   4658   4659
4660   4661   4662   4663
4664   4665   4666   4667
4668   4669   4670   4671
4672   4673   4674   4675
4676   4677   4678   4679
4680   4681   4682   4683
4684   4685   4686   4687
4688   4689   4690   4691
4692   4693   4694   4695
4696   4697   4698   4699
4700   4701   4702   4703
4704   4705   4706   4707
4708   4709   4710   4711
4712   4713   4714   4715
4716   4717   4718   4719
4720   4721   4722   4723
4724   4725   4726   4727
4728   4729   4730   4731
4732   4733   4734   4735
4736   4737   4738   4739
4740   4741   4742   4743
4744   4745   4746   4747
4748   4749   4750   4751
4752   4753   4754   4755
4756   4757   4758   4759
4760   4761   4762   4763
4764   4765   4766   4767
4768   4769   4770   4771
4772   4773   4774   4775
4776   4777   4778   4779
4780   4781   4782   4783
4784   4785   4786   4787
4788   4789   4790   4791
4792   4793   4794   4795
4796   4797   4798   4799
4800   4801   4802   4803
4804   4805   4806   4807
4808   4809   4810   4811
4812   4813   4814   4815
4816   4817   4818   4819
4820   4821   4822   4823
4824   4825   4826   4827
4828   4829   4830   4831
4832   4833   4834   4835
4836   4837   4838   4839
4840   4841   4842   4843
4844   4845   4846   4847
4848   4849   4850   4851
4852   4853   4854   4855
4856   4857   4858   4859
4860   4861   4862   4863
4864   4865   4866   4867
4868   4869   4870   4871
4872   4873   4874   4875
4876   4877   4878   4879
4880   4881   4882   4883
4884   4885   4886   4887
4888   4889   4890   4891
4892   4893   4894   4895
4896   4897   4898   4899
4900   4901   4902   4903
4904   4905   4906   4907
4908   4909   4910   4911
4912   4913   4914   4915
4916   4917   4918   4919
4920   4921   4922   4923
4924   4925   4926   4927
4928   4929   4930   4931
4932   4933   4934   4935
4936   4937   4938   4939
4940   4941   4942   4943
4944   4945   4946   4947
4948   4949   4950   4951
4952   4953   4954   4955
4956   4957   4958   4959
4960   4961   4962   4963
4964   4965   4966   4967
4968   4969   4970   4971
4972   4973   4974   4975
4976   4977   4978   4979
4980   4981   4982   4983
4984   4985   4986   4987
4988   4989   4990   4991
4992   4993   4994   4995
4996   4997   4998   4999
5000   5001   5002   5003
5004   5005   5006   5007
5008   5009   5010   5011
5012   5013   5014   5015
5016   5017   5018   5019
5020   5021   5022   5023
5024   5025   5026   5027
5028   5029   5030   5031
5032   5033   5034   5035
5036   5037   5038   5039
5040   5041   5042   5043
5044   5045   5046   5047
5048   5049   5050   5051
5052   5053   5054   5055
5056   5057   5058   5059
5060   5061   5062   5063
5064   5065   5066   5067
5068   5069   5070   5071
5072   5073   5074   5075
5076   5077   5078   5079
5080   5081   5082   5083
5084   5085   5086   5087
5088   5089   5090   5091
5092   5093   5094   5095
5096   5097   5098   5099
5100   5101   5102   5103
5104   5105   5106   5107
5108   5109   5110   5111
5112   5113   5114   5115
5116   5117   5118   5119
5120   5121   5122   5123
5124   5125   5126   5127
5128   5129   5130   5131
5132   5133   5134   5135
5136   5137   5138   5139
5140   5141   5142   5143
5144   5145   5146   5147
5148   5149   5150   5151
5152   5153   5154   5155
5156   5157   5158   5159
5160   5161   5162   5163
5164   5165   5166   5167
5168   5169   5170   5171
5172   5173   5174   5175
5176   5177   5178   5179
5180   5181   5182   5183
5184   5185   5186   5187
5188   5189   5190   5191
5192   5193   5194   5195
5196   5197   5198   5199
5200   5201   5202   5203
5204   5205   5206   5207
5208   5209   5210   5211
5212   5213   5214   5215
5216   5217   5218   5219
5220   5221   5222   5223
5224   5225   5226   5227
5228   5229   5230   5231
5232   5233   5234   5235
5236   5237   5238   5239
5240   5241   5242   5243
5244   5245   5246   5247
5248   5249   5250   5251
5252   5253   5254   5255
5256   5257   5258   5259
5260   5261   5262   5263
5264   5265   5266   5267
5268   5269   5270   5271
5272   5273   5274   5275
5276   5277   5278   5279
5280   5281   5282   5283
5284   5285   5286   5287
5288   5289   5290   5291
5292   5293   5294   5295
5296   5297   5298   5299
5300   5301   5302   5303
5304   5305   5306   5307
5308   5309   5310   5311
5312   5313   5314   5315
5316   5317   5318   5319
5320   5321   5322   5323
5324   5325   5326   5327
5328   5329   5330   5331
5332   5333   5334   5335
5336   5337   5338   5339
5340   5341   5342   5343
5344   5345   5346   5347
5348   5349   5350   5351
5352   5353   5354   5355
5356   5357   5358   5359
5360   5361   5362   5363
5364   5365   5366   5367
5368   5369   5370   5371
5372   5373   5374   5375
5376   5377   5378   5379
5380   5381   5382   5383
5384   5385   5386   5387
5388   5389   5390   5391
5392   5393   5394   5395
5396   5397   5398   5399
5400   5401   5402   5403
5404   5405   5406   5407
5408   5409   5410   5411
5412   5413   5414   5415
5416   5417   5418   5419
5420   5421   5422   5423
5424   5425   5426   5427
5428   5429   5430   5431
5432   5433   5434   5435
5436   5437   5438   5439
5440   5441   5442   5443
5444   5445   5446   5447
5448   5449   5450   5451
5452   5453   5454   5455
5456   5457   5458   5459
5460   5461   5462   5463
5464   5465   5466   5467
5468   5469   5470   5471
5472   5473   5474   5475
5476   5477   5478   5479
5480   5481   5482   5483
5484   5485   5486   5487
5488   5489   5490   5491
5492   5493   5494   5495
5496   5497   5498   5499
5500   5501   5502   5503
5504   5505   5506   5507
5508   5509   5510   5511
5512   5513   5514   5515
5516   5517   5518   5519
5520   5521   5522   5523
5524   5525   5526   5527
5528   5529   5530   5531
5532   5533   5534   5535
5536   5537   5538   5539
5540   5541   5542   5543
5544   5545   5546   5547
5548   5549   5550   5551
5552   5553   5554   5555
5556   5557   5558   5559
5560   5561   5562   5563
5564   5565   5566   5567
5568   5569   5570   5571
5572   5573   5574   5575
5576   5577   5578   5579
5580   5581   5582   5583
5584   5585   5586   5587
5588   5589   5590   5591
5592   5593   5594   5595
5596   5597   5598   5599
5600   5601   5602   5603
5604   5605   5606   5607
5608   5609   5610   5611
5612   5613   5614   5615
5616   5617   5618   5619
5620   5621   5622   5623
5624   5625   5626   5627
5628   5629   5630   5631
5632   5633   5634   5635
5636   5637   5638   5639
5640   5641   5642   5643
5644   5645   5646   5647
5648   5649   5650   5651
5652   5653   5654   5655
5656   5657   5658   5659
5660   5661   5662   5663
5664   5665   5666   5667
5668   5669   5670   5671
5672   5673   5674   5675
5676   5677   5678   5679
5680   5681   5682   5683
5684   5685   5686   5687
5688   5689   5690   5691
5692   5693   5694   5695
5696   5697   5698   5699
5700   5701   5702   5703
5704   5705   5706   5707
5708   5709   5710   5711
5712   5713   5714   5715
5716   5717   5718   5719
5720   5721   5722   5723
5724   5725   5726   5727
5728   5729   5730   5731
5732   5733   5734   5735
5736   5737   5738   5739
5740   5741   5742   5743
5744   5745   5746   5747
5748   5749   5750   5751
5752   5753   5754   5755
5756   5757   5758   5759
5760   5761   5762   5763
5764   5765   5766   5767
5768   5769   5770   5771
5772   5773   5774   5775
5776   5777   5778   5779
5780   5781   5782   5783
5784   5785   5786   5787
5788   5789   5790   5791
5792   5793   5794   5795
5796   5797   5798   5799
5800   5801   5802   5803
5804   5805   5806   5807
5808   5809   5810   5811
5812   5813   5814   5815
5816   5817   5818   5819
5820   5821   5822   5823
5824   5825   5826   5827
5828   5829   5830   5831
5832   5833   5834   5835
5836   5837   5838   5839
5840   5841   5842   5843
5844   5845   5846   5847
5848   5849   5850   5851
5852   5853   5854   5855
5856   5857   5858   5859
5860   5861   5862   5863
5864   5865   5866   5867
5868   5869   5870   5871
5872   5873   5874   5875
5876   5877   5878   5879
5880   5881   5882   5883
5884   5885   5886   5887
5888   5889   5890   5891
5892   5893   5894   5895
5896   5897   5898   5899
5900   5901   5902   5903
5904   5905   5906   5907
5908   5909   5910   5911
5912   5913   5914   5915
5916   5917   5918   5919
5920   5921   5922   5923
5924   5925   5926   5927
5928   5929   5930   5931
5932   5933   5934   5935
5936   5937   5938   5939
5940   5941   5942   5943
5944   5945   5946   5947
5948   5949   5950   5951
5952   5953   5954   5955
5956   5957   5958   5959
5960   5961   5962   5963
5964   5965   5966   5967
5968   5969   5970   5971
5972   5973   5974   5975
5976   5977   5978   5979
5980   5981   5982   5983
5984   5985   5986   5987
5988   5989   5990   5991
5992   5993   5994   5995
5996   5997   5998   5999
              </DataArray>   
              <DataArray type="Int32" Name="offsets" format="ascii">   
4
8
12
16
20
24
28
32
36
40
44
48
52
56
60
64
68
72
76
80
84
88
92
96
100
104
108
112
116
120
124
128
132
136
140
144
148
152
156
160
164
168
172
176
180
184
188
192
196
200
204
208
212
216
220
224
228
232
236
240
244
248
252
256
260
264
268
272
276
280
284
288
292
296
300
304
308
312
316
320
324
328
332
336
340
344
348
352
356
360
364
368
372
376
380
384
388
392
396
400
404
408
412
416
420
424
428
432
436
440
444
448
452
456
460
464
468
472
476
480
484
488
492
496
500
504
508
512
516
520
524
528
532
536
540
544
548
552
556
560
564
568
572
576
580
584
588
592
596
600
604
608
612
616
620
624
628
632
636
640
644
648
652
656
660
664
668
672
676
680
684
688
692
696
700
704
708
712
716
720
724
728
732
736
740
744
748
752
756
760
764
768
772
776
780
784
788
792
796
800
804
808
812
816
820
824
828
832
836
840
844
848
852
856
860
864
868
872
876
880
884
888
892
896
900
904
908
912
916
920
924
928
932
936
940
944
948
952
956
960
964
968
972
976
980
984
988
992
996
1000
1004
1008
1012
1016
1020
1024
1028
1032
1036
1040
1044
1048
1052
1056
1060
1064
1068
1072
1076
1080
1084
1088
1092
1096
1100
1104
1108
1112
1116
1120
1124
1128
1132
1136
1140
1144
1148
1152
1156
1160
1164
1168
1172
1176
1180
1184
1188
1192
1196
1200
1204
1208
1212
1216
1220
1224
1228
1232
1236
1240
1244
1248
1252
1256
1260
1264
1268
1272
1276
1280
1284
1288
1292
1296
1300
1304
1308
1312
1316
1320
1324
1328
1332
1336
1340
1344
1348
1352
1356
1360
1364
1368
1372
1376
1380
1384
1388
1392
1396
1400
1404
1408
1412
1416
1420
1424
1428
1432
1436
1440
1444
1448
1452
1456
1460
1464
1468
1472
1476
1480
1484
1488
1492
1496
1500
1504
1508
1512
1516
1520
1524
1528
1532
1536
1540
1544
1548
1552
1556
1560
1564
1568
1572
1576
1580
1584
1588
1592
1596
1600
1604
1608
1612
1616
1620
1624
1628
1632
1636
1640
1644
1648
1652
1656
1660
1664
1668
1672
1676
1680
1684
1688
1692
1696
1700
1704
1708
1712
1716
1720
1724
1728
1732
1736
1740
1744
1748
1752
1756
1760
1764
1768
1772
1776
1780
1784
1788
1792
1796
1800
1804
1808
1812
1816
1820
1824
1828
1832
1836
1840
1844
1848
1852
1856
1860
1864
1868
1872
1876
1880
1884
1888
1892
1896
1900
1904
1908
1912
1916
1920
1924
1928
1932
1936
1940
1944
1948
1952
1956
1960
1964
1968
1972
1976
1980
1984
1988
1992
1996
2000
2004
2008
2012
2016
2020
2024
2028
2032
2036
2040
2044
2048
2052
2056
2060
2064
2068
2072
2076
2080
2084
2088
2092
2096
2100
2104
2108
2112
2116
2120
2124
2128
2132
2136
2140
2144
2148
2152
2156
2160
2164
2168
2172
2176
2180
2184
2188
2192
2196
2200
2204
2208
2212
2216
2220
2224
2228
2232
2236
2240
2244
2248
2252
2256
2260
2264
2268
2272
2276
2280
2284
2288
2292
2296
2300
2304
2308
2312
2316
2320
2324
2328
2332
2336
2340
2344
2348
2352
2356
2360
2364
2368
2372
2376
2380
2384
2388
2392
2396
2400
2404
2408
2412
2416
2420
2424
2428
2432
2436
2440
2444
2448
2452
2456
2460
2464
2468
2472
2476
2480
2484
2488
2492
2496
2500
2504
2508
2512
2516
2520
2524
2528
2532
2536
2540
2544
2548
2552
2556
2560
2564
2568
2572
2576
2580
2584
2588
2592
2596
2600
2604
2608
2612
2616
2620
2624
2628
2632
2636
2640
2644
2648
2652
2656
2660
2664
2668
2672
2676
2680
2684
2688
2692
2696
2700
2704
2708
2712
2716
2720
2724
2728
2732
2736
2740
2744
2748
2752
2756
2760
2764
2768
2772
2776
2780
2784
2788
2792
2796
2800
2804
2808
2812
2816
2820
2824
2828
2832
2836
2840
2844
2848
2852
2856
2860
2864
2868
2872
2876
2880
2884
2888
2892
2896
2900
2904
2908
2912
2916
2920
2924
2928
2932
2936
2940
2944
2948
2952
2956
2960
2964
2968
2972
2976
2980
2984
2988
2992
2996
3000
3004
3008
3012
3016
3020
3024
3028
3032
3036
3040
3044
3048
3052
3056
3060
3064
3068
3072
3076
3080
3084
3088
3092
3096
3100
3104
3108
3112
3116
3120
3124
3128
3132
3136
3140
3144
3148
3152
3156
3160
3164
3168
3172
3176
3180
3184
3188
3192
3196
3200
3204
3208
3212
3216
3220
3224
3228
3232
3236
3240
3244
3248
3252
3256
3260
3264
3268
3272
3276
3280
3284
3288
3292
3296
3300
3304
3308
3312
3316
3320
3324
3328
3332
3336
3340
3344
3348
3352
3356
3360
3364
3368
3372
3376
3380
3384
3388
3392
3396
3400
3404
3408
3412
3416
3420
3424
3428
3432
3436
3440
3444
3448
3452
3456
3460
3464
3468
3472
3476
3480
3484
3488
3492
3496
3500
3504
3508
3512
3516
3520
3524
3528
3532
3536
3540
3544
3548
3552
3556
3560
3564
3568
3572
3576
3580
3584
3588
3592
3596
3600
3604
3608
3612
3616
3620
3624
3628
3632
3636
3640
3644
3648
3652
3656
3660
3664
3668
3672
3676
3680
3684
3688
3692
3696
3700
3704
3708
3712
3716
3720
3724
3728
3732
3736
3740
3744
3748
3752
3756
3760
3764
3768
3772
3776
3780
3784
3788
3792
3796
3800
3804
3808
3812
3816
3820
3824
3828
3832
3836
3840
3844
3848
3852
3856
3860
3864
3868
3872
3876
3880
3884
3888
3892
3896
3900
3904
3908
3912
3916
3920
3924
3928
3932
3936
3940
3944
3948
3952
3956
3960
3964
3968
3972
3976
3980
3984
3988
3992
3996
4000
4004
4008
4012
4016
4020
4024
4028
4032
4036
4040
4044
4048
4052
4056
4060
4064
4068
4072
4076
4080
4084
4088
4092
4096
4100
4104
4108
4112
4116
4120
4124
4128
4132
4136
4140
4144
4148
4152
4156
4160
4164
4168
4172
4176
4180
4184
4188
4192
4196
4200
4204
4208
4212
4216
4220
4224
4228
4232
4236
4240
4244
4248
4252
4256
4260
4264
4268
4272
4276
4280
4284
4288
4292
4296
4300
4304
4308
4312
4316
4320
4324
4328
4332
4336
4340
4344
4348
4352
4356
4360
4364
4368
4372
4376
4380
4384
4388
4392
4396
4400
4404
4408
4412
4416
4420
4424
4428
4432
4436
4440
4444
4448
4452
4456
4460
4464
4468
4472
4476
4480
4484
4488
4492
4496
4500
4504
4508
4512
4516
4520
4524
4528
4532
4536
4540
4544
4548
4552
4556
4560
4564
4568
4572
4576
4580
4584
4588
4592
4596
4600
4604
4608
4612
4616
4620
4624
4628
4632
4636
4640
4644
4648
4652
4656
4660
4664
4668
4672
4676
4680
4684
4688
4692
4696
4700
4704
4708
4712
4716
4720
4724
4728
4732
4736
4740
4744
4748
4752
4756
4760
4764
4768
4772
4776
4780
4784
4788
4792
4796
4800
4804
4808
4812
4816
4820
4824
4828
4832
4836
4840
4844
4848
4852
4856
4860
4864
4868
4872
4876
4880
4884
4888
4892
4896
4900
4904
4908
4912
4916
4920
4924
4928
4932
4936
4940
4944
4948
4952
4956
4960
4964
4968
4972
4976
4980
4984
4988
4992
4996
5000
5004
5008
5012
5016
5020
5024
5028
5032
5036
5040
5044
5048
5052
5056
5060
5064
5068
5072
5076
5080
5084
5088
5092
5096
5100
5104
5108
5112
5116
5120
5124
5128
5132
5136
5140
5144
5148
5152
5156
5160
5164
5168
5172
5176
5180
5184
5188
5192
5196
5200
5204
5208
5212
5216
5220
5224
5228
5232
5236
5240
5244
5248
5252
5256
5260
5264
5268
5272
5276
5280
5284
5288
5292
5296
5300
5304
5308
5312
5316
5320
5324
5328
5332
5336
5340
5344
5348
5352
5356
5360
5364
5368
5372
5376
5380
5384
5388
5392
5396
5400
5404
5408
5412
5416
5420
5424
5428
5432
5436
5440
5444
5448
5452
5456
5460
5464
5468
5472
5476
5480
5484
5488
5492
5496
5500
5504
5508
5512
5516
5520
5524
5528
5532
5536
5540
5544
5548
5552
5556
5560
5564
5568
5572
5576
5580
5584
5588
5592
5596
5600
5604
5608
5612
5616
5620
5624
5628
5632
5636
5640
5644
5648
5652
5656
5660
5664
5668
5672
5676
5680
5684
5688
5692
5696
5700
5704
5708
5712
5716
5720
5724
5728
5732
5736
5740
5744
5748
5752
5756
5760
5764
5768
5772
5776
5780
5784
5788
5792
5796
5800
5804
5808
5812
5816
5820
5824
5828
5832
5836
5840
5844
5848
5852
5856
5860
5864
5868
5872
5876
5880
5884
5888
5892
5896
5900
5904
5908
5912
5916
5920
5924
5928
5932
5936
5940
5944
5948
5952
5956
5960
5964
5968
5972
5976
5980
5984
5988
5992
5996
6000
              </DataArray>   
              <DataArray type="UInt8" Name="types" format="ascii">   
10
10
10
10
10
10
10
10
10
10
10
10
10
10
10
10
10
10
10
10
10
10
10
10
10
10
10
10
10
10
10
10
10
10
10
10
10
10
10
10
10
10
10
10
10
10
10
10
10
10
10
10
10
10
10
10
10
10
10
10
10
10
10
10
10
10
10
10
10
10
10
10
10
10
10
10
10
10
10
10
10
10
10
10
10
10
10
10
10
10
10
10
10
10
10
10
10
10
10
10
10
10
10
10
10
10
10
10
10
10
10
10
10
10
10
10
10
10
10
10
10
10
10
10
10
10
10
10
10
10
10
10
10
10
10
10
10
10
10
10
10
10
10
10
10
10
10
10
10
10
10
10
10
10
10
10
10
10
10
10
10
10
10
10
10
10
10
10
10
10
10
10
10
10
10
10
10
10
10
10
10
10
10
10
10
10
10
10
10
10
10
10
10
10
10
10
10
10
10
10
10
10
10
10
10
10
10
10
10
10
10
10
10
10
10
10
10
10
10
10
10
10
10
10
10
10
10
10
10
10
10
10
10
10
10
10
10
10
10
10
10
10
10
10
10
10
10
10
10
10
10
10
10
10
10
10
10
10
10
10
10
10
10
10
10
10
10
10
10
10
10
10
10
10
10
10
10
10
10
10
10
10
10
10
10
10
10
10
10
10
10
10
10
10
10
10
10
10
10
10
10
10
10
10
10
10
10
10
10
10
10
10
10
10
10
10
10
10
10
10
10
10
10
10
10
10
10
10
10
10
10
10
10
10
10
10
10
10
10
10
10
10
10
10
10
10
10
10
10
10
10
10
10
10
10
10
10
10
10
10
10
10
10
10
10
10
10
10
10
10
10
10
10
10
10
10
10
10
10
10
10
10
10
10
10
10
10
10
10
10
10
10
10
10
10
10
10
10
10
10
10
10
10
10
10
10
10
10
10
10
10
10
10
10
10
10
10
10
10
10
10
10
10
10
10
10
10
10
10
10
10
10
10
10
10
10
10
10
10
10
10
10
10
10
10
10
10
10
10
10
10
10
10
10
10
10
10
10
10
10
10
10
10
10
10
10
10
10
10
10
10
10
10
10
10
10
10
10
10
10
10
10
10
10
10
10
10
10
10
10
10
10
10
10
10
10
10
10
10
10
10
10
10
10
10
10
10
10
10
10
10
10
10
10
10
10
10
10
10
10
10
10
10
10
10
10
10
10
10
10
10
10
10
10
10
10
10
10
10
10
10
10
10
10
10
10
10
10
10
10
10
10
10
10
10
10
10
10
10
10
10
10
10
10
10
10
10
10
10
10
10
10
10
10
10
10
10
10
10
10
10
10
10
10
10
10
10
10
10
10
10
10
10
10
10
10
10
10
10
10
10
10
10
10
10
10
10
10
10
10
10
10
10
10
10
10
10
10
10
10
10
10
10
10
10
10
10
10
10
10
10
10
10
10
10
10
10
10
10
10
10
10
10
10
10
10
10
10
10
10
10
10
10
10
10
10
10
10
10
10
10
10
10
10
10
10
10
10
10
10
10
10
10
10
10
10
10
10
10
10
10
10
10
10
10
10
10
10
10
10
10
10
10
10
10
10
10
10
10
10
10
10
10
10
10
10
10
10
10
10
10
10
10
10
10
10
10
10
10
10
10
10
10
10
10
10
10
10
10
10
10
10
10
10
10
10
10
10
10
10
10
10
10
10
10
10
10
10
10
10
10
10
10
10
10
10
10
10
10
10
10
10
10
10
10
10
10
10
10
10
10
10
10
10
10
10
10
10
10
10
10
10
10
10
10
10
10
10
10
10
10
10
10
10
10
10
10
10
10
10
10
10
10
10
10
10
10
10
10
10
10
10
10
10
10
10
10
10
10
10
10
10
10
10
10
10
10
10
10
10
10
10
10
10
10
10
10
10
10
10
10
10
10
10
10
10
10
10
10
10
10
10
10
10
10
10
10
10
10
10
10
10
10
10
10
10
10
10
10
10
10
10
10
10
10
10
10
10
10
10
10
10
10
10
10
10
10
10
10
10
10
10
10
10
10
10
10
10
10
10
10
10
10
10
10
10
10
10
10
10
10
10
10
10
10
10
10
10
10
10
10
10
10
10
10
10
10
10
10
10
10
10
10
10
10
10
10
10
10
10
10
10
10
10
10
10
10
10
10
10
10
10
10
10
10
10
10
10
10
10
10
10
10
10
10
10
10
10
10
10
10
10
10
10
10
10
10
10
10
10
10
10
10
10
10
10
10
10
10
10
10
10
10
10
10
10
10
10
10
10
10
10
10
10
10
10
10
10
10
10
10
10
10
10
10
10
10
10
10
10
10
10
10
10
10
10
10
10
10
10
10
10
10
10
10
10
10
10
10
10
10
10
10
10
10
10
10
10
10
10
10
10
10
10
10
10
10
10
10
10
10
10
10
10
10
10
10
10
10
10
10
10
10
10
10
10
10
10
10
10
10
10
10
10
10
10
10
10
10
10
10
10
10
10
10
10
10
10
10
10
10
10
10
10
10
10
10
10
10
10
10
10
10
10
10
10
10
10
10
10
10
10
10
10
10
10
10
10
10
10
10
10
10
10
10
10
10
10
10
10
10
10
10
10
10
10
10
10
10
10
10
10
10
10
10
10
10
10
10
10
10
10
10
10
10
10
10
10
10
10
10
10
10
10
10
10
10
10
10
10
10
10
10
10
10
10
10
10
10
10
10
10
10
10
10
10
10
10
10
10
10
10
10
10
10
10
10
10
10
10
10
10
10
10
10
10
10
10
10
10
10
10
10
10
10
10
10
10
10
10
10
10
10
10
10
10
10
10
10
10
10
10
10
10
10
10
10
10
10
10
10
10
10
10
10
10
10
10
10
10
10
10
10
10
10
10
10
10
10
10
10
10
10
10
10
10
10
10
10
10
10
10
10
10
10
10
10
10
10
10
10
10
10
10
10
10
10
10
10
10
10
10
10
10
10
10
10
10
10
10
10
10
10
10
10
10
10
10
10
10
10
10
10
10
10
10
10
10
10
10
10
10
10
10
10
10
10
10
10
10
10
10
10
10
10
10
10
10
10
10
10
10
10
10
10
10
10
10
10
10
10
10
10
10
10
10
10
10
10
10
10
10
10
10
10
10
10
10
10
10
10
10
10
10
10
10
10
10
10
10
10
10
10
10
10
10
10
10
10
10
10
10
10
10
10
10
10
10
10
10
10
10
10
10
10
10
10
10
10
10
10
10
10
10
10
10
10
10
10
10
10
10
10
10
10
10
10
10
10
10
10
10
10
10
10
10
10
10
10
10
10
10
10
10
10
10
10
10
10
10
10
10
10
10
10
10
10
10
10
10
10
10
10
10
10
10
10
10
10
10
10
10
10
10
10
10
10
10
10
10
10
10
10
10
10
10
10
10
10
10
              </DataArray>   
          </Cells>  
          <PointData>  
             <DataArray type="Float64" NumberOfComponents="3" Name="Strains" format="ascii">   
-8.811470777282807e-05   0.0   -5.7847620113455286e-05
-8.811470777282807e-05   0.0   -5.7847620113455286e-05
-8.811470777282807e-05   0.0   -5.7847620113455286e-05
-8.811470777282807e-05   0.0   -5.7847620113455286e-05
-5.6067336866101864e-05   9.759060494663775e-06   1.4201010278865604e-06
-5.6067336866101864e-05   9.759060494663775e-06   1.4201010278865604e-06
-5.6067336866101864e-05   9.759060494663775e-06   1.4201010278865604e-06
-5.6067336866101864e-05   9.759060494663775e-06   1.4201010278865604e-06
-5.495745030111176e-05   0.0   -5.459908309714371e-05
-5.495745030111176e-05   0.0   -5.459908309714371e-05
-5.495745030111176e-05   0.0   -5.459908309714371e-05
-5.495745030111176e-05   0.0   -5.459908309714371e-05
-9.221490587969279e-05   1.1712495372744343e-05   4.691789768449667e-07
-9.221490587969279e-05   1.1712495372744343e-05   4.691789768449667e-07
-9.221490587969279e-05   1.1712495372744343e-05   4.691789768449667e-07
-9.221490587969279e-05   1.1712495372744343e-05   4.691789768449667e-07
-7.15360790369698e-05   2.707114180259641e-06   -2.8592303712202496e-05
-7.15360790369698e-05   2.707114180259641e-06   -2.8592303712202496e-05
-7.15360790369698e-05   2.707114180259641e-06   -2.8592303712202496e-05
-7.15360790369698e-05   2.707114180259641e-06   -2.8592303712202496e-05
-9.221490587969295e-05   0.0   -6.162658032079033e-05
-9.221490587969295e-05   0.0   -6.162658032079033e-05
-9.221490587969295e-05   0.0   -6.162658032079033e-05
-9.221490587969295e-05   0.0   -6.162658032079033e-05
-5.495745030111176e-05   1.1712495372744356e-05   7.4966762004915804e-06
-5.495745030111176e-05   1.1712495372744356e-05   7.4966762004915804e-06
-5.495745030111176e-05   1.1712495372744356e-05   7.4966762004915804e-06
-5.495745030111176e-05   1.1712495372744356e-05   7.4966762004915804e-06
-5.511129806235464e-05   0.0   -5.593516943382122e-05
-5.511129806235464e-05   0.0   -5.593516943382122e-05
-5.511129806235464e-05   0.0   -5.593516943382122e-05
-5.511129806235464e-05   0.0   -5.593516943382122e-05
-9.509391057787975e-05   1.254847966888682e-05   3.173430290722139e-06
-9.509391057787975e-05   1.254847966888682e-05   3.173430290722139e-06
-9.509391057787975e-05   1.254847966888682e-05   3.173430290722139e-06
-9.509391057787975e-05   1.254847966888682e-05   3.173430290722139e-06
-7.366310197102367e-05   4.742842405807589e-06   -2.786120169619044e-05
-7.366310197102367e-05   4.742842405807589e-06   -2.786120169619044e-05
-7.366310197102367e-05   4.742842405807589e-06   -2.786120169619044e-05
-7.366310197102367e-05   4.742842405807589e-06   -2.786120169619044e-05
-9.509391057787992e-05   0.0   -6.346425723515332e-05
-9.509391057787992e-05   0.0   -6.346425723515332e-05
-9.509391057787992e-05   0.0   -6.346425723515332e-05
-9.509391057787992e-05   0.0   -6.346425723515332e-05
-5.5111298062354544e-05   1.254847966888682e-05   1.0702518092054223e-05
-5.5111298062354544e-05   1.254847966888682e-05   1.0702518092054223e-05
-5.5111298062354544e-05   1.254847966888682e-05   1.0702518092054223e-05
-5.5111298062354544e-05   1.254847966888682e-05   1.0702518092054223e-05
-5.508104302366083e-05   0.0   -5.6278670412890654e-05
-5.508104302366083e-05   0.0   -5.6278670412890654e-05
-5.508104302366083e-05   0.0   -5.6278670412890654e-05
-5.508104302366083e-05   0.0   -5.6278670412890654e-05
-0.00010129721312654326   1.4296246229895834e-05   1.2170532020642778e-05
-0.00010129721312654326   1.4296246229895834e-05   1.2170532020642778e-05
-0.00010129721312654326   1.4296246229895834e-05   1.2170532020642778e-05
-0.00010129721312654326   1.4296246229895834e-05   1.2170532020642778e-05
-7.508747680077025e-05   5.987989018552218e-06   -2.652740752883934e-05
-7.508747680077025e-05   5.987989018552218e-06   -2.652740752883934e-05
-7.508747680077025e-05   5.987989018552218e-06   -2.652740752883934e-05
-7.508747680077025e-05   5.987989018552218e-06   -2.652740752883934e-05
-5.606733686610196e-05   0.0   -5.199218381665701e-05
-5.606733686610196e-05   0.0   -5.199218381665701e-05
-5.606733686610196e-05   0.0   -5.199218381665701e-05
-5.606733686610196e-05   0.0   -5.199218381665701e-05
-2.5534689006919417e-05   3.578784418787587e-06   1.0428332665864015e-06
-2.5534689006919417e-05   3.578784418787587e-06   1.0428332665864015e-06
-2.5534689006919417e-05   3.578784418787587e-06   1.0428332665864015e-06
-2.5534689006919417e-05   3.578784418787587e-06   1.0428332665864015e-06
-2.455778962996613e-05   0.0   -5.154156849151418e-05
-2.455778962996613e-05   0.0   -5.154156849151418e-05
-2.455778962996613e-05   0.0   -5.154156849151418e-05
-2.455778962996613e-05   0.0   -5.154156849151418e-05
-5.495745030111176e-05   5.095857676049083e-06   -3.932981978567744e-06
-5.495745030111176e-05   5.095857676049083e-06   -3.932981978567744e-06
-5.495745030111176e-05   5.095857676049083e-06   -3.932981978567744e-06
-5.495745030111176e-05   5.095857676049083e-06   -3.932981978567744e-06
-4.0312563248034e-05   3.755127709522882e-07   -2.550892012397242e-05
-4.0312563248034e-05   3.755127709522882e-07   -2.550892012397242e-05
-4.0312563248034e-05   3.755127709522882e-07   -2.550892012397242e-05
-4.0312563248034e-05   3.755127709522882e-07   -2.550892012397242e-05
-5.4957450301111715e-05   0.0   -5.4599083097143665e-05
-5.4957450301111715e-05   0.0   -5.4599083097143665e-05
-5.4957450301111715e-05   0.0   -5.4599083097143665e-05
-5.4957450301111715e-05   0.0   -5.4599083097143665e-05
-2.455778962996613e-05   5.095857676049083e-06   -8.754673729382848e-07
-2.455778962996613e-05   5.095857676049083e-06   -8.754673729382848e-07
-2.455778962996613e-05   5.095857676049083e-06   -8.754673729382848e-07
-2.455778962996613e-05   5.095857676049083e-06   -8.754673729382848e-07
-2.4008666051393565e-05   0.0   -5.218831806579377e-05
-2.4008666051393565e-05   0.0   -5.218831806579377e-05
-2.4008666051393565e-05   0.0   -5.218831806579377e-05
-2.4008666051393565e-05   0.0   -5.218831806579377e-05
-5.511129806235464e-05   6.244752280045606e-06   -4.097449415552839e-06
-5.511129806235464e-05   6.244752280045606e-06   -4.097449415552839e-06
-5.511129806235464e-05   6.244752280045606e-06   -4.097449415552839e-06
-5.511129806235464e-05   6.244752280045606e-06   -4.097449415552839e-06
-3.948305817625261e-05   2.0089708594582076e-06   -2.76030470400369e-05
-3.948305817625261e-05   2.0089708594582076e-06   -2.76030470400369e-05
-3.948305817625261e-05   2.0089708594582076e-06   -2.76030470400369e-05
-3.948305817625261e-05   2.0089708594582076e-06   -2.76030470400369e-05
-5.511129806235464e-05   0.0   -5.593516943382122e-05
-5.511129806235464e-05   0.0   -5.593516943382122e-05
-5.511129806235464e-05   0.0   -5.593516943382122e-05
-5.511129806235464e-05   0.0   -5.593516943382122e-05
-2.4008666051393605e-05   6.244752280045606e-06   -3.505980475254847e-07
-2.4008666051393605e-05   6.244752280045606e-06   -3.505980475254847e-07
-2.4008666051393605e-05   6.244752280045606e-06   -3.505980475254847e-07
-2.4008666051393605e-05   6.244752280045606e-06   -3.505980475254847e-07
-2.3508457373623417e-05   0.0   -5.1918609024737136e-05
-2.3508457373623417e-05   0.0   -5.1918609024737136e-05
-2.3508457373623417e-05   0.0   -5.1918609024737136e-05
-2.3508457373623417e-05   0.0   -5.1918609024737136e-05
-5.508104302366078e-05   7.266768980255782e-06   -3.65769432949495e-06
-5.508104302366078e-05   7.266768980255782e-06   -3.65769432949495e-06
-5.508104302366078e-05   7.266768980255782e-06   -3.65769432949495e-06
-5.508104302366078e-05   7.266768980255782e-06   -3.65769432949495e-06
-3.9309877717989014e-05   3.3471336742366988e-06   -2.7591188655336494e-05
-3.9309877717989014e-05   3.3471336742366988e-06   -2.7591188655336494e-05
-3.9309877717989014e-05   3.3471336742366988e-06   -2.7591188655336494e-05
-3.9309877717989014e-05   3.3471336742366988e-06   -2.7591188655336494e-05
-2.553468900691946e-05   0.0   -4.984491316538446e-05
-2.553468900691946e-05   0.0   -4.984491316538446e-05
-2.553468900691946e-05   0.0   -4.984491316538446e-05
-2.553468900691946e-05   0.0   -4.984491316538446e-05
3.3119515204465262e-06   -4.5883749773857347e-07   -2.0424814517509134e-06
3.3119515204465262e-06   -4.5883749773857347e-07   -2.0424814517509134e-06
3.3119515204465262e-06   -4.5883749773857347e-07   -2.0424814517509134e-06
3.3119515204465262e-06   -4.5883749773857347e-07   -2.0424814517509134e-06
3.936034150391459e-06   0.0   -5.099942451445925e-05
3.936034150391459e-06   0.0   -5.099942451445925e-05
3.936034150391459e-06   0.0   -5.099942451445925e-05
3.936034150391459e-06   0.0   -5.099942451445925e-05
-2.455778962996613e-05   9.035732950914003e-07   -4.051862190918194e-06
-2.455778962996613e-05   9.035732950914003e-07   -4.051862190918194e-06
-2.455778962996613e-05   9.035732950914003e-07   -4.051862190918194e-06
-2.455778962996613e-05   9.035732950914003e-07   -4.051862190918194e-06
-1.0799327428263975e-05   -9.620927908957983e-07   -2.58632328754961e-05
-1.0799327428263975e-05   -9.620927908957983e-07   -2.58632328754961e-05
-1.0799327428263975e-05   -9.620927908957983e-07   -2.58632328754961e-05
-1.0799327428263975e-05   -9.620927908957983e-07   -2.58632328754961e-05
-2.455778962996617e-05   0.0   -5.1541568491514267e-05
-2.455778962996617e-05   0.0   -5.1541568491514267e-05
-2.455778962996617e-05   0.0   -5.1541568491514267e-05
-2.455778962996617e-05   0.0   -5.1541568491514267e-05
3.936034150391466e-06   9.035732950914003e-07   -3.5097182138633514e-06
3.936034150391466e-06   9.035732950914003e-07   -3.5097182138633514e-06
3.936034150391466e-06   9.035732950914003e-07   -3.5097182138633514e-06
3.936034150391466e-06   9.035732950914003e-07   -3.5097182138633514e-06
4.4287506609092645e-06   0.0   -5.0926374449467804e-05
4.4287506609092645e-06   0.0   -5.0926374449467804e-05
4.4287506609092645e-06   0.0   -5.0926374449467804e-05
4.4287506609092645e-06   0.0   -5.0926374449467804e-05
-2.4008666051393524e-05   2.1032393605432845e-06   -4.7926235452890625e-06
-2.4008666051393524e-05   2.1032393605432845e-06   -4.7926235452890625e-06
-2.4008666051393524e-05   2.1032393605432845e-06   -4.7926235452890625e-06
-2.4008666051393524e-05   2.1032393605432845e-06   -4.7926235452890625e-06
-1.0064519484528432e-05   5.126617017053151e-07   -2.7078521228094815e-05
-1.0064519484528432e-05   5.126617017053151e-07   -2.7078521228094815e-05
-1.0064519484528432e-05   5.126617017053151e-07   -2.7078521228094815e-05
-1.0064519484528432e-05   5.126617017053151e-07   -2.7078521228094815e-05
-2.4008666051393605e-05   0.0   -5.2188318065793866e-05
-2.4008666051393605e-05   0.0   -5.2188318065793866e-05
-2.4008666051393605e-05   0.0   -5.2188318065793866e-05
-2.4008666051393605e-05   0.0   -5.2188318065793866e-05
4.428750660909272e-06   2.103239360543271e-06   -3.530679928963102e-06
4.428750660909272e-06   2.103239360543271e-06   -3.530679928963102e-06
4.428750660909272e-06   2.103239360543271e-06   -3.530679928963102e-06
4.428750660909272e-06   2.103239360543271e-06   -3.530679928963102e-06
5.091323994775156e-06   0.0   -4.982299471603265e-05
5.091323994775156e-06   0.0   -4.982299471603265e-05
5.091323994775156e-06   0.0   -4.982299471603265e-05
5.091323994775156e-06   0.0   -4.982299471603265e-05
-2.3508457373623397e-05   3.492690514507403e-06   -4.252306744072843e-06
-2.3508457373623397e-05   3.492690514507403e-06   -4.252306744072843e-06
-2.3508457373623397e-05   3.492690514507403e-06   -4.252306744072843e-06
-2.3508457373623397e-05   3.492690514507403e-06   -4.252306744072843e-06
-9.458671028309205e-06   1.971102791467604e-06   -2.6755664685772592e-05
-9.458671028309205e-06   1.971102791467604e-06   -2.6755664685772592e-05
-9.458671028309205e-06   1.971102791467604e-06   -2.6755664685772592e-05
-9.458671028309205e-06   1.971102791467604e-06   -2.6755664685772592e-05
3.311951520446532e-06   0.0   -5.012021566402761e-05
3.311951520446532e-06   0.0   -5.012021566402761e-05
3.311951520446532e-06   0.0   -5.012021566402761e-05
3.311951520446532e-06   0.0   -5.012021566402761e-05
3.462551490354415e-05   -4.061225247405635e-06   -3.6767850730826573e-07
3.462551490354415e-05   -4.061225247405635e-06   -3.6767850730826573e-07
3.462551490354415e-05   -4.061225247405635e-06   -3.6767850730826573e-07
3.462551490354415e-05   -4.061225247405635e-06   -3.6767850730826573e-07
3.468799026798434e-05   0.0   -5.2836207224242e-05
3.468799026798434e-05   0.0   -5.2836207224242e-05
3.468799026798434e-05   0.0   -5.2836207224242e-05
3.468799026798434e-05   0.0   -5.2836207224242e-05
3.936034150391473e-06   -3.0613045163043064e-06   2.538356815286783e-07
3.936034150391473e-06   -3.0613045163043064e-06   2.538356815286783e-07
3.936034150391473e-06   -3.0613045163043064e-06   2.538356815286783e-07
3.936034150391473e-06   -3.0613045163043064e-06   2.538356815286783e-07
1.8999970894215436e-05   -2.263326300178658e-06   -2.533151248785328e-05
1.8999970894215436e-05   -2.263326300178658e-06   -2.533151248785328e-05
1.8999970894215436e-05   -2.263326300178658e-06   -2.533151248785328e-05
1.8999970894215436e-05   -2.263326300178658e-06   -2.533151248785328e-05
3.936034150391473e-06   0.0   -5.0999424514459424e-05
3.936034150391473e-06   0.0   -5.0999424514459424e-05
3.936034150391473e-06   0.0   -5.0999424514459424e-05
3.936034150391473e-06   0.0   -5.0999424514459424e-05
3.468799026798434e-05   -3.0613045163043064e-06   -1.5829470282538986e-06
3.468799026798434e-05   -3.0613045163043064e-06   -1.5829470282538986e-06
3.468799026798434e-05   -3.0613045163043064e-06   -1.5829470282538986e-06
3.468799026798434e-05   -3.0613045163043064e-06   -1.5829470282538986e-06
3.454020686997821e-05   0.0   -5.208173262049004e-05
3.454020686997821e-05   0.0   -5.208173262049004e-05
3.454020686997821e-05   0.0   -5.208173262049004e-05
3.454020686997821e-05   0.0   -5.208173262049004e-05
4.428750660909272e-06   -1.925596951703583e-06   -7.406141010196736e-07
4.428750660909272e-06   -1.925596951703583e-06   -7.406141010196736e-07
4.428750660909272e-06   -1.925596951703583e-06   -7.406141010196736e-07
4.428750660909272e-06   -1.925596951703583e-06   -7.406141010196736e-07
1.923812051018484e-05   -9.019234216921834e-07   -2.6037101301152432e-05
1.923812051018484e-05   -9.019234216921834e-07   -2.6037101301152432e-05
1.923812051018484e-05   -9.019234216921834e-07   -2.6037101301152432e-05
1.923812051018484e-05   -9.019234216921834e-07   -2.6037101301152432e-05
4.428750660909268e-06   0.0   -5.092637444946785e-05
4.428750660909268e-06   0.0   -5.092637444946785e-05
4.428750660909268e-06   0.0   -5.092637444946785e-05
4.428750660909268e-06   0.0   -5.092637444946785e-05
3.454020686997821e-05   -1.925596951703583e-06   -1.8959722720418226e-06
3.454020686997821e-05   -1.925596951703583e-06   -1.8959722720418226e-06
3.454020686997821e-05   -1.925596951703583e-06   -1.8959722720418226e-06
3.454020686997821e-05   -1.925596951703583e-06   -1.8959722720418226e-06
3.520989644507628e-05   0.0   -5.00626989839989e-05
3.520989644507628e-05   0.0   -5.00626989839989e-05
3.520989644507628e-05   0.0   -5.00626989839989e-05
3.520989644507628e-05   0.0   -5.00626989839989e-05
5.091323994775165e-06   -3.995071132769425e-07   3.7462603446911054e-07
5.091323994775165e-06   -3.995071132769425e-07   3.7462603446911054e-07
5.091323994775165e-06   -3.995071132769425e-07   3.7462603446911054e-07
5.091323994775165e-06   -3.995071132769425e-07   3.7462603446911054e-07
1.981932355299276e-05   7.197295545574971e-07   -2.4843581896594185e-05
1.981932355299276e-05   7.197295545574971e-07   -2.4843581896594185e-05
1.981932355299276e-05   7.197295545574971e-07   -2.4843581896594185e-05
1.981932355299276e-05   7.197295545574971e-07   -2.4843581896594185e-05
3.462551490354415e-05   0.0   -5.255695081247099e-05
3.462551490354415e-05   0.0   -5.255695081247099e-05
3.462551490354415e-05   0.0   -5.255695081247099e-05
3.462551490354415e-05   0.0   -5.255695081247099e-05
7.817683139686135e-05   -1.0295796335177347e-05   1.3851098875285048e-05
7.817683139686135e-05   -1.0295796335177347e-05   1.3851098875285048e-05
7.817683139686135e-05   -1.0295796335177347e-05   1.3851098875285048e-05
7.817683139686135e-05   -1.0295796335177347e-05   1.3851098875285048e-05
7.342183676005346e-05   0.0   -5.8091970913345554e-05
7.342183676005346e-05   0.0   -5.8091970913345554e-05
7.342183676005346e-05   0.0   -5.8091970913345554e-05
7.342183676005346e-05   0.0   -5.8091970913345554e-05
3.468799026798434e-05   -8.759606148505916e-06   1.1720203595873182e-05
3.468799026798434e-05   -8.759606148505916e-06   1.1720203595873182e-05
3.468799026798434e-05   -8.759606148505916e-06   1.1720203595873182e-05
3.468799026798434e-05   -8.759606148505916e-06   1.1720203595873182e-05
5.40236758317988e-05   -4.612516750728805e-06   -2.2994192649150488e-05
5.40236758317988e-05   -4.612516750728805e-06   -2.2994192649150488e-05
5.40236758317988e-05   -4.612516750728805e-06   -2.2994192649150488e-05
5.40236758317988e-05   -4.612516750728805e-06   -2.2994192649150488e-05
3.468799026798431e-05   0.0   -5.283620722424196e-05
3.468799026798431e-05   0.0   -5.283620722424196e-05
3.468799026798431e-05   0.0   -5.283620722424196e-05
3.468799026798431e-05   0.0   -5.283620722424196e-05
7.34218367600532e-05   -8.759606148505889e-06   6.464439906769606e-06
7.34218367600532e-05   -8.759606148505889e-06   6.464439906769606e-06
7.34218367600532e-05   -8.759606148505889e-06   6.464439906769606e-06
7.34218367600532e-05   -8.759606148505889e-06   6.464439906769606e-06
7.122947103040795e-05   0.0   -5.688421559955728e-05
7.122947103040795e-05   0.0   -5.688421559955728e-05
7.122947103040795e-05   0.0   -5.688421559955728e-05
7.122947103040795e-05   0.0   -5.688421559955728e-05
3.454020686997821e-05   -8.004138298445382e-06   9.067040980226197e-06
3.454020686997821e-05   -8.004138298445382e-06   9.067040980226197e-06
3.454020686997821e-05   -8.004138298445382e-06   9.067040980226197e-06
3.454020686997821e-05   -8.004138298445382e-06   9.067040980226197e-06
5.295873064919612e-05   -3.3733403127627346e-06   -2.440897744321325e-05
5.295873064919612e-05   -3.3733403127627346e-06   -2.440897744321325e-05
5.295873064919612e-05   -3.3733403127627346e-06   -2.440897744321325e-05
5.295873064919612e-05   -3.3733403127627346e-06   -2.440897744321325e-05
3.454020686997821e-05   0.0   -5.208173262049004e-05
3.454020686997821e-05   0.0   -5.208173262049004e-05
3.454020686997821e-05   0.0   -5.208173262049004e-05
3.454020686997821e-05   0.0   -5.208173262049004e-05
7.12294710304077e-05   -8.004138298445355e-06   4.264558001158936e-06
7.12294710304077e-05   -8.004138298445355e-06   4.264558001158936e-06
7.12294710304077e-05   -8.004138298445355e-06   4.264558001158936e-06
7.12294710304077e-05   -8.004138298445355e-06   4.264558001158936e-06
6.79651097890134e-05   0.0   -5.379496724955906e-05
6.79651097890134e-05   0.0   -5.379496724955906e-05
6.79651097890134e-05   0.0   -5.379496724955906e-05
6.79651097890134e-05   0.0   -5.379496724955906e-05
3.520989644507622e-05   -6.220447109266919e-06   4.529323255896304e-06
3.520989644507622e-05   -6.220447109266919e-06   4.529323255896304e-06
3.520989644507622e-05   -6.220447109266919e-06   4.529323255896304e-06
3.520989644507622e-05   -6.220447109266919e-06   4.529323255896304e-06
5.1252658329495806e-05   -1.4276955242241776e-06   -2.5084264169161873e-05
5.1252658329495806e-05   -1.4276955242241776e-06   -2.5084264169161873e-05
5.1252658329495806e-05   -1.4276955242241776e-06   -2.5084264169161873e-05
5.1252658329495806e-05   -1.4276955242241776e-06   -2.5084264169161873e-05
-7.643886827158392e-05   9.759060494663762e-06   -5.016559748321896e-05
-7.643886827158392e-05   9.759060494663762e-06   -5.016559748321896e-05
-7.643886827158392e-05   9.759060494663762e-06   -5.016559748321896e-05
-7.643886827158392e-05   9.759060494663762e-06   -5.016559748321896e-05
-4.8959655016757905e-05   8.775358717541765e-06   -4.957129791448788e-06
-4.8959655016757905e-05   8.775358717541765e-06   -4.957129791448788e-06
-4.8959655016757905e-05   8.775358717541765e-06   -4.957129791448788e-06
-4.8959655016757905e-05   8.775358717541765e-06   -4.957129791448788e-06
-5.019106276975286e-05   1.171249537274433e-05   -4.213216676480415e-05
-5.019106276975286e-05   1.171249537274433e-05   -4.213216676480415e-05
-5.019106276975286e-05   1.171249537274433e-05   -4.213216676480415e-05
-5.019106276975286e-05   1.171249537274433e-05   -4.213216676480415e-05
-7.726540999114688e-05   1.0533150461824927e-05   3.6993522174042425e-06
-7.726540999114688e-05   1.0533150461824927e-05   3.6993522174042425e-06
-7.726540999114688e-05   1.0533150461824927e-05   3.6993522174042425e-06
-7.726540999114688e-05   1.0533150461824927e-05   3.6993522174042425e-06
-6.0709923184740965e-05   1.0194074821473308e-05   -2.3689680409061473e-05
-6.0709923184740965e-05   1.0194074821473308e-05   -2.3689680409061473e-05
-6.0709923184740965e-05   1.0194074821473308e-05   -2.3689680409061473e-05
-6.0709923184740965e-05   1.0194074821473308e-05   -2.3689680409061473e-05
-7.726540999114688e-05   1.171249537274433e-05   -4.142455981825245e-05
-7.726540999114688e-05   1.171249537274433e-05   -4.142455981825245e-05
-7.726540999114688e-05   1.171249537274433e-05   -4.142455981825245e-05
-7.726540999114688e-05   1.171249537274433e-05   -4.142455981825245e-05
-5.019106276975303e-05   1.0533150461824927e-05   2.9917452708527205e-06
-5.019106276975303e-05   1.0533150461824927e-05   2.9917452708527205e-06
-5.019106276975303e-05   1.0533150461824927e-05   2.9917452708527205e-06
-5.019106276975303e-05   1.0533150461824927e-05   2.9917452708527205e-06
-5.044858051922882e-05   1.2548479668886793e-05   -3.7880049813187114e-05
-5.044858051922882e-05   1.2548479668886793e-05   -3.7880049813187114e-05
-5.044858051922882e-05   1.2548479668886793e-05   -3.7880049813187114e-05
-5.044858051922882e-05   1.2548479668886793e-05   -3.7880049813187114e-05
-7.780838548764121e-05   1.1326518162862803e-05   8.45280203778118e-06
-7.780838548764121e-05   1.1326518162862803e-05   8.45280203778118e-06
-7.780838548764121e-05   1.1326518162862803e-05   8.45280203778118e-06
-7.780838548764121e-05   1.1326518162862803e-05   8.45280203778118e-06
-6.249441678671591e-05   1.1299305668169935e-05   -1.7054151633611988e-05
-6.249441678671591e-05   1.1299305668169935e-05   -1.7054151633611988e-05
-6.249441678671591e-05   1.1299305668169935e-05   -1.7054151633611988e-05
-6.249441678671591e-05   1.1299305668169935e-05   -1.7054151633611988e-05
-7.780838548764121e-05   1.2548479668886793e-05   -3.7146872909572736e-05
-7.780838548764121e-05   1.2548479668886793e-05   -3.7146872909572736e-05
-7.780838548764121e-05   1.2548479668886793e-05   -3.7146872909572736e-05
-7.780838548764121e-05   1.2548479668886793e-05   -3.7146872909572736e-05
-5.0448580519228915e-05   1.1326518162862803e-05   7.719625134166815e-06
-5.0448580519228915e-05   1.1326518162862803e-05   7.719625134166815e-06
-5.0448580519228915e-05   1.1326518162862803e-05   7.719625134166815e-06
-5.0448580519228915e-05   1.1326518162862803e-05   7.719625134166815e-06
-5.0161489378012096e-05   1.429624622989582e-05   -2.7991422029096535e-05
-5.0161489378012096e-05   1.429624622989582e-05   -2.7991422029096535e-05
-5.0161489378012096e-05   1.429624622989582e-05   -2.7991422029096535e-05
-5.0161489378012096e-05   1.429624622989582e-05   -2.7991422029096535e-05
-7.564960996353142e-05   1.1957770415402908e-05   1.5891864435464535e-05
-7.564960996353142e-05   1.1957770415402908e-05   1.5891864435464535e-05
-7.564960996353142e-05   1.1957770415402908e-05   1.5891864435464535e-05
-7.564960996353142e-05   1.1957770415402908e-05   1.5891864435464535e-05
-6.08681586391481e-05   1.239418647845856e-05   -9.00573740967431e-06
-6.08681586391481e-05   1.239418647845856e-05   -9.00573740967431e-06
-6.08681586391481e-05   1.239418647845856e-05   -9.00573740967431e-06
-6.08681586391481e-05   1.239418647845856e-05   -9.00573740967431e-06
-4.8959655016757905e-05   3.5787844187875733e-06   -5.328035696206486e-05
-4.8959655016757905e-05   3.5787844187875733e-06   -5.328035696206486e-05
-4.8959655016757905e-05   3.5787844187875733e-06   -5.328035696206486e-05
-4.8959655016757905e-05   3.5787844187875733e-06   -5.328035696206486e-05
-2.3201972640584844e-05   4.0833345839712005e-06   -1.0048156235999523e-05
-2.3201972640584844e-05   4.0833345839712005e-06   -1.0048156235999523e-05
-2.3201972640584844e-05   4.0833345839712005e-06   -1.0048156235999523e-05
-2.3201972640584844e-05   4.0833345839712005e-06   -1.0048156235999523e-05
-2.3755845600972526e-05   5.0958576760490695e-06   -5.319950683435148e-05
-2.3755845600972526e-05   5.0958576760490695e-06   -5.319950683435148e-05
-2.3755845600972526e-05   5.0958576760490695e-06   -5.319950683435148e-05
-2.3755845600972526e-05   5.0958576760490695e-06   -5.319950683435148e-05
-5.019106276975286e-05   5.699721191902327e-06   -9.503129662562758e-06
-5.019106276975286e-05   5.699721191902327e-06   -9.503129662562758e-06
-5.019106276975286e-05   5.699721191902327e-06   -9.503129662562758e-06
-5.019106276975286e-05   5.699721191902327e-06   -9.503129662562758e-06
-3.6424243902883705e-05   4.589400581675218e-06   -3.1781635407875214e-05
-3.6424243902883705e-05   4.589400581675218e-06   -3.1781635407875214e-05
-3.6424243902883705e-05   4.589400581675218e-06   -3.1781635407875214e-05
-3.6424243902883705e-05   4.589400581675218e-06   -3.1781635407875214e-05
-5.019106276975281e-05   5.0958576760490695e-06   -5.356182494386331e-05
-5.019106276975281e-05   5.0958576760490695e-06   -5.356182494386331e-05
-5.019106276975281e-05   5.0958576760490695e-06   -5.356182494386331e-05
-5.019106276975281e-05   5.0958576760490695e-06   -5.356182494386331e-05
-2.3755845600972482e-05   5.699721191902382e-06   -9.14081155305067e-06
-2.3755845600972482e-05   5.699721191902382e-06   -9.14081155305067e-06
-2.3755845600972482e-05   5.699721191902382e-06   -9.14081155305067e-06
-2.3755845600972482e-05   5.699721191902382e-06   -9.14081155305067e-06
-2.3929811246649478e-05   6.244752280045593e-06   -5.220422647992732e-05
-2.3929811246649478e-05   6.244752280045593e-06   -5.220422647992732e-05
-2.3929811246649478e-05   6.244752280045593e-06   -5.220422647992732e-05
-2.3929811246649478e-05   6.244752280045593e-06   -5.220422647992732e-05
-5.044858051922882e-05   7.037737014823785e-06   -8.482068533161816e-06
-5.044858051922882e-05   7.037737014823785e-06   -8.482068533161816e-06
-5.044858051922882e-05   7.037737014823785e-06   -8.482068533161816e-06
-5.044858051922882e-05   7.037737014823785e-06   -8.482068533161816e-06
-3.670895133829347e-05   5.8252879482504954e-06   -3.0653981061443434e-05
-3.670895133829347e-05   5.8252879482504954e-06   -3.0653981061443434e-05
-3.670895133829347e-05   5.8252879482504954e-06   -3.0653981061443434e-05
-3.670895133829347e-05   5.8252879482504954e-06   -3.0653981061443434e-05
-5.044858051922882e-05   6.244752280045579e-06   -5.268001732079416e-05
-5.044858051922882e-05   6.244752280045579e-06   -5.268001732079416e-05
-5.044858051922882e-05   6.244752280045579e-06   -5.268001732079416e-05
-5.044858051922882e-05   6.244752280045579e-06   -5.268001732079416e-05
-2.392981124664952e-05   7.037737014823785e-06   -8.006277692295005e-06
-2.392981124664952e-05   7.037737014823785e-06   -8.006277692295005e-06
-2.392981124664952e-05   7.037737014823785e-06   -8.006277692295005e-06
-2.392981124664952e-05   7.037737014823785e-06   -8.006277692295005e-06
-2.3871365875745725e-05   7.266768980255782e-06   -5.1670985033148146e-05
-2.3871365875745725e-05   7.266768980255782e-06   -5.1670985033148146e-05
-2.3871365875745725e-05   7.266768980255782e-06   -5.1670985033148146e-05
-2.3871365875745725e-05   7.266768980255782e-06   -5.1670985033148146e-05
-5.016148937801213e-05   8.477454120295195e-06   -8.580523613394426e-06
-5.016148937801213e-05   8.477454120295195e-06   -8.580523613394426e-06
-5.016148937801213e-05   8.477454120295195e-06   -8.580523613394426e-06
-5.016148937801213e-05   8.477454120295195e-06   -8.580523613394426e-06
-3.6924996377949115e-05   6.943907482249642e-06   -2.9721217297338837e-05
-3.6924996377949115e-05   6.943907482249642e-06   -2.9721217297338837e-05
-3.6924996377949115e-05   6.943907482249642e-06   -2.9721217297338837e-05
-3.6924996377949115e-05   6.943907482249642e-06   -2.9721217297338837e-05
-2.3201972640584844e-05   -4.5883749773857347e-07   -5.5787639082648814e-05
-2.3201972640584844e-05   -4.5883749773857347e-07   -5.5787639082648814e-05
-2.3201972640584844e-05   -4.5883749773857347e-07   -5.5787639082648814e-05
-2.3201972640584844e-05   -4.5883749773857347e-07   -5.5787639082648814e-05
2.230714760954848e-06   -1.2183230463163556e-07   -1.3197623630885142e-05
2.230714760954848e-06   -1.2183230463163556e-07   -1.3197623630885142e-05
2.230714760954848e-06   -1.2183230463163556e-07   -1.3197623630885142e-05
2.230714760954848e-06   -1.2183230463163556e-07   -1.3197623630885142e-05
2.126145970193484e-06   9.035732950914138e-07   -5.6097561690481685e-05
2.126145970193484e-06   9.035732950914138e-07   -5.6097561690481685e-05
2.126145970193484e-06   9.035732950914138e-07   -5.6097561690481685e-05
2.126145970193484e-06   9.035732950914138e-07   -5.6097561690481685e-05
-2.3755845600972482e-05   1.367473231507477e-06   -1.3239249033721352e-05
-2.3755845600972482e-05   1.367473231507477e-06   -1.3239249033721352e-05
-2.3755845600972482e-05   1.367473231507477e-06   -1.3239249033721352e-05
-2.3755845600972482e-05   1.367473231507477e-06   -1.3239249033721352e-05
-1.0714321708699855e-05   4.541223185495417e-07   -3.44271116397343e-05
-1.0714321708699855e-05   4.541223185495417e-07   -3.44271116397343e-05
-1.0714321708699855e-05   4.541223185495417e-07   -3.44271116397343e-05
-1.0714321708699855e-05   4.541223185495417e-07   -3.44271116397343e-05
-2.3755845600972482e-05   9.035732950914138e-07   -5.637590165233132e-05
-2.3755845600972482e-05   9.035732950914138e-07   -5.637590165233132e-05
-2.3755845600972482e-05   9.035732950914138e-07   -5.637590165233132e-05
-2.3755845600972482e-05   9.035732950914138e-07   -5.637590165233132e-05
2.1261459701934873e-06   1.367473231507477e-06   -1.2960909071871651e-05
2.1261459701934873e-06   1.367473231507477e-06   -1.2960909071871651e-05
2.1261459701934873e-06   1.367473231507477e-06   -1.2960909071871651e-05
2.1261459701934873e-06   1.367473231507477e-06   -1.2960909071871651e-05
1.9837985705543882e-06   2.103239360543271e-06   -5.6214602834569116e-05
1.9837985705543882e-06   2.103239360543271e-06   -5.6214602834569116e-05
1.9837985705543882e-06   2.103239360543271e-06   -5.6214602834569116e-05
1.9837985705543882e-06   2.103239360543271e-06   -5.6214602834569116e-05
-2.3929811246649437e-05   2.8226545990794037e-06   -1.345690228235109e-05
-2.3929811246649437e-05   2.8226545990794037e-06   -1.345690228235109e-05
-2.3929811246649437e-05   2.8226545990794037e-06   -1.345690228235109e-05
-2.3929811246649437e-05   2.8226545990794037e-06   -1.345690228235109e-05
-1.0914227049236428e-05   1.7161651593619305e-06   -3.448564894754224e-05
-1.0914227049236428e-05   1.7161651593619305e-06   -3.448564894754224e-05
-1.0914227049236428e-05   1.7161651593619305e-06   -3.448564894754224e-05
-1.0914227049236428e-05   1.7161651593619305e-06   -3.448564894754224e-05
-2.3929811246649437e-05   2.103239360543271e-06   -5.6646251977690814e-05
-2.3929811246649437e-05   2.103239360543271e-06   -5.6646251977690814e-05
-2.3929811246649437e-05   2.103239360543271e-06   -5.6646251977690814e-05
-2.3929811246649437e-05   2.103239360543271e-06   -5.6646251977690814e-05
1.9837985705543916e-06   2.8226545990794037e-06   -1.3025253139229486e-05
1.9837985705543916e-06   2.8226545990794037e-06   -1.3025253139229486e-05
1.9837985705543916e-06   2.8226545990794037e-06   -1.3025253139229486e-05
1.9837985705543916e-06   2.8226545990794037e-06   -1.3025253139229486e-05
1.696928431115133e-06   3.4926905145073894e-06   -5.6117999681642145e-05
1.696928431115133e-06   3.4926905145073894e-06   -5.6117999681642145e-05
1.696928431115133e-06   3.4926905145073894e-06   -5.6117999681642145e-05
1.696928431115133e-06   3.4926905145073894e-06   -5.6117999681642145e-05
-2.3871365875745705e-05   4.338789104902892e-06   -1.4011834991111463e-05
-2.3871365875745705e-05   4.338789104902892e-06   -1.4011834991111463e-05
-2.3871365875745705e-05   4.338789104902892e-06   -1.4011834991111463e-05
-2.3871365875745705e-05   4.338789104902892e-06   -1.4011834991111463e-05
-1.103525907971929e-05   3.012668717432954e-06   -3.460967408534011e-05
-1.103525907971929e-05   3.012668717432954e-06   -3.460967408534011e-05
-1.103525907971929e-05   3.012668717432954e-06   -3.460967408534011e-05
-1.103525907971929e-05   3.012668717432954e-06   -3.460967408534011e-05
2.230714760954848e-06   -4.061225247405621e-06   -5.14738978738986e-05
2.230714760954848e-06   -4.061225247405621e-06   -5.14738978738986e-05
2.230714760954848e-06   -4.061225247405621e-06   -5.14738978738986e-05
2.230714760954848e-06   -4.061225247405621e-06   -5.14738978738986e-05
2.8439466215499627e-05   -4.175293708437921e-06   -7.861086526276688e-06
2.8439466215499627e-05   -4.175293708437921e-06   -7.861086526276688e-06
2.8439466215499627e-05   -4.175293708437921e-06   -7.861086526276688e-06
2.8439466215499627e-05   -4.175293708437921e-06   -7.861086526276688e-06
2.867267125307435e-05   -3.061304516304293e-06   -5.2190391445305966e-05
2.867267125307435e-05   -3.061304516304293e-06   -5.2190391445305966e-05
2.867267125307435e-05   -3.061304516304293e-06   -5.2190391445305966e-05
2.867267125307435e-05   -3.061304516304293e-06   -5.2190391445305966e-05
2.1261459701934873e-06   -2.8219439333314203e-06   -8.089798990288182e-06
2.1261459701934873e-06   -2.8219439333314203e-06   -8.089798990288182e-06
2.1261459701934873e-06   -2.8219439333314203e-06   -8.089798990288182e-06
2.1261459701934873e-06   -2.8219439333314203e-06   -8.089798990288182e-06
1.5170889374262227e-05   -3.3783327670488953e-06   -2.9497204696838956e-05
1.5170889374262227e-05   -3.3783327670488953e-06   -2.9497204696838956e-05
1.5170889374262227e-05   -3.3783327670488953e-06   -2.9497204696838956e-05
1.5170889374262227e-05   -3.3783327670488953e-06   -2.9497204696838956e-05
2.126145970193484e-06   -3.061304516304293e-06   -5.2334007795089665e-05
2.126145970193484e-06   -3.061304516304293e-06   -5.2334007795089665e-05
2.126145970193484e-06   -3.061304516304293e-06   -5.2334007795089665e-05
2.126145970193484e-06   -3.061304516304293e-06   -5.2334007795089665e-05
2.867267125307435e-05   -2.8219439333314203e-06   -7.946182640504413e-06
2.867267125307435e-05   -2.8219439333314203e-06   -7.946182640504413e-06
2.867267125307435e-05   -2.8219439333314203e-06   -7.946182640504413e-06
2.867267125307435e-05   -2.8219439333314203e-06   -7.946182640504413e-06
2.8531023930958704e-05   -1.925596951703583e-06   -5.316700459756153e-05
2.8531023930958704e-05   -1.925596951703583e-06   -5.316700459756153e-05
2.8531023930958704e-05   -1.925596951703583e-06   -5.316700459756153e-05
2.8531023930958704e-05   -1.925596951703583e-06   -5.316700459756153e-05
1.9837985705543882e-06   -1.4963762699297923e-06   -9.17916140595191e-06
1.9837985705543882e-06   -1.4963762699297923e-06   -9.17916140595191e-06
1.9837985705543882e-06   -1.4963762699297923e-06   -9.17916140595191e-06
1.9837985705543882e-06   -1.4963762699297923e-06   -9.17916140595191e-06
1.5008334996314132e-05   -2.2980315297804928e-06   -3.040572895964107e-05
1.5008334996314132e-05   -2.2980315297804928e-06   -3.040572895964107e-05
1.5008334996314132e-05   -2.2980315297804928e-06   -3.040572895964107e-05
1.5008334996314132e-05   -2.2980315297804928e-06   -3.040572895964107e-05
1.9837985705543874e-06   -1.9255969517035696e-06   -5.342453700662561e-05
1.9837985705543874e-06   -1.9255969517035696e-06   -5.342453700662561e-05
1.9837985705543874e-06   -1.9255969517035696e-06   -5.342453700662561e-05
1.9837985705543874e-06   -1.9255969517035696e-06   -5.342453700662561e-05
2.8531023930958657e-05   -1.4963762699297923e-06   -8.921628996887729e-06
2.8531023930958657e-05   -1.4963762699297923e-06   -8.921628996887729e-06
2.8531023930958657e-05   -1.4963762699297923e-06   -8.921628996887729e-06
2.8531023930958657e-05   -1.4963762699297923e-06   -8.921628996887729e-06
2.769669054902533e-05   -3.9950711327692897e-07   -5.326114319575494e-05
2.769669054902533e-05   -3.9950711327692897e-07   -5.326114319575494e-05
2.769669054902533e-05   -3.9950711327692897e-07   -5.326114319575494e-05
2.769669054902533e-05   -3.9950711327692897e-07   -5.326114319575494e-05
1.696928431115133e-06   1.4305624680590722e-07   -1.0253744348621004e-05
1.696928431115133e-06   1.4305624680590722e-07   -1.0253744348621004e-05
1.696928431115133e-06   1.4305624680590722e-07   -1.0253744348621004e-05
1.696928431115133e-06   1.4305624680590722e-07   -1.0253744348621004e-05
1.4843802680405948e-05   -1.0362741918092805e-06   -3.145760316760319e-05
1.4843802680405948e-05   -1.0362741918092805e-06   -3.145760316760319e-05
1.4843802680405948e-05   -1.0362741918092805e-06   -3.145760316760319e-05
1.4843802680405948e-05   -1.0362741918092805e-06   -3.145760316760319e-05
2.8439466215499627e-05   -1.0295796335177347e-05   -3.1146083766818294e-05
2.8439466215499627e-05   -1.0295796335177347e-05   -3.1146083766818294e-05
2.8439466215499627e-05   -1.0295796335177347e-05   -3.1146083766818294e-05
2.8439466215499627e-05   -1.0295796335177347e-05   -3.1146083766818294e-05
5.430555118859351e-05   -7.759839568671886e-06   1.3485631914908025e-05
5.430555118859351e-05   -7.759839568671886e-06   1.3485631914908025e-05
5.430555118859351e-05   -7.759839568671886e-06   1.3485631914908025e-05
5.430555118859351e-05   -7.759839568671886e-06   1.3485631914908025e-05
5.637045987156623e-05   -8.759606148505916e-06   -3.78549437527273e-05
5.637045987156623e-05   -8.759606148505916e-06   -3.78549437527273e-05
5.637045987156623e-05   -8.759606148505916e-06   -3.78549437527273e-05
5.637045987156623e-05   -8.759606148505916e-06   -3.78549437527273e-05
2.8672671253074398e-05   -7.039111034419802e-06   7.275740209640815e-06
2.8672671253074398e-05   -7.039111034419802e-06   7.275740209640815e-06
2.8672671253074398e-05   -7.039111034419802e-06   7.275740209640815e-06
2.8672671253074398e-05   -7.039111034419802e-06   7.275740209640815e-06
3.9996228042908776e-05   -8.42748733947637e-06   -1.076382865704922e-05
3.9996228042908776e-05   -8.42748733947637e-06   -1.076382865704922e-05
3.9996228042908776e-05   -8.42748733947637e-06   -1.076382865704922e-05
3.9996228042908776e-05   -8.42748733947637e-06   -1.076382865704922e-05
2.8672671253074323e-05   -8.759606148505889e-06   -3.8887240821178803e-05
2.8672671253074323e-05   -8.759606148505889e-06   -3.8887240821178803e-05
2.8672671253074323e-05   -8.759606148505889e-06   -3.8887240821178803e-05
2.8672671253074323e-05   -8.759606148505889e-06   -3.8887240821178803e-05
5.637045987156623e-05   -7.0391110344198565e-06   8.308037278092562e-06
5.637045987156623e-05   -7.0391110344198565e-06   8.308037278092562e-06
5.637045987156623e-05   -7.0391110344198565e-06   8.308037278092562e-06
5.637045987156623e-05   -7.0391110344198565e-06   8.308037278092562e-06
5.615829728093355e-05   -8.004138298445382e-06   -4.116728674894739e-05
5.615829728093355e-05   -8.004138298445382e-06   -4.116728674894739e-05
5.615829728093355e-05   -8.004138298445382e-06   -4.116728674894739e-05
5.615829728093355e-05   -8.004138298445382e-06   -4.116728674894739e-05
2.8531023930958704e-05   -6.276297304535149e-06   3.841464237997876e-06
2.8531023930958704e-05   -6.276297304535149e-06   3.841464237997876e-06
2.8531023930958704e-05   -6.276297304535149e-06   3.841464237997876e-06
2.8531023930958704e-05   -6.276297304535149e-06   3.841464237997876e-06
4.139319310118423e-05   -7.4422128137835236e-06   -1.6895935073495705e-05
4.139319310118423e-05   -7.4422128137835236e-06   -1.6895935073495705e-05
4.139319310118423e-05   -7.4422128137835236e-06   -1.6895935073495705e-05
4.139319310118423e-05   -7.4422128137835236e-06   -1.6895935073495705e-05
2.8531023930958657e-05   -8.004138298445368e-06   -4.2203991345293475e-05
2.8531023930958657e-05   -8.004138298445368e-06   -4.2203991345293475e-05
2.8531023930958657e-05   -8.004138298445368e-06   -4.2203991345293475e-05
2.8531023930958657e-05   -8.004138298445368e-06   -4.2203991345293475e-05
5.615829728093355e-05   -6.276297304535149e-06   4.878168834343902e-06
5.615829728093355e-05   -6.276297304535149e-06   4.878168834343902e-06
5.615829728093355e-05   -6.276297304535149e-06   4.878168834343902e-06
5.615829728093355e-05   -6.276297304535149e-06   4.878168834343902e-06
5.58173376084805e-05   -6.220447109266919e-06   -4.7915357220829256e-05
5.58173376084805e-05   -6.220447109266919e-06   -4.7915357220829256e-05
5.58173376084805e-05   -6.220447109266919e-06   -4.7915357220829256e-05
5.58173376084805e-05   -6.220447109266919e-06   -4.7915357220829256e-05
2.769669054902538e-05   -4.634806300046258e-06   -1.9989966072698443e-06
2.769669054902538e-05   -4.634806300046258e-06   -1.9989966072698443e-06
2.769669054902538e-05   -4.634806300046258e-06   -1.9989966072698443e-06
2.769669054902538e-05   -4.634806300046258e-06   -1.9989966072698443e-06
4.02071553614733e-05   -6.40780479945174e-06   -2.178597219503969e-05
4.02071553614733e-05   -6.40780479945174e-06   -2.178597219503969e-05
4.02071553614733e-05   -6.40780479945174e-06   -2.178597219503969e-05
4.02071553614733e-05   -6.40780479945174e-06   -2.178597219503969e-05
-6.087965485787676e-05   8.775358717541765e-06   -4.202944261894712e-05
-6.087965485787676e-05   8.775358717541765e-06   -4.202944261894712e-05
-6.087965485787676e-05   8.775358717541765e-06   -4.202944261894712e-05
-6.087965485787676e-05   8.775358717541765e-06   -4.202944261894712e-05
-3.9914791644939595e-05   6.704309688606745e-06   -8.330633348079518e-06
-3.9914791644939595e-05   6.704309688606745e-06   -8.330633348079518e-06
-3.9914791644939595e-05   6.704309688606745e-06   -8.330633348079518e-06
-3.9914791644939595e-05   6.704309688606745e-06   -8.330633348079518e-06
-4.010766598336923e-05   1.0533150461824873e-05   -3.4897640341715404e-05
-4.010766598336923e-05   1.0533150461824873e-05   -3.4897640341715404e-05
-4.010766598336923e-05   1.0533150461824873e-05   -3.4897640341715404e-05
-4.010766598336923e-05   1.0533150461824873e-05   -3.4897640341715404e-05
-5.9956906949202405e-05   8.110807860672539e-06   -3.621665046353909e-07
-5.9956906949202405e-05   8.110807860672539e-06   -3.621665046353909e-07
-5.9956906949202405e-05   8.110807860672539e-06   -3.621665046353909e-07
-5.9956906949202405e-05   8.110807860672539e-06   -3.621665046353909e-07
-4.809105110141155e-05   8.923508378455472e-06   -2.0626213228290048e-05
-4.809105110141155e-05   8.923508378455472e-06   -2.0626213228290048e-05
-4.809105110141155e-05   8.923508378455472e-06   -2.0626213228290048e-05
-4.809105110141155e-05   8.923508378455472e-06   -2.0626213228290048e-05
-5.9956906949202405e-05   1.0533150461824873e-05   -3.344423478102393e-05
-5.9956906949202405e-05   1.0533150461824873e-05   -3.344423478102393e-05
-5.9956906949202405e-05   1.0533150461824873e-05   -3.344423478102393e-05
-5.9956906949202405e-05   1.0533150461824873e-05   -3.344423478102393e-05
-4.010766598336923e-05   8.110807860672539e-06   -1.815572065326813e-06
-4.010766598336923e-05   8.110807860672539e-06   -1.815572065326813e-06
-4.010766598336923e-05   8.110807860672539e-06   -1.815572065326813e-06
-4.010766598336923e-05   8.110807860672539e-06   -1.815572065326813e-06
-4.006694052424196e-05   1.1326518162862803e-05   -2.985571552531046e-05
-4.006694052424196e-05   1.1326518162862803e-05   -2.985571552531046e-05
-4.006694052424196e-05   1.1326518162862803e-05   -2.985571552531046e-05
-4.006694052424196e-05   1.1326518162862803e-05   -2.985571552531046e-05
-5.9057532416208317e-05   8.728857552047441e-06   3.3538673277892805e-06
-5.9057532416208317e-05   8.728857552047441e-06   3.3538673277892805e-06
-5.9057532416208317e-05   8.728857552047441e-06   3.3538673277892805e-06
-5.9057532416208317e-05   8.728857552047441e-06   3.3538673277892805e-06
-4.850661639474095e-05   9.738857742157161e-06   -1.4836992822055476e-05
-4.850661639474095e-05   9.738857742157161e-06   -1.4836992822055476e-05
-4.850661639474095e-05   9.738857742157161e-06   -1.4836992822055476e-05
-4.850661639474095e-05   9.738857742157161e-06   -1.4836992822055476e-05
-5.9057532416208317e-05   1.1326518162862803e-05   -2.8297119158821336e-05
-5.9057532416208317e-05   1.1326518162862803e-05   -2.8297119158821336e-05
-5.9057532416208317e-05   1.1326518162862803e-05   -2.8297119158821336e-05
-5.9057532416208317e-05   1.1326518162862803e-05   -2.8297119158821336e-05
-4.006694052424203e-05   8.72885755204755e-06   1.79527096130021e-06
-4.006694052424203e-05   8.72885755204755e-06   1.79527096130021e-06
-4.006694052424203e-05   8.72885755204755e-06   1.79527096130021e-06
-4.006694052424203e-05   8.72885755204755e-06   1.79527096130021e-06
-4.010770589938098e-05   1.1957770415402908e-05   -2.2796118739086167e-05
-4.010770589938098e-05   1.1957770415402908e-05   -2.2796118739086167e-05
-4.010770589938098e-05   1.1957770415402908e-05   -2.2796118739086167e-05
-4.010770589938098e-05   1.1957770415402908e-05   -2.2796118739086167e-05
-5.788321662254309e-05   9.337514455769105e-06   8.401886041964248e-06
-5.788321662254309e-05   9.337514455769105e-06   8.401886041964248e-06
-5.788321662254309e-05   9.337514455769105e-06   8.401886041964248e-06
-5.788321662254309e-05   9.337514455769105e-06   8.401886041964248e-06
-4.740168255556258e-05   1.0168154077156702e-05   -9.56572117583542e-06
-4.740168255556258e-05   1.0168154077156702e-05   -9.56572117583542e-06
-4.740168255556258e-05   1.0168154077156702e-05   -9.56572117583542e-06
-4.740168255556258e-05   1.0168154077156702e-05   -9.56572117583542e-06
-3.9914791644939595e-05   4.0833345839712005e-06   -4.8665828579969104e-05
-3.9914791644939595e-05   4.0833345839712005e-06   -4.8665828579969104e-05
-3.9914791644939595e-05   4.0833345839712005e-06   -4.8665828579969104e-05
-3.9914791644939595e-05   4.0833345839712005e-06   -4.8665828579969104e-05
-2.031803977146173e-05   3.3433366775256464e-06   -1.6448574201373368e-05
-2.031803977146173e-05   3.3433366775256464e-06   -1.6448574201373368e-05
-2.031803977146173e-05   3.3433366775256464e-06   -1.6448574201373368e-05
-2.031803977146173e-05   3.3433366775256464e-06   -1.6448574201373368e-05
-2.0564794697027973e-05   5.699721191902382e-06   -4.7976331860101115e-05
-2.0564794697027973e-05   5.699721191902382e-06   -4.7976331860101115e-05
-2.0564794697027973e-05   5.699721191902382e-06   -4.7976331860101115e-05
-2.0564794697027973e-05   5.699721191902382e-06   -4.7976331860101115e-05
-4.010766598336923e-05   4.726693550285055e-06   -1.4821063131228692e-05
-4.010766598336923e-05   4.726693550285055e-06   -1.4821063131228692e-05
-4.010766598336923e-05   4.726693550285055e-06   -1.4821063131228692e-05
-4.010766598336923e-05   4.726693550285055e-06   -1.4821063131228692e-05
-2.996751936869858e-05   4.709792370367872e-06   -3.171116678106278e-05
-2.996751936869858e-05   4.709792370367872e-06   -3.171116678106278e-05
-2.996751936869858e-05   4.709792370367872e-06   -3.171116678106278e-05
-2.996751936869858e-05   4.709792370367872e-06   -3.171116678106278e-05
-4.010766598336919e-05   5.699721191902382e-06   -4.739251527513064e-05
-4.010766598336919e-05   5.699721191902382e-06   -4.739251527513064e-05
-4.010766598336919e-05   5.699721191902382e-06   -4.739251527513064e-05
-4.010766598336919e-05   5.699721191902382e-06   -4.739251527513064e-05
-2.0564794697028014e-05   4.726693550285055e-06   -1.540487971619913e-05
-2.0564794697028014e-05   4.726693550285055e-06   -1.540487971619913e-05
-2.0564794697028014e-05   4.726693550285055e-06   -1.540487971619913e-05
-2.0564794697028014e-05   4.726693550285055e-06   -1.540487971619913e-05
-2.072480250026949e-05   7.037737014823785e-06   -4.670656430173954e-05
-2.072480250026949e-05   7.037737014823785e-06   -4.670656430173954e-05
-2.072480250026949e-05   7.037737014823785e-06   -4.670656430173954e-05
-2.072480250026949e-05   7.037737014823785e-06   -4.670656430173954e-05
-4.006694052424196e-05   5.9558118329899185e-06   -1.3820512486018439e-05
-4.006694052424196e-05   5.9558118329899185e-06   -1.3820512486018439e-05
-4.006694052424196e-05   5.9558118329899185e-06   -1.3820512486018439e-05
-4.006694052424196e-05   5.9558118329899185e-06   -1.3820512486018439e-05
-3.0022972520012094e-05   5.847961242835668e-06   -3.0495748805642152e-05
-3.0022972520012094e-05   5.847961242835668e-06   -3.0495748805642152e-05
-3.0022972520012094e-05   5.847961242835668e-06   -3.0495748805642152e-05
-3.0022972520012094e-05   5.847961242835668e-06   -3.0495748805642152e-05
-4.006694052424196e-05   7.037737014823785e-06   -4.60574091926392e-05
-4.006694052424196e-05   7.037737014823785e-06   -4.60574091926392e-05
-4.006694052424196e-05   7.037737014823785e-06   -4.60574091926392e-05
-4.006694052424196e-05   7.037737014823785e-06   -4.60574091926392e-05
-2.072480250026953e-05   5.9558118329899185e-06   -1.4469667595118645e-05
-2.072480250026953e-05   5.9558118329899185e-06   -1.4469667595118645e-05
-2.072480250026953e-05   5.9558118329899185e-06   -1.4469667595118645e-05
-2.072480250026953e-05   5.9558118329899185e-06   -1.4469667595118645e-05
-2.0931859175643032e-05   8.477454120295195e-06   -4.659384469483496e-05
-2.0931859175643032e-05   8.477454120295195e-06   -4.659384469483496e-05
-2.0931859175643032e-05   8.477454120295195e-06   -4.659384469483496e-05
-2.0931859175643032e-05   8.477454120295195e-06   -4.659384469483496e-05
-4.010770589938094e-05   7.263415127652388e-06   -1.3905676759686279e-05
-4.010770589938094e-05   7.263415127652388e-06   -1.3905676759686279e-05
-4.010770589938094e-05   7.263415127652388e-06   -1.3905676759686279e-05
-4.010770589938094e-05   7.263415127652388e-06   -1.3905676759686279e-05
-3.037874591556078e-05   6.9754161646696676e-06   -2.9947810688263132e-05
-3.037874591556078e-05   6.9754161646696676e-06   -2.9947810688263132e-05
-3.037874591556078e-05   6.9754161646696676e-06   -2.9947810688263132e-05
-3.037874591556078e-05   6.9754161646696676e-06   -2.9947810688263132e-05
-2.031803977146171e-05   -1.2183230463163556e-07   -5.2461497834586256e-05
-2.031803977146171e-05   -1.2183230463163556e-07   -5.2461497834586256e-05
-2.031803977146171e-05   -1.2183230463163556e-07   -5.2461497834586256e-05
-2.031803977146171e-05   -1.2183230463163556e-07   -5.2461497834586256e-05
-9.404881290692959e-07   1.7807051703620444e-07   -1.9985636737598227e-05
-9.404881290692959e-07   1.7807051703620444e-07   -1.9985636737598227e-05
-9.404881290692959e-07   1.7807051703620444e-07   -1.9985636737598227e-05
-9.404881290692959e-07   1.7807051703620444e-07   -1.9985636737598227e-05
-1.138473234895364e-06   1.367473231507477e-06   -5.197131520179917e-05
-1.138473234895364e-06   1.367473231507477e-06   -5.197131520179917e-05
-1.138473234895364e-06   1.367473231507477e-06   -5.197131520179917e-05
-1.138473234895364e-06   1.367473231507477e-06   -5.197131520179917e-05
-2.056479469702794e-05   1.5398967964617982e-06   -1.9697566903884064e-05
-2.056479469702794e-05   1.5398967964617982e-06   -1.9697566903884064e-05
-2.056479469702794e-05   1.5398967964617982e-06   -1.9697566903884064e-05
-2.056479469702794e-05   1.5398967964617982e-06   -1.9697566903884064e-05
-1.068001279186957e-05   8.972956815688849e-07   -3.578664274354571e-05
-1.068001279186957e-05   8.972956815688849e-07   -3.578664274354571e-05
-1.068001279186957e-05   8.972956815688849e-07   -3.578664274354571e-05
-1.068001279186957e-05   8.972956815688849e-07   -3.578664274354571e-05
-2.0564794697027973e-05   1.367473231507477e-06   -5.207476934077174e-05
-2.0564794697027973e-05   1.367473231507477e-06   -5.207476934077174e-05
-2.0564794697027973e-05   1.367473231507477e-06   -5.207476934077174e-05
-2.0564794697027973e-05   1.367473231507477e-06   -5.207476934077174e-05
-1.138473234895364e-06   1.5398967964616898e-06   -1.959411276491148e-05
-1.138473234895364e-06   1.5398967964616898e-06   -1.959411276491148e-05
-1.138473234895364e-06   1.5398967964616898e-06   -1.959411276491148e-05
-1.138473234895364e-06   1.5398967964616898e-06   -1.959411276491148e-05
-1.2815264222939525e-06   2.8226545990794037e-06   -5.2112175989830746e-05
-1.2815264222939525e-06   2.8226545990794037e-06   -5.2112175989830746e-05
-1.2815264222939525e-06   2.8226545990794037e-06   -5.2112175989830746e-05
-1.2815264222939525e-06   2.8226545990794037e-06   -5.2112175989830746e-05
-2.072480250026949e-05   2.8976761023544097e-06   -1.975172876183649e-05
-2.072480250026949e-05   2.8976761023544097e-06   -1.975172876183649e-05
-2.072480250026949e-05   2.8976761023544097e-06   -1.975172876183649e-05
-2.072480250026949e-05   2.8976761023544097e-06   -1.975172876183649e-05
-1.0935554970669417e-05   2.0983206272121913e-06   -3.558752802608464e-05
-1.0935554970669417e-05   2.0983206272121913e-06   -3.558752802608464e-05
-1.0935554970669417e-05   2.0983206272121913e-06   -3.558752802608464e-05
-1.0935554970669417e-05   2.0983206272121913e-06   -3.558752802608464e-05
-2.072480250026949e-05   2.8226545990794037e-06   -5.215718889179573e-05
-2.072480250026949e-05   2.8226545990794037e-06   -5.215718889179573e-05
-2.072480250026949e-05   2.8226545990794037e-06   -5.215718889179573e-05
-2.072480250026949e-05   2.8226545990794037e-06   -5.215718889179573e-05
-1.2815264222939525e-06   2.8976761023544097e-06   -1.970671585987144e-05
-1.2815264222939525e-06   2.8976761023544097e-06   -1.970671585987144e-05
-1.2815264222939525e-06   2.8976761023544097e-06   -1.970671585987144e-05
-1.2815264222939525e-06   2.8976761023544097e-06   -1.970671585987144e-05
-1.506304700295982e-06   4.338789104902947e-06   -5.278263653332732e-05
-1.506304700295982e-06   4.338789104902947e-06   -5.278263653332732e-05
-1.506304700295982e-06   4.338789104902947e-06   -5.278263653332732e-05
-1.506304700295982e-06   4.338789104902947e-06   -5.278263653332732e-05
-2.0931859175643045e-05   4.287006810316696e-06   -2.0375643030997326e-05
-2.0931859175643045e-05   4.287006810316696e-06   -2.0375643030997326e-05
-2.0931859175643045e-05   4.287006810316696e-06   -2.0375643030997326e-05
-2.0931859175643045e-05   4.287006810316696e-06   -2.0375643030997326e-05
-1.1207029027406368e-05   3.313613892725134e-06   -3.599965752750319e-05
-1.1207029027406368e-05   3.313613892725134e-06   -3.599965752750319e-05
-1.1207029027406368e-05   3.313613892725134e-06   -3.599965752750319e-05
-1.1207029027406368e-05   3.313613892725134e-06   -3.599965752750319e-05
-9.404881290692976e-07   -4.175293708437921e-06   -4.687657796035772e-05
-9.404881290692976e-07   -4.175293708437921e-06   -4.687657796035772e-05
-9.404881290692976e-07   -4.175293708437921e-06   -4.687657796035772e-05
-9.404881290692976e-07   -4.175293708437921e-06   -4.687657796035772e-05
1.8338788681256763e-05   -2.7989918694092336e-06   -1.3918668839730532e-05
1.8338788681256763e-05   -2.7989918694092336e-06   -1.3918668839730532e-05
1.8338788681256763e-05   -2.7989918694092336e-06   -1.3918668839730532e-05
1.8338788681256763e-05   -2.7989918694092336e-06   -1.3918668839730532e-05
1.832473972859066e-05   -2.8219439333314203e-06   -4.633735986608669e-05
1.832473972859066e-05   -2.8219439333314203e-06   -4.633735986608669e-05
1.832473972859066e-05   -2.8219439333314203e-06   -4.633735986608669e-05
1.832473972859066e-05   -2.8219439333314203e-06   -4.633735986608669e-05
-1.138473234895364e-06   -1.5505351764499332e-06   -1.4661516847738968e-05
-1.138473234895364e-06   -1.5505351764499332e-06   -1.4661516847738968e-05
-1.138473234895364e-06   -1.5505351764499332e-06   -1.4661516847738968e-05
-1.138473234895364e-06   -1.5505351764499332e-06   -1.4661516847738968e-05
8.580209081176352e-06   -2.7383906351468017e-06   -3.0146607432640312e-05
8.580209081176352e-06   -2.7383906351468017e-06   -3.0146607432640312e-05
8.580209081176352e-06   -2.7383906351468017e-06   -3.0146607432640312e-05
8.580209081176352e-06   -2.7383906351468017e-06   -3.0146607432640312e-05
-1.138473234895364e-06   -2.8219439333314203e-06   -4.710020512021563e-05
-1.138473234895364e-06   -2.8219439333314203e-06   -4.710020512021563e-05
-1.138473234895364e-06   -2.8219439333314203e-06   -4.710020512021563e-05
-1.138473234895364e-06   -2.8219439333314203e-06   -4.710020512021563e-05
1.8324739728590688e-05   -1.5505351764498248e-06   -1.3898671593610078e-05
1.8324739728590688e-05   -1.5505351764498248e-06   -1.3898671593610078e-05
1.8324739728590688e-05   -1.5505351764498248e-06   -1.3898671593610078e-05
1.8324739728590688e-05   -1.5505351764498248e-06   -1.3898671593610078e-05
1.84114794700691e-05   -1.4963762699297923e-06   -4.756260670170644e-05
1.84114794700691e-05   -1.4963762699297923e-06   -4.756260670170644e-05
1.84114794700691e-05   -1.4963762699297923e-06   -4.756260670170644e-05
1.84114794700691e-05   -1.4963762699297923e-06   -4.756260670170644e-05
-1.2815264222939542e-06   -3.2391367851846743e-07   -1.5444407769281513e-05
-1.2815264222939542e-06   -3.2391367851846743e-07   -1.5444407769281513e-05
-1.2815264222939542e-06   -3.2391367851846743e-07   -1.5444407769281513e-05
-1.2815264222939542e-06   -3.2391367851846743e-07   -1.5444407769281513e-05
8.316603202086604e-06   -1.6558838764833264e-06   -3.064210835780354e-05
8.316603202086604e-06   -1.6558838764833264e-06   -3.064210835780354e-05
8.316603202086604e-06   -1.6558838764833264e-06   -3.064210835780354e-05
8.316603202086604e-06   -1.6558838764833264e-06   -3.064210835780354e-05
-1.2815264222939516e-06   -1.4963762699297923e-06   -4.8266084256553166e-05
-1.2815264222939516e-06   -1.4963762699297923e-06   -4.8266084256553166e-05
-1.2815264222939516e-06   -1.4963762699297923e-06   -4.8266084256553166e-05
-1.2815264222939516e-06   -1.4963762699297923e-06   -4.8266084256553166e-05
1.8411479470069127e-05   -3.23913678518359e-07   -1.4740930214434626e-05
1.8411479470069127e-05   -3.23913678518359e-07   -1.4740930214434626e-05
1.8411479470069127e-05   -3.23913678518359e-07   -1.4740930214434626e-05
1.8411479470069127e-05   -3.23913678518359e-07   -1.4740930214434626e-05
1.827015677085075e-05   1.43056246805853e-07   -4.895196033852489e-05
1.827015677085075e-05   1.43056246805853e-07   -4.895196033852489e-05
1.827015677085075e-05   1.43056246805853e-07   -4.895196033852489e-05
1.827015677085075e-05   1.43056246805853e-07   -4.895196033852489e-05
-1.5063047002959846e-06   1.1101307577216207e-06   -1.657143592649661e-05
-1.5063047002959846e-06   1.1101307577216207e-06   -1.657143592649661e-05
-1.5063047002959846e-06   1.1101307577216207e-06   -1.657143592649661e-05
-1.5063047002959846e-06   1.1101307577216207e-06   -1.657143592649661e-05
8.224141673647417e-06   -4.977414670076031e-07   -3.182412321489776e-05
8.224141673647417e-06   -4.977414670076031e-07   -3.182412321489776e-05
8.224141673647417e-06   -4.977414670076031e-07   -3.182412321489776e-05
8.224141673647417e-06   -4.977414670076031e-07   -3.182412321489776e-05
1.8338788681256723e-05   -7.759839568671886e-06   -2.622565247565914e-05
1.8338788681256723e-05   -7.759839568671886e-06   -2.622565247565914e-05
1.8338788681256723e-05   -7.759839568671886e-06   -2.622565247565914e-05
1.8338788681256723e-05   -7.759839568671886e-06   -2.622565247565914e-05
3.638908031569147e-05   -5.07531653751842e-06   5.468880733757581e-06
3.638908031569147e-05   -5.07531653751842e-06   5.468880733757581e-06
3.638908031569147e-05   -5.07531653751842e-06   5.468880733757581e-06
3.638908031569147e-05   -5.07531653751842e-06   5.468880733757581e-06
3.761678795614239e-05   -7.039111034419802e-06   -2.9505332590808677e-05
3.761678795614239e-05   -7.039111034419802e-06   -2.9505332590808677e-05
3.761678795614239e-05   -7.039111034419802e-06   -2.9505332590808677e-05
3.761678795614239e-05   -7.039111034419802e-06   -2.9505332590808677e-05
1.832473972859066e-05   -4.3556036591985235e-06   1.0379766966449853e-06
1.832473972859066e-05   -4.3556036591985235e-06   1.0379766966449853e-06
1.832473972859066e-05   -4.3556036591985235e-06   1.0379766966449853e-06
1.832473972859066e-05   -4.3556036591985235e-06   1.0379766966449853e-06
2.6484905140774384e-05   -5.985644347711815e-06   -1.1584274577220149e-05
2.6484905140774384e-05   -5.985644347711815e-06   -1.1584274577220149e-05
2.6484905140774384e-05   -5.985644347711815e-06   -1.1584274577220149e-05
2.6484905140774384e-05   -5.985644347711815e-06   -1.1584274577220149e-05
1.8324739728590634e-05   -7.039111034419802e-06   -3.1115437015941355e-05
1.8324739728590634e-05   -7.039111034419802e-06   -3.1115437015941355e-05
1.8324739728590634e-05   -7.039111034419802e-06   -3.1115437015941355e-05
1.8324739728590634e-05   -7.039111034419802e-06   -3.1115437015941355e-05
3.761678795614239e-05   -4.355603659198632e-06   2.6480811217775954e-06
3.761678795614239e-05   -4.355603659198632e-06   2.6480811217775954e-06
3.761678795614239e-05   -4.355603659198632e-06   2.6480811217775954e-06
3.761678795614239e-05   -4.355603659198632e-06   2.6480811217775954e-06
3.856061775605284e-05   -6.276297304535149e-06   -3.327694241968629e-05
3.856061775605284e-05   -6.276297304535149e-06   -3.327694241968629e-05
3.856061775605284e-05   -6.276297304535149e-06   -3.327694241968629e-05
3.856061775605284e-05   -6.276297304535149e-06   -3.327694241968629e-05
1.8411479470069073e-05   -3.738678892644125e-06   -1.2176163235147106e-06
1.8411479470069073e-05   -3.738678892644125e-06   -1.2176163235147106e-06
1.8411479470069073e-05   -3.738678892644125e-06   -1.2176163235147106e-06
1.8411479470069073e-05   -3.738678892644125e-06   -1.2176163235147106e-06
2.73851299422435e-05   -5.521323116825373e-06   -1.5104113909296434e-05
2.73851299422435e-05   -5.521323116825373e-06   -1.5104113909296434e-05
2.73851299422435e-05   -5.521323116825373e-06   -1.5104113909296434e-05
2.73851299422435e-05   -5.521323116825373e-06   -1.5104113909296434e-05
1.84114794700691e-05   -6.276297304535149e-06   -3.479951346682089e-05
1.84114794700691e-05   -6.276297304535149e-06   -3.479951346682089e-05
1.84114794700691e-05   -6.276297304535149e-06   -3.479951346682089e-05
1.84114794700691e-05   -6.276297304535149e-06   -3.479951346682089e-05
3.8560617756052784e-05   -3.738678892644125e-06   3.049547236200559e-07
3.8560617756052784e-05   -3.738678892644125e-06   3.049547236200559e-07
3.8560617756052784e-05   -3.738678892644125e-06   3.049547236200559e-07
3.8560617756052784e-05   -3.738678892644125e-06   3.049547236200559e-07
3.956656598219912e-05   -4.634806300046258e-06   -3.9694530459056864e-05
3.956656598219912e-05   -4.634806300046258e-06   -3.9694530459056864e-05
3.956656598219912e-05   -4.634806300046258e-06   -3.9694530459056864e-05
3.956656598219912e-05   -4.634806300046258e-06   -3.9694530459056864e-05
1.8270156770850722e-05   -2.4211060431020975e-06   -5.528735260976132e-06
1.8270156770850722e-05   -2.4211060431020975e-06   -5.528735260976132e-06
1.8270156770850722e-05   -2.4211060431020975e-06   -5.528735260976132e-06
1.8270156770850722e-05   -2.4211060431020975e-06   -5.528735260976132e-06
2.7268684172627945e-05   -4.7560144249699735e-06   -1.9125335901484e-05
2.7268684172627945e-05   -4.7560144249699735e-06   -1.9125335901484e-05
2.7268684172627945e-05   -4.7560144249699735e-06   -1.9125335901484e-05
2.7268684172627945e-05   -4.7560144249699735e-06   -1.9125335901484e-05
-4.373847449607574e-05   6.704309688606745e-06   -3.32829218887667e-05
-4.373847449607574e-05   6.704309688606745e-06   -3.32829218887667e-05
-4.373847449607574e-05   6.704309688606745e-06   -3.32829218887667e-05
-4.373847449607574e-05   6.704309688606745e-06   -3.32829218887667e-05
-2.9785753936592492e-05   4.263841170903016e-06   -1.149266873358342e-05
-2.9785753936592492e-05   4.263841170903016e-06   -1.149266873358342e-05
-2.9785753936592492e-05   4.263841170903016e-06   -1.149266873358342e-05
-2.9785753936592492e-05   4.263841170903016e-06   -1.149266873358342e-05
-2.9677246473340768e-05   8.110807860672539e-06   -2.82754213586496e-05
-2.9677246473340768e-05   8.110807860672539e-06   -2.82754213586496e-05
-2.9677246473340768e-05   8.110807860672539e-06   -2.82754213586496e-05
-2.9677246473340768e-05   8.110807860672539e-06   -2.82754213586496e-05
-4.242922524392716e-05   5.427816631431545e-06   -5.41232867012773e-06
-4.242922524392716e-05   5.427816631431545e-06   -5.41232867012773e-06
-4.242922524392716e-05   5.427816631431545e-06   -5.41232867012773e-06
-4.242922524392716e-05   5.427816631431545e-06   -5.41232867012773e-06
-3.4863062289048724e-05   6.45603645068292e-06   -1.8639532153142606e-05
-3.4863062289048724e-05   6.45603645068292e-06   -1.8639532153142606e-05
-3.4863062289048724e-05   6.45603645068292e-06   -1.8639532153142606e-05
-3.4863062289048724e-05   6.45603645068292e-06   -1.8639532153142606e-05
-4.242922524392716e-05   8.110807860672539e-06   -2.666562662110509e-05
-4.242922524392716e-05   8.110807860672539e-06   -2.666562662110509e-05
-4.242922524392716e-05   8.110807860672539e-06   -2.666562662110509e-05
-4.242922524392716e-05   8.110807860672539e-06   -2.666562662110509e-05
-2.9677246473340822e-05   5.427816631431545e-06   -7.022123407672185e-06
-2.9677246473340822e-05   5.427816631431545e-06   -7.022123407672185e-06
-2.9677246473340822e-05   5.427816631431545e-06   -7.022123407672185e-06
-2.9677246473340822e-05   5.427816631431545e-06   -7.022123407672185e-06
-2.9452123199737645e-05   8.728857552047441e-06   -2.465613513965301e-05
-2.9452123199737645e-05   8.728857552047441e-06   -2.465613513965301e-05
-2.9452123199737645e-05   8.728857552047441e-06   -2.465613513965301e-05
-2.9452123199737645e-05   8.728857552047441e-06   -2.465613513965301e-05
-4.145071722916159e-05   5.970317785703675e-06   -3.0033545641399415e-06
-4.145071722916159e-05   5.970317785703675e-06   -3.0033545641399415e-06
-4.145071722916159e-05   5.970317785703675e-06   -3.0033545641399415e-06
-4.145071722916159e-05   5.970317785703675e-06   -3.0033545641399415e-06
-3.486469141678465e-05   7.1055678157708364e-06   -1.4661214269475061e-05
-3.486469141678465e-05   7.1055678157708364e-06   -1.4661214269475061e-05
-3.486469141678465e-05   7.1055678157708364e-06   -1.4661214269475061e-05
-3.486469141678465e-05   7.1055678157708364e-06   -1.4661214269475061e-05
-4.145071722916159e-05   8.728857552047441e-06   -2.30010112798465e-05
-4.145071722916159e-05   8.728857552047441e-06   -2.30010112798465e-05
-4.145071722916159e-05   8.728857552047441e-06   -2.30010112798465e-05
-4.145071722916159e-05   8.728857552047441e-06   -2.30010112798465e-05
-2.94521231997377e-05   5.970317785703567e-06   -4.658478423946234e-06
-2.94521231997377e-05   5.970317785703567e-06   -4.658478423946234e-06
-2.94521231997377e-05   5.970317785703567e-06   -4.658478423946234e-06
-2.94521231997377e-05   5.970317785703567e-06   -4.658478423946234e-06
-2.936213038690999e-05   9.337514455769105e-06   -1.9646756428814667e-05
-2.936213038690999e-05   9.337514455769105e-06   -1.9646756428814667e-05
-2.936213038690999e-05   9.337514455769105e-06   -1.9646756428814667e-05
-2.936213038690999e-05   9.337514455769105e-06   -1.9646756428814667e-05
-4.017064275279298e-05   6.652772561666878e-06   -2.1724015881650037e-08
-4.017064275279298e-05   6.652772561666878e-06   -2.1724015881650037e-08
-4.017064275279298e-05   6.652772561666878e-06   -2.1724015881650037e-08
-4.017064275279298e-05   6.652772561666878e-06   -2.1724015881650037e-08
-3.3833027790205846e-05   7.457853885796048e-06   -1.1067464414671075e-05
-3.3833027790205846e-05   7.457853885796048e-06   -1.1067464414671075e-05
-3.3833027790205846e-05   7.457853885796048e-06   -1.1067464414671075e-05
-3.3833027790205846e-05   7.457853885796048e-06   -1.1067464414671075e-05
-2.9785753936592438e-05   3.3433366775256464e-06   -4.242114510881538e-05
-2.9785753936592438e-05   3.3433366775256464e-06   -4.242114510881538e-05
-2.9785753936592438e-05   3.3433366775256464e-06   -4.242114510881538e-05
-2.9785753936592438e-05   3.3433366775256464e-06   -4.242114510881538e-05
-1.7137542387340928e-05   2.2051564206907685e-06   -2.2023700680830443e-05
-1.7137542387340928e-05   2.2051564206907685e-06   -2.2023700680830443e-05
-1.7137542387340928e-05   2.2051564206907685e-06   -2.2023700680830443e-05
-1.7137542387340928e-05   2.2051564206907685e-06   -2.2023700680830443e-05
-1.714590932695961e-05   4.726693550285055e-06   -4.2056457461135655e-05
-1.714590932695961e-05   4.726693550285055e-06   -4.2056457461135655e-05
-1.714590932695961e-05   4.726693550285055e-06   -4.2056457461135655e-05
-1.714590932695961e-05   4.726693550285055e-06   -4.2056457461135655e-05
-2.9677246473340768e-05   3.434118489311754e-06   -2.0395350513916215e-05
-2.9677246473340768e-05   3.434118489311754e-06   -2.0395350513916215e-05
-2.9677246473340768e-05   3.434118489311754e-06   -2.0395350513916215e-05
-2.9677246473340768e-05   3.434118489311754e-06   -2.0395350513916215e-05
-2.322049812305917e-05   3.6574395183137888e-06   -3.1290590381786976e-05
-2.322049812305917e-05   3.6574395183137888e-06   -3.1290590381786976e-05
-2.322049812305917e-05   3.6574395183137888e-06   -3.1290590381786976e-05
-2.322049812305917e-05   3.6574395183137888e-06   -3.1290590381786976e-05
-2.9677246473340768e-05   4.726693550285055e-06   -4.1280912424551425e-05
-2.9677246473340768e-05   4.726693550285055e-06   -4.1280912424551425e-05
-2.9677246473340768e-05   4.726693550285055e-06   -4.1280912424551425e-05
-2.9677246473340768e-05   4.726693550285055e-06   -4.1280912424551425e-05
-1.714590932695961e-05   3.434118489311754e-06   -2.117089555050012e-05
-1.714590932695961e-05   3.434118489311754e-06   -2.117089555050012e-05
-1.714590932695961e-05   3.434118489311754e-06   -2.117089555050012e-05
-1.714590932695961e-05   3.434118489311754e-06   -2.117089555050012e-05
-1.7133277285757398e-05   5.9558118329899185e-06   -4.1113865869000154e-05
-1.7133277285757398e-05   5.9558118329899185e-06   -4.1113865869000154e-05
-1.7133277285757398e-05   5.9558118329899185e-06   -4.1113865869000154e-05
-1.7133277285757398e-05   5.9558118329899185e-06   -4.1113865869000154e-05
-2.9452123199737645e-05   4.552566362941903e-06   -1.9740508730337774e-05
-2.9452123199737645e-05   4.552566362941903e-06   -1.9740508730337774e-05
-2.9452123199737645e-05   4.552566362941903e-06   -1.9740508730337774e-05
-2.9452123199737645e-05   4.552566362941903e-06   -1.9740508730337774e-05
-2.311236678892621e-05   4.6668606806448765e-06   -3.0375346005644647e-05
-2.311236678892621e-05   4.6668606806448765e-06   -3.0375346005644647e-05
-2.311236678892621e-05   4.6668606806448765e-06   -3.0375346005644647e-05
-2.311236678892621e-05   4.6668606806448765e-06   -3.0375346005644647e-05
-2.9452123199737645e-05   5.9558118329899185e-06   -4.02719185869715e-05
-2.9452123199737645e-05   5.9558118329899185e-06   -4.02719185869715e-05
-2.9452123199737645e-05   5.9558118329899185e-06   -4.02719185869715e-05
-2.9452123199737645e-05   5.9558118329899185e-06   -4.02719185869715e-05
-1.7133277285757425e-05   4.552566362942012e-06   -2.0582456012366377e-05
-1.7133277285757425e-05   4.552566362942012e-06   -2.0582456012366377e-05
-1.7133277285757425e-05   4.552566362942012e-06   -2.0582456012366377e-05
-1.7133277285757425e-05   4.552566362942012e-06   -2.0582456012366377e-05
-1.714705078379185e-05   7.263415127652388e-06   -4.1279643469947325e-05
-1.714705078379185e-05   7.263415127652388e-06   -4.1279643469947325e-05
-1.714705078379185e-05   7.263415127652388e-06   -4.1279643469947325e-05
-1.714705078379185e-05   7.263415127652388e-06   -4.1279643469947325e-05
-2.9362130386909963e-05   5.767618768881674e-06   -2.0023699649487957e-05
-2.9362130386909963e-05   5.767618768881674e-06   -2.0023699649487957e-05
-2.9362130386909963e-05   5.767618768881674e-06   -2.0023699649487957e-05
-2.9362130386909963e-05   5.767618768881674e-06   -2.0023699649487957e-05
-2.326207870750031e-05   5.665653065995454e-06   -3.0129273026772437e-05
-2.326207870750031e-05   5.665653065995454e-06   -3.0129273026772437e-05
-2.326207870750031e-05   5.665653065995454e-06   -3.0129273026772437e-05
-2.326207870750031e-05   5.665653065995454e-06   -3.0129273026772437e-05
-1.7137542387340887e-05   1.7807051703609602e-07   -4.682105749214186e-05
-1.7137542387340887e-05   1.7807051703609602e-07   -4.682105749214186e-05
-1.7137542387340887e-05   1.7807051703609602e-07   -4.682105749214186e-05
-1.7137542387340887e-05   1.7807051703609602e-07   -4.682105749214186e-05
-4.6643993045518985e-06   3.801100208250443e-07   -2.5911261985220237e-05
-4.6643993045518985e-06   3.801100208250443e-07   -2.5911261985220237e-05
-4.6643993045518985e-06   3.801100208250443e-07   -2.5911261985220237e-05
-4.6643993045518985e-06   3.801100208250443e-07   -2.5911261985220237e-05
-4.673326113430868e-06   1.5398967964616898e-06   -4.630352876417549e-05
-4.673326113430868e-06   1.5398967964616898e-06   -4.630352876417549e-05
-4.673326113430868e-06   1.5398967964616898e-06   -4.630352876417549e-05
-4.673326113430868e-06   1.5398967964616898e-06   -4.630352876417549e-05
-1.7145909326959582e-05   1.6159232708699714e-06   -2.5561505959606007e-05
-1.7145909326959582e-05   1.6159232708699714e-06   -2.5561505959606007e-05
-1.7145909326959582e-05   1.6159232708699714e-06   -2.5561505959606007e-05
-1.7145909326959582e-05   1.6159232708699714e-06   -2.5561505959606007e-05
-1.0832805629206813e-05   1.088511426778965e-06   -3.5766898349405996e-05
-1.0832805629206813e-05   1.088511426778965e-06   -3.5766898349405996e-05
-1.0832805629206813e-05   1.088511426778965e-06   -3.5766898349405996e-05
-1.0832805629206813e-05   1.088511426778965e-06   -3.5766898349405996e-05
-1.7145909326959582e-05   1.5398967964616898e-06   -4.634914464882048e-05
-1.7145909326959582e-05   1.5398967964616898e-06   -4.634914464882048e-05
-1.7145909326959582e-05   1.5398967964616898e-06   -4.634914464882048e-05
-1.7145909326959582e-05   1.5398967964616898e-06   -4.634914464882048e-05
-4.673326113430868e-06   1.6159232708699714e-06   -2.5515890074960935e-05
-4.673326113430868e-06   1.6159232708699714e-06   -2.5515890074960935e-05
-4.673326113430868e-06   1.6159232708699714e-06   -2.5515890074960935e-05
-4.673326113430868e-06   1.6159232708699714e-06   -2.5515890074960935e-05
-4.6569375289400465e-06   2.8976761023544097e-06   -4.642111862383032e-05
-4.6569375289400465e-06   2.8976761023544097e-06   -4.642111862383032e-05
-4.6569375289400465e-06   2.8976761023544097e-06   -4.642111862383032e-05
-4.6569375289400465e-06   2.8976761023544097e-06   -4.642111862383032e-05
-1.7133277285757398e-05   2.855690122167162e-06   -2.5602027441022304e-05
-1.7133277285757398e-05   2.855690122167162e-06   -2.5602027441022304e-05
-1.7133277285757398e-05   2.855690122167162e-06   -2.5602027441022304e-05
-1.7133277285757398e-05   2.855690122167162e-06   -2.5602027441022304e-05
-1.0905340531036805e-05   2.1696889788083576e-06   -3.557032134620796e-05
-1.0905340531036805e-05   2.1696889788083576e-06   -3.557032134620796e-05
-1.0905340531036805e-05   2.1696889788083576e-06   -3.557032134620796e-05
-1.0905340531036805e-05   2.1696889788083576e-06   -3.557032134620796e-05
-1.7133277285757398e-05   2.8976761023544097e-06   -4.639592703571796e-05
-1.7133277285757398e-05   2.8976761023544097e-06   -4.639592703571796e-05
-1.7133277285757398e-05   2.8976761023544097e-06   -4.639592703571796e-05
-1.7133277285757398e-05   2.8976761023544097e-06   -4.639592703571796e-05
-4.6569375289400465e-06   2.855690122167162e-06   -2.5627219029134528e-05
-4.6569375289400465e-06   2.855690122167162e-06   -2.5627219029134528e-05
-4.6569375289400465e-06   2.855690122167162e-06   -2.5627219029134528e-05
-4.6569375289400465e-06   2.855690122167162e-06   -2.5627219029134528e-05
-4.664266691236897e-06   4.287006810316696e-06   -4.71231106557717e-05
-4.664266691236897e-06   4.287006810316696e-06   -4.71231106557717e-05
-4.664266691236897e-06   4.287006810316696e-06   -4.71231106557717e-05
-4.664266691236897e-06   4.287006810316696e-06   -4.71231106557717e-05
-1.7147050783791862e-05   4.117132960151991e-06   -2.6216546191414465e-05
-1.7147050783791862e-05   4.117132960151991e-06   -2.6216546191414465e-05
-1.7147050783791862e-05   4.117132960151991e-06   -2.6216546191414465e-05
-1.7147050783791862e-05   4.117132960151991e-06   -2.6216546191414465e-05
-1.0999108216935017e-05   3.2650668519516174e-06   -3.595187747125562e-05
-1.0999108216935017e-05   3.2650668519516174e-06   -3.595187747125562e-05
-1.0999108216935017e-05   3.2650668519516174e-06   -3.595187747125562e-05
-1.0999108216935017e-05   3.2650668519516174e-06   -3.595187747125562e-05
-4.66439930455189e-06   -2.7989918694091252e-06   -4.1458646995417984e-05
-4.66439930455189e-06   -2.7989918694091252e-06   -4.1458646995417984e-05
-4.66439930455189e-06   -2.7989918694091252e-06   -4.1458646995417984e-05
-4.66439930455189e-06   -2.7989918694091252e-06   -4.1458646995417984e-05
7.626121186836104e-06   -1.2888480460186138e-06   -2.0068359882403756e-05
7.626121186836104e-06   -1.2888480460186138e-06   -2.0068359882403756e-05
7.626121186836104e-06   -1.2888480460186138e-06   -2.0068359882403756e-05
7.626121186836104e-06   -1.2888480460186138e-06   -2.0068359882403756e-05
7.726433138270666e-06   -1.5505351764499332e-06   -4.0515403320285184e-05
7.726433138270666e-06   -1.5505351764499332e-06   -4.0515403320285184e-05
7.726433138270666e-06   -1.5505351764499332e-06   -4.0515403320285184e-05
7.726433138270666e-06   -1.5505351764499332e-06   -4.0515403320285184e-05
-4.67332611343086e-06   -1.2465263192018659e-07   -2.0704667427500386e-05
-4.67332611343086e-06   -1.2465263192018659e-07   -2.0704667427500386e-05
-4.67332611343086e-06   -1.2465263192018659e-07   -2.0704667427500386e-05
-4.67332611343086e-06   -1.2465263192018659e-07   -2.0704667427500386e-05
1.5110682748550617e-06   -1.3333142325291664e-06   -3.0286794447611688e-05
1.5110682748550617e-06   -1.3333142325291664e-06   -3.0286794447611688e-05
1.5110682748550617e-06   -1.3333142325291664e-06   -3.0286794447611688e-05
1.5110682748550617e-06   -1.3333142325291664e-06   -3.0286794447611688e-05
-4.673326113430868e-06   -1.5505351764499332e-06   -4.137093284700298e-05
-4.673326113430868e-06   -1.5505351764499332e-06   -4.137093284700298e-05
-4.673326113430868e-06   -1.5505351764499332e-06   -4.137093284700298e-05
-4.673326113430868e-06   -1.5505351764499332e-06   -4.137093284700298e-05
7.726433138270666e-06   -1.2465263192018659e-07   -1.9849137900782487e-05
7.726433138270666e-06   -1.2465263192018659e-07   -1.9849137900782487e-05
7.726433138270666e-06   -1.2465263192018659e-07   -1.9849137900782487e-05
7.726433138270666e-06   -1.2465263192018659e-07   -1.9849137900782487e-05
7.963135835912239e-06   -3.2391367851846743e-07   -4.1367357219804354e-05
7.963135835912239e-06   -3.2391367851846743e-07   -4.1367357219804354e-05
7.963135835912239e-06   -3.2391367851846743e-07   -4.1367357219804354e-05
7.963135835912239e-06   -3.2391367851846743e-07   -4.1367357219804354e-05
-4.656937528940039e-06   9.951751772080799e-07   -2.112535492515314e-05
-4.656937528940039e-06   9.951751772080799e-07   -2.112535492515314e-05
-4.656937528940039e-06   9.951751772080799e-07   -2.112535492515314e-05
-4.656937528940039e-06   9.951751772080799e-07   -2.112535492515314e-05
1.439901410178936e-06   -3.6479070742465123e-07   -3.0470773626238305e-05
1.439901410178936e-06   -3.6479070742465123e-07   -3.0470773626238305e-05
1.439901410178936e-06   -3.6479070742465123e-07   -3.0470773626238305e-05
1.439901410178936e-06   -3.6479070742465123e-07   -3.0470773626238305e-05
-4.656937528940043e-06   -3.2391367851846743e-07   -4.215881053324012e-05
-4.656937528940043e-06   -3.2391367851846743e-07   -4.215881053324012e-05
-4.656937528940043e-06   -3.2391367851846743e-07   -4.215881053324012e-05
-4.656937528940043e-06   -3.2391367851846743e-07   -4.215881053324012e-05
7.963135835912252e-06   9.951751772080799e-07   -2.033390161171718e-05
7.963135835912252e-06   9.951751772080799e-07   -2.033390161171718e-05
7.963135835912252e-06   9.951751772080799e-07   -2.033390161171718e-05
7.963135835912252e-06   9.951751772080799e-07   -2.033390161171718e-05
8.079054603411136e-06   1.1101307577216207e-06   -4.258683331043162e-05
8.079054603411136e-06   1.1101307577216207e-06   -4.258683331043162e-05
8.079054603411136e-06   1.1101307577216207e-06   -4.258683331043162e-05
8.079054603411136e-06   1.1101307577216207e-06   -4.258683331043162e-05
-4.664266691236897e-06   2.278465531200917e-06   -2.2048965350105686e-05
-4.664266691236897e-06   2.278465531200917e-06   -2.2048965350105686e-05
-4.664266691236897e-06   2.278465531200917e-06   -2.2048965350105686e-05
-4.664266691236897e-06   2.278465531200917e-06   -2.2048965350105686e-05
1.4826128259963837e-06   6.709943120508047e-07   -3.132928181400438e-05
1.4826128259963837e-06   6.709943120508047e-07   -3.132928181400438e-05
1.4826128259963837e-06   6.709943120508047e-07   -3.132928181400438e-05
1.4826128259963837e-06   6.709943120508047e-07   -3.132928181400438e-05
7.62612118683609e-06   -5.075316537518529e-06   -2.2775724946587513e-05
7.62612118683609e-06   -5.075316537518529e-06   -2.2775724946587513e-05
7.62612118683609e-06   -5.075316537518529e-06   -2.2775724946587513e-05
7.62612118683609e-06   -5.075316537518529e-06   -2.2775724946587513e-05
1.8537594582120737e-05   -2.367299672193608e-06   -2.9651258352514625e-06
1.8537594582120737e-05   -2.367299672193608e-06   -2.9651258352514625e-06
1.8537594582120737e-05   -2.367299672193608e-06   -2.9651258352514625e-06
1.8537594582120737e-05   -2.367299672193608e-06   -2.9651258352514625e-06
1.983512783444941e-05   -4.3556036591985235e-06   -2.3912510316816024e-05
1.983512783444941e-05   -4.3556036591985235e-06   -2.3912510316816024e-05
1.983512783444941e-05   -4.3556036591985235e-06   -2.3912510316816024e-05
1.983512783444941e-05   -4.3556036591985235e-06   -2.3912510316816024e-05
7.726433138270666e-06   -1.5785291371749575e-06   -5.3975972030657026e-06
7.726433138270666e-06   -1.5785291371749575e-06   -5.3975972030657026e-06
7.726433138270666e-06   -1.5785291371749575e-06   -5.3975972030657026e-06
7.726433138270666e-06   -1.5785291371749575e-06   -5.3975972030657026e-06
1.2858619629276082e-05   -3.2405454586415276e-06   -1.295403156186144e-05
1.2858619629276082e-05   -3.2405454586415276e-06   -1.295403156186144e-05
1.2858619629276082e-05   -3.2405454586415276e-06   -1.295403156186144e-05
1.2858619629276082e-05   -3.2405454586415276e-06   -1.295403156186144e-05
7.726433138270666e-06   -4.3556036591985235e-06   -2.557875503003004e-05
7.726433138270666e-06   -4.3556036591985235e-06   -2.557875503003004e-05
7.726433138270666e-06   -4.3556036591985235e-06   -2.557875503003004e-05
7.726433138270666e-06   -4.3556036591985235e-06   -2.557875503003004e-05
1.983512783444941e-05   -1.5785291371749575e-06   -3.7313524898513082e-06
1.983512783444941e-05   -1.5785291371749575e-06   -3.7313524898513082e-06
1.983512783444941e-05   -1.5785291371749575e-06   -3.7313524898513082e-06
1.983512783444941e-05   -1.5785291371749575e-06   -3.7313524898513082e-06
2.0834064837490368e-05   -3.7386788926440165e-06   -2.622135433271396e-05
2.0834064837490368e-05   -3.7386788926440165e-06   -2.622135433271396e-05
2.0834064837490368e-05   -3.7386788926440165e-06   -2.622135433271396e-05
2.0834064837490368e-05   -3.7386788926440165e-06   -2.622135433271396e-05
7.963135835912252e-06   -1.0341972323601274e-06   -6.392494992920922e-06
7.963135835912252e-06   -1.0341972323601274e-06   -6.392494992920922e-06
7.963135835912252e-06   -1.0341972323601274e-06   -6.392494992920922e-06
7.963135835912252e-06   -1.0341972323601274e-06   -6.392494992920922e-06
1.3651245217018215e-05   -2.835407997984758e-06   -1.4791950835389158e-05
1.3651245217018215e-05   -2.835407997984758e-06   -1.4791950835389158e-05
1.3651245217018215e-05   -2.835407997984758e-06   -1.4791950835389158e-05
1.3651245217018215e-05   -2.835407997984758e-06   -1.4791950835389158e-05
7.963135835912239e-06   -3.7386788926440165e-06   -2.7844043328884276e-05
7.963135835912239e-06   -3.7386788926440165e-06   -2.7844043328884276e-05
7.963135835912239e-06   -3.7386788926440165e-06   -2.7844043328884276e-05
7.963135835912239e-06   -3.7386788926440165e-06   -2.7844043328884276e-05
2.0834064837490368e-05   -1.0341972323601274e-06   -4.769805996750198e-06
2.0834064837490368e-05   -1.0341972323601274e-06   -4.769805996750198e-06
2.0834064837490368e-05   -1.0341972323601274e-06   -4.769805996750198e-06
2.0834064837490368e-05   -1.0341972323601274e-06   -4.769805996750198e-06
2.2161889108524604e-05   -2.4211060431020975e-06   -3.06504257632162e-05
2.2161889108524604e-05   -2.4211060431020975e-06   -3.06504257632162e-05
2.2161889108524604e-05   -2.4211060431020975e-06   -3.06504257632162e-05
2.2161889108524604e-05   -2.4211060431020975e-06   -3.06504257632162e-05
8.07905460341115e-06   3.5479937305292995e-08   -8.652986509604716e-06
8.07905460341115e-06   3.5479937305292995e-08   -8.652986509604716e-06
8.07905460341115e-06   3.5479937305292995e-08   -8.652986509604716e-06
8.07905460341115e-06   3.5479937305292995e-08   -8.652986509604716e-06
1.3915809381394607e-05   -2.2332581330834073e-06   -1.7019668297344013e-05
1.3915809381394607e-05   -2.2332581330834073e-06   -1.7019668297344013e-05
1.3915809381394607e-05   -2.2332581330834073e-06   -1.7019668297344013e-05
1.3915809381394607e-05   -2.2332581330834073e-06   -1.7019668297344013e-05
-2.6465283413255576e-05   4.263841170903016e-06   -2.480963958820194e-05
-2.6465283413255576e-05   4.263841170903016e-06   -2.480963958820194e-05
-2.6465283413255576e-05   4.263841170903016e-06   -2.480963958820194e-05
-2.6465283413255576e-05   4.263841170903016e-06   -2.480963958820194e-05
-1.9549030289264693e-05   1.7359566004114015e-06   -1.4799281790512221e-05
-1.9549030289264693e-05   1.7359566004114015e-06   -1.4799281790512221e-05
-1.9549030289264693e-05   1.7359566004114015e-06   -1.4799281790512221e-05
-1.9549030289264693e-05   1.7359566004114015e-06   -1.4799281790512221e-05
-1.926192726821137e-05   5.427816631431545e-06   -2.1886635409526902e-05
-1.926192726821137e-05   5.427816631431545e-06   -2.1886635409526902e-05
-1.926192726821137e-05   5.427816631431545e-06   -2.1886635409526902e-05
-1.926192726821137e-05   5.427816631431545e-06   -2.1886635409526902e-05
-2.5026295995663242e-05   2.7042319483523095e-06   -1.0645203387259282e-05
-2.5026295995663242e-05   2.7042319483523095e-06   -1.0645203387259282e-05
-2.5026295995663242e-05   2.7042319483523095e-06   -1.0645203387259282e-05
-2.5026295995663242e-05   2.7042319483523095e-06   -1.0645203387259282e-05
-2.1619178039522426e-05   3.824923213364951e-06   -1.6996148073169365e-05
-2.1619178039522426e-05   3.824923213364951e-06   -1.6996148073169365e-05
-2.1619178039522426e-05   3.824923213364951e-06   -1.6996148073169365e-05
-2.1619178039522426e-05   3.824923213364951e-06   -1.6996148073169365e-05
-2.5026295995663242e-05   5.427816631431545e-06   -2.0252484599679404e-05
-2.5026295995663242e-05   5.427816631431545e-06   -2.0252484599679404e-05
-2.5026295995663242e-05   5.427816631431545e-06   -2.0252484599679404e-05
-2.5026295995663242e-05   5.427816631431545e-06   -2.0252484599679404e-05
-1.9261927268211424e-05   2.7042319483523095e-06   -1.2279354197106942e-05
-1.9261927268211424e-05   2.7042319483523095e-06   -1.2279354197106942e-05
-1.9261927268211424e-05   2.7042319483523095e-06   -1.2279354197106942e-05
-1.9261927268211424e-05   2.7042319483523095e-06   -1.2279354197106942e-05
-1.88520337207617e-05   5.970317785703567e-06   -1.954340015728514e-05
-1.88520337207617e-05   5.970317785703567e-06   -1.954340015728514e-05
-1.88520337207617e-05   5.970317785703567e-06   -1.954340015728514e-05
-1.88520337207617e-05   5.970317785703567e-06   -1.954340015728514e-05
-2.387884902408326e-05   3.1937010434612053e-06   -9.49940460640388e-06
-2.387884902408326e-05   3.1937010434612053e-06   -9.49940460640388e-06
-2.387884902408326e-05   3.1937010434612053e-06   -9.49940460640388e-06
-2.387884902408326e-05   3.1937010434612053e-06   -9.49940460640388e-06
-2.1239874423745927e-05   4.347497481488978e-06   -1.4589973469782613e-05
-2.1239874423745927e-05   4.347497481488978e-06   -1.4589973469782613e-05
-2.1239874423745927e-05   4.347497481488978e-06   -1.4589973469782613e-05
-2.1239874423745927e-05   4.347497481488978e-06   -1.4589973469782613e-05
-2.3878849024083207e-05   5.970317785703567e-06   -1.787743011193979e-05
-2.3878849024083207e-05   5.970317785703567e-06   -1.787743011193979e-05
-2.3878849024083207e-05   5.970317785703567e-06   -1.787743011193979e-05
-2.3878849024083207e-05   5.970317785703567e-06   -1.787743011193979e-05
-1.8852033720761753e-05   3.1937010434612053e-06   -1.1165374651749124e-05
-1.8852033720761753e-05   3.1937010434612053e-06   -1.1165374651749124e-05
-1.8852033720761753e-05   3.1937010434612053e-06   -1.1165374651749124e-05
-1.8852033720761753e-05   3.1937010434612053e-06   -1.1165374651749124e-05
-1.8573121863488728e-05   6.65277256166677e-06   -1.653787933980004e-05
-1.8573121863488728e-05   6.65277256166677e-06   -1.653787933980004e-05
-1.8573121863488728e-05   6.65277256166677e-06   -1.653787933980004e-05
-1.8573121863488728e-05   6.65277256166677e-06   -1.653787933980004e-05
-2.241783314674311e-05   3.96916419045934e-06   -8.519862178318015e-06
-2.241783314674311e-05   3.96916419045934e-06   -8.519862178318015e-06
-2.241783314674311e-05   3.96916419045934e-06   -8.519862178318015e-06
-2.241783314674311e-05   3.96916419045934e-06   -8.519862178318015e-06
-2.024763025772654e-05   4.7101841891917856e-06   -1.2581478992585674e-05
-2.024763025772654e-05   4.7101841891917856e-06   -1.2581478992585674e-05
-2.024763025772654e-05   4.7101841891917856e-06   -1.2581478992585674e-05
-2.024763025772654e-05   4.7101841891917856e-06   -1.2581478992585674e-05
-1.9549030289264693e-05   2.2051564206907685e-06   -3.617449412364297e-05
-1.9549030289264693e-05   2.2051564206907685e-06   -3.617449412364297e-05
-1.9549030289264693e-05   2.2051564206907685e-06   -3.617449412364297e-05
-1.9549030289264693e-05   2.2051564206907685e-06   -3.617449412364297e-05
-1.3928524818953927e-05   9.979788442439179e-07   -2.753129155232657e-05
-1.3928524818953927e-05   9.979788442439179e-07   -2.753129155232657e-05
-1.3928524818953927e-05   9.979788442439179e-07   -2.753129155232657e-05
-1.3928524818953927e-05   9.979788442439179e-07   -2.753129155232657e-05
-1.3740836345617097e-05   3.434118489311754e-06   -3.60552981338658e-05
-1.3740836345617097e-05   3.434118489311754e-06   -3.60552981338658e-05
-1.3740836345617097e-05   3.434118489311754e-06   -3.60552981338658e-05
-1.3740836345617097e-05   3.434118489311754e-06   -3.60552981338658e-05
-1.926192726821145e-05   2.1083924591535144e-06   -2.6058044311446683e-05
-1.926192726821145e-05   2.1083924591535144e-06   -2.6058044311446683e-05
-1.926192726821145e-05   2.1083924591535144e-06   -2.6058044311446683e-05
-1.926192726821145e-05   2.1083924591535144e-06   -2.6058044311446683e-05
-1.6458037010159203e-05   2.3998110373657814e-06   -3.090604588846182e-05
-1.6458037010159203e-05   2.3998110373657814e-06   -3.090604588846182e-05
-1.6458037010159203e-05   2.3998110373657814e-06   -3.090604588846182e-05
-1.6458037010159203e-05   2.3998110373657814e-06   -3.090604588846182e-05
-1.9261927268211343e-05   3.434118489311754e-06   -3.525986251577055e-05
-1.9261927268211343e-05   3.434118489311754e-06   -3.525986251577055e-05
-1.9261927268211343e-05   3.434118489311754e-06   -3.525986251577055e-05
-1.9261927268211343e-05   3.434118489311754e-06   -3.525986251577055e-05
-1.374083634561711e-05   2.1083924591535144e-06   -2.6853479929541768e-05
-1.374083634561711e-05   2.1083924591535144e-06   -2.6853479929541768e-05
-1.374083634561711e-05   2.1083924591535144e-06   -2.6853479929541768e-05
-1.374083634561711e-05   2.1083924591535144e-06   -2.6853479929541768e-05
-1.3533511075168508e-05   4.552566362942012e-06   -3.547230388622157e-05
-1.3533511075168508e-05   4.552566362942012e-06   -3.547230388622157e-05
-1.3533511075168508e-05   4.552566362942012e-06   -3.547230388622157e-05
-1.3533511075168508e-05   4.552566362942012e-06   -3.547230388622157e-05
-1.885203372076178e-05   3.1411106587002097e-06   -2.5761226054354393e-05
-1.885203372076178e-05   3.1411106587002097e-06   -2.5761226054354393e-05
-1.885203372076178e-05   3.1411106587002097e-06   -2.5761226054354393e-05
-1.885203372076178e-05   3.1411106587002097e-06   -2.5761226054354393e-05
-1.6211069697267568e-05   3.2978371884669674e-06   -3.0256868678037668e-05
-1.6211069697267568e-05   3.2978371884669674e-06   -3.0256868678037668e-05
-1.6211069697267568e-05   3.2978371884669674e-06   -3.0256868678037668e-05
-1.6211069697267568e-05   3.2978371884669674e-06   -3.0256868678037668e-05
-1.88520337207617e-05   4.552566362942012e-06   -3.4625430463676465e-05
-1.88520337207617e-05   4.552566362942012e-06   -3.4625430463676465e-05
-1.88520337207617e-05   4.552566362942012e-06   -3.4625430463676465e-05
-1.88520337207617e-05   4.552566362942012e-06   -3.4625430463676465e-05
-1.3533511075168494e-05   3.1411106587004266e-06   -2.6608099476899333e-05
-1.3533511075168494e-05   3.1411106587004266e-06   -2.6608099476899333e-05
-1.3533511075168494e-05   3.1411106587004266e-06   -2.6608099476899333e-05
-1.3533511075168494e-05   3.1411106587004266e-06   -2.6608099476899333e-05
-1.334924856747106e-05   5.767618768881674e-06   -3.581627610885771e-05
-1.334924856747106e-05   5.767618768881674e-06   -3.581627610885771e-05
-1.334924856747106e-05   5.767618768881674e-06   -3.581627610885771e-05
-1.334924856747106e-05   5.767618768881674e-06   -3.581627610885771e-05
-1.8573121863488782e-05   4.288841649027243e-06   -2.622255434358195e-05
-1.8573121863488782e-05   4.288841649027243e-06   -2.622255434358195e-05
-1.8573121863488782e-05   4.288841649027243e-06   -2.622255434358195e-05
-1.8573121863488782e-05   4.288841649027243e-06   -2.622255434358195e-05
-1.611501601528299e-05   4.207651392612154e-06   -3.0270683270076226e-05
-1.611501601528299e-05   4.207651392612154e-06   -3.0270683270076226e-05
-1.611501601528299e-05   4.207651392612154e-06   -3.0270683270076226e-05
-1.611501601528299e-05   4.207651392612154e-06   -3.0270683270076226e-05
-1.3928524818953886e-05   3.801100208250443e-07   -4.090758567617419e-05
-1.3928524818953886e-05   3.801100208250443e-07   -4.090758567617419e-05
-1.3928524818953886e-05   3.801100208250443e-07   -4.090758567617419e-05
-1.3928524818953886e-05   3.801100208250443e-07   -4.090758567617419e-05
-8.450791347187884e-06   5.728485532366899e-07   -3.1662386770450746e-05
-8.450791347187884e-06   5.728485532366899e-07   -3.1662386770450746e-05
-8.450791347187884e-06   5.728485532366899e-07   -3.1662386770450746e-05
-8.450791347187884e-06   5.728485532366899e-07   -3.1662386770450746e-05
-8.267946767043796e-06   1.6159232708699714e-06   -4.039302741344229e-05
-8.267946767043796e-06   1.6159232708699714e-06   -4.039302741344229e-05
-8.267946767043796e-06   1.6159232708699714e-06   -4.039302741344229e-05
-8.267946767043796e-06   1.6159232708699714e-06   -4.039302741344229e-05
-1.3740836345617097e-05   1.7040584867520584e-06   -3.1324425912015644e-05
-1.3740836345617097e-05   1.7040584867520584e-06   -3.1324425912015644e-05
-1.3740836345617097e-05   1.7040584867520584e-06   -3.1324425912015644e-05
-1.3740836345617097e-05   1.7040584867520584e-06   -3.1324425912015644e-05
-1.1025887106449937e-05   1.2258466243763883e-06   -3.5562414193203074e-05
-1.1025887106449937e-05   1.2258466243763883e-06   -3.5562414193203074e-05
-1.1025887106449937e-05   1.2258466243763883e-06   -3.5562414193203074e-05
-1.1025887106449937e-05   1.2258466243763883e-06   -3.5562414193203074e-05
-1.374083634561707e-05   1.6159232708699714e-06   -4.0445908542971443e-05
-1.374083634561707e-05   1.6159232708699714e-06   -4.0445908542971443e-05
-1.374083634561707e-05   1.6159232708699714e-06   -4.0445908542971443e-05
-1.374083634561707e-05   1.6159232708699714e-06   -4.0445908542971443e-05
-8.267946767043796e-06   1.7040584867520584e-06   -3.1271544782486625e-05
-8.267946767043796e-06   1.7040584867520584e-06   -3.1271544782486625e-05
-8.267946767043796e-06   1.7040584867520584e-06   -3.1271544782486625e-05
-8.267946767043796e-06   1.7040584867520584e-06   -3.1271544782486625e-05
-8.062097860193444e-06   2.855690122167162e-06   -4.0498188790267305e-05
-8.062097860193444e-06   2.855690122167162e-06   -4.0498188790267305e-05
-8.062097860193444e-06   2.855690122167162e-06   -4.0498188790267305e-05
-8.062097860193444e-06   2.855690122167162e-06   -4.0498188790267305e-05
-1.3533511075168508e-05   2.8451676631841352e-06   -3.137285328991889e-05
-1.3533511075168508e-05   2.8451676631841352e-06   -3.137285328991889e-05
-1.3533511075168508e-05   2.8451676631841352e-06   -3.137285328991889e-05
-1.3533511075168508e-05   2.8451676631841352e-06   -3.137285328991889e-05
-1.0903505934347934e-05   2.1979032444461493e-06   -3.536783654004385e-05
-1.0903505934347934e-05   2.1979032444461493e-06   -3.536783654004385e-05
-1.0903505934347934e-05   2.1979032444461493e-06   -3.536783654004385e-05
-1.0903505934347934e-05   2.1979032444461493e-06   -3.536783654004385e-05
-1.3533511075168467e-05   2.855690122167162e-06   -4.049187531487736e-05
-1.3533511075168467e-05   2.855690122167162e-06   -4.049187531487736e-05
-1.3533511075168467e-05   2.855690122167162e-06   -4.049187531487736e-05
-1.3533511075168467e-05   2.855690122167162e-06   -4.049187531487736e-05
-8.062097860193444e-06   2.8451676631841352e-06   -3.1379166765308755e-05
-8.062097860193444e-06   2.8451676631841352e-06   -3.1379166765308755e-05
-8.062097860193444e-06   2.8451676631841352e-06   -3.1379166765308755e-05
-8.062097860193444e-06   2.8451676631841352e-06   -3.1379166765308755e-05
-7.877197234750829e-06   4.117132960151991e-06   -4.1179818383443065e-05
-7.877197234750829e-06   4.117132960151991e-06   -4.1179818383443065e-05
-7.877197234750829e-06   4.117132960151991e-06   -4.1179818383443065e-05
-7.877197234750829e-06   4.117132960151991e-06   -4.1179818383443065e-05
-1.3349248567471074e-05   4.003510380283211e-06   -3.1991559280987854e-05
-1.3349248567471074e-05   4.003510380283211e-06   -3.1991559280987854e-05
-1.3349248567471074e-05   4.003510380283211e-06   -3.1991559280987854e-05
-1.3349248567471074e-05   4.003510380283211e-06   -3.1991559280987854e-05
-1.0802468215528726e-05   3.182886930046345e-06   -3.5743819130750005e-05
-1.0802468215528726e-05   3.182886930046345e-06   -3.5743819130750005e-05
-1.0802468215528726e-05   3.182886930046345e-06   -3.5743819130750005e-05
-1.0802468215528726e-05   3.182886930046345e-06   -3.5743819130750005e-05
-8.450791347187855e-06   -1.2888480460185054e-06   -3.58551267479452e-05
-8.450791347187855e-06   -1.2888480460185054e-06   -3.58551267479452e-05
-8.450791347187855e-06   -1.2888480460185054e-06   -3.58551267479452e-05
-8.450791347187855e-06   -1.2888480460185054e-06   -3.58551267479452e-05
-3.1400949892902783e-06   2.464618334703083e-07   -2.6082780223756017e-05
-3.1400949892902783e-06   2.464618334703083e-07   -2.6082780223756017e-05
-3.1400949892902783e-06   2.464618334703083e-07   -2.6082780223756017e-05
-3.1400949892902783e-06   2.464618334703083e-07   -2.6082780223756017e-05
-2.8665745452614334e-06   -1.2465263192018659e-07   -3.470157080476895e-05
-2.8665745452614334e-06   -1.2465263192018659e-07   -3.470157080476895e-05
-2.8665745452614334e-06   -1.2465263192018659e-07   -3.470157080476895e-05
-2.8665745452614334e-06   -1.2465263192018659e-07   -3.470157080476895e-05
-8.267946767043779e-06   1.3424039701011737e-06   -2.6579517729677534e-05
-8.267946767043779e-06   1.3424039701011737e-06   -2.6579517729677534e-05
-8.267946767043779e-06   1.3424039701011737e-06   -2.6579517729677534e-05
-8.267946767043779e-06   1.3424039701011737e-06   -2.6579517729677534e-05
-5.6240122080722e-06   1.58238674364446e-07   -3.027557615052207e-05
-5.6240122080722e-06   1.58238674364446e-07   -3.027557615052207e-05
-5.6240122080722e-06   1.58238674364446e-07   -3.027557615052207e-05
-5.6240122080722e-06   1.58238674364446e-07   -3.027557615052207e-05
-8.267946767043765e-06   -1.24652631920295e-07   -3.5581804765981635e-05
-8.267946767043765e-06   -1.24652631920295e-07   -3.5581804765981635e-05
-8.267946767043765e-06   -1.24652631920295e-07   -3.5581804765981635e-05
-8.267946767043765e-06   -1.24652631920295e-07   -3.5581804765981635e-05
-2.8665745452614334e-06   1.3424039701011737e-06   -2.5699283768464793e-05
-2.8665745452614334e-06   1.3424039701011737e-06   -2.5699283768464793e-05
-2.8665745452614334e-06   1.3424039701011737e-06   -2.5699283768464793e-05
-2.8665745452614334e-06   1.3424039701011737e-06   -2.5699283768464793e-05
-2.4599458097349455e-06   9.951751772080799e-07   -3.516843721256636e-05
-2.4599458097349455e-06   9.951751772080799e-07   -3.516843721256636e-05
-2.4599458097349455e-06   9.951751772080799e-07   -3.516843721256636e-05
-2.4599458097349455e-06   9.951751772080799e-07   -3.516843721256636e-05
-8.06209786019343e-06   2.374987633407214e-06   -2.6659404602188088e-05
-8.06209786019343e-06   2.374987633407214e-06   -2.6659404602188088e-05
-8.06209786019343e-06   2.374987633407214e-06   -2.6659404602188088e-05
-8.06209786019343e-06   2.374987633407214e-06   -2.6659404602188088e-05
-5.458792682875736e-06   1.0431964407299444e-06   -3.0199171848778073e-05
-5.458792682875736e-06   1.0431964407299444e-06   -3.0199171848778073e-05
-5.458792682875736e-06   1.0431964407299444e-06   -3.0199171848778073e-05
-5.458792682875736e-06   1.0431964407299444e-06   -3.0199171848778073e-05
-8.06209786019341e-06   9.951751772080799e-07   -3.5996324686285506e-05
-8.06209786019341e-06   9.951751772080799e-07   -3.5996324686285506e-05
-8.06209786019341e-06   9.951751772080799e-07   -3.5996324686285506e-05
-8.06209786019341e-06   9.951751772080799e-07   -3.5996324686285506e-05
-2.4599458097349455e-06   2.3749876334069973e-06   -2.5831517128468767e-05
-2.4599458097349455e-06   2.3749876334069973e-06   -2.5831517128468767e-05
-2.4599458097349455e-06   2.3749876334069973e-06   -2.5831517128468767e-05
-2.4599458097349455e-06   2.3749876334069973e-06   -2.5831517128468767e-05
-2.1761280335098746e-06   2.278465531200917e-06   -3.615198894372075e-05
-2.1761280335098746e-06   2.278465531200917e-06   -3.615198894372075e-05
-2.1761280335098746e-06   2.278465531200917e-06   -3.615198894372075e-05
-2.1761280335098746e-06   2.278465531200917e-06   -3.615198894372075e-05
-7.877197234750844e-06   3.542339345058822e-06   -2.740853122996687e-05
-7.877197234750844e-06   3.542339345058822e-06   -2.740853122996687e-05
-7.877197234750844e-06   3.542339345058822e-06   -2.740853122996687e-05
-7.877197234750844e-06   3.542339345058822e-06   -2.740853122996687e-05
-5.285934693192941e-06   1.9704938795117328e-06   -3.078419485323532e-05
-5.285934693192941e-06   1.9704938795117328e-06   -3.078419485323532e-05
-5.285934693192941e-06   1.9704938795117328e-06   -3.078419485323532e-05
-5.285934693192941e-06   1.9704938795117328e-06   -3.078419485323532e-05
-3.140094989290265e-06   -2.3672996721937163e-06   -1.9455516892294682e-05
-3.140094989290265e-06   -2.3672996721937163e-06   -1.9455516892294682e-05
-3.140094989290265e-06   -2.3672996721937163e-06   -1.9455516892294682e-05
-3.140094989290265e-06   -2.3672996721937163e-06   -1.9455516892294682e-05
7.813101601322422e-07   3.435540610052801e-07   -1.1293329403337833e-05
7.813101601322422e-07   3.435540610052801e-07   -1.1293329403337833e-05
7.813101601322422e-07   3.435540610052801e-07   -1.1293329403337833e-05
7.813101601322422e-07   3.435540610052801e-07   -1.1293329403337833e-05
2.2279728629850677e-06   -1.5785291371749575e-06   -1.85769147753191e-05
2.2279728629850677e-06   -1.5785291371749575e-06   -1.85769147753191e-05
2.2279728629850677e-06   -1.5785291371749575e-06   -1.85769147753191e-05
2.2279728629850677e-06   -1.5785291371749575e-06   -1.85769147753191e-05
-2.8665745452614334e-06   1.2099964157130227e-06   -1.1759117759974102e-05
-2.8665745452614334e-06   1.2099964157130227e-06   -1.1759117759974102e-05
-2.8665745452614334e-06   1.2099964157130227e-06   -1.1759117759974102e-05
-2.8665745452614334e-06   1.2099964157130227e-06   -1.1759117759974102e-05
-7.294552940722182e-07   -4.813175546508532e-07   -1.4306194796404926e-05
-7.294552940722182e-07   -4.813175546508532e-07   -1.4306194796404926e-05
-7.294552940722182e-07   -4.813175546508532e-07   -1.4306194796404926e-05
-7.294552940722182e-07   -4.813175546508532e-07   -1.4306194796404926e-05
-2.86657454526142e-06   -1.5785291371748491e-06   -2.0250030107051757e-05
-2.86657454526142e-06   -1.5785291371748491e-06   -2.0250030107051757e-05
-2.86657454526142e-06   -1.5785291371748491e-06   -2.0250030107051757e-05
-2.86657454526142e-06   -1.5785291371748491e-06   -2.0250030107051757e-05
2.2279728629850406e-06   1.2099964157130227e-06   -1.0086002428241498e-05
2.2279728629850406e-06   1.2099964157130227e-06   -1.0086002428241498e-05
2.2279728629850406e-06   1.2099964157130227e-06   -1.0086002428241498e-05
2.2279728629850406e-06   1.2099964157130227e-06   -1.0086002428241498e-05
3.37033219079133e-06   -1.0341972323602358e-06   -1.958820902814225e-05
3.37033219079133e-06   -1.0341972323602358e-06   -1.958820902814225e-05
3.37033219079133e-06   -1.0341972323602358e-06   -1.958820902814225e-05
3.37033219079133e-06   -1.0341972323602358e-06   -1.958820902814225e-05
-2.4599458097349455e-06   1.697172043685878e-06   -1.1509900592892539e-05
-2.4599458097349455e-06   1.697172043685878e-06   -1.1509900592892539e-05
-2.4599458097349455e-06   1.697172043685878e-06   -1.1509900592892539e-05
-2.4599458097349455e-06   1.697172043685878e-06   -1.1509900592892539e-05
3.9922046023399245e-09   -6.627167966895102e-08   -1.4558397716108384e-05
3.9922046023399245e-09   -6.627167966895102e-08   -1.4558397716108384e-05
3.9922046023399245e-09   -6.627167966895102e-08   -1.4558397716108384e-05
3.9922046023399245e-09   -6.627167966895102e-08   -1.4558397716108384e-05
-2.459945809734932e-06   -1.0341972323602358e-06   -2.122703059376994e-05
-2.459945809734932e-06   -1.0341972323602358e-06   -2.122703059376994e-05
-2.459945809734932e-06   -1.0341972323602358e-06   -2.122703059376994e-05
-2.459945809734932e-06   -1.0341972323602358e-06   -2.122703059376994e-05
3.37033219079133e-06   1.697172043686095e-06   -9.87107902726493e-06
3.37033219079133e-06   1.697172043686095e-06   -9.87107902726493e-06
3.37033219079133e-06   1.697172043686095e-06   -9.87107902726493e-06
3.37033219079133e-06   1.697172043686095e-06   -9.87107902726493e-06
4.8122401524424005e-06   3.5479937305401416e-08   -2.1941936833618967e-05
4.8122401524424005e-06   3.5479937305401416e-08   -2.1941936833618967e-05
4.8122401524424005e-06   3.5479937305401416e-08   -2.1941936833618967e-05
4.8122401524424005e-06   3.5479937305401416e-08   -2.1941936833618967e-05
-2.1761280335098746e-06   2.560603493452669e-06   -1.1809730657386558e-05
-2.1761280335098746e-06   2.560603493452669e-06   -1.1809730657386558e-05
-2.1761280335098746e-06   2.560603493452669e-06   -1.1809730657386558e-05
-2.1761280335098746e-06   2.560603493452669e-06   -1.1809730657386558e-05
6.353968322975485e-07   4.069704277541008e-07   -1.5203425594313436e-05
6.353968322975485e-07   4.069704277541008e-07   -1.5203425594313436e-05
6.353968322975485e-07   4.069704277541008e-07   -1.5203425594313436e-05
6.353968322975485e-07   4.069704277541008e-07   -1.5203425594313436e-05
-9.206871504834871e-06   1.7359566004114015e-06   -1.6526981842701106e-05
-9.206871504834871e-06   1.7359566004114015e-06   -1.6526981842701106e-05
-9.206871504834871e-06   1.7359566004114015e-06   -1.6526981842701106e-05
-9.206871504834871e-06   1.7359566004114015e-06   -1.6526981842701106e-05
-9.34324886350536e-06   -8.093037878983186e-07   -1.8281433673470924e-05
-9.34324886350536e-06   -8.093037878983186e-07   -1.8281433673470924e-05
-9.34324886350536e-06   -8.093037878983186e-07   -1.8281433673470924e-05
-9.34324886350536e-06   -8.093037878983186e-07   -1.8281433673470924e-05
-8.875995878196815e-06   2.7042319483523095e-06   -1.5528613584407137e-05
-8.875995878196815e-06   2.7042319483523095e-06   -1.5528613584407137e-05
-8.875995878196815e-06   2.7042319483523095e-06   -1.5528613584407137e-05
-8.875995878196815e-06   2.7042319483523095e-06   -1.5528613584407137e-05
-7.596239862617412e-06   -2.6255234647628786e-08   -1.602324796723929e-05
-7.596239862617412e-06   -2.6255234647628786e-08   -1.602324796723929e-05
-7.596239862617412e-06   -2.6255234647628786e-08   -1.602324796723929e-05
-7.596239862617412e-06   -2.6255234647628786e-08   -1.602324796723929e-05
-8.372948588574288e-06   1.1951647592330084e-06   -1.5461585420306883e-05
-8.372948588574288e-06   1.1951647592330084e-06   -1.5461585420306883e-05
-8.372948588574288e-06   1.1951647592330084e-06   -1.5461585420306883e-05
-8.372948588574288e-06   1.1951647592330084e-06   -1.5461585420306883e-05
-7.596239862617358e-06   2.7042319483523095e-06   -1.389032127460698e-05
-7.596239862617358e-06   2.7042319483523095e-06   -1.389032127460698e-05
-7.596239862617358e-06   2.7042319483523095e-06   -1.389032127460698e-05
-7.596239862617358e-06   2.7042319483523095e-06   -1.389032127460698e-05
-8.875995878196842e-06   -2.6255234647628786e-08   -1.7661540277039503e-05
-8.875995878196842e-06   -2.6255234647628786e-08   -1.7661540277039503e-05
-8.875995878196842e-06   -2.6255234647628786e-08   -1.7661540277039503e-05
-8.875995878196842e-06   -2.6255234647628786e-08   -1.7661540277039503e-05
-8.286430339611746e-06   3.193701043461422e-06   -1.4410551968802336e-05
-8.286430339611746e-06   3.193701043461422e-06   -1.4410551968802336e-05
-8.286430339611746e-06   3.193701043461422e-06   -1.4410551968802336e-05
-8.286430339611746e-06   3.193701043461422e-06   -1.4410551968802336e-05
-6.264759943921017e-06   4.169901840177237e-07   -1.6113976112620636e-05
-6.264759943921017e-06   4.169901840177237e-07   -1.6113976112620636e-05
-6.264759943921017e-06   4.169901840177237e-07   -1.6113976112620636e-05
-6.264759943921017e-06   4.169901840177237e-07   -1.6113976112620636e-05
-7.6108213787131495e-06   1.5973472440727887e-06   -1.457875462400072e-05
-7.6108213787131495e-06   1.5973472440727887e-06   -1.457875462400072e-05
-7.6108213787131495e-06   1.5973472440727887e-06   -1.457875462400072e-05
-7.6108213787131495e-06   1.5973472440727887e-06   -1.457875462400072e-05
-6.264759943920963e-06   3.193701043461422e-06   -1.274452545313616e-05
-6.264759943920963e-06   3.193701043461422e-06   -1.274452545313616e-05
-6.264759943920963e-06   3.193701043461422e-06   -1.274452545313616e-05
-6.264759943920963e-06   3.193701043461422e-06   -1.274452545313616e-05
-8.286430339611719e-06   4.169901840177237e-07   -1.7780002628286812e-05
-8.286430339611719e-06   4.169901840177237e-07   -1.7780002628286812e-05
-8.286430339611719e-06   4.169901840177237e-07   -1.7780002628286812e-05
-8.286430339611719e-06   4.169901840177237e-07   -1.7780002628286812e-05
-7.826945967131751e-06   3.96916419045934e-06   -1.3371480065961462e-05
-7.826945967131751e-06   3.96916419045934e-06   -1.3371480065961462e-05
-7.826945967131751e-06   3.96916419045934e-06   -1.3371480065961462e-05
-7.826945967131751e-06   3.96916419045934e-06   -1.3371480065961462e-05
-4.6208093017017105e-06   1.300915145086099e-06   -1.711409174778725e-05
-4.6208093017017105e-06   1.300915145086099e-06   -1.711409174778725e-05
-4.6208093017017105e-06   1.300915145086099e-06   -1.711409174778725e-05
-4.6208093017017105e-06   1.300915145086099e-06   -1.711409174778725e-05
-6.658549779500465e-06   1.9831282839783814e-06   -1.4127185501458333e-05
-6.658549779500465e-06   1.9831282839783814e-06   -1.4127185501458333e-05
-6.658549779500465e-06   1.9831282839783814e-06   -1.4127185501458333e-05
-6.658549779500465e-06   1.9831282839783814e-06   -1.4127185501458333e-05
-9.343248863505333e-06   9.979788442439179e-07   -3.0061841291632993e-05
-9.343248863505333e-06   9.979788442439179e-07   -3.0061841291632993e-05
-9.343248863505333e-06   9.979788442439179e-07   -3.0061841291632993e-05
-9.343248863505333e-06   9.979788442439179e-07   -3.0061841291632993e-05
-1.0775105646536296e-05   -1.743838449355748e-07   -3.315168687685881e-05
-1.0775105646536296e-05   -1.743838449355748e-07   -3.315168687685881e-05
-1.0775105646536296e-05   -1.743838449355748e-07   -3.315168687685881e-05
-1.0775105646536296e-05   -1.743838449355748e-07   -3.315168687685881e-05
-1.039786744854625e-05   2.1083924591535144e-06   -3.0084052905107912e-05
-1.039786744854625e-05   2.1083924591535144e-06   -3.0084052905107912e-05
-1.039786744854625e-05   2.1083924591535144e-06   -3.0084052905107912e-05
-1.039786744854625e-05   2.1083924591535144e-06   -3.0084052905107912e-05
-8.875995878196842e-06   8.138104485523514e-07   -3.1843756315995874e-05
-8.875995878196842e-06   8.138104485523514e-07   -3.1843756315995874e-05
-8.875995878196842e-06   8.138104485523514e-07   -3.1843756315995874e-05
-8.875995878196842e-06   8.138104485523514e-07   -3.1843756315995874e-05
-9.73336912260234e-06   1.153595325404039e-06   -3.061867183476501e-05
-9.73336912260234e-06   1.153595325404039e-06   -3.061867183476501e-05
-9.73336912260234e-06   1.153595325404039e-06   -3.061867183476501e-05
-9.73336912260234e-06   1.153595325404039e-06   -3.061867183476501e-05
-8.875995878196788e-06   2.1083924591535144e-06   -2.9307303698746716e-05
-8.875995878196788e-06   2.1083924591535144e-06   -2.9307303698746716e-05
-8.875995878196788e-06   2.1083924591535144e-06   -2.9307303698746716e-05
-8.875995878196788e-06   2.1083924591535144e-06   -2.9307303698746716e-05
-1.0397867448546223e-05   8.138104485521346e-07   -3.2620505522356746e-05
-1.0397867448546223e-05   8.138104485521346e-07   -3.2620505522356746e-05
-1.0397867448546223e-05   8.138104485521346e-07   -3.2620505522356746e-05
-1.0397867448546223e-05   8.138104485521346e-07   -3.2620505522356746e-05
-1.0005496807918816e-05   3.1411106587004266e-06   -2.9831824373796893e-05
-1.0005496807918816e-05   3.1411106587004266e-06   -2.9831824373796893e-05
-1.0005496807918816e-05   3.1411106587004266e-06   -2.9831824373796893e-05
-1.0005496807918816e-05   3.1411106587004266e-06   -2.9831824373796893e-05
-8.286430339611746e-06   1.7654089880514683e-06   -3.187151415191911e-05
-8.286430339611746e-06   1.7654089880514683e-06   -3.187151415191911e-05
-8.286430339611746e-06   1.7654089880514683e-06   -3.187151415191911e-05
-8.286430339611746e-06   1.7654089880514683e-06   -3.187151415191911e-05
-9.355381007135944e-06   1.9505250632686003e-06   -3.0200999351175925e-05
-9.355381007135944e-06   1.9505250632686003e-06   -3.0200999351175925e-05
-9.355381007135944e-06   1.9505250632686003e-06   -3.0200999351175925e-05
-9.355381007135944e-06   1.9505250632686003e-06   -3.0200999351175925e-05
-8.286430339611746e-06   3.1411106587002097e-06   -2.900640337140739e-05
-8.286430339611746e-06   3.1411106587002097e-06   -2.900640337140739e-05
-8.286430339611746e-06   3.1411106587002097e-06   -2.900640337140739e-05
-8.286430339611746e-06   3.1411106587002097e-06   -2.900640337140739e-05
-1.0005496807918775e-05   1.7654089880514683e-06   -3.26969351543084e-05
-1.0005496807918775e-05   1.7654089880514683e-06   -3.26969351543084e-05
-1.0005496807918775e-05   1.7654089880514683e-06   -3.26969351543084e-05
-1.0005496807918775e-05   1.7654089880514683e-06   -3.26969351543084e-05
-9.636056978890533e-06   4.288841649027243e-06   -3.0325977140765754e-05
-9.636056978890533e-06   4.288841649027243e-06   -3.0325977140765754e-05
-9.636056978890533e-06   4.288841649027243e-06   -3.0325977140765754e-05
-9.636056978890533e-06   4.288841649027243e-06   -3.0325977140765754e-05
-7.826945967131778e-06   2.852225095251919e-06   -3.247919222809859e-05
-7.826945967131778e-06   2.852225095251919e-06   -3.247919222809859e-05
-7.826945967131778e-06   2.852225095251919e-06   -3.247919222809859e-05
-7.826945967131778e-06   2.852225095251919e-06   -3.247919222809859e-05
-9.022943205205524e-06   2.786718973716131e-06   -3.0446559825054098e-05
-9.022943205205524e-06   2.786718973716131e-06   -3.0446559825054098e-05
-9.022943205205524e-06   2.786718973716131e-06   -3.0446559825054098e-05
-9.022943205205524e-06   2.786718973716131e-06   -3.0446559825054098e-05
-1.0775105646536256e-05   5.728485532364731e-07   -3.5011997242711634e-05
-1.0775105646536256e-05   5.728485532364731e-07   -3.5011997242711634e-05
-1.0775105646536256e-05   5.728485532364731e-07   -3.5011997242711634e-05
-1.0775105646536256e-05   5.728485532364731e-07   -3.5011997242711634e-05
-1.2281524763799653e-05   8.207857206884994e-07   -3.7373933471012886e-05
-1.2281524763799653e-05   8.207857206884994e-07   -3.7373933471012886e-05
-1.2281524763799653e-05   8.207857206884994e-07   -3.7373933471012886e-05
-1.2281524763799653e-05   8.207857206884994e-07   -3.7373933471012886e-05
-1.191085907159844e-05   1.7040584867520584e-06   -3.447198870253879e-05
-1.191085907159844e-05   1.7040584867520584e-06   -3.447198870253879e-05
-1.191085907159844e-05   1.7040584867520584e-06   -3.447198870253879e-05
-1.191085907159844e-05   1.7040584867520584e-06   -3.447198870253879e-05
-1.039786744854625e-05   1.8424087951569596e-06   -3.707665159266869e-05
-1.039786744854625e-05   1.8424087951569596e-06   -3.707665159266869e-05
-1.039786744854625e-05   1.8424087951569596e-06   -3.707665159266869e-05
-1.039786744854625e-05   1.8424087951569596e-06   -3.707665159266869e-05
-1.1273055619114795e-05   1.394219692491894e-06   -3.534909118012243e-05
-1.1273055619114795e-05   1.394219692491894e-06   -3.534909118012243e-05
-1.1273055619114795e-05   1.394219692491894e-06   -3.534909118012243e-05
-1.1273055619114795e-05   1.394219692491894e-06   -3.534909118012243e-05
-1.039786744854621e-05   1.7040584867520584e-06   -3.455499888758171e-05
-1.039786744854621e-05   1.7040584867520584e-06   -3.455499888758171e-05
-1.039786744854621e-05   1.7040584867520584e-06   -3.455499888758171e-05
-1.039786744854621e-05   1.7040584867520584e-06   -3.455499888758171e-05
-1.191085907159846e-05   1.8424087951571765e-06   -3.6993641407625935e-05
-1.191085907159846e-05   1.8424087951571765e-06   -3.6993641407625935e-05
-1.191085907159846e-05   1.8424087951571765e-06   -3.6993641407625935e-05
-1.191085907159846e-05   1.8424087951571765e-06   -3.6993641407625935e-05
-1.1520895721064582e-05   2.8451676631839184e-06   -3.457180763372656e-05
-1.1520895721064582e-05   2.8451676631839184e-06   -3.457180763372656e-05
-1.1520895721064582e-05   2.8451676631839184e-06   -3.457180763372656e-05
-1.1520895721064582e-05   2.8451676631839184e-06   -3.457180763372656e-05
-1.0005496807918816e-05   2.886451918333822e-06   -3.712224304205927e-05
-1.0005496807918816e-05   2.886451918333822e-06   -3.712224304205927e-05
-1.0005496807918816e-05   2.886451918333822e-06   -3.712224304205927e-05
-1.0005496807918816e-05   2.886451918333822e-06   -3.712224304205927e-05
-1.0962158598047213e-05   2.26831971218526e-06   -3.515692740148994e-05
-1.0962158598047213e-05   2.26831971218526e-06   -3.515692740148994e-05
-1.0962158598047213e-05   2.26831971218526e-06   -3.515692740148994e-05
-1.0962158598047213e-05   2.26831971218526e-06   -3.515692740148994e-05
-1.0005496807918775e-05   2.8451676631841352e-06   -3.459657818681637e-05
-1.0005496807918775e-05   2.8451676631841352e-06   -3.459657818681637e-05
-1.0005496807918775e-05   2.8451676631841352e-06   -3.459657818681637e-05
-1.0005496807918775e-05   2.8451676631841352e-06   -3.459657818681637e-05
-1.1520895721064582e-05   2.886451918333822e-06   -3.7097472488969324e-05
-1.1520895721064582e-05   2.886451918333822e-06   -3.7097472488969324e-05
-1.1520895721064582e-05   2.886451918333822e-06   -3.7097472488969324e-05
-1.1520895721064582e-05   2.886451918333822e-06   -3.7097472488969324e-05
-1.1153135250924023e-05   4.003510380283428e-06   -3.5242844382299e-05
-1.1153135250924023e-05   4.003510380283428e-06   -3.5242844382299e-05
-1.1153135250924023e-05   4.003510380283428e-06   -3.5242844382299e-05
-1.1153135250924023e-05   4.003510380283428e-06   -3.5242844382299e-05
-9.636056978890546e-06   3.944962753550359e-06   -3.773617959298135e-05
-9.636056978890546e-06   3.944962753550359e-06   -3.773617959298135e-05
-9.636056978890546e-06   3.944962753550359e-06   -3.773617959298135e-05
-9.636056978890546e-06   3.944962753550359e-06   -3.773617959298135e-05
-1.06761110311179e-05   3.1546588635438053e-06   -3.552857383859882e-05
-1.06761110311179e-05   3.1546588635438053e-06   -3.552857383859882e-05
-1.06761110311179e-05   3.1546588635438053e-06   -3.552857383859882e-05
-1.06761110311179e-05   3.1546588635438053e-06   -3.552857383859882e-05
-1.2281524763799607e-05   2.464618334703083e-07   -3.0204814323238978e-05
-1.2281524763799607e-05   2.464618334703083e-07   -3.0204814323238978e-05
-1.2281524763799607e-05   2.464618334703083e-07   -3.0204814323238978e-05
-1.2281524763799607e-05   2.464618334703083e-07   -3.0204814323238978e-05
-1.387317376428117e-05   1.8237779873218896e-06   -3.1911172965063957e-05
-1.387317376428117e-05   1.8237779873218896e-06   -3.1911172965063957e-05
-1.387317376428117e-05   1.8237779873218896e-06   -3.1911172965063957e-05
-1.387317376428117e-05   1.8237779873218896e-06   -3.1911172965063957e-05
-1.3424465148962166e-05   1.3424039701011737e-06   -2.887601707743826e-05
-1.3424465148962166e-05   1.3424039701011737e-06   -2.887601707743826e-05
-1.3424465148962166e-05   1.3424039701011737e-06   -2.887601707743826e-05
-1.3424465148962166e-05   1.3424039701011737e-06   -2.887601707743826e-05
-1.191085907159844e-05   2.848978257254022e-06   -3.230263844533579e-05
-1.191085907159844e-05   2.848978257254022e-06   -3.230263844533579e-05
-1.191085907159844e-05   2.848978257254022e-06   -3.230263844533579e-05
-1.191085907159844e-05   2.848978257254022e-06   -3.230263844533579e-05
-1.2772986286286087e-05   1.6795176341337804e-06   -3.0164083380318144e-05
-1.2772986286286087e-05   1.6795176341337804e-06   -3.0164083380318144e-05
-1.2772986286286087e-05   1.6795176341337804e-06   -3.0164083380318144e-05
-1.2772986286286087e-05   1.6795176341337804e-06   -3.0164083380318144e-05
-1.191085907159842e-05   1.3424039701011737e-06   -2.977996164972975e-05
-1.191085907159842e-05   1.3424039701011737e-06   -2.977996164972975e-05
-1.191085907159842e-05   1.3424039701011737e-06   -2.977996164972975e-05
-1.191085907159842e-05   1.3424039701011737e-06   -2.977996164972975e-05
-1.3424465148962166e-05   2.848978257254022e-06   -3.139869387304439e-05
-1.3424465148962166e-05   2.848978257254022e-06   -3.139869387304439e-05
-1.3424465148962166e-05   2.848978257254022e-06   -3.139869387304439e-05
-1.3424465148962166e-05   2.848978257254022e-06   -3.139869387304439e-05
-1.284410891783901e-05   2.3749876334069973e-06   -2.9000285504358057e-05
-1.284410891783901e-05   2.3749876334069973e-06   -2.9000285504358057e-05
-1.284410891783901e-05   2.3749876334069973e-06   -2.9000285504358057e-05
-1.284410891783901e-05   2.3749876334069973e-06   -2.9000285504358057e-05
-1.1520895721064582e-05   3.7945875771537053e-06   -3.205740079856313e-05
-1.1520895721064582e-05   3.7945875771537053e-06   -3.205740079856313e-05
-1.1520895721064582e-05   3.7945875771537053e-06   -3.205740079856313e-05
-1.1520895721064582e-05   3.7945875771537053e-06   -3.205740079856313e-05
-1.2371940474867015e-05   2.493027256642152e-06   -2.985805668325237e-05
-1.2371940474867015e-05   2.493027256642152e-06   -2.985805668325237e-05
-1.2371940474867015e-05   2.493027256642152e-06   -2.985805668325237e-05
-1.2371940474867015e-05   2.493027256642152e-06   -2.985805668325237e-05
-1.1520895721064533e-05   2.3749876334069973e-06   -2.9852045470605496e-05
-1.1520895721064533e-05   2.3749876334069973e-06   -2.9852045470605496e-05
-1.1520895721064533e-05   2.3749876334069973e-06   -2.9852045470605496e-05
-1.1520895721064533e-05   2.3749876334069973e-06   -2.9852045470605496e-05
-1.284410891783901e-05   3.7945875771537053e-06   -3.120564083231524e-05
-1.284410891783901e-05   3.7945875771537053e-06   -3.120564083231524e-05
-1.284410891783901e-05   3.7945875771537053e-06   -3.120564083231524e-05
-1.284410891783901e-05   3.7945875771537053e-06   -3.120564083231524e-05
-1.2388308386422698e-05   3.542339345058605e-06   -2.9804596505116597e-05
-1.2388308386422698e-05   3.542339345058605e-06   -2.9804596505116597e-05
-1.2388308386422698e-05   3.542339345058605e-06   -2.9804596505116597e-05
-1.2388308386422698e-05   3.542339345058605e-06   -2.9804596505116597e-05
-1.1153135250924023e-05   4.8540831421254454e-06   -3.2650264675854415e-05
-1.1153135250924023e-05   4.8540831421254454e-06   -3.2650264675854415e-05
-1.1153135250924023e-05   4.8540831421254454e-06   -3.2650264675854415e-05
-1.1153135250924023e-05   4.8540831421254454e-06   -3.2650264675854415e-05
-1.2071965224693677e-05   3.3242131020016184e-06   -3.0200959362163728e-05
-1.2071965224693677e-05   3.3242131020016184e-06   -3.0200959362163728e-05
-1.2071965224693677e-05   3.3242131020016184e-06   -3.0200959362163728e-05
-1.2071965224693677e-05   3.3242131020016184e-06   -3.0200959362163728e-05
-1.3873173764281129e-05   3.435540610052801e-07   -1.609548605042933e-05
-1.3873173764281129e-05   3.435540610052801e-07   -1.609548605042933e-05
-1.3873173764281129e-05   3.435540610052801e-07   -1.609548605042933e-05
-1.3873173764281129e-05   3.435540610052801e-07   -1.609548605042933e-05
-1.681094451593833e-05   3.065686609040252e-06   -1.9358491107703793e-05
-1.681094451593833e-05   3.065686609040252e-06   -1.9358491107703793e-05
-1.681094451593833e-05   3.065686609040252e-06   -1.9358491107703793e-05
-1.681094451593833e-05   3.065686609040252e-06   -1.9358491107703793e-05
-1.5214116000058185e-05   1.2099964157130227e-06   -1.3264644022538343e-05
-1.5214116000058185e-05   1.2099964157130227e-06   -1.3264644022538343e-05
-1.5214116000058185e-05   1.2099964157130227e-06   -1.3264644022538343e-05
-1.5214116000058185e-05   1.2099964157130227e-06   -1.3264644022538343e-05
-1.3424465148962139e-05   3.99534149306182e-06   -1.7918602487440675e-05
-1.3424465148962139e-05   3.99534149306182e-06   -1.7918602487440675e-05
-1.3424465148962139e-05   3.99534149306182e-06   -1.7918602487440675e-05
-1.3424465148962139e-05   3.99534149306182e-06   -1.7918602487440675e-05
-1.4230467983677273e-05   2.2658744324556904e-06   -1.553758419321885e-05
-1.4230467983677273e-05   2.2658744324556904e-06   -1.553758419321885e-05
-1.4230467983677273e-05   2.2658744324556904e-06   -1.553758419321885e-05
-1.4230467983677273e-05   2.2658744324556904e-06   -1.553758419321885e-05
-1.3424465148962098e-05   1.2099964157130227e-06   -1.4935851068947296e-05
-1.3424465148962098e-05   1.2099964157130227e-06   -1.4935851068947296e-05
-1.3424465148962098e-05   1.2099964157130227e-06   -1.4935851068947296e-05
-1.3424465148962098e-05   1.2099964157130227e-06   -1.4935851068947296e-05
-1.5214116000058131e-05   3.99534149306182e-06   -1.624739544103164e-05
-1.5214116000058131e-05   3.99534149306182e-06   -1.624739544103164e-05
-1.5214116000058131e-05   3.99534149306182e-06   -1.624739544103164e-05
-1.5214116000058131e-05   3.99534149306182e-06   -1.624739544103164e-05
-1.39153197388518e-05   1.697172043686095e-06   -1.3044381757326955e-05
-1.39153197388518e-05   1.697172043686095e-06   -1.3044381757326955e-05
-1.39153197388518e-05   1.697172043686095e-06   -1.3044381757326955e-05
-1.39153197388518e-05   1.697172043686095e-06   -1.3044381757326955e-05
-1.2844108917838982e-05   4.4209840627776505e-06   -1.646402033713627e-05
-1.2844108917838982e-05   4.4209840627776505e-06   -1.646402033713627e-05
-1.2844108917838982e-05   4.4209840627776505e-06   -1.646402033713627e-05
-1.2844108917838982e-05   4.4209840627776505e-06   -1.646402033713627e-05
-1.3549913765929677e-05   2.696534550556979e-06   -1.4253009216319454e-05
-1.3549913765929677e-05   2.696534550556979e-06   -1.4253009216319454e-05
-1.3549913765929677e-05   2.696534550556979e-06   -1.4253009216319454e-05
-1.3549913765929677e-05   2.696534550556979e-06   -1.4253009216319454e-05
-1.2844108917838969e-05   1.697172043686095e-06   -1.4678668968781802e-05
-1.2844108917838969e-05   1.697172043686095e-06   -1.4678668968781802e-05
-1.2844108917838969e-05   1.697172043686095e-06   -1.4678668968781802e-05
-1.2844108917838969e-05   1.697172043686095e-06   -1.4678668968781802e-05
-1.3915319738851774e-05   4.420984062777434e-06   -1.482973312568153e-05
-1.3915319738851774e-05   4.420984062777434e-06   -1.482973312568153e-05
-1.3915319738851774e-05   4.420984062777434e-06   -1.482973312568153e-05
-1.3915319738851774e-05   4.420984062777434e-06   -1.482973312568153e-05
-1.2326290346678425e-05   2.560603493452886e-06   -1.3452521723574884e-05
-1.2326290346678425e-05   2.560603493452886e-06   -1.3452521723574884e-05
-1.2326290346678425e-05   2.560603493452886e-06   -1.3452521723574884e-05
-1.2326290346678425e-05   2.560603493452886e-06   -1.3452521723574884e-05
-1.2388308386422698e-05   5.0799343222463714e-06   -1.4860756821277092e-05
-1.2388308386422698e-05   5.0799343222463714e-06   -1.4860756821277092e-05
-1.2388308386422698e-05   5.0799343222463714e-06   -1.4860756821277092e-05
-1.2388308386422698e-05   5.0799343222463714e-06   -1.4860756821277092e-05
-1.2546904878601883e-05   3.0443028238616963e-06   -1.3375050435281155e-05
-1.2546904878601883e-05   3.0443028238616963e-06   -1.3375050435281155e-05
-1.2546904878601883e-05   3.0443028238616963e-06   -1.3375050435281155e-05
-1.2546904878601883e-05   3.0443028238616963e-06   -1.3375050435281155e-05
8.18337435811036e-06   -8.093037878983186e-07   -8.356214619778166e-06
8.18337435811036e-06   -8.093037878983186e-07   -8.356214619778166e-06
8.18337435811036e-06   -8.093037878983186e-07   -8.356214619778166e-06
8.18337435811036e-06   -8.093037878983186e-07   -8.356214619778166e-06
8.419758801317639e-07   -3.3987595462979785e-06   -2.214555220478244e-05
8.419758801317639e-07   -3.3987595462979785e-06   -2.214555220478244e-05
8.419758801317639e-07   -3.3987595462979785e-06   -2.214555220478244e-05
8.419758801317639e-07   -3.3987595462979785e-06   -2.214555220478244e-05
1.4823917272444162e-06   -2.6255234647845627e-08   -9.23463077419904e-06
1.4823917272444162e-06   -2.6255234647845627e-08   -9.23463077419904e-06
1.4823917272444162e-06   -2.6255234647845627e-08   -9.23463077419904e-06
1.4823917272444162e-06   -2.6255234647845627e-08   -9.23463077419904e-06
9.974843163790953e-06   -2.793359956941707e-06   -2.172845366840031e-05
9.974843163790953e-06   -2.793359956941707e-06   -2.172845366840031e-05
9.974843163790953e-06   -2.793359956941707e-06   -2.172845366840031e-05
9.974843163790953e-06   -2.793359956941707e-06   -2.172845366840031e-05
4.929678817164473e-06   -1.4186701246434851e-06   -1.4144660323401758e-05
4.929678817164473e-06   -1.4186701246434851e-06   -1.4144660323401758e-05
4.929678817164473e-06   -1.4186701246434851e-06   -1.4144660323401758e-05
4.929678817164473e-06   -1.4186701246434851e-06   -1.4144660323401758e-05
9.974843163791007e-06   -2.6255234647845627e-08   -7.574367940822767e-06
9.974843163791007e-06   -2.6255234647845627e-08   -7.574367940822767e-06
9.974843163791007e-06   -2.6255234647845627e-08   -7.574367940822767e-06
9.974843163791007e-06   -2.6255234647845627e-08   -7.574367940822767e-06
1.4823917272444162e-06   -2.793359956941707e-06   -2.3388716501777018e-05
1.4823917272444162e-06   -2.793359956941707e-06   -2.3388716501777018e-05
1.4823917272444162e-06   -2.793359956941707e-06   -2.3388716501777018e-05
1.4823917272444162e-06   -2.793359956941707e-06   -2.3388716501777018e-05
2.2374736493786286e-06   4.169901840177237e-07   -9.30632031957983e-06
2.2374736493786286e-06   4.169901840177237e-07   -9.30632031957983e-06
2.2374736493786286e-06   4.169901840177237e-07   -9.30632031957983e-06
2.2374736493786286e-06   4.169901840177237e-07   -9.30632031957983e-06
1.1488637628674723e-05   -2.389427314452913e-06   -2.304107645265753e-05
1.1488637628674723e-05   -2.389427314452913e-06   -2.304107645265753e-05
1.1488637628674723e-05   -2.389427314452913e-06   -2.304107645265753e-05
1.1488637628674723e-05   -2.389427314452913e-06   -2.304107645265753e-05
6.06571493893053e-06   -1.135583208573647e-06   -1.4755178433278817e-05
6.06571493893053e-06   -1.135583208573647e-06   -1.4755178433278817e-05
6.06571493893053e-06   -1.135583208573647e-06   -1.4755178433278817e-05
6.06571493893053e-06   -1.135583208573647e-06   -1.4755178433278817e-05
1.1488637628674777e-05   4.169901840177237e-07   -7.622469820497491e-06
1.1488637628674777e-05   4.169901840177237e-07   -7.622469820497491e-06
1.1488637628674777e-05   4.169901840177237e-07   -7.622469820497491e-06
1.1488637628674777e-05   4.169901840177237e-07   -7.622469820497491e-06
2.2374736493786557e-06   -2.389427314452913e-06   -2.4724926951740032e-05
2.2374736493786557e-06   -2.389427314452913e-06   -2.4724926951740032e-05
2.2374736493786557e-06   -2.389427314452913e-06   -2.4724926951740032e-05
2.2374736493786557e-06   -2.389427314452913e-06   -2.4724926951740032e-05
2.858696326714827e-06   1.300915145086099e-06   -1.019982326708798e-05
2.858696326714827e-06   1.300915145086099e-06   -1.019982326708798e-05
2.858696326714827e-06   1.300915145086099e-06   -1.019982326708798e-05
2.858696326714827e-06   1.300915145086099e-06   -1.019982326708798e-05
1.3307125254820946e-05   -1.371933594399282e-06   -2.6010162236907316e-05
1.3307125254820946e-05   -1.371933594399282e-06   -2.6010162236907316e-05
1.3307125254820946e-05   -1.371933594399282e-06   -2.6010162236907316e-05
1.3307125254820946e-05   -1.371933594399282e-06   -2.6010162236907316e-05
6.968737018851038e-06   -7.19591988597619e-07   -1.583758680710599e-05
6.968737018851038e-06   -7.19591988597619e-07   -1.583758680710599e-05
6.968737018851038e-06   -7.19591988597619e-07   -1.583758680710599e-05
6.968737018851038e-06   -7.19591988597619e-07   -1.583758680710599e-05
8.419758801317639e-07   -1.7438384493535797e-07   -2.4076723664698523e-05
8.419758801317639e-07   -1.7438384493535797e-07   -2.4076723664698523e-05
8.419758801317639e-07   -1.7438384493535797e-07   -2.4076723664698523e-05
8.419758801317639e-07   -1.7438384493535797e-07   -2.4076723664698523e-05
-7.719458115547503e-06   -1.343048634736433e-06   -3.90469791980442e-05
-7.719458115547503e-06   -1.343048634736433e-06   -3.90469791980442e-05
-7.719458115547503e-06   -1.343048634736433e-06   -3.90469791980442e-05
-7.719458115547503e-06   -1.343048634736433e-06   -3.90469791980442e-05
-7.157974436062845e-06   8.138104485521346e-07   -2.4212739803574973e-05
-7.157974436062845e-06   8.138104485521346e-07   -2.4212739803574973e-05
-7.157974436062845e-06   8.138104485521346e-07   -2.4212739803574973e-05
-7.157974436062845e-06   8.138104485521346e-07   -2.4212739803574973e-05
1.4823917272444162e-06   -5.126778688134201e-07   -3.781745708533453e-05
1.4823917272444162e-06   -5.126778688134201e-07   -3.781745708533453e-05
1.4823917272444162e-06   -5.126778688134201e-07   -3.781745708533453e-05
1.4823917272444162e-06   -5.126778688134201e-07   -3.781745708533453e-05
-3.065817638201311e-06   -4.9693591045070484e-08   -3.051489870958574e-05
-3.065817638201311e-06   -4.9693591045070484e-08   -3.051489870958574e-05
-3.065817638201311e-06   -4.9693591045070484e-08   -3.051489870958574e-05
-3.065817638201311e-06   -4.9693591045070484e-08   -3.051489870958574e-05
1.482391727244389e-06   8.138104485523514e-07   -2.3416846813155683e-05
1.482391727244389e-06   8.138104485523514e-07   -2.3416846813155683e-05
1.482391727244389e-06   8.138104485523514e-07   -2.3416846813155683e-05
1.482391727244389e-06   8.138104485523514e-07   -2.3416846813155683e-05
-7.157974436062858e-06   -5.126778688134201e-07   -3.861335007575425e-05
-7.157974436062858e-06   -5.126778688134201e-07   -3.861335007575425e-05
-7.157974436062858e-06   -5.126778688134201e-07   -3.861335007575425e-05
-7.157974436062858e-06   -5.126778688134201e-07   -3.861335007575425e-05
-6.593276852766416e-06   1.7654089880514683e-06   -2.4249442684155884e-05
-6.593276852766416e-06   1.7654089880514683e-06   -2.4249442684155884e-05
-6.593276852766416e-06   1.7654089880514683e-06   -2.4249442684155884e-05
-6.593276852766416e-06   1.7654089880514683e-06   -2.4249442684155884e-05
2.2374736493786286e-06   3.460575864781476e-07   -3.811574934678717e-05
2.2374736493786286e-06   3.460575864781476e-07   -3.811574934678717e-05
2.2374736493786286e-06   3.460575864781476e-07   -3.811574934678717e-05
2.2374736493786286e-06   3.460575864781476e-07   -3.811574934678717e-05
-2.568674675817946e-06   6.325356954033773e-07   -3.0277389003481603e-05
-2.568674675817946e-06   6.325356954033773e-07   -3.0277389003481603e-05
-2.568674675817946e-06   6.325356954033773e-07   -3.0277389003481603e-05
-2.568674675817946e-06   6.325356954033773e-07   -3.0277389003481603e-05
2.2374736493786286e-06   1.7654089880514683e-06   -2.3397831843212022e-05
2.2374736493786286e-06   1.7654089880514683e-06   -2.3397831843212022e-05
2.2374736493786286e-06   1.7654089880514683e-06   -2.3397831843212022e-05
2.2374736493786286e-06   1.7654089880514683e-06   -2.3397831843212022e-05
-6.593276852766416e-06   3.460575864781476e-07   -3.89673601877312e-05
-6.593276852766416e-06   3.460575864781476e-07   -3.89673601877312e-05
-6.593276852766416e-06   3.460575864781476e-07   -3.89673601877312e-05
-6.593276852766416e-06   3.460575864781476e-07   -3.89673601877312e-05
-6.053818712284116e-06   2.852225095252136e-06   -2.485739328851968e-05
-6.053818712284116e-06   2.852225095252136e-06   -2.485739328851968e-05
-6.053818712284116e-06   2.852225095252136e-06   -2.485739328851968e-05
-6.053818712284116e-06   2.852225095252136e-06   -2.485739328851968e-05
2.858696326714827e-06   1.3631934813451967e-06   -3.881816605184039e-05
2.858696326714827e-06   1.3631934813451967e-06   -3.881816605184039e-05
2.858696326714827e-06   1.3631934813451967e-06   -3.881816605184039e-05
2.858696326714827e-06   1.3631934813451967e-06   -3.881816605184039e-05
-2.0148943491329847e-06   1.3889653307842288e-06   -3.071097803509151e-05
-2.0148943491329847e-06   1.3889653307842288e-06   -3.071097803509151e-05
-2.0148943491329847e-06   1.3889653307842288e-06   -3.071097803509151e-05
-2.0148943491329847e-06   1.3889653307842288e-06   -3.071097803509151e-05
-7.719458115547516e-06   8.207857206884994e-07   -2.9148931433203894e-05
-7.719458115547516e-06   8.207857206884994e-07   -2.9148931433203894e-05
-7.719458115547516e-06   8.207857206884994e-07   -2.9148931433203894e-05
-7.719458115547516e-06   8.207857206884994e-07   -2.9148931433203894e-05
-1.6206045437878124e-05   1.0345803215044101e-06   -4.31649668765988e-05
-1.6206045437878124e-05   1.0345803215044101e-06   -4.31649668765988e-05
-1.6206045437878124e-05   1.0345803215044101e-06   -4.31649668765988e-05
-1.6206045437878124e-05   1.0345803215044101e-06   -4.31649668765988e-05
-1.5640634751491375e-05   1.8424087951569596e-06   -2.862631650876941e-05
-1.5640634751491375e-05   1.8424087951569596e-06   -2.862631650876941e-05
-1.5640634751491375e-05   1.8424087951569596e-06   -2.862631650876941e-05
-1.5640634751491375e-05   1.8424087951569596e-06   -2.862631650876941e-05
-7.157974436062858e-06   1.9133577370202166e-06   -4.280665306626816e-05
-7.157974436062858e-06   1.9133577370202166e-06   -4.280665306626816e-05
-7.157974436062858e-06   1.9133577370202166e-06   -4.280665306626816e-05
-7.157974436062858e-06   1.9133577370202166e-06   -4.280665306626816e-05
-1.1613405946461312e-05   1.5819972309014368e-06   -3.518211757859923e-05
-1.1613405946461312e-05   1.5819972309014368e-06   -3.518211757859923e-05
-1.1613405946461312e-05   1.5819972309014368e-06   -3.518211757859923e-05
-1.1613405946461312e-05   1.5819972309014368e-06   -3.518211757859923e-05
-7.157974436062872e-06   1.8424087951569596e-06   -2.866888587388719e-05
-7.157974436062872e-06   1.8424087951569596e-06   -2.866888587388719e-05
-7.157974436062872e-06   1.8424087951569596e-06   -2.866888587388719e-05
-7.157974436062872e-06   1.8424087951569596e-06   -2.866888587388719e-05
-1.564063475149134e-05   1.9133577370202166e-06   -4.2764083701150326e-05
-1.564063475149134e-05   1.9133577370202166e-06   -4.2764083701150326e-05
-1.564063475149134e-05   1.9133577370202166e-06   -4.2764083701150326e-05
-1.564063475149134e-05   1.9133577370202166e-06   -4.2764083701150326e-05
-1.506604974718874e-05   2.886451918333822e-06   -2.8700439716055877e-05
-1.506604974718874e-05   2.886451918333822e-06   -2.8700439716055877e-05
-1.506604974718874e-05   2.886451918333822e-06   -2.8700439716055877e-05
-1.506604974718874e-05   2.886451918333822e-06   -2.8700439716055877e-05
-6.59327685276643e-06   2.843636678085456e-06   -4.279603872927719e-05
-6.59327685276643e-06   2.843636678085456e-06   -4.279603872927719e-05
-6.59327685276643e-06   2.843636678085456e-06   -4.279603872927719e-05
-6.59327685276643e-06   2.843636678085456e-06   -4.279603872927719e-05
-1.1115992749914382e-05   2.3491928724057778e-06   -3.496151261729019e-05
-1.1115992749914382e-05   2.3491928724057778e-06   -3.496151261729019e-05
-1.1115992749914382e-05   2.3491928724057778e-06   -3.496151261729019e-05
-1.1115992749914382e-05   2.3491928724057778e-06   -3.496151261729019e-05
-6.59327685276643e-06   2.886451918333822e-06   -2.8674750571906727e-05
-6.59327685276643e-06   2.886451918333822e-06   -2.8674750571906727e-05
-6.59327685276643e-06   2.886451918333822e-06   -2.8674750571906727e-05
-6.59327685276643e-06   2.886451918333822e-06   -2.8674750571906727e-05
-1.506604974718871e-05   2.843636678085239e-06   -4.282172787342653e-05
-1.506604974718871e-05   2.843636678085239e-06   -4.282172787342653e-05
-1.506604974718871e-05   2.843636678085239e-06   -4.282172787342653e-05
-1.506604974718871e-05   2.843636678085239e-06   -4.282172787342653e-05
-1.4518165826843904e-05   3.944962753550359e-06   -2.934538433679596e-05
-1.4518165826843904e-05   3.944962753550359e-06   -2.934538433679596e-05
-1.4518165826843904e-05   3.944962753550359e-06   -2.934538433679596e-05
-1.4518165826843904e-05   3.944962753550359e-06   -2.934538433679596e-05
-6.053818712284129e-06   3.7900067274526227e-06   -4.3359655912070374e-05
-6.053818712284129e-06   3.7900067274526227e-06   -4.3359655912070374e-05
-6.053818712284129e-06   3.7900067274526227e-06   -4.3359655912070374e-05
-6.053818712284129e-06   3.7900067274526227e-06   -4.3359655912070374e-05
-1.0653356020945502e-05   3.1280533128125263e-06   -3.529658834885112e-05
-1.0653356020945502e-05   3.1280533128125263e-06   -3.529658834885112e-05
-1.0653356020945502e-05   3.1280533128125263e-06   -3.529658834885112e-05
-1.0653356020945502e-05   3.1280533128125263e-06   -3.529658834885112e-05
-1.6206045437878155e-05   1.8237779873218896e-06   -2.4504283859076714e-05
-1.6206045437878155e-05   1.8237779873218896e-06   -2.4504283859076714e-05
-1.6206045437878155e-05   1.8237779873218896e-06   -2.4504283859076714e-05
-1.6206045437878155e-05   1.8237779873218896e-06   -2.4504283859076714e-05
-2.459363312053478e-05   3.3428622255775396e-06   -3.757214612055081e-05
-2.459363312053478e-05   3.3428622255775396e-06   -3.757214612055081e-05
-2.459363312053478e-05   3.3428622255775396e-06   -3.757214612055081e-05
-2.459363312053478e-05   3.3428622255775396e-06   -3.757214612055081e-05
-2.3947436524859228e-05   2.848978257254022e-06   -2.307616649077995e-05
-2.3947436524859228e-05   2.848978257254022e-06   -2.307616649077995e-05
-2.3947436524859228e-05   2.848978257254022e-06   -2.307616649077995e-05
-2.3947436524859228e-05   2.848978257254022e-06   -2.307616649077995e-05
-1.564063475149134e-05   4.280890016753391e-06   -3.777998316875927e-05
-1.564063475149134e-05   4.280890016753391e-06   -3.777998316875927e-05
-1.564063475149134e-05   4.280890016753391e-06   -3.777998316875927e-05
-1.564063475149134e-05   4.280890016753391e-06   -3.777998316875927e-05
-1.9957710849714946e-05   3.1958366746081754e-06   -2.9933824333099508e-05
-1.9957710849714946e-05   3.1958366746081754e-06   -2.9933824333099508e-05
-1.9957710849714946e-05   3.1958366746081754e-06   -2.9933824333099508e-05
-1.9957710849714946e-05   3.1958366746081754e-06   -2.9933824333099508e-05
-1.5640634751491375e-05   2.848978257254022e-06   -2.3935313546479355e-05
-1.5640634751491375e-05   2.848978257254022e-06   -2.3935313546479355e-05
-1.5640634751491375e-05   2.848978257254022e-06   -2.3935313546479355e-05
-1.5640634751491375e-05   2.848978257254022e-06   -2.3935313546479355e-05
-2.3947436524859262e-05   4.280890016753391e-06   -3.692083611305994e-05
-2.3947436524859262e-05   4.280890016753391e-06   -3.692083611305994e-05
-2.3947436524859262e-05   4.280890016753391e-06   -3.692083611305994e-05
-2.3947436524859262e-05   4.280890016753391e-06   -3.692083611305994e-05
-2.317329549675728e-05   3.7945875771537053e-06   -2.2861700229139643e-05
-2.317329549675728e-05   3.7945875771537053e-06   -2.2861700229139643e-05
-2.317329549675728e-05   3.7945875771537053e-06   -2.2861700229139643e-05
-2.317329549675728e-05   3.7945875771537053e-06   -2.2861700229139643e-05
-1.506604974718871e-05   5.125700571336975e-06   -3.7172444274930615e-05
-1.506604974718871e-05   5.125700571336975e-06   -3.7172444274930615e-05
-1.506604974718871e-05   5.125700571336975e-06   -3.7172444274930615e-05
-1.506604974718871e-05   5.125700571336975e-06   -3.7172444274930615e-05
-1.9306225163977993e-05   3.936627459024148e-06   -2.9392041379561303e-05
-1.9306225163977993e-05   3.936627459024148e-06   -2.9392041379561303e-05
-1.9306225163977993e-05   3.936627459024148e-06   -2.9392041379561303e-05
-1.9306225163977993e-05   3.936627459024148e-06   -2.9392041379561303e-05
-1.5066049747188724e-05   3.7945875771537053e-06   -2.366036802564956e-05
-1.5066049747188724e-05   3.7945875771537053e-06   -2.366036802564956e-05
-1.5066049747188724e-05   3.7945875771537053e-06   -2.366036802564956e-05
-1.5066049747188724e-05   3.7945875771537053e-06   -2.366036802564956e-05
-2.317329549675728e-05   5.125700571336975e-06   -3.637377647842076e-05
-2.317329549675728e-05   5.125700571336975e-06   -3.637377647842076e-05
-2.317329549675728e-05   5.125700571336975e-06   -3.637377647842076e-05
-2.317329549675728e-05   5.125700571336975e-06   -3.637377647842076e-05
-2.2528452741008053e-05   4.8540831421254454e-06   -2.34944037575557e-05
-2.2528452741008053e-05   4.8540831421254454e-06   -2.34944037575557e-05
-2.2528452741008053e-05   4.8540831421254454e-06   -2.34944037575557e-05
-2.2528452741008053e-05   4.8540831421254454e-06   -2.34944037575557e-05
-1.4518165826843904e-05   6.070644952248022e-06   -3.7574819033902816e-05
-1.4518165826843904e-05   6.070644952248022e-06   -3.7574819033902816e-05
-1.4518165826843904e-05   6.070644952248022e-06   -3.7574819033902816e-05
-1.4518165826843904e-05   6.070644952248022e-06   -3.7574819033902816e-05
-1.8870594384410554e-05   4.666369861695482e-06   -2.947820638362676e-05
-1.8870594384410554e-05   4.666369861695482e-06   -2.947820638362676e-05
-1.8870594384410554e-05   4.666369861695482e-06   -2.947820638362676e-05
-1.8870594384410554e-05   4.666369861695482e-06   -2.947820638362676e-05
-2.459363312053478e-05   3.065686609040252e-06   -1.2673430987583992e-05
-2.459363312053478e-05   3.065686609040252e-06   -1.2673430987583992e-05
-2.459363312053478e-05   3.065686609040252e-06   -1.2673430987583992e-05
-2.459363312053478e-05   3.065686609040252e-06   -1.2673430987583992e-05
-3.415512998960717e-05   5.747579758408339e-06   -2.7000123213083947e-05
-3.415512998960717e-05   5.747579758408339e-06   -2.7000123213083947e-05
-3.415512998960717e-05   5.747579758408339e-06   -2.7000123213083947e-05
-3.415512998960717e-05   5.747579758408339e-06   -2.7000123213083947e-05
-3.237649890496121e-05   3.99534149306182e-06   -7.960276428778195e-06
-3.237649890496121e-05   3.99534149306182e-06   -7.960276428778195e-06
-3.237649890496121e-05   3.99534149306182e-06   -7.960276428778195e-06
-3.237649890496121e-05   3.99534149306182e-06   -7.960276428778195e-06
-2.3947436524859228e-05   6.721672620392223e-06   -2.3644512405346594e-05
-2.3947436524859228e-05   6.721672620392223e-06   -2.3644512405346594e-05
-2.3947436524859228e-05   6.721672620392223e-06   -2.3644512405346594e-05
-2.3947436524859228e-05   6.721672620392223e-06   -2.3644512405346594e-05
-2.759782916397502e-05   4.993596047908524e-06   -1.6523678729996635e-05
-2.759782916397502e-05   4.993596047908524e-06   -1.6523678729996635e-05
-2.759782916397502e-05   4.993596047908524e-06   -1.6523678729996635e-05
-2.759782916397502e-05   4.993596047908524e-06   -1.6523678729996635e-05
-2.394743652485925e-05   3.99534149306182e-06   -9.59607510517648e-06
-2.394743652485925e-05   3.99534149306182e-06   -9.59607510517648e-06
-2.394743652485925e-05   3.99534149306182e-06   -9.59607510517648e-06
-2.394743652485925e-05   3.99534149306182e-06   -9.59607510517648e-06
-3.2376498904961075e-05   6.721672620392223e-06   -2.200871372894835e-05
-3.2376498904961075e-05   6.721672620392223e-06   -2.200871372894835e-05
-3.2376498904961075e-05   6.721672620392223e-06   -2.200871372894835e-05
-3.2376498904961075e-05   6.721672620392223e-06   -2.200871372894835e-05
-3.0906463408450155e-05   4.420984062777434e-06   -6.530205930675432e-06
-3.0906463408450155e-05   4.420984062777434e-06   -6.530205930675432e-06
-3.0906463408450155e-05   4.420984062777434e-06   -6.530205930675432e-06
-3.0906463408450155e-05   4.420984062777434e-06   -6.530205930675432e-06
-2.3173295496757248e-05   7.070773734919964e-06   -2.1008692920115708e-05
-2.3173295496757248e-05   7.070773734919964e-06   -2.1008692920115708e-05
-2.3173295496757248e-05   7.070773734919964e-06   -2.1008692920115708e-05
-2.3173295496757248e-05   7.070773734919964e-06   -2.1008692920115708e-05
-2.6947751273635744e-05   5.431946276061601e-06   -1.3734636816669981e-05
-2.6947751273635744e-05   5.431946276061601e-06   -1.3734636816669981e-05
-2.6947751273635744e-05   5.431946276061601e-06   -1.3734636816669981e-05
-2.6947751273635744e-05   5.431946276061601e-06   -1.3734636816669981e-05
-2.317329549675728e-05   4.420984062777434e-06   -8.120079733960886e-06
-2.317329549675728e-05   4.420984062777434e-06   -8.120079733960886e-06
-2.317329549675728e-05   4.420984062777434e-06   -8.120079733960886e-06
-2.317329549675728e-05   4.420984062777434e-06   -8.120079733960886e-06
-3.090646340845002e-05   7.070773734919964e-06   -1.941881911683035e-05
-3.090646340845002e-05   7.070773734919964e-06   -1.941881911683035e-05
-3.090646340845002e-05   7.070773734919964e-06   -1.941881911683035e-05
-3.090646340845002e-05   7.070773734919964e-06   -1.941881911683035e-05
-2.9167421359303325e-05   5.0799343222463714e-06   -5.032185550533463e-06
-2.9167421359303325e-05   5.0799343222463714e-06   -5.032185550533463e-06
-2.9167421359303325e-05   5.0799343222463714e-06   -5.032185550533463e-06
-2.9167421359303325e-05   5.0799343222463714e-06   -5.032185550533463e-06
-2.2528452741008053e-05   7.5128620400546735e-06   -1.7556889878377426e-05
-2.2528452741008053e-05   7.5128620400546735e-06   -1.7556889878377426e-05
-2.2528452741008053e-05   7.5128620400546735e-06   -1.7556889878377426e-05
-2.2528452741008053e-05   7.5128620400546735e-06   -1.7556889878377426e-05
-2.556544924399492e-05   5.643401056380434e-06   -1.1373552449861534e-05
-2.556544924399492e-05   5.643401056380434e-06   -1.1373552449861534e-05
-2.556544924399492e-05   5.643401056380434e-06   -1.1373552449861534e-05
-2.556544924399492e-05   5.643401056380434e-06   -1.1373552449861534e-05
2.5916266639108214e-05   -3.3987595462979785e-06   -1.7680057958911928e-07
2.5916266639108214e-05   -3.3987595462979785e-06   -1.7680057958911928e-07
2.5916266639108214e-05   -3.3987595462979785e-06   -1.7680057958911928e-07
2.5916266639108214e-05   -3.3987595462979785e-06   -1.7680057958911928e-07
1.1041770778852275e-05   -6.128420260147205e-06   -2.6605423441658548e-05
1.1041770778852275e-05   -6.128420260147205e-06   -2.6605423441658548e-05
1.1041770778852275e-05   -6.128420260147205e-06   -2.6605423441658548e-05
1.1041770778852275e-05   -6.128420260147205e-06   -2.6605423441658548e-05
1.1822753827943626e-05   -2.793359956941707e-06   -2.905042843422915e-06
1.1822753827943626e-05   -2.793359956941707e-06   -2.905042843422915e-06
1.1822753827943626e-05   -2.793359956941707e-06   -2.905042843422915e-06
1.1822753827943626e-05   -2.793359956941707e-06   -2.905042843422915e-06
2.7874234852455352e-05   -5.6997429895076605e-06   -2.791368139806955e-05
2.7874234852455352e-05   -5.6997429895076605e-06   -2.791368139806955e-05
2.7874234852455352e-05   -5.6997429895076605e-06   -2.791368139806955e-05
2.7874234852455352e-05   -5.6997429895076605e-06   -2.791368139806955e-05
1.8390779528729034e-05   -4.03978745815636e-06   -1.3103895844003024e-05
1.8390779528729034e-05   -4.03978745815636e-06   -1.3103895844003024e-05
1.8390779528729034e-05   -4.03978745815636e-06   -1.3103895844003024e-05
1.8390779528729034e-05   -4.03978745815636e-06   -1.3103895844003024e-05
2.7874234852455352e-05   -2.793359956941707e-06   -1.1612130238834294e-06
2.7874234852455352e-05   -2.793359956941707e-06   -1.1612130238834294e-06
2.7874234852455352e-05   -2.793359956941707e-06   -1.1612130238834294e-06
2.7874234852455352e-05   -2.793359956941707e-06   -1.1612130238834294e-06
1.1822753827943599e-05   -5.6997429895076605e-06   -2.9657511217609034e-05
1.1822753827943599e-05   -5.6997429895076605e-06   -2.9657511217609034e-05
1.1822753827943599e-05   -5.6997429895076605e-06   -2.9657511217609034e-05
1.1822753827943599e-05   -5.6997429895076605e-06   -2.9657511217609034e-05
1.2687990675931964e-05   -2.389427314452913e-06   -4.101632543335914e-06
1.2687990675931964e-05   -2.389427314452913e-06   -4.101632543335914e-06
1.2687990675931964e-05   -2.389427314452913e-06   -4.101632543335914e-06
1.2687990675931964e-05   -2.389427314452913e-06   -4.101632543335914e-06
2.9518734097551326e-05   -5.3310047102932655e-06   -3.0387925141863825e-05
2.9518734097551326e-05   -5.3310047102932655e-06   -3.0387925141863825e-05
2.9518734097551326e-05   -5.3310047102932655e-06   -3.0387925141863825e-05
2.9518734097551326e-05   -5.3310047102932655e-06   -3.0387925141863825e-05
1.9861313025164605e-05   -3.875632849049395e-06   -1.5165446471298986e-05
1.9861313025164605e-05   -3.875632849049395e-06   -1.5165446471298986e-05
1.9861313025164605e-05   -3.875632849049395e-06   -1.5165446471298986e-05
1.9861313025164605e-05   -3.875632849049395e-06   -1.5165446471298986e-05
2.951873409755138e-05   -2.389427314452913e-06   -2.336686105831572e-06
2.951873409755138e-05   -2.389427314452913e-06   -2.336686105831572e-06
2.951873409755138e-05   -2.389427314452913e-06   -2.336686105831572e-06
2.951873409755138e-05   -2.389427314452913e-06   -2.336686105831572e-06
1.2687990675931937e-05   -5.3310047102932655e-06   -3.2152871579368275e-05
1.2687990675931937e-05   -5.3310047102932655e-06   -3.2152871579368275e-05
1.2687990675931937e-05   -5.3310047102932655e-06   -3.2152871579368275e-05
1.2687990675931937e-05   -5.3310047102932655e-06   -3.2152871579368275e-05
1.3402959996378132e-05   -1.371933594399282e-06   -6.862260816198774e-06
1.3402959996378132e-05   -1.371933594399282e-06   -6.862260816198774e-06
1.3402959996378132e-05   -1.371933594399282e-06   -6.862260816198774e-06
1.3402959996378132e-05   -1.371933594399282e-06   -6.862260816198774e-06
3.142822483666156e-05   -4.165272161026773e-06   -3.5228365743360994e-05
3.142822483666156e-05   -4.165272161026773e-06   -3.5228365743360994e-05
3.142822483666156e-05   -4.165272161026773e-06   -3.5228365743360994e-05
3.142822483666156e-05   -4.165272161026773e-06   -3.5228365743360994e-05
2.065728461371598e-05   -3.419874842930685e-06   -1.7724037095976893e-05
2.065728461371598e-05   -3.419874842930685e-06   -1.7724037095976893e-05
2.065728461371598e-05   -3.419874842930685e-06   -1.7724037095976893e-05
2.065728461371598e-05   -3.419874842930685e-06   -1.7724037095976893e-05
1.1041770778852302e-05   -1.343048634736433e-06   -1.8014825127280094e-05
1.1041770778852302e-05   -1.343048634736433e-06   -1.8014825127280094e-05
1.1041770778852302e-05   -1.343048634736433e-06   -1.8014825127280094e-05
1.1041770778852302e-05   -1.343048634736433e-06   -1.8014825127280094e-05
-4.70014330847646e-06   -2.868281022359951e-06   -4.516648803873542e-05
-4.70014330847646e-06   -2.868281022359951e-06   -4.516648803873542e-05
-4.70014330847646e-06   -2.868281022359951e-06   -4.516648803873542e-05
-4.70014330847646e-06   -2.868281022359951e-06   -4.516648803873542e-05
-3.973670748891729e-06   -5.126778688136369e-07   -1.8389569487618036e-05
-3.973670748891729e-06   -5.126778688136369e-07   -1.8389569487618036e-05
-3.973670748891729e-06   -5.126778688136369e-07   -1.8389569487618036e-05
-3.973670748891729e-06   -5.126778688136369e-07   -1.8389569487618036e-05
1.1822753827943626e-05   -2.2723213032090767e-06   -4.366115772170626e-05
1.1822753827943626e-05   -2.2723213032090767e-06   -4.366115772170626e-05
1.1822753827943626e-05   -2.2723213032090767e-06   -4.366115772170626e-05
1.1822753827943626e-05   -2.2723213032090767e-06   -4.366115772170626e-05
3.586765570930512e-06   -1.386582318584767e-06   -3.0465954017458972e-05
3.586765570930512e-06   -1.386582318584767e-06   -3.0465954017458972e-05
3.586765570930512e-06   -1.386582318584767e-06   -3.0465954017458972e-05
3.586765570930512e-06   -1.386582318584767e-06   -3.0465954017458972e-05
1.1822753827943653e-05   -5.126778688136369e-07   -1.7333783426980425e-05
1.1822753827943653e-05   -5.126778688136369e-07   -1.7333783426980425e-05
1.1822753827943653e-05   -5.126778688136369e-07   -1.7333783426980425e-05
1.1822753827943653e-05   -5.126778688136369e-07   -1.7333783426980425e-05
-3.9736707488917156e-06   -2.2723213032090767e-06   -4.4716943782343384e-05
-3.9736707488917156e-06   -2.2723213032090767e-06   -4.4716943782343384e-05
-3.9736707488917156e-06   -2.2723213032090767e-06   -4.4716943782343384e-05
-3.9736707488917156e-06   -2.2723213032090767e-06   -4.4716943782343384e-05
-3.2800456069833955e-06   3.460575864781476e-07   -1.862642533936561e-05
-3.2800456069833955e-06   3.460575864781476e-07   -1.862642533936561e-05
-3.2800456069833955e-06   3.460575864781476e-07   -1.862642533936561e-05
-3.2800456069833955e-06   3.460575864781476e-07   -1.862642533936561e-05
1.2687990675931937e-05   -1.543893081826491e-06   -4.410584874324193e-05
1.2687990675931937e-05   -1.543893081826491e-06   -4.410584874324193e-05
1.2687990675931937e-05   -1.543893081826491e-06   -4.410584874324193e-05
1.2687990675931937e-05   -1.543893081826491e-06   -4.410584874324193e-05
4.162929828004284e-06   -8.593331723889559e-07   -3.0308149942357733e-05
4.162929828004284e-06   -8.593331723889559e-07   -3.0308149942357733e-05
4.162929828004284e-06   -8.593331723889559e-07   -3.0308149942357733e-05
4.162929828004284e-06   -8.593331723889559e-07   -3.0308149942357733e-05
1.2687990675931964e-05   3.4605758647793076e-07   -1.7492454938383e-05
1.2687990675931964e-05   3.4605758647793076e-07   -1.7492454938383e-05
1.2687990675931964e-05   3.4605758647793076e-07   -1.7492454938383e-05
1.2687990675931964e-05   3.4605758647793076e-07   -1.7492454938383e-05
-3.2800456069833955e-06   -1.543893081826491e-06   -4.523981914422465e-05
-3.2800456069833955e-06   -1.543893081826491e-06   -4.523981914422465e-05
-3.2800456069833955e-06   -1.543893081826491e-06   -4.523981914422465e-05
-3.2800456069833955e-06   -1.543893081826491e-06   -4.523981914422465e-05
-2.628583990841148e-06   1.3631934813451967e-06   -1.926081889008389e-05
-2.628583990841148e-06   1.3631934813451967e-06   -1.926081889008389e-05
-2.628583990841148e-06   1.3631934813451967e-06   -1.926081889008389e-05
-2.628583990841148e-06   1.3631934813451967e-06   -1.926081889008389e-05
1.3402959996378132e-05   -6.272456897276832e-07   -4.4785795366139526e-05
1.3402959996378132e-05   -6.272456897276832e-07   -4.4785795366139526e-05
1.3402959996378132e-05   -6.272456897276832e-07   -4.4785795366139526e-05
1.3402959996378132e-05   -6.272456897276832e-07   -4.4785795366139526e-05
4.882099256438211e-06   -2.0899974220896234e-07   -3.083530836808454e-05
4.882099256438211e-06   -2.0899974220896234e-07   -3.083530836808454e-05
4.882099256438211e-06   -2.0899974220896234e-07   -3.083530836808454e-05
4.882099256438211e-06   -2.0899974220896234e-07   -3.083530836808454e-05
-4.700143308476474e-06   1.0345803215044101e-06   -2.3176228998898155e-05
-4.700143308476474e-06   1.0345803215044101e-06   -2.3176228998898155e-05
-4.700143308476474e-06   1.0345803215044101e-06   -2.3176228998898155e-05
-4.700143308476474e-06   1.0345803215044101e-06   -2.3176228998898155e-05
-2.0164769280733345e-05   5.25430098090307e-07   -4.925609575337497e-05
-2.0164769280733345e-05   5.25430098090307e-07   -4.925609575337497e-05
-2.0164769280733345e-05   5.25430098090307e-07   -4.925609575337497e-05
-2.0164769280733345e-05   5.25430098090307e-07   -4.925609575337497e-05
-1.9382853299467257e-05   1.9133577370202166e-06   -2.301393074127518e-05
-1.9382853299467257e-05   1.9133577370202166e-06   -2.301393074127518e-05
-1.9382853299467257e-05   1.9133577370202166e-06   -2.301393074127518e-05
-1.9382853299467257e-05   1.9133577370202166e-06   -2.301393074127518e-05
-3.9736707488917156e-06   1.194927298448032e-06   -4.826484339575795e-05
-3.9736707488917156e-06   1.194927298448032e-06   -4.826484339575795e-05
-3.9736707488917156e-06   1.194927298448032e-06   -4.826484339575795e-05
-3.9736707488917156e-06   1.194927298448032e-06   -4.826484339575795e-05
-1.1972894313462657e-05   1.4186509369779228e-06   -3.506703830459101e-05
-1.1972894313462657e-05   1.4186509369779228e-06   -3.506703830459101e-05
-1.1972894313462657e-05   1.4186509369779228e-06   -3.506703830459101e-05
-1.1972894313462657e-05   1.4186509369779228e-06   -3.506703830459101e-05
-3.973670748891729e-06   1.9133577370204335e-06   -2.2582872478132216e-05
-3.973670748891729e-06   1.9133577370204335e-06   -2.2582872478132216e-05
-3.973670748891729e-06   1.9133577370204335e-06   -2.2582872478132216e-05
-3.973670748891729e-06   1.9133577370204335e-06   -2.2582872478132216e-05
-1.9382853299467257e-05   1.194927298448032e-06   -4.8695901658901155e-05
-1.9382853299467257e-05   1.194927298448032e-06   -4.8695901658901155e-05
-1.9382853299467257e-05   1.194927298448032e-06   -4.8695901658901155e-05
-1.9382853299467257e-05   1.194927298448032e-06   -4.8695901658901155e-05
-1.862863438682087e-05   2.843636678085239e-06   -2.297928129055618e-05
-1.862863438682087e-05   2.843636678085239e-06   -2.297928129055618e-05
-1.862863438682087e-05   2.843636678085239e-06   -2.297928129055618e-05
-1.862863438682087e-05   2.843636678085239e-06   -2.297928129055618e-05
-3.2800456069833955e-06   1.97000766201166e-06   -4.803608518064089e-05
-3.2800456069833955e-06   1.97000766201166e-06   -4.803608518064089e-05
-3.2800456069833955e-06   1.97000766201166e-06   -4.803608518064089e-05
-3.2800456069833955e-06   1.97000766201166e-06   -4.803608518064089e-05
-1.1300189515641777e-05   2.045481385492447e-06   -3.471446290029888e-05
-1.1300189515641777e-05   2.045481385492447e-06   -3.471446290029888e-05
-1.1300189515641777e-05   2.045481385492447e-06   -3.471446290029888e-05
-1.1300189515641777e-05   2.045481385492447e-06   -3.471446290029888e-05
-3.280045606983409e-06   2.843636678085456e-06   -2.2455103880911903e-05
-3.280045606983409e-06   2.843636678085456e-06   -2.2455103880911903e-05
-3.280045606983409e-06   2.843636678085456e-06   -2.2455103880911903e-05
-3.280045606983409e-06   2.843636678085456e-06   -2.2455103880911903e-05
-1.862863438682087e-05   1.97000766201166e-06   -4.8560262590285246e-05
-1.862863438682087e-05   1.97000766201166e-06   -4.8560262590285246e-05
-1.862863438682087e-05   1.97000766201166e-06   -4.8560262590285246e-05
-1.862863438682087e-05   1.97000766201166e-06   -4.8560262590285246e-05
-1.7931703537978954e-05   3.7900067274526227e-06   -2.3520301252638468e-05
-1.7931703537978954e-05   3.7900067274526227e-06   -2.3520301252638468e-05
-1.7931703537978954e-05   3.7900067274526227e-06   -2.3520301252638468e-05
-1.7931703537978954e-05   3.7900067274526227e-06   -2.3520301252638468e-05
-2.628583990841148e-06   2.77098760967159e-06   -4.841408902719947e-05
-2.628583990841148e-06   2.77098760967159e-06   -4.841408902719947e-05
-2.628583990841148e-06   2.77098760967159e-06   -4.841408902719947e-05
-2.628583990841148e-06   2.77098760967159e-06   -4.841408902719947e-05
-1.0699296363690235e-05   2.6886622019098826e-06   -3.491350649446128e-05
-1.0699296363690235e-05   2.6886622019098826e-06   -3.491350649446128e-05
-1.0699296363690235e-05   2.6886622019098826e-06   -3.491350649446128e-05
-1.0699296363690235e-05   2.6886622019098826e-06   -3.491350649446128e-05
-2.016476928073338e-05   3.3428622255775396e-06   -1.8800348919852453e-05
-2.016476928073338e-05   3.3428622255775396e-06   -1.8800348919852453e-05
-2.016476928073338e-05   3.3428622255775396e-06   -1.8800348919852453e-05
-2.016476928073338e-05   3.3428622255775396e-06   -1.8800348919852453e-05
-3.534493363109842e-05   4.040641275961446e-06   -4.368195540689732e-05
-3.534493363109842e-05   4.040641275961446e-06   -4.368195540689732e-05
-3.534493363109842e-05   4.040641275961446e-06   -4.368195540689732e-05
-3.534493363109842e-05   4.040641275961446e-06   -4.368195540689732e-05
-3.4402352585205566e-05   4.280890016753391e-06   -1.7664025714988867e-05
-3.4402352585205566e-05   4.280890016753391e-06   -1.7664025714988867e-05
-3.4402352585205566e-05   4.280890016753391e-06   -1.7664025714988867e-05
-3.4402352585205566e-05   4.280890016753391e-06   -1.7664025714988867e-05
-1.9382853299467284e-05   4.8905641732463305e-06   -4.306232901844841e-05
-1.9382853299467284e-05   4.8905641732463305e-06   -4.306232901844841e-05
-1.9382853299467284e-05   4.8905641732463305e-06   -4.306232901844841e-05
-1.9382853299467284e-05   4.8905641732463305e-06   -4.306232901844841e-05
-2.7124137846671377e-05   4.315970218834921e-06   -2.9815431733794716e-05
-2.7124137846671377e-05   4.315970218834921e-06   -2.9815431733794716e-05
-2.7124137846671377e-05   4.315970218834921e-06   -2.9815431733794716e-05
-2.7124137846671377e-05   4.315970218834921e-06   -2.9815431733794716e-05
-1.9382853299467284e-05   4.280890016753391e-06   -1.802983020888463e-05
-1.9382853299467284e-05   4.280890016753391e-06   -1.802983020888463e-05
-1.9382853299467284e-05   4.280890016753391e-06   -1.802983020888463e-05
-1.9382853299467284e-05   4.280890016753391e-06   -1.802983020888463e-05
-3.4402352585205566e-05   4.8905641732463305e-06   -4.269652452455275e-05
-3.4402352585205566e-05   4.8905641732463305e-06   -4.269652452455275e-05
-3.4402352585205566e-05   4.8905641732463305e-06   -4.269652452455275e-05
-3.4402352585205566e-05   4.8905641732463305e-06   -4.269652452455275e-05
-3.335906101750866e-05   5.125700571336975e-06   -1.7031931981227686e-05
-3.335906101750866e-05   5.125700571336975e-06   -1.7031931981227686e-05
-3.335906101750866e-05   5.125700571336975e-06   -1.7031931981227686e-05
-3.335906101750866e-05   5.125700571336975e-06   -1.7031931981227686e-05
-1.86286343868209e-05   5.622476756057641e-06   -4.188070874320643e-05
-1.86286343868209e-05   5.622476756057641e-06   -4.188070874320643e-05
-1.86286343868209e-05   5.622476756057641e-06   -4.188070874320643e-05
-1.86286343868209e-05   5.622476756057641e-06   -4.188070874320643e-05
-2.6170439186441966e-05   4.977882783631328e-06   -2.8924277693715573e-05
-2.6170439186441966e-05   4.977882783631328e-06   -2.8924277693715573e-05
-2.6170439186441966e-05   4.977882783631328e-06   -2.8924277693715573e-05
-2.6170439186441966e-05   4.977882783631328e-06   -2.8924277693715573e-05
-1.862863438682089e-05   5.125700571336975e-06   -1.732999769206e-05
-1.862863438682089e-05   5.125700571336975e-06   -1.732999769206e-05
-1.862863438682089e-05   5.125700571336975e-06   -1.732999769206e-05
-1.862863438682089e-05   5.125700571336975e-06   -1.732999769206e-05
-3.335906101750866e-05   5.622476756057641e-06   -4.158264303237395e-05
-3.335906101750866e-05   5.622476756057641e-06   -4.158264303237395e-05
-3.335906101750866e-05   5.622476756057641e-06   -4.158264303237395e-05
-3.335906101750866e-05   5.622476756057641e-06   -4.158264303237395e-05
-3.247755556031278e-05   6.070644952248022e-06   -1.7425696455524928e-05
-3.247755556031278e-05   6.070644952248022e-06   -1.7425696455524928e-05
-3.247755556031278e-05   6.070644952248022e-06   -1.7425696455524928e-05
-3.247755556031278e-05   6.070644952248022e-06   -1.7425696455524928e-05
-1.793170353797898e-05   6.4319687910602795e-06   -4.1885577462702286e-05
-1.793170353797898e-05   6.4319687910602795e-06   -4.1885577462702286e-05
-1.793170353797898e-05   6.4319687910602795e-06   -4.1885577462702286e-05
-1.793170353797898e-05   6.4319687910602795e-06   -4.1885577462702286e-05
-2.557795869617682e-05   5.58748968837626e-06   -2.863513140409559e-05
-2.557795869617682e-05   5.58748968837626e-06   -2.863513140409559e-05
-2.557795869617682e-05   5.58748968837626e-06   -2.863513140409559e-05
-2.557795869617682e-05   5.58748968837626e-06   -2.863513140409559e-05
-3.534493363109842e-05   5.747579758408339e-06   -9.418794471776097e-06
-3.534493363109842e-05   5.747579758408339e-06   -9.418794471776097e-06
-3.534493363109842e-05   5.747579758408339e-06   -9.418794471776097e-06
-3.534493363109842e-05   5.747579758408339e-06   -9.418794471776097e-06
-5.133721330283968e-05   7.938645827088074e-06   -3.4757954283470664e-05
-5.133721330283968e-05   7.938645827088074e-06   -3.4757954283470664e-05
-5.133721330283968e-05   7.938645827088074e-06   -3.4757954283470664e-05
-5.133721330283968e-05   7.938645827088074e-06   -3.4757954283470664e-05
-4.91702375521847e-05   6.721672620392223e-06   -2.9799299948990833e-06
-4.91702375521847e-05   6.721672620392223e-06   -2.9799299948990833e-06
-4.91702375521847e-05   6.721672620392223e-06   -2.9799299948990833e-06
-4.91702375521847e-05   6.721672620392223e-06   -2.9799299948990833e-06
-3.4402352585205505e-05   9.067959307686212e-06   -2.900084361890731e-05
-3.4402352585205505e-05   9.067959307686212e-06   -2.900084361890731e-05
-3.4402352585205505e-05   9.067959307686212e-06   -2.900084361890731e-05
-3.4402352585205505e-05   9.067959307686212e-06   -2.900084361890731e-05
-4.080413149838328e-05   7.562974105524561e-06   -1.7428220975647675e-05
-4.080413149838328e-05   7.562974105524561e-06   -1.7428220975647675e-05
-4.080413149838328e-05   7.562974105524561e-06   -1.7428220975647675e-05
-4.080413149838328e-05   7.562974105524561e-06   -1.7428220975647675e-05
-3.440235258520554e-05   6.721672620392223e-06   -4.387702007275238e-06
-3.440235258520554e-05   6.721672620392223e-06   -4.387702007275238e-06
-3.440235258520554e-05   6.721672620392223e-06   -4.387702007275238e-06
-3.440235258520554e-05   6.721672620392223e-06   -4.387702007275238e-06
-4.917023755218462e-05   9.067959307685995e-06   -2.759307160653127e-05
-4.917023755218462e-05   9.067959307685995e-06   -2.759307160653127e-05
-4.917023755218462e-05   9.067959307685995e-06   -2.759307160653127e-05
-4.917023755218462e-05   9.067959307685995e-06   -2.759307160653127e-05
-4.738709190884464e-05   7.070773734919964e-06   -2.9023699298069954e-07
-4.738709190884464e-05   7.070773734919964e-06   -2.9023699298069954e-07
-4.738709190884464e-05   7.070773734919964e-06   -2.9023699298069954e-07
-4.738709190884464e-05   7.070773734919964e-06   -2.9023699298069954e-07
-3.335906101750866e-05   9.365126118156611e-06   -2.504689990848266e-05
-3.335906101750866e-05   9.365126118156611e-06   -2.504689990848266e-05
-3.335906101750866e-05   9.365126118156611e-06   -2.504689990848266e-05
-3.335906101750866e-05   9.365126118156611e-06   -2.504689990848266e-05
-4.0067576319801636e-05   8.013149780613984e-06   -1.305485526880203e-05
-4.0067576319801636e-05   8.013149780613984e-06   -1.305485526880203e-05
-4.0067576319801636e-05   8.013149780613984e-06   -1.305485526880203e-05
-4.0067576319801636e-05   8.013149780613984e-06   -1.305485526880203e-05
-3.335906101750866e-05   7.070773734919964e-06   -1.6668484229228394e-06
-3.335906101750866e-05   7.070773734919964e-06   -1.6668484229228394e-06
-3.335906101750866e-05   7.070773734919964e-06   -1.6668484229228394e-06
-3.335906101750866e-05   7.070773734919964e-06   -1.6668484229228394e-06
-4.738709190884449e-05   9.365126118156394e-06   -2.3670288478540693e-05
-4.738709190884449e-05   9.365126118156394e-06   -2.3670288478540693e-05
-4.738709190884449e-05   9.365126118156394e-06   -2.3670288478540693e-05
-4.738709190884449e-05   9.365126118156394e-06   -2.3670288478540693e-05
-4.54628670132527e-05   7.5128620400546735e-06   3.126851614800377e-06
-4.54628670132527e-05   7.5128620400546735e-06   3.126851614800377e-06
-4.54628670132527e-05   7.5128620400546735e-06   3.126851614800377e-06
-4.54628670132527e-05   7.5128620400546735e-06   3.126851614800377e-06
-3.247755556031278e-05   9.620455374843634e-06   -1.9779890140972862e-05
-3.247755556031278e-05   9.620455374843634e-06   -1.9779890140972862e-05
-3.247755556031278e-05   9.620455374843634e-06   -1.9779890140972862e-05
-3.247755556031278e-05   9.620455374843634e-06   -1.9779890140972862e-05
-3.825895518464648e-05   8.08654338910501e-06   -9.223876908973945e-06
-3.825895518464648e-05   8.08654338910501e-06   -9.223876908973945e-06
-3.825895518464648e-05   8.08654338910501e-06   -9.223876908973945e-06
-3.825895518464648e-05   8.08654338910501e-06   -9.223876908973945e-06
4.395689336862723e-05   -6.128420260147422e-06   8.731986660730435e-06
4.395689336862723e-05   -6.128420260147422e-06   8.731986660730435e-06
4.395689336862723e-05   -6.128420260147422e-06   8.731986660730435e-06
4.395689336862723e-05   -6.128420260147422e-06   8.731986660730435e-06
2.1179628490442762e-05   -9.071795085088732e-06   -3.099614636454151e-05
2.1179628490442762e-05   -9.071795085088732e-06   -3.099614636454151e-05
2.1179628490442762e-05   -9.071795085088732e-06   -3.099614636454151e-05
2.1179628490442762e-05   -9.071795085088732e-06   -3.099614636454151e-05
2.2045051234050554e-05   -5.6997429895076605e-06   4.21999820797588e-06
2.2045051234050554e-05   -5.6997429895076605e-06   4.21999820797588e-06
2.2045051234050554e-05   -5.6997429895076605e-06   4.21999820797588e-06
2.2045051234050554e-05   -5.6997429895076605e-06   4.21999820797588e-06
4.596753195126505e-05   -8.860241586340634e-06   -3.3754503829281995e-05
4.596753195126505e-05   -8.860241586340634e-06   -3.3754503829281995e-05
4.596753195126505e-05   -8.860241586340634e-06   -3.3754503829281995e-05
4.596753195126505e-05   -8.860241586340634e-06   -3.3754503829281995e-05
3.193374901441406e-05   -6.709562871776674e-06   -1.1655272829935465e-05
3.193374901441406e-05   -6.709562871776674e-06   -1.1655272829935465e-05
3.193374901441406e-05   -6.709562871776674e-06   -1.1655272829935465e-05
3.193374901441406e-05   -6.709562871776674e-06   -1.1655272829935465e-05
4.59675319512651e-05   -5.6997429895076605e-06   6.1162973660755775e-06
4.59675319512651e-05   -5.6997429895076605e-06   6.1162973660755775e-06
4.59675319512651e-05   -5.6997429895076605e-06   6.1162973660755775e-06
4.59675319512651e-05   -5.6997429895076605e-06   6.1162973660755775e-06
2.20450512340505e-05   -8.860241586340634e-06   -3.565080298738169e-05
2.20450512340505e-05   -8.860241586340634e-06   -3.565080298738169e-05
2.20450512340505e-05   -8.860241586340634e-06   -3.565080298738169e-05
2.20450512340505e-05   -8.860241586340634e-06   -3.565080298738169e-05
2.2906000180778976e-05   -5.331004710293699e-06   2.0118387537076607e-06
2.2906000180778976e-05   -5.331004710293699e-06   2.0118387537076607e-06
2.2906000180778976e-05   -5.331004710293699e-06   2.0118387537076607e-06
2.2906000180778976e-05   -5.331004710293699e-06   2.0118387537076607e-06
4.751062187337781e-05   -8.552536445148931e-06   -3.706294502637679e-05
4.751062187337781e-05   -8.552536445148931e-06   -3.706294502637679e-05
4.751062187337781e-05   -8.552536445148931e-06   -3.706294502637679e-05
4.751062187337781e-05   -8.552536445148931e-06   -3.706294502637679e-05
3.362733512843913e-05   -6.687336755810316e-06   -1.5043253598415825e-05
3.362733512843913e-05   -6.687336755810316e-06   -1.5043253598415825e-05
3.362733512843913e-05   -6.687336755810316e-06   -1.5043253598415825e-05
3.362733512843913e-05   -6.687336755810316e-06   -1.5043253598415825e-05
4.751062187337781e-05   -5.331004710293699e-06   3.94475779462119e-06
4.751062187337781e-05   -5.331004710293699e-06   3.94475779462119e-06
4.751062187337781e-05   -5.331004710293699e-06   3.94475779462119e-06
4.751062187337781e-05   -5.331004710293699e-06   3.94475779462119e-06
2.2906000180778976e-05   -8.552536445148931e-06   -3.8995864067290376e-05
2.2906000180778976e-05   -8.552536445148931e-06   -3.8995864067290376e-05
2.2906000180778976e-05   -8.552536445148931e-06   -3.8995864067290376e-05
2.2906000180778976e-05   -8.552536445148931e-06   -3.8995864067290376e-05
2.3490502381867152e-05   -4.165272161026773e-06   -2.434674926359969e-06
2.3490502381867152e-05   -4.165272161026773e-06   -2.434674926359969e-06
2.3490502381867152e-05   -4.165272161026773e-06   -2.434674926359969e-06
2.3490502381867152e-05   -4.165272161026773e-06   -2.434674926359969e-06
4.9142423413351375e-05   -7.352714047565399e-06   -4.32754115135774e-05
4.9142423413351375e-05   -7.352714047565399e-06   -4.32754115135774e-05
4.9142423413351375e-05   -7.352714047565399e-06   -4.32754115135774e-05
4.9142423413351375e-05   -7.352714047565399e-06   -4.32754115135774e-05
3.4099738985041766e-05   -6.17315697375425e-06   -1.891200504401528e-05
3.4099738985041766e-05   -6.17315697375425e-06   -1.891200504401528e-05
3.4099738985041766e-05   -6.17315697375425e-06   -1.891200504401528e-05
3.4099738985041766e-05   -6.17315697375425e-06   -1.891200504401528e-05
2.117962849044279e-05   -2.8682810223595173e-06   -1.0679963398737072e-05
2.117962849044279e-05   -2.8682810223595173e-06   -1.0679963398737072e-05
2.117962849044279e-05   -2.8682810223595173e-06   -1.0679963398737072e-05
2.117962849044279e-05   -2.8682810223595173e-06   -1.0679963398737072e-05
-1.2882878173307106e-06   -5.875205825608531e-06   -4.9930645460308795e-05
-1.2882878173307106e-06   -5.875205825608531e-06   -4.9930645460308795e-05
-1.2882878173307106e-06   -5.875205825608531e-06   -4.9930645460308795e-05
-1.2882878173307106e-06   -5.875205825608531e-06   -4.9930645460308795e-05
-4.000764512360986e-07   -2.2723213032090767e-06   -1.1776309233877671e-05
-4.000764512360986e-07   -2.2723213032090767e-06   -1.1776309233877671e-05
-4.000764512360986e-07   -2.2723213032090767e-06   -1.1776309233877671e-05
-4.000764512360986e-07   -2.2723213032090767e-06   -1.1776309233877671e-05
2.2045051234050554e-05   -5.5934228661365555e-06   -4.7192194438265664e-05
2.2045051234050554e-05   -5.5934228661365555e-06   -4.7192194438265664e-05
2.2045051234050554e-05   -5.5934228661365555e-06   -4.7192194438265664e-05
2.2045051234050554e-05   -5.5934228661365555e-06   -4.7192194438265664e-05
1.0415236330800268e-05   -3.5546457787262974e-06   -2.90324358519612e-05
1.0415236330800268e-05   -3.5546457787262974e-06   -2.90324358519612e-05
1.0415236330800268e-05   -3.5546457787262974e-06   -2.90324358519612e-05
1.0415236330800268e-05   -3.5546457787262974e-06   -2.90324358519612e-05
2.2045051234050527e-05   -2.2723213032090767e-06   -9.783648296121184e-06
2.2045051234050527e-05   -2.2723213032090767e-06   -9.783648296121184e-06
2.2045051234050527e-05   -2.2723213032090767e-06   -9.783648296121184e-06
2.2045051234050527e-05   -2.2723213032090767e-06   -9.783648296121184e-06
-4.000764512360986e-07   -5.5934228661365555e-06   -4.918485537602215e-05
-4.000764512360986e-07   -5.5934228661365555e-06   -4.918485537602215e-05
-4.000764512360986e-07   -5.5934228661365555e-06   -4.918485537602215e-05
-4.000764512360986e-07   -5.5934228661365555e-06   -4.918485537602215e-05
3.824667866797276e-07   -1.543893081826491e-06   -1.2056311063969594e-05
3.824667866797276e-07   -1.543893081826491e-06   -1.2056311063969594e-05
3.824667866797276e-07   -1.543893081826491e-06   -1.2056311063969594e-05
3.824667866797276e-07   -1.543893081826491e-06   -1.2056311063969594e-05
2.2906000180778976e-05   -5.0691808381655296e-06   -4.748036073366481e-05
2.2906000180778976e-05   -5.0691808381655296e-06   -4.748036073366481e-05
2.2906000180778976e-05   -5.0691808381655296e-06   -4.748036073366481e-05
2.2906000180778976e-05   -5.0691808381655296e-06   -4.748036073366481e-05
1.1019528874849294e-05   -3.262464678180886e-06   -2.8753604919772328e-05
1.1019528874849294e-05   -3.262464678180886e-06   -2.8753604919772328e-05
1.1019528874849294e-05   -3.262464678180886e-06   -2.8753604919772328e-05
1.1019528874849294e-05   -3.262464678180886e-06   -2.8753604919772328e-05
2.2906000180778976e-05   -1.543893081826491e-06   -9.941138410166214e-06
2.2906000180778976e-05   -1.543893081826491e-06   -9.941138410166214e-06
2.2906000180778976e-05   -1.543893081826491e-06   -9.941138410166214e-06
2.2906000180778976e-05   -1.543893081826491e-06   -9.941138410166214e-06
3.824667866797276e-07   -5.0691808381655296e-06   -4.959553338746846e-05
3.824667866797276e-07   -5.0691808381655296e-06   -4.959553338746846e-05
3.824667866797276e-07   -5.0691808381655296e-06   -4.959553338746846e-05
3.824667866797276e-07   -5.0691808381655296e-06   -4.959553338746846e-05
9.395193244961659e-07   -6.272456897272495e-07   -1.2533718309044525e-05
9.395193244961659e-07   -6.272456897272495e-07   -1.2533718309044525e-05
9.395193244961659e-07   -6.272456897272495e-07   -1.2533718309044525e-05
9.395193244961659e-07   -6.272456897272495e-07   -1.2533718309044525e-05
2.3490502381867234e-05   -4.3232738561982224e-06   -4.790107317144713e-05
2.3490502381867234e-05   -4.3232738561982224e-06   -4.790107317144713e-05
2.3490502381867234e-05   -4.3232738561982224e-06   -4.790107317144713e-05
2.3490502381867234e-05   -4.3232738561982224e-06   -4.790107317144713e-05
1.1743401814378407e-05   -2.7478361396791884e-06   -2.9267834855544698e-05
1.1743401814378407e-05   -2.7478361396791884e-06   -2.9267834855544698e-05
1.1743401814378407e-05   -2.7478361396791884e-06   -2.9267834855544698e-05
1.1743401814378407e-05   -2.7478361396791884e-06   -2.9267834855544698e-05
-1.2882878173307106e-06   5.254300980898734e-07   -1.626823586127718e-05
-1.2882878173307106e-06   5.254300980898734e-07   -1.626823586127718e-05
-1.2882878173307106e-06   5.254300980898734e-07   -1.626823586127718e-05
-1.2882878173307106e-06   5.254300980898734e-07   -1.626823586127718e-05
-2.3424319225728037e-05   -3.0794149736999496e-06   -5.5324528585013475e-05
-2.3424319225728037e-05   -3.0794149736999496e-06   -5.5324528585013475e-05
-2.3424319225728037e-05   -3.0794149736999496e-06   -5.5324528585013475e-05
-2.3424319225728037e-05   -3.0794149736999496e-06   -5.5324528585013475e-05
-2.2358581655337317e-05   1.1949272984484657e-06   -1.7689511784424287e-05
-2.2358581655337317e-05   1.1949272984484657e-06   -1.7689511784424287e-05
-2.2358581655337317e-05   1.1949272984484657e-06   -1.7689511784424287e-05
-2.2358581655337317e-05   1.1949272984484657e-06   -1.7689511784424287e-05
-4.000764512360986e-07   -2.7472442634384614e-06   -5.192171752079429e-05
-4.000764512360986e-07   -2.7472442634384614e-06   -5.192171752079429e-05
-4.000764512360986e-07   -2.7472442634384614e-06   -5.192171752079429e-05
-4.000764512360986e-07   -2.7472442634384614e-06   -5.192171752079429e-05
-1.172710903498414e-05   -5.917892969917876e-07   -3.433660286108223e-05
-1.172710903498414e-05   -5.917892969917876e-07   -3.433660286108223e-05
-1.172710903498414e-05   -5.917892969917876e-07   -3.433660286108223e-05
-1.172710903498414e-05   -5.917892969917876e-07   -3.433660286108223e-05
-4.000764512360986e-07   1.1949272984484657e-06   -1.532420884729226e-05
-4.000764512360986e-07   1.1949272984484657e-06   -1.532420884729226e-05
-4.000764512360986e-07   1.1949272984484657e-06   -1.532420884729226e-05
-4.000764512360986e-07   1.1949272984484657e-06   -1.532420884729226e-05
-2.2358581655337317e-05   -2.7472442634384614e-06   -5.428702045792624e-05
-2.2358581655337317e-05   -2.7472442634384614e-06   -5.428702045792624e-05
-2.2358581655337317e-05   -2.7472442634384614e-06   -5.428702045792624e-05
-2.2358581655337317e-05   -2.7472442634384614e-06   -5.428702045792624e-05
-2.1380828041229742e-05   1.9700076620120938e-06   -1.737298625093301e-05
-2.1380828041229742e-05   1.9700076620120938e-06   -1.737298625093301e-05
-2.1380828041229742e-05   1.9700076620120938e-06   -1.737298625093301e-05
-2.1380828041229742e-05   1.9700076620120938e-06   -1.737298625093301e-05
3.824667866797276e-07   -2.2306742555669445e-06   -5.1124735146901654e-05
3.824667866797276e-07   -2.2306742555669445e-06   -5.1124735146901654e-05
3.824667866797276e-07   -2.2306742555669445e-06   -5.1124735146901654e-05
3.824667866797276e-07   -2.2306742555669445e-06   -5.1124735146901654e-05
-1.085919230864937e-05   -2.1168018275816852e-07   -3.360003309837173e-05
-1.085919230864937e-05   -2.1168018275816852e-07   -3.360003309837173e-05
-1.085919230864937e-05   -2.1168018275816852e-07   -3.360003309837173e-05
-1.085919230864937e-05   -2.1168018275816852e-07   -3.360003309837173e-05
3.824667866797276e-07   1.9700076620120938e-06   -1.4852577100385803e-05
3.824667866797276e-07   1.9700076620120938e-06   -1.4852577100385803e-05
3.824667866797276e-07   1.9700076620120938e-06   -1.4852577100385803e-05
3.824667866797276e-07   1.9700076620120938e-06   -1.4852577100385803e-05
-2.1380828041229742e-05   -2.2306742555669445e-06   -5.364514429744894e-05
-2.1380828041229742e-05   -2.2306742555669445e-06   -5.364514429744894e-05
-2.1380828041229742e-05   -2.2306742555669445e-06   -5.364514429744894e-05
-2.1380828041229742e-05   -2.2306742555669445e-06   -5.364514429744894e-05
-2.0721618729634612e-05   2.77098760967159e-06   -1.7674784594748187e-05
-2.0721618729634612e-05   2.77098760967159e-06   -1.7674784594748187e-05
-2.0721618729634612e-05   2.77098760967159e-06   -1.7674784594748187e-05
-2.0721618729634612e-05   2.77098760967159e-06   -1.7674784594748187e-05
9.395193244961659e-07   -1.740739269139903e-06   -5.106964522434595e-05
9.395193244961659e-07   -1.740739269139903e-06   -5.106964522434595e-05
9.395193244961659e-07   -1.740739269139903e-06   -5.106964522434595e-05
9.395193244961659e-07   -1.740739269139903e-06   -5.106964522434595e-05
-1.0240263146336674e-05   2.1501132070351342e-07   -3.361012479353103e-05
-1.0240263146336674e-05   2.1501132070351342e-07   -3.361012479353103e-05
-1.0240263146336674e-05   2.1501132070351342e-07   -3.361012479353103e-05
-1.0240263146336674e-05   2.1501132070351342e-07   -3.361012479353103e-05
-2.3424319225728037e-05   4.040641275961012e-06   -1.3275669988103717e-05
-2.3424319225728037e-05   4.040641275961012e-06   -1.3275669988103717e-05
-2.3424319225728037e-05   4.040641275961012e-06   -1.3275669988103717e-05
-2.3424319225728037e-05   4.040641275961012e-06   -1.3275669988103717e-05
-4.586974048719217e-05   7.937043235129414e-07   -5.26328675953462e-05
-4.586974048719217e-05   7.937043235129414e-07   -5.26328675953462e-05
-4.586974048719217e-05   7.937043235129414e-07   -5.26328675953462e-05
-4.586974048719217e-05   7.937043235129414e-07   -5.26328675953462e-05
-4.4352482963295385e-05   4.8905641732463305e-06   -1.4145965931199305e-05
-4.4352482963295385e-05   4.8905641732463305e-06   -1.4145965931199305e-05
-4.4352482963295385e-05   4.8905641732463305e-06   -1.4145965931199305e-05
-4.4352482963295385e-05   4.8905641732463305e-06   -1.4145965931199305e-05
-2.2358581655337317e-05   1.4071861945330263e-06   -4.871244132390151e-05
-2.2358581655337317e-05   1.4071861945330263e-06   -4.871244132390151e-05
-2.2358581655337317e-05   1.4071861945330263e-06   -4.871244132390151e-05
-2.2358581655337317e-05   1.4071861945330263e-06   -4.871244132390151e-05
-3.3648645475900235e-05   3.0743682758811904e-06   -3.0895977538438686e-05
-3.3648645475900235e-05   3.0743682758811904e-06   -3.0895977538438686e-05
-3.3648645475900235e-05   3.0743682758811904e-06   -3.0895977538438686e-05
-3.3648645475900235e-05   3.0743682758811904e-06   -3.0895977538438686e-05
-2.2358581655337317e-05   4.8905641732463305e-06   -1.2055939143971323e-05
-2.2358581655337317e-05   4.8905641732463305e-06   -1.2055939143971323e-05
-2.2358581655337317e-05   4.8905641732463305e-06   -1.2055939143971323e-05
-2.2358581655337317e-05   4.8905641732463305e-06   -1.2055939143971323e-05
-4.435248296329546e-05   1.4071861945330263e-06   -5.080246811112947e-05
-4.435248296329546e-05   1.4071861945330263e-06   -5.080246811112947e-05
-4.435248296329546e-05   1.4071861945330263e-06   -5.080246811112947e-05
-4.435248296329546e-05   1.4071861945330263e-06   -5.080246811112947e-05
-4.288550594128631e-05   5.622476756057641e-06   -1.2883803001060385e-05
-4.288550594128631e-05   5.622476756057641e-06   -1.2883803001060385e-05
-4.288550594128631e-05   5.622476756057641e-06   -1.2883803001060385e-05
-4.288550594128631e-05   5.622476756057641e-06   -1.2883803001060385e-05
-2.138082804122979e-05   1.97185909404712e-06   -4.653456223728211e-05
-2.138082804122979e-05   1.97185909404712e-06   -4.653456223728211e-05
-2.138082804122979e-05   1.97185909404712e-06   -4.653456223728211e-05
-2.138082804122979e-05   1.97185909404712e-06   -4.653456223728211e-05
-3.227698949874055e-05   3.6081497516021743e-06   -2.935606753596328e-05
-3.227698949874055e-05   3.6081497516021743e-06   -2.935606753596328e-05
-3.227698949874055e-05   3.6081497516021743e-06   -2.935606753596328e-05
-3.227698949874055e-05   3.6081497516021743e-06   -2.935606753596328e-05
-2.1380828041229722e-05   5.622476756057641e-06   -1.069343240385403e-05
-2.1380828041229722e-05   5.622476756057641e-06   -1.069343240385403e-05
-2.1380828041229722e-05   5.622476756057641e-06   -1.069343240385403e-05
-2.1380828041229722e-05   5.622476756057641e-06   -1.069343240385403e-05
-4.2885505941286384e-05   1.971859094047554e-06   -4.872493283448846e-05
-4.2885505941286384e-05   1.971859094047554e-06   -4.872493283448846e-05
-4.2885505941286384e-05   1.971859094047554e-06   -4.872493283448846e-05
-4.2885505941286384e-05   1.971859094047554e-06   -4.872493283448846e-05
-4.177306902496461e-05   6.4319687910602795e-06   -1.2924432671840725e-05
-4.177306902496461e-05   6.4319687910602795e-06   -1.2924432671840725e-05
-4.177306902496461e-05   6.4319687910602795e-06   -1.2924432671840725e-05
-4.177306902496461e-05   6.4319687910602795e-06   -1.2924432671840725e-05
-2.0721618729634646e-05   2.449350270628762e-06   -4.5620612051798634e-05
-2.0721618729634646e-05   2.449350270628762e-06   -4.5620612051798634e-05
-2.0721618729634646e-05   2.449350270628762e-06   -4.5620612051798634e-05
-2.0721618729634646e-05   2.449350270628762e-06   -4.5620612051798634e-05
-3.150952495153016e-05   3.980768156994392e-06   -2.8559619080458754e-05
-3.150952495153016e-05   3.980768156994392e-06   -2.8559619080458754e-05
-3.150952495153016e-05   3.980768156994392e-06   -2.8559619080458754e-05
-3.150952495153016e-05   3.980768156994392e-06   -2.8559619080458754e-05
-4.586974048719217e-05   7.938645827088291e-06   -7.614470677354051e-06
-4.586974048719217e-05   7.938645827088291e-06   -7.614470677354051e-06
-4.586974048719217e-05   7.938645827088291e-06   -7.614470677354051e-06
-4.586974048719217e-05   7.938645827088291e-06   -7.614470677354051e-06
-6.932262488099273e-05   7.4970609346158325e-06   -4.696756226917195e-05
-6.932262488099273e-05   7.4970609346158325e-06   -4.696756226917195e-05
-6.932262488099273e-05   7.4970609346158325e-06   -4.696756226917195e-05
-6.932262488099273e-05   7.4970609346158325e-06   -4.696756226917195e-05
-6.632741570339933e-05   9.067959307685995e-06   -1.9859764108470616e-07
-6.632741570339933e-05   9.067959307685995e-06   -1.9859764108470616e-07
-6.632741570339933e-05   9.067959307685995e-06   -1.9859764108470616e-07
-6.632741570339933e-05   9.067959307685995e-06   -1.9859764108470616e-07
-4.4352482963295304e-05   9.487438281802207e-06   -3.7075172925727435e-05
-4.4352482963295304e-05   9.487438281802207e-06   -3.7075172925727435e-05
-4.4352482963295304e-05   9.487438281802207e-06   -3.7075172925727435e-05
-4.4352482963295304e-05   9.487438281802207e-06   -3.7075172925727435e-05
-5.403292664965634e-05   8.945276081946587e-06   -2.061580279521265e-05
-5.403292664965634e-05   8.945276081946587e-06   -2.061580279521265e-05
-5.403292664965634e-05   8.945276081946587e-06   -2.061580279521265e-05
-5.403292664965634e-05   8.945276081946587e-06   -2.061580279521265e-05
-4.4352482963295426e-05   9.067959307686212e-06   -4.5028502555408655e-07
-4.4352482963295426e-05   9.067959307686212e-06   -4.5028502555408655e-07
-4.4352482963295426e-05   9.067959307686212e-06   -4.5028502555408655e-07
-4.4352482963295426e-05   9.067959307686212e-06   -4.5028502555408655e-07
-6.632741570339921e-05   9.487438281802207e-06   -3.682348554125787e-05
-6.632741570339921e-05   9.487438281802207e-06   -3.682348554125787e-05
-6.632741570339921e-05   9.487438281802207e-06   -3.682348554125787e-05
-6.632741570339921e-05   9.487438281802207e-06   -3.682348554125787e-05
-6.38435177344591e-05   9.365126118156394e-06   3.993807506040862e-06
-6.38435177344591e-05   9.365126118156394e-06   3.993807506040862e-06
-6.38435177344591e-05   9.365126118156394e-06   3.993807506040862e-06
-6.38435177344591e-05   9.365126118156394e-06   3.993807506040862e-06
-4.288550594128631e-05   9.934905090173453e-06   -3.127807953245735e-05
-4.288550594128631e-05   9.934905090173453e-06   -3.127807953245735e-05
-4.288550594128631e-05   9.934905090173453e-06   -3.127807953245735e-05
-4.288550594128631e-05   9.934905090173453e-06   -3.127807953245735e-05
-5.290092738383212e-05   9.594750475236564e-06   -1.4381617692584808e-05
-5.290092738383212e-05   9.594750475236564e-06   -1.4381617692584808e-05
-5.290092738383212e-05   9.594750475236564e-06   -1.4381617692584808e-05
-5.290092738383212e-05   9.594750475236564e-06   -1.4381617692584808e-05
-4.2885505941286384e-05   9.365126118156828e-06   3.65194012283041e-06
-4.2885505941286384e-05   9.365126118156828e-06   3.65194012283041e-06
-4.2885505941286384e-05   9.365126118156828e-06   3.65194012283041e-06
-4.2885505941286384e-05   9.365126118156828e-06   3.65194012283041e-06
-6.38435177344592e-05   9.934905090173453e-06   -3.093621214924724e-05
-6.38435177344592e-05   9.934905090173453e-06   -3.093621214924724e-05
-6.38435177344592e-05   9.934905090173453e-06   -3.093621214924724e-05
-6.38435177344592e-05   9.934905090173453e-06   -3.093621214924724e-05
-6.124538847557663e-05   9.620455374843634e-06   9.613632315522537e-06
-6.124538847557663e-05   9.620455374843634e-06   9.613632315522537e-06
-6.124538847557663e-05   9.620455374843634e-06   9.613632315522537e-06
-6.124538847557663e-05   9.620455374843634e-06   9.613632315522537e-06
-4.177306902496468e-05   1.070240865637959e-05   -2.348940540441929e-05
-4.177306902496468e-05   1.070240865637959e-05   -2.348940540441929e-05
-4.177306902496468e-05   1.070240865637959e-05   -2.348940540441929e-05
-4.177306902496468e-05   1.070240865637959e-05   -2.348940540441929e-05
-5.039207865849935e-05   9.812621601708576e-06   -8.59051711572582e-06
-5.039207865849935e-05   9.812621601708576e-06   -8.59051711572582e-06
-5.039207865849935e-05   9.812621601708576e-06   -8.59051711572582e-06
-5.039207865849935e-05   9.812621601708576e-06   -8.59051711572582e-06
6.041174937770552e-05   -9.071795085088732e-06   2.0622971353748826e-05
6.041174937770552e-05   -9.071795085088732e-06   2.0622971353748826e-05
6.041174937770552e-05   -9.071795085088732e-06   2.0622971353748826e-05
6.041174937770552e-05   -9.071795085088732e-06   2.0622971353748826e-05
3.0362563615772765e-05   -1.1470736483214228e-05   -3.0898369755014274e-05
3.0362563615772765e-05   -1.1470736483214228e-05   -3.0898369755014274e-05
3.0362563615772765e-05   -1.1470736483214228e-05   -3.0898369755014274e-05
3.0362563615772765e-05   -1.1470736483214228e-05   -3.0898369755014274e-05
3.110308520889692e-05   -8.860241586340634e-06   1.4796236032149418e-05
3.110308520889692e-05   -8.860241586340634e-06   1.4796236032149418e-05
3.110308520889692e-05   -8.860241586340634e-06   1.4796236032149418e-05
3.110308520889692e-05   -8.860241586340634e-06   1.4796236032149418e-05
6.19154199093738e-05   -1.1757702848428156e-05   -3.4819178378059346e-05
6.19154199093738e-05   -1.1757702848428156e-05   -3.4819178378059346e-05
6.19154199093738e-05   -1.1757702848428156e-05   -3.4819178378059346e-05
6.19154199093738e-05   -1.1757702848428156e-05   -3.4819178378059346e-05
4.4117586086861387e-05   -9.266544419159022e-06   -6.650817064766891e-06
4.4117586086861387e-05   -9.266544419159022e-06   -6.650817064766891e-06
4.4117586086861387e-05   -9.266544419159022e-06   -6.650817064766891e-06
4.4117586086861387e-05   -9.266544419159022e-06   -6.650817064766891e-06
6.19154199093738e-05   -8.860241586340634e-06   1.653471278940206e-05
6.19154199093738e-05   -8.860241586340634e-06   1.653471278940206e-05
6.19154199093738e-05   -8.860241586340634e-06   1.653471278940206e-05
6.19154199093738e-05   -8.860241586340634e-06   1.653471278940206e-05
3.110308520889692e-05   -1.1757702848428156e-05   -3.655765513531188e-05
3.110308520889692e-05   -1.1757702848428156e-05   -3.655765513531188e-05
3.110308520889692e-05   -1.1757702848428156e-05   -3.655765513531188e-05
3.110308520889692e-05   -1.1757702848428156e-05   -3.655765513531188e-05
3.172897747417576e-05   -8.552536445148931e-06   1.1676674150825619e-05
3.172897747417576e-05   -8.552536445148931e-06   1.1676674150825619e-05
3.172897747417576e-05   -8.552536445148931e-06   1.1676674150825619e-05
3.172897747417576e-05   -8.552536445148931e-06   1.1676674150825619e-05
6.28523876273137e-05   -1.1650926263788962e-05   -3.833664221322046e-05
6.28523876273137e-05   -1.1650926263788962e-05   -3.833664221322046e-05
6.28523876273137e-05   -1.1650926263788962e-05   -3.833664221322046e-05
6.28523876273137e-05   -1.1650926263788962e-05   -3.833664221322046e-05
4.5671697266499764e-05   -9.558917255461045e-06   -1.0957363683527057e-05
4.5671697266499764e-05   -9.558917255461045e-06   -1.0957363683527057e-05
4.5671697266499764e-05   -9.558917255461045e-06   -1.0957363683527057e-05
4.5671697266499764e-05   -9.558917255461045e-06   -1.0957363683527057e-05
6.28523876273137e-05   -8.552536445148931e-06   1.353570804200942e-05
6.28523876273137e-05   -8.552536445148931e-06   1.353570804200942e-05
6.28523876273137e-05   -8.552536445148931e-06   1.353570804200942e-05
6.28523876273137e-05   -8.552536445148931e-06   1.353570804200942e-05
3.172897747417576e-05   -1.1650926263788962e-05   -4.019567610440448e-05
3.172897747417576e-05   -1.1650926263788962e-05   -4.019567610440448e-05
3.172897747417576e-05   -1.1650926263788962e-05   -4.019567610440448e-05
3.172897747417576e-05   -1.1650926263788962e-05   -4.019567610440448e-05
3.238269607859032e-05   -7.352714047565399e-06   5.62514061069907e-06
3.238269607859032e-05   -7.352714047565399e-06   5.62514061069907e-06
3.238269607859032e-05   -7.352714047565399e-06   5.62514061069907e-06
3.238269607859032e-05   -7.352714047565399e-06   5.62514061069907e-06
6.377499424308191e-05   -1.1002023218457078e-05   -4.450577082758516e-05
6.377499424308191e-05   -1.1002023218457078e-05   -4.450577082758516e-05
6.377499424308191e-05   -1.1002023218457078e-05   -4.450577082758516e-05
6.377499424308191e-05   -1.1002023218457078e-05   -4.450577082758516e-05
4.569306904092853e-05   -9.19900696127237e-06   -1.5451038578306766e-05
4.569306904092853e-05   -9.19900696127237e-06   -1.5451038578306766e-05
4.569306904092853e-05   -9.19900696127237e-06   -1.5451038578306766e-05
4.569306904092853e-05   -9.19900696127237e-06   -1.5451038578306766e-05
3.0362563615772765e-05   -5.875205825608531e-06   2.053262301055783e-06
3.0362563615772765e-05   -5.875205825608531e-06   2.053262301055783e-06
3.0362563615772765e-05   -5.875205825608531e-06   2.053262301055783e-06
3.0362563615772765e-05   -5.875205825608531e-06   2.053262301055783e-06
3.5920525310324233e-06   -1.1499465032084339e-05   -4.593881169739694e-05
3.5920525310324233e-06   -1.1499465032084339e-05   -4.593881169739694e-05
3.5920525310324233e-06   -1.1499465032084339e-05   -4.593881169739694e-05
3.5920525310324233e-06   -1.1499465032084339e-05   -4.593881169739694e-05
4.455002809995574e-06   -5.5934228661365555e-06   -2.530093176965429e-07
4.455002809995574e-06   -5.5934228661365555e-06   -2.530093176965429e-07
4.455002809995574e-06   -5.5934228661365555e-06   -2.530093176965429e-07
4.455002809995574e-06   -5.5934228661365555e-06   -2.530093176965429e-07
3.1103085208897e-05   -1.143984603107313e-05   -4.1158626083570284e-05
3.1103085208897e-05   -1.143984603107313e-05   -4.1158626083570284e-05
3.1103085208897e-05   -1.143984603107313e-05   -4.1158626083570284e-05
3.1103085208897e-05   -1.143984603107313e-05   -4.1158626083570284e-05
1.7445637835324515e-05   -7.758581312722855e-06   -2.060497262529318e-05
1.7445637835324515e-05   -7.758581312722855e-06   -2.060497262529318e-05
1.7445637835324515e-05   -7.758581312722855e-06   -2.060497262529318e-05
1.7445637835324515e-05   -7.758581312722855e-06   -2.060497262529318e-05
3.110308520889692e-05   -5.5934228661365555e-06   3.254844581265662e-06
3.110308520889692e-05   -5.5934228661365555e-06   3.254844581265662e-06
3.110308520889692e-05   -5.5934228661365555e-06   3.254844581265662e-06
3.110308520889692e-05   -5.5934228661365555e-06   3.254844581265662e-06
4.455002809995574e-06   -1.143984603107313e-05   -4.46664799825323e-05
4.455002809995574e-06   -1.143984603107313e-05   -4.46664799825323e-05
4.455002809995574e-06   -1.143984603107313e-05   -4.46664799825323e-05
4.455002809995574e-06   -1.143984603107313e-05   -4.46664799825323e-05
5.233942023865579e-06   -5.0691808381655296e-06   -5.375801409620694e-07
5.233942023865579e-06   -5.0691808381655296e-06   -5.375801409620694e-07
5.233942023865579e-06   -5.0691808381655296e-06   -5.375801409620694e-07
5.233942023865579e-06   -5.0691808381655296e-06   -5.375801409620694e-07
3.172897747417576e-05   -1.1285443547187027e-05   -4.0966214932732664e-05
3.172897747417576e-05   -1.1285443547187027e-05   -4.0966214932732664e-05
3.172897747417576e-05   -1.1285443547187027e-05   -4.0966214932732664e-05
3.172897747417576e-05   -1.1285443547187027e-05   -4.0966214932732664e-05
1.7935080626459153e-05   -7.843230815334293e-06   -2.0041714492316e-05
1.7935080626459153e-05   -7.843230815334293e-06   -2.0041714492316e-05
1.7935080626459153e-05   -7.843230815334293e-06   -2.0041714492316e-05
1.7935080626459153e-05   -7.843230815334293e-06   -2.0041714492316e-05
3.172897747417576e-05   -5.0691808381655296e-06   3.192177484450916e-06
3.172897747417576e-05   -5.0691808381655296e-06   3.192177484450916e-06
3.172897747417576e-05   -5.0691808381655296e-06   3.192177484450916e-06
3.172897747417576e-05   -5.0691808381655296e-06   3.192177484450916e-06
5.233942023865566e-06   -1.1285443547187027e-05   -4.469597255814576e-05
5.233942023865566e-06   -1.1285443547187027e-05   -4.469597255814576e-05
5.233942023865566e-06   -1.1285443547187027e-05   -4.469597255814576e-05
5.233942023865566e-06   -1.1285443547187027e-05   -4.469597255814576e-05
6.3965944578462405e-06   -4.3232738561982224e-06   -1.080602876954613e-06
6.3965944578462405e-06   -4.3232738561982224e-06   -1.080602876954613e-06
6.3965944578462405e-06   -4.3232738561982224e-06   -1.080602876954613e-06
6.3965944578462405e-06   -4.3232738561982224e-06   -1.080602876954613e-06
3.238269607859029e-05   -1.0977518792377235e-05   -4.0398225283154194e-05
3.238269607859029e-05   -1.0977518792377235e-05   -4.0398225283154194e-05
3.238269607859029e-05   -1.0977518792377235e-05   -4.0398225283154194e-05
3.238269607859029e-05   -1.0977518792377235e-05   -4.0398225283154194e-05
1.8869703196115925e-05   -7.720536620866789e-06   -1.9830759781936345e-05
1.8869703196115925e-05   -7.720536620866789e-06   -1.9830759781936345e-05
1.8869703196115925e-05   -7.720536620866789e-06   -1.9830759781936345e-05
1.8869703196115925e-05   -7.720536620866789e-06   -1.9830759781936345e-05
3.5920525310324233e-06   -3.0794149736999496e-06   -4.552269304460357e-06
3.5920525310324233e-06   -3.0794149736999496e-06   -4.552269304460357e-06
3.5920525310324233e-06   -3.0794149736999496e-06   -4.552269304460357e-06
3.5920525310324233e-06   -3.0794149736999496e-06   -4.552269304460357e-06
-2.2901218108045096e-05   -1.3863734447368617e-05   -5.517831205379092e-05
-2.2901218108045096e-05   -1.3863734447368617e-05   -5.517831205379092e-05
-2.2901218108045096e-05   -1.3863734447368617e-05   -5.517831205379092e-05
-2.2901218108045096e-05   -1.3863734447368617e-05   -5.517831205379092e-05
-2.155689298857349e-05   -2.7472442634384614e-06   -9.843189624530319e-06
-2.155689298857349e-05   -2.7472442634384614e-06   -9.843189624530319e-06
-2.155689298857349e-05   -2.7472442634384614e-06   -9.843189624530319e-06
-2.155689298857349e-05   -2.7472442634384614e-06   -9.843189624530319e-06
4.455002809995574e-06   -1.4169441200208386e-05   -4.634303112675047e-05
4.455002809995574e-06   -1.4169441200208386e-05   -4.634303112675047e-05
4.455002809995574e-06   -1.4169441200208386e-05   -4.634303112675047e-05
4.455002809995574e-06   -1.4169441200208386e-05   -4.634303112675047e-05
-8.797331425272606e-06   -7.836565450566359e-06   -2.805553285108864e-05
-8.797331425272606e-06   -7.836565450566359e-06   -2.805553285108864e-05
-8.797331425272606e-06   -7.836565450566359e-06   -2.805553285108864e-05
-8.797331425272606e-06   -7.836565450566359e-06   -2.805553285108864e-05
4.455002809995574e-06   -2.7472442634384614e-06   -2.989871462468494e-06
4.455002809995574e-06   -2.7472442634384614e-06   -2.989871462468494e-06
4.455002809995574e-06   -2.7472442634384614e-06   -2.989871462468494e-06
4.455002809995574e-06   -2.7472442634384614e-06   -2.989871462468494e-06
-2.155689298857353e-05   -1.4169441200208386e-05   -5.319634928881243e-05
-2.155689298857353e-05   -1.4169441200208386e-05   -5.319634928881243e-05
-2.155689298857353e-05   -1.4169441200208386e-05   -5.319634928881243e-05
-2.155689298857353e-05   -1.4169441200208386e-05   -5.319634928881243e-05
-2.03983260272603e-05   -2.2306742555669445e-06   -9.189622641842974e-06
-2.03983260272603e-05   -2.2306742555669445e-06   -9.189622641842974e-06
-2.03983260272603e-05   -2.2306742555669445e-06   -9.189622641842974e-06
-2.03983260272603e-05   -2.2306742555669445e-06   -9.189622641842974e-06
5.233942023865566e-06   -1.4102075491313065e-05   -4.478722865227202e-05
5.233942023865566e-06   -1.4102075491313065e-05   -4.478722865227202e-05
5.233942023865566e-06   -1.4102075491313065e-05   -4.478722865227202e-05
5.233942023865566e-06   -1.4102075491313065e-05   -4.478722865227202e-05
-7.84279648295296e-06   -8.013377258091377e-06   -2.6645883414174278e-05
-7.84279648295296e-06   -8.013377258091377e-06   -2.6645883414174278e-05
-7.84279648295296e-06   -8.013377258091377e-06   -2.6645883414174278e-05
-7.84279648295296e-06   -8.013377258091377e-06   -2.6645883414174278e-05
5.233942023865566e-06   -2.2306742555669445e-06   -2.066781900395562e-06
5.233942023865566e-06   -2.2306742555669445e-06   -2.066781900395562e-06
5.233942023865566e-06   -2.2306742555669445e-06   -2.066781900395562e-06
5.233942023865566e-06   -2.2306742555669445e-06   -2.066781900395562e-06
-2.0398326027260368e-05   -1.4102075491313065e-05   -5.191006939371957e-05
-2.0398326027260368e-05   -1.4102075491313065e-05   -5.191006939371957e-05
-2.0398326027260368e-05   -1.4102075491313065e-05   -5.191006939371957e-05
-2.0398326027260368e-05   -1.4102075491313065e-05   -5.191006939371957e-05
-1.8399290258644483e-05   -1.740739269139903e-06   -9.150905805687271e-06
-1.8399290258644483e-05   -1.740739269139903e-06   -9.150905805687271e-06
-1.8399290258644483e-05   -1.740739269139903e-06   -9.150905805687271e-06
-1.8399290258644483e-05   -1.740739269139903e-06   -9.150905805687271e-06
6.3965944578462405e-06   -1.3606318895333959e-05   -4.335803255745528e-05
6.3965944578462405e-06   -1.3606318895333959e-05   -4.335803255745528e-05
6.3965944578462405e-06   -1.3606318895333959e-05   -4.335803255745528e-05
6.3965944578462405e-06   -1.3606318895333959e-05   -4.335803255745528e-05
-6.602282905359338e-06   -7.834674494624615e-06   -2.515622359253812e-05
-6.602282905359338e-06   -7.834674494624615e-06   -2.515622359253812e-05
-6.602282905359338e-06   -7.834674494624615e-06   -2.515622359253812e-05
-6.602282905359338e-06   -7.834674494624615e-06   -2.515622359253812e-05
-2.2901218108045056e-05   7.937043235129414e-07   -6.3830378275253966e-06
-2.2901218108045056e-05   7.937043235129414e-07   -6.3830378275253966e-06
-2.2901218108045056e-05   7.937043235129414e-07   -6.3830378275253966e-06
-2.2901218108045056e-05   7.937043235129414e-07   -6.3830378275253966e-06
-5.245561960413981e-05   -1.727753450580247e-05   -6.648311695193901e-05
-5.245561960413981e-05   -1.727753450580247e-05   -6.648311695193901e-05
-5.245561960413981e-05   -1.727753450580247e-05   -6.648311695193901e-05
-5.245561960413981e-05   -1.727753450580247e-05   -6.648311695193901e-05
-5.084947402182697e-05   1.4071861945330263e-06   -1.669025016505098e-05
-5.084947402182697e-05   1.4071861945330263e-06   -1.669025016505098e-05
-5.084947402182697e-05   1.4071861945330263e-06   -1.669025016505098e-05
-5.084947402182697e-05   1.4071861945330263e-06   -1.669025016505098e-05
-2.155689298857349e-05   -1.9295546596375703e-05   -5.308957887926132e-05
-2.155689298857349e-05   -1.9295546596375703e-05   -5.308957887926132e-05
-2.155689298857349e-05   -1.9295546596375703e-05   -5.308957887926132e-05
-2.155689298857349e-05   -1.9295546596375703e-05   -5.308957887926132e-05
-3.6409830469571546e-05   -8.781997231593983e-06   -3.4642812696466965e-05
-3.6409830469571546e-05   -8.781997231593983e-06   -3.4642812696466965e-05
-3.6409830469571546e-05   -8.781997231593983e-06   -3.4642812696466965e-05
-3.6409830469571546e-05   -8.781997231593983e-06   -3.4642812696466965e-05
-2.155689298857349e-05   1.4071861945330263e-06   -4.2686104905055675e-06
-2.155689298857349e-05   1.4071861945330263e-06   -4.2686104905055675e-06
-2.155689298857349e-05   1.4071861945330263e-06   -4.2686104905055675e-06
-2.155689298857349e-05   1.4071861945330263e-06   -4.2686104905055675e-06
-5.0849474021827054e-05   -1.9295546596375703e-05   -6.551121855380665e-05
-5.0849474021827054e-05   -1.9295546596375703e-05   -6.551121855380665e-05
-5.0849474021827054e-05   -1.9295546596375703e-05   -6.551121855380665e-05
-5.0849474021827054e-05   -1.9295546596375703e-05   -6.551121855380665e-05
-4.9309912894024966e-05   1.971859094047554e-06   -1.4903425506141094e-05
-4.9309912894024966e-05   1.971859094047554e-06   -1.4903425506141094e-05
-4.9309912894024966e-05   1.971859094047554e-06   -1.4903425506141094e-05
-4.9309912894024966e-05   1.971859094047554e-06   -1.4903425506141094e-05
-2.039832602726034e-05   -1.9402115780060847e-05   -5.026501869295042e-05
-2.039832602726034e-05   -1.9402115780060847e-05   -5.026501869295042e-05
-2.039832602726034e-05   -1.9402115780060847e-05   -5.026501869295042e-05
-2.039832602726034e-05   -1.9402115780060847e-05   -5.026501869295042e-05
-3.484373693777721e-05   -8.810784322966971e-06   -3.254413271634515e-05
-3.484373693777721e-05   -8.810784322966971e-06   -3.254413271634515e-05
-3.484373693777721e-05   -8.810784322966971e-06   -3.254413271634515e-05
-3.484373693777721e-05   -8.810784322966971e-06   -3.254413271634515e-05
-2.0398326027260328e-05   1.971859094047554e-06   -2.0790405816759235e-06
-2.0398326027260328e-05   1.971859094047554e-06   -2.0790405816759235e-06
-2.0398326027260328e-05   1.971859094047554e-06   -2.0790405816759235e-06
-2.0398326027260328e-05   1.971859094047554e-06   -2.0790405816759235e-06
-4.930991289402505e-05   -1.9402115780060847e-05   -6.308940361741543e-05
-4.930991289402505e-05   -1.9402115780060847e-05   -6.308940361741543e-05
-4.930991289402505e-05   -1.9402115780060847e-05   -6.308940361741543e-05
-4.930991289402505e-05   -1.9402115780060847e-05   -6.308940361741543e-05
-4.678588927339424e-05   2.449350270628762e-06   -1.3084503431486831e-05
-4.678588927339424e-05   2.449350270628762e-06   -1.3084503431486831e-05
-4.678588927339424e-05   2.449350270628762e-06   -1.3084503431486831e-05
-4.678588927339424e-05   2.449350270628762e-06   -1.3084503431486831e-05
-1.839929025864451e-05   -1.7700094605427492e-05   -4.8305834863769485e-05
-1.839929025864451e-05   -1.7700094605427492e-05   -4.8305834863769485e-05
-1.839929025864451e-05   -1.7700094605427492e-05   -4.8305834863769485e-05
-1.839929025864451e-05   -1.7700094605427492e-05   -4.8305834863769485e-05
-3.329807026639697e-05   -7.7773848700881e-06   -2.9428160692051357e-05
-3.329807026639697e-05   -7.7773848700881e-06   -2.9428160692051357e-05
-3.329807026639697e-05   -7.7773848700881e-06   -2.9428160692051357e-05
-3.329807026639697e-05   -7.7773848700881e-06   -2.9428160692051357e-05
-5.245561960413981e-05   7.497060934615399e-06   -1.1295524863456875e-05
-5.245561960413981e-05   7.497060934615399e-06   -1.1295524863456875e-05
-5.245561960413981e-05   7.497060934615399e-06   -1.1295524863456875e-05
-5.245561960413981e-05   7.497060934615399e-06   -1.1295524863456875e-05
-9.029298712847013e-05   0.0   -7.88560406314435e-05
-9.029298712847013e-05   0.0   -7.88560406314435e-05
-9.029298712847013e-05   0.0   -7.88560406314435e-05
-9.029298712847013e-05   0.0   -7.88560406314435e-05
-8.794359616897342e-05   9.487438281802207e-06   -8.65541794873052e-06
-8.794359616897342e-05   9.487438281802207e-06   -8.65541794873052e-06
-8.794359616897342e-05   9.487438281802207e-06   -8.65541794873052e-06
-8.794359616897342e-05   9.487438281802207e-06   -8.65541794873052e-06
-5.084947402182697e-05   0.0   -6.478649189155982e-05
-5.084947402182697e-05   0.0   -6.478649189155982e-05
-5.084947402182697e-05   0.0   -6.478649189155982e-05
-5.084947402182697e-05   0.0   -6.478649189155982e-05
-6.739498061406879e-05   2.901707391348221e-06   -3.8951672005965834e-05
-6.739498061406879e-05   2.901707391348221e-06   -3.8951672005965834e-05
-6.739498061406879e-05   2.901707391348221e-06   -3.8951672005965834e-05
-6.739498061406879e-05   2.901707391348221e-06   -3.8951672005965834e-05
-5.084947402182701e-05   9.487438281802207e-06   -2.9629549796487617e-06
-5.084947402182701e-05   9.487438281802207e-06   -2.9629549796487617e-06
-5.084947402182701e-05   9.487438281802207e-06   -2.9629549796487617e-06
-5.084947402182701e-05   9.487438281802207e-06   -2.9629549796487617e-06
-8.794359616897326e-05   0.0   -7.047895486064076e-05
-8.794359616897326e-05   0.0   -7.047895486064076e-05
-8.794359616897326e-05   0.0   -7.047895486064076e-05
-8.794359616897326e-05   0.0   -7.047895486064076e-05
-8.595566646248229e-05   9.934905090173453e-06   -3.417515258214701e-06
-8.595566646248229e-05   9.934905090173453e-06   -3.417515258214701e-06
-8.595566646248229e-05   9.934905090173453e-06   -3.417515258214701e-06
-8.595566646248229e-05   9.934905090173453e-06   -3.417515258214701e-06
-4.930991289402505e-05   0.0   -5.853282815153932e-05
-4.930991289402505e-05   0.0   -5.853282815153932e-05
-4.930991289402505e-05   0.0   -5.853282815153932e-05
-4.930991289402505e-05   0.0   -5.853282815153932e-05
-6.66970368036439e-05   4.594778569098207e-06   -3.23111554436326e-05
-6.66970368036439e-05   4.594778569098207e-06   -3.23111554436326e-05
-6.66970368036439e-05   4.594778569098207e-06   -3.23111554436326e-05
-6.66970368036439e-05   4.594778569098207e-06   -3.23111554436326e-05
-4.930991289402505e-05   9.934905090173453e-06   2.5434277958898913e-06
-4.930991289402505e-05   9.934905090173453e-06   2.5434277958898913e-06
-4.930991289402505e-05   9.934905090173453e-06   2.5434277958898913e-06
-4.930991289402505e-05   9.934905090173453e-06   2.5434277958898913e-06
-8.595566646248215e-05   0.0   -6.449377120564307e-05
-8.595566646248215e-05   0.0   -6.449377120564307e-05
-8.595566646248215e-05   0.0   -6.449377120564307e-05
-8.595566646248215e-05   0.0   -6.449377120564307e-05
-8.198887033697399e-05   1.070240865637959e-05   5.014829134323499e-06
-8.198887033697399e-05   1.070240865637959e-05   5.014829134323499e-06
-8.198887033697399e-05   1.070240865637959e-05   5.014829134323499e-06
-8.198887033697399e-05   1.070240865637959e-05   5.014829134323499e-06
-4.678588927339432e-05   0.0   -4.7235360777814854e-05
-4.678588927339432e-05   0.0   -4.7235360777814854e-05
-4.678588927339432e-05   0.0   -4.7235360777814854e-05
-4.678588927339432e-05   0.0   -4.7235360777814854e-05
-6.323317689428697e-05   5.6664504297144515e-06   -2.32230850008226e-05
-6.323317689428697e-05   5.6664504297144515e-06   -2.32230850008226e-05
-6.323317689428697e-05   5.6664504297144515e-06   -2.32230850008226e-05
-6.323317689428697e-05   5.6664504297144515e-06   -2.32230850008226e-05
6.683553834738237e-05   -1.1470736483214228e-05   3.988478825486135e-05
6.683553834738237e-05   -1.1470736483214228e-05   3.988478825486135e-05
6.683553834738237e-05   -1.1470736483214228e-05   3.988478825486135e-05
6.683553834738237e-05   -1.1470736483214228e-05   3.988478825486135e-05
3.467000212931465e-05   -8.844241742988947e-06   -1.2148541931115888e-05
3.467000212931465e-05   -8.844241742988947e-06   -1.2148541931115888e-05
3.467000212931465e-05   -8.844241742988947e-06   -1.2148541931115888e-05
3.467000212931465e-05   -8.844241742988947e-06   -1.2148541931115888e-05
3.379912690330531e-05   -1.1757702848428156e-05   3.521967892707923e-05
3.379912690330531e-05   -1.1757702848428156e-05   3.521967892707923e-05
3.379912690330531e-05   -1.1757702848428156e-05   3.521967892707923e-05
3.379912690330531e-05   -1.1757702848428156e-05   3.521967892707923e-05
6.612256385945712e-05   -9.722959052934927e-06   -1.987356227713691e-05
6.612256385945712e-05   -9.722959052934927e-06   -1.987356227713691e-05
6.612256385945712e-05   -9.722959052934927e-06   -1.987356227713691e-05
6.612256385945712e-05   -9.722959052934927e-06   -1.987356227713691e-05
4.8295926949631945e-05   -9.886795006440203e-06   9.93580081134167e-06
4.8295926949631945e-05   -9.886795006440203e-06   9.93580081134167e-06
4.8295926949631945e-05   -9.886795006440203e-06   9.93580081134167e-06
4.8295926949631945e-05   -9.886795006440203e-06   9.93580081134167e-06
6.612256385945712e-05   -1.1757702848428156e-05   3.3998832649783034e-05
6.612256385945712e-05   -1.1757702848428156e-05   3.3998832649783034e-05
6.612256385945712e-05   -1.1757702848428156e-05   3.3998832649783034e-05
6.612256385945712e-05   -1.1757702848428156e-05   3.3998832649783034e-05
3.379912690330531e-05   -9.722959052934927e-06   -1.865271599984066e-05
3.379912690330531e-05   -9.722959052934927e-06   -1.865271599984066e-05
3.379912690330531e-05   -9.722959052934927e-06   -1.865271599984066e-05
3.379912690330531e-05   -9.722959052934927e-06   -1.865271599984066e-05
3.301118499720293e-05   -1.1650926263788962e-05   3.161830123445423e-05
3.301118499720293e-05   -1.1650926263788962e-05   3.161830123445423e-05
3.301118499720293e-05   -1.1650926263788962e-05   3.161830123445423e-05
3.301118499720293e-05   -1.1650926263788962e-05   3.161830123445423e-05
6.529749956868776e-05   -9.80340874458729e-06   -2.3300733562874666e-05
6.529749956868776e-05   -9.80340874458729e-06   -2.3300733562874666e-05
6.529749956868776e-05   -9.80340874458729e-06   -2.3300733562874666e-05
6.529749956868776e-05   -9.80340874458729e-06   -2.3300733562874666e-05
4.826083527672448e-05   -1.0060204203311482e-05   5.247784198965258e-06
4.826083527672448e-05   -1.0060204203311482e-05   5.247784198965258e-06
4.826083527672448e-05   -1.0060204203311482e-05   5.247784198965258e-06
4.826083527672448e-05   -1.0060204203311482e-05   5.247784198965258e-06
6.529749956868789e-05   -1.1650926263788962e-05   3.050979072293349e-05
6.529749956868789e-05   -1.1650926263788962e-05   3.050979072293349e-05
6.529749956868789e-05   -1.1650926263788962e-05   3.050979072293349e-05
6.529749956868789e-05   -1.1650926263788962e-05   3.050979072293349e-05
3.301118499720293e-05   -9.80340874458729e-06   -2.219222305135395e-05
3.301118499720293e-05   -9.80340874458729e-06   -2.219222305135395e-05
3.301118499720293e-05   -9.80340874458729e-06   -2.219222305135395e-05
3.301118499720293e-05   -9.80340874458729e-06   -2.219222305135395e-05
3.2049805964386394e-05   -1.1002023218457078e-05   2.5759165371889124e-05
3.2049805964386394e-05   -1.1002023218457078e-05   2.5759165371889124e-05
3.2049805964386394e-05   -1.1002023218457078e-05   2.5759165371889124e-05
3.2049805964386394e-05   -1.1002023218457078e-05   2.5759165371889124e-05
6.400472459622394e-05   -9.597468120366767e-06   -2.834176540669441e-05
6.400472459622394e-05   -9.597468120366767e-06   -2.834176540669441e-05
6.400472459622394e-05   -9.597468120366767e-06   -2.834176540669441e-05
6.400472459622394e-05   -9.597468120366767e-06   -2.834176540669441e-05
4.6614735948836796e-05   -9.56611581782573e-06   6.227376240928637e-07
4.6614735948836796e-05   -9.56611581782573e-06   6.227376240928637e-07
4.6614735948836796e-05   -9.56611581782573e-06   6.227376240928637e-07
4.6614735948836796e-05   -9.56611581782573e-06   6.227376240928637e-07
3.467000212931465e-05   -1.1499465032084339e-05   2.9794798680499862e-05
3.467000212931465e-05   -1.1499465032084339e-05   2.9794798680499862e-05
3.467000212931465e-05   -1.1499465032084339e-05   2.9794798680499862e-05
3.467000212931465e-05   -1.1499465032084339e-05   2.9794798680499862e-05
7.36624001546937e-06   -5.4626944860614556e-06   -1.2089409181628968e-05
7.36624001546937e-06   -5.4626944860614556e-06   -1.2089409181628968e-05
7.36624001546937e-06   -5.4626944860614556e-06   -1.2089409181628968e-05
7.36624001546937e-06   -5.4626944860614556e-06   -1.2089409181628968e-05
5.9879915597743606e-06   -1.143984603107313e-05   3.4006490551968024e-05
5.9879915597743606e-06   -1.143984603107313e-05   3.4006490551968024e-05
5.9879915597743606e-06   -1.143984603107313e-05   3.4006490551968024e-05
5.9879915597743606e-06   -1.143984603107313e-05   3.4006490551968024e-05
3.379912690330531e-05   -5.793541742494211e-06   -1.573318426039734e-05
3.379912690330531e-05   -5.793541742494211e-06   -1.573318426039734e-05
3.379912690330531e-05   -5.793541742494211e-06   -1.573318426039734e-05
3.379912690330531e-05   -5.793541742494211e-06   -1.573318426039734e-05
2.0427065809904346e-05   -8.23232609802136e-06   8.016854841920353e-06
2.0427065809904346e-05   -8.23232609802136e-06   8.016854841920353e-06
2.0427065809904346e-05   -8.23232609802136e-06   8.016854841920353e-06
2.0427065809904346e-05   -8.23232609802136e-06   8.016854841920353e-06
3.379912690330527e-05   -1.143984603107313e-05   3.0618707978820586e-05
3.379912690330527e-05   -1.143984603107313e-05   3.0618707978820586e-05
3.379912690330527e-05   -1.143984603107313e-05   3.0618707978820586e-05
3.379912690330527e-05   -1.143984603107313e-05   3.0618707978820586e-05
5.9879915597743606e-06   -5.793541742494211e-06   -1.2345401687250063e-05
5.9879915597743606e-06   -5.793541742494211e-06   -1.2345401687250063e-05
5.9879915597743606e-06   -5.793541742494211e-06   -1.2345401687250063e-05
5.9879915597743606e-06   -5.793541742494211e-06   -1.2345401687250063e-05
5.004940107590673e-06   -1.1285443547187027e-05   3.405496845703456e-05
5.004940107590673e-06   -1.1285443547187027e-05   3.405496845703456e-05
5.004940107590673e-06   -1.1285443547187027e-05   3.405496845703456e-05
5.004940107590673e-06   -1.1285443547187027e-05   3.405496845703456e-05
3.301118499720293e-05   -5.9401001290060665e-06   -1.5829312409894558e-05
3.301118499720293e-05   -5.9401001290060665e-06   -1.5829312409894558e-05
3.301118499720293e-05   -5.9401001290060665e-06   -1.5829312409894558e-05
3.301118499720293e-05   -5.9401001290060665e-06   -1.5829312409894558e-05
1.9245123989821444e-05   -8.063234624989136e-06   8.388003299998582e-06
1.9245123989821444e-05   -8.063234624989136e-06   8.388003299998582e-06
1.9245123989821444e-05   -8.063234624989136e-06   8.388003299998582e-06
1.9245123989821444e-05   -8.063234624989136e-06   8.388003299998582e-06
3.301118499720298e-05   -1.1285443547187027e-05   3.084776240612594e-05
3.301118499720298e-05   -1.1285443547187027e-05   3.084776240612594e-05
3.301118499720298e-05   -1.1285443547187027e-05   3.084776240612594e-05
3.301118499720298e-05   -1.1285443547187027e-05   3.084776240612594e-05
5.004940107590673e-06   -5.9401001290060665e-06   -1.2622106358985965e-05
5.004940107590673e-06   -5.9401001290060665e-06   -1.2622106358985965e-05
5.004940107590673e-06   -5.9401001290060665e-06   -1.2622106358985965e-05
5.004940107590673e-06   -5.9401001290060665e-06   -1.2622106358985965e-05
3.911475538172422e-06   -1.0977518792377235e-05   3.5159708804638565e-05
3.911475538172422e-06   -1.0977518792377235e-05   3.5159708804638565e-05
3.911475538172422e-06   -1.0977518792377235e-05   3.5159708804638565e-05
3.911475538172422e-06   -1.0977518792377235e-05   3.5159708804638565e-05
3.204980596438637e-05   -5.805164816071167e-06   -1.4840920958168166e-05
3.204980596438637e-05   -5.805164816071167e-06   -1.4840920958168166e-05
3.204980596438637e-05   -5.805164816071167e-06   -1.4840920958168166e-05
3.204980596438637e-05   -5.805164816071167e-06   -1.4840920958168166e-05
1.8522714412575684e-05   -7.70870401793286e-06   8.846355149300014e-06
1.8522714412575684e-05   -7.70870401793286e-06   8.846355149300014e-06
1.8522714412575684e-05   -7.70870401793286e-06   8.846355149300014e-06
1.8522714412575684e-05   -7.70870401793286e-06   8.846355149300014e-06
7.36624001546937e-06   -1.3863734447368617e-05   3.064795233592081e-05
7.36624001546937e-06   -1.3863734447368617e-05   3.064795233592081e-05
7.36624001546937e-06   -1.3863734447368617e-05   3.064795233592081e-05
7.36624001546937e-06   -1.3863734447368617e-05   3.064795233592081e-05
-1.886380373573309e-05   -2.2879659400082235e-06   -6.123326145000352e-06
-1.886380373573309e-05   -2.2879659400082235e-06   -6.123326145000352e-06
-1.886380373573309e-05   -2.2879659400082235e-06   -6.123326145000352e-06
-1.886380373573309e-05   -2.2879659400082235e-06   -6.123326145000352e-06
-2.1007674111603192e-05   -1.4169441200208386e-05   3.938219746158411e-05
-2.1007674111603192e-05   -1.4169441200208386e-05   3.938219746158411e-05
-2.1007674111603192e-05   -1.4169441200208386e-05   3.938219746158411e-05
-2.1007674111603192e-05   -1.4169441200208386e-05   3.938219746158411e-05
5.9879915597743606e-06   -2.4156777771516466e-06   -1.2662836711212558e-05
5.9879915597743606e-06   -2.4156777771516466e-06   -1.2662836711212558e-05
5.9879915597743606e-06   -2.4156777771516466e-06   -1.2662836711212558e-05
5.9879915597743606e-06   -2.4156777771516466e-06   -1.2662836711212558e-05
-6.394940824314756e-06   -7.920761951713765e-06   1.1278434433673371e-05
-6.394940824314756e-06   -7.920761951713765e-06   1.1278434433673371e-05
-6.394940824314756e-06   -7.920761951713765e-06   1.1278434433673371e-05
-6.394940824314756e-06   -7.920761951713765e-06   1.1278434433673371e-05
5.9879915597743606e-06   -1.4169441200208386e-05   3.2329939407749935e-05
5.9879915597743606e-06   -1.4169441200208386e-05   3.2329939407749935e-05
5.9879915597743606e-06   -1.4169441200208386e-05   3.2329939407749935e-05
5.9879915597743606e-06   -1.4169441200208386e-05   3.2329939407749935e-05
-2.100767411160315e-05   -2.4156777771516466e-06   -5.610578657378601e-06
-2.100767411160315e-05   -2.4156777771516466e-06   -5.610578657378601e-06
-2.100767411160315e-05   -2.4156777771516466e-06   -5.610578657378601e-06
-2.100767411160315e-05   -2.4156777771516466e-06   -5.610578657378601e-06
-2.2318369574940325e-05   -1.4102075491313065e-05   4.0881606549584854e-05
-2.2318369574940325e-05   -1.4102075491313065e-05   4.0881606549584854e-05
-2.2318369574940325e-05   -1.4102075491313065e-05   4.0881606549584854e-05
-2.2318369574940325e-05   -1.4102075491313065e-05   4.0881606549584854e-05
5.004940107590673e-06   -2.572251846852131e-06   -1.1575137107976743e-05
5.004940107590673e-06   -2.572251846852131e-06   -1.1575137107976743e-05
5.004940107590673e-06   -2.572251846852131e-06   -1.1575137107976743e-05
5.004940107590673e-06   -2.572251846852131e-06   -1.1575137107976743e-05
-7.846510008181966e-06   -7.894588503678992e-06   1.3037348412407192e-05
-7.846510008181966e-06   -7.894588503678992e-06   1.3037348412407192e-05
-7.846510008181966e-06   -7.894588503678992e-06   1.3037348412407192e-05
-7.846510008181966e-06   -7.894588503678992e-06   1.3037348412407192e-05
5.00494010759066e-06   -1.4102075491313065e-05   3.3963712362908164e-05
5.00494010759066e-06   -1.4102075491313065e-05   3.3963712362908164e-05
5.00494010759066e-06   -1.4102075491313065e-05   3.3963712362908164e-05
5.00494010759066e-06   -1.4102075491313065e-05   3.3963712362908164e-05
-2.2318369574940298e-05   -2.572251846852131e-06   -4.657242921299971e-06
-2.2318369574940298e-05   -2.572251846852131e-06   -4.657242921299971e-06
-2.2318369574940298e-05   -2.572251846852131e-06   -4.657242921299971e-06
-2.2318369574940298e-05   -2.572251846852131e-06   -4.657242921299971e-06
-2.385951685760762e-05   -1.3606318895333959e-05   4.282246878397917e-05
-2.385951685760762e-05   -1.3606318895333959e-05   4.282246878397917e-05
-2.385951685760762e-05   -1.3606318895333959e-05   4.282246878397917e-05
-2.385951685760762e-05   -1.3606318895333959e-05   4.282246878397917e-05
3.911475538172422e-06   -2.5562850754431987e-06   -1.0092538834255356e-05
3.911475538172422e-06   -2.5562850754431987e-06   -1.0092538834255356e-05
3.911475538172422e-06   -2.5562850754431987e-06   -1.0092538834255356e-05
3.911475538172422e-06   -2.5562850754431987e-06   -1.0092538834255356e-05
-9.028705495660734e-06   -7.5790748406191245e-06   1.4488103414572127e-05
-9.028705495660734e-06   -7.5790748406191245e-06   1.4488103414572127e-05
-9.028705495660734e-06   -7.5790748406191245e-06   1.4488103414572127e-05
-9.028705495660734e-06   -7.5790748406191245e-06   1.4488103414572127e-05
-1.8863803735733132e-05   -1.727753450580247e-05   3.713135183977816e-05
-1.8863803735733132e-05   -1.727753450580247e-05   3.713135183977816e-05
-1.8863803735733132e-05   -1.727753450580247e-05   3.713135183977816e-05
-1.8863803735733132e-05   -1.727753450580247e-05   3.713135183977816e-05
-4.872250376500561e-05   2.4864462133361402e-06   -7.747597775260937e-07
-4.872250376500561e-05   2.4864462133361402e-06   -7.747597775260937e-07
-4.872250376500561e-05   2.4864462133361402e-06   -7.747597775260937e-07
-4.872250376500561e-05   2.4864462133361402e-06   -7.747597775260937e-07
-5.130006784543889e-05   -1.9295546596375703e-05   5.247051014562604e-05
-5.130006784543889e-05   -1.9295546596375703e-05   5.247051014562604e-05
-5.130006784543889e-05   -1.9295546596375703e-05   5.247051014562604e-05
-5.130006784543889e-05   -1.9295546596375703e-05   5.247051014562604e-05
-2.100767411160315e-05   2.3403571944428415e-06   -1.0998355018591313e-05
-2.100767411160315e-05   2.3403571944428415e-06   -1.0998355018591313e-05
-2.100767411160315e-05   2.3403571944428415e-06   -1.0998355018591313e-05
-2.100767411160315e-05   2.3403571944428415e-06   -1.0998355018591313e-05
-3.448550996380095e-05   -7.160647037285708e-06   1.716530727410864e-05
-3.448550996380095e-05   -7.160647037285708e-06   1.716530727410864e-05
-3.448550996380095e-05   -7.160647037285708e-06   1.716530727410864e-05
-3.448550996380095e-05   -7.160647037285708e-06   1.716530727410864e-05
-2.1007674111603192e-05   -1.9295546596375703e-05   3.9488967871135084e-05
-2.1007674111603192e-05   -1.9295546596375703e-05   3.9488967871135084e-05
-2.1007674111603192e-05   -1.9295546596375703e-05   3.9488967871135084e-05
-2.1007674111603192e-05   -1.9295546596375703e-05   3.9488967871135084e-05
-5.130006784543878e-05   2.3403571944428415e-06   1.9831872558999115e-06
-5.130006784543878e-05   2.3403571944428415e-06   1.9831872558999115e-06
-5.130006784543878e-05   2.3403571944428415e-06   1.9831872558999115e-06
-5.130006784543878e-05   2.3403571944428415e-06   1.9831872558999115e-06
-5.287086127879706e-05   -1.9402115780060847e-05   5.54095810203993e-05
-5.287086127879706e-05   -1.9402115780060847e-05   5.54095810203993e-05
-5.287086127879706e-05   -1.9402115780060847e-05   5.54095810203993e-05
-5.287086127879706e-05   -1.9402115780060847e-05   5.54095810203993e-05
-2.2318369574940298e-05   2.069423836680972e-06   -8.394162256073948e-06
-2.2318369574940298e-05   2.069423836680972e-06   -8.394162256073948e-06
-2.2318369574940298e-05   2.069423836680972e-06   -8.394162256073948e-06
-2.2318369574940298e-05   2.069423836680972e-06   -8.394162256073948e-06
-3.6159104608433614e-05   -8.24877324929335e-06   2.0864647717999863e-05
-3.6159104608433614e-05   -8.24877324929335e-06   2.0864647717999863e-05
-3.6159104608433614e-05   -8.24877324929335e-06   2.0864647717999863e-05
-3.6159104608433614e-05   -8.24877324929335e-06   2.0864647717999863e-05
-2.231836957494027e-05   -1.9402115780060847e-05   4.252665725035373e-05
-2.231836957494027e-05   -1.9402115780060847e-05   4.252665725035373e-05
-2.231836957494027e-05   -1.9402115780060847e-05   4.252665725035373e-05
-2.231836957494027e-05   -1.9402115780060847e-05   4.252665725035373e-05
-5.287086127879697e-05   2.069423836680972e-06   4.488761513971214e-06
-5.287086127879697e-05   2.069423836680972e-06   4.488761513971214e-06
-5.287086127879697e-05   2.069423836680972e-06   4.488761513971214e-06
-5.287086127879697e-05   2.069423836680972e-06   4.488761513971214e-06
-5.456362051118662e-05   -1.7700094605427492e-05   5.667154355958807e-05
-5.456362051118662e-05   -1.7700094605427492e-05   5.667154355958807e-05
-5.456362051118662e-05   -1.7700094605427492e-05   5.667154355958807e-05
-5.456362051118662e-05   -1.7700094605427492e-05   5.667154355958807e-05
-2.3859516857607565e-05   1.762454238250083e-06   -6.179491835916757e-06
-2.3859516857607565e-05   1.762454238250083e-06   -6.179491835916757e-06
-2.3859516857607565e-05   1.762454238250083e-06   -6.179491835916757e-06
-2.3859516857607565e-05   1.762454238250083e-06   -6.179491835916757e-06
-3.788446373312563e-05   -8.309620240431678e-06   2.3238664310489915e-05
-3.788446373312563e-05   -8.309620240431678e-06   2.3238664310489915e-05
-3.788446373312563e-05   -8.309620240431678e-06   2.3238664310489915e-05
-3.788446373312563e-05   -8.309620240431678e-06   2.3238664310489915e-05
-4.8722503765005445e-05   0.0   4.111505315252534e-05
-4.8722503765005445e-05   0.0   4.111505315252534e-05
-4.8722503765005445e-05   0.0   4.111505315252534e-05
-4.8722503765005445e-05   0.0   4.111505315252534e-05
-8.578031096220477e-05   1.1251042025114608e-05   -1.389733362773776e-05
-8.578031096220477e-05   1.1251042025114608e-05   -1.389733362773776e-05
-8.578031096220477e-05   1.1251042025114608e-05   -1.389733362773776e-05
-8.578031096220477e-05   1.1251042025114608e-05   -1.389733362773776e-05
-8.933258425708776e-05   0.0   5.97124586529706e-05
-8.933258425708776e-05   0.0   5.97124586529706e-05
-8.933258425708776e-05   0.0   5.97124586529706e-05
-8.933258425708776e-05   0.0   5.97124586529706e-05
-5.130006784543878e-05   1.0862036408496381e-05   -1.0192290544875715e-05
-5.130006784543878e-05   1.0862036408496381e-05   -1.0192290544875715e-05
-5.130006784543878e-05   1.0862036408496381e-05   -1.0192290544875715e-05
-5.130006784543878e-05   1.0862036408496381e-05   -1.0192290544875715e-05
-6.58512940499669e-05   6.67492135848248e-06   1.657202215934626e-05
-6.58512940499669e-05   6.67492135848248e-06   1.657202215934626e-05
-6.58512940499669e-05   6.67492135848248e-06   1.657202215934626e-05
-6.58512940499669e-05   6.67492135848248e-06   1.657202215934626e-05
-5.130006784543875e-05   0.0   5.319523680787281e-05
-5.130006784543875e-05   0.0   5.319523680787281e-05
-5.130006784543875e-05   0.0   5.319523680787281e-05
-5.130006784543875e-05   0.0   5.319523680787281e-05
-8.933258425708792e-05   1.0862036408496381e-05   -3.6750686997777133e-06
-8.933258425708792e-05   1.0862036408496381e-05   -3.6750686997777133e-06
-8.933258425708792e-05   1.0862036408496381e-05   -3.6750686997777133e-06
-8.933258425708792e-05   1.0862036408496381e-05   -3.6750686997777133e-06
-9.112132064626057e-05   0.0   6.631690893105268e-05
-9.112132064626057e-05   0.0   6.631690893105268e-05
-9.112132064626057e-05   0.0   6.631690893105268e-05
-9.112132064626057e-05   0.0   6.631690893105268e-05
-5.287086127879697e-05   1.0584587407962663e-05   -3.7846091261640622e-06
-5.287086127879697e-05   1.0584587407962663e-05   -3.7846091261640622e-06
-5.287086127879697e-05   1.0584587407962663e-05   -3.7846091261640622e-06
-5.287086127879697e-05   1.0584587407962663e-05   -3.7846091261640622e-06
-6.928097651799442e-05   5.574399747496333e-06   2.6571695535445292e-05
-6.928097651799442e-05   5.574399747496333e-06   2.6571695535445292e-05
-6.928097651799442e-05   5.574399747496333e-06   2.6571695535445292e-05
-6.928097651799442e-05   5.574399747496333e-06   2.6571695535445292e-05
-5.287086127879697e-05   0.0   5.996615648627538e-05
-5.287086127879697e-05   0.0   5.996615648627538e-05
-5.287086127879697e-05   0.0   5.996615648627538e-05
-5.287086127879697e-05   0.0   5.996615648627538e-05
-9.112132064626075e-05   1.0584587407962663e-05   2.5661433186133405e-06
-9.112132064626075e-05   1.0584587407962663e-05   2.5661433186133405e-06
-9.112132064626075e-05   1.0584587407962663e-05   2.5661433186133405e-06
-9.112132064626075e-05   1.0584587407962663e-05   2.5661433186133405e-06
-9.311203285561588e-05   0.0   7.512322361059951e-05
-9.311203285561588e-05   0.0   7.512322361059951e-05
-9.311203285561588e-05   0.0   7.512322361059951e-05
-9.311203285561588e-05   0.0   7.512322361059951e-05
-5.456362051118662e-05   8.819231732372628e-06   5.584330663793702e-06
-5.456362051118662e-05   8.819231732372628e-06   5.584330663793702e-06
-5.456362051118662e-05   8.819231732372628e-06   5.584330663793702e-06
-5.456362051118662e-05   8.819231732372628e-06   5.584330663793702e-06
-6.985384609355523e-05   3.9153310101274624e-06   3.401038040108846e-05
-6.985384609355523e-05   3.9153310101274624e-06   3.401038040108846e-05
-6.985384609355523e-05   3.9153310101274624e-06   3.401038040108846e-05
-6.985384609355523e-05   3.9153310101274624e-06   3.401038040108846e-05
5.88077760957379e-05   -8.844241742988514e-06   4.1731411849678856e-05
5.88077760957379e-05   -8.844241742988514e-06   4.1731411849678856e-05
5.88077760957379e-05   -8.844241742988514e-06   4.1731411849678856e-05
5.88077760957379e-05   -8.844241742988514e-06   4.1731411849678856e-05
2.9737897101564357e-05   -6.674564033697702e-06   -5.4165798483694644e-06
2.9737897101564357e-05   -6.674564033697702e-06   -5.4165798483694644e-06
2.9737897101564357e-05   -6.674564033697702e-06   -5.4165798483694644e-06
2.9737897101564357e-05   -6.674564033697702e-06   -5.4165798483694644e-06
2.8954423656160196e-05   -9.72295905293536e-06   3.642186465912991e-05
2.8954423656160196e-05   -9.72295905293536e-06   3.642186465912991e-05
2.8954423656160196e-05   -9.72295905293536e-06   3.642186465912991e-05
2.8954423656160196e-05   -9.72295905293536e-06   3.642186465912991e-05
5.7409564444115476e-05   -7.563718908476947e-06   -1.2298914074136928e-05
5.7409564444115476e-05   -7.563718908476947e-06   -1.2298914074136928e-05
5.7409564444115476e-05   -7.563718908476947e-06   -1.2298914074136928e-05
5.7409564444115476e-05   -7.563718908476947e-06   -1.2298914074136928e-05
4.1780743831195134e-05   -7.873900710214134e-06   1.3935229361772326e-05
4.1780743831195134e-05   -7.873900710214134e-06   1.3935229361772326e-05
4.1780743831195134e-05   -7.873900710214134e-06   1.3935229361772326e-05
4.1780743831195134e-05   -7.873900710214134e-06   1.3935229361772326e-05
5.7409564444115375e-05   -9.72295905293536e-06   3.512632057245499e-05
5.7409564444115375e-05   -9.72295905293536e-06   3.512632057245499e-05
5.7409564444115375e-05   -9.72295905293536e-06   3.512632057245499e-05
5.7409564444115375e-05   -9.72295905293536e-06   3.512632057245499e-05
2.895442365616025e-05   -7.563718908476947e-06   -1.1003369987462206e-05
2.895442365616025e-05   -7.563718908476947e-06   -1.1003369987462206e-05
2.895442365616025e-05   -7.563718908476947e-06   -1.1003369987462206e-05
2.895442365616025e-05   -7.563718908476947e-06   -1.1003369987462206e-05
2.7944896044015206e-05   -9.803408744587724e-06   3.268959667268069e-05
2.7944896044015206e-05   -9.803408744587724e-06   3.268959667268069e-05
2.7944896044015206e-05   -9.803408744587724e-06   3.268959667268069e-05
2.7944896044015206e-05   -9.803408744587724e-06   3.268959667268069e-05
5.599519254975224e-05   -7.695619018309539e-06   -1.532557133931446e-05
5.599519254975224e-05   -7.695619018309539e-06   -1.532557133931446e-05
5.599519254975224e-05   -7.695619018309539e-06   -1.532557133931446e-05
5.599519254975224e-05   -7.695619018309539e-06   -1.532557133931446e-05
4.138975228479321e-05   -8.217459483929237e-06   9.329933381655052e-06
4.138975228479321e-05   -8.217459483929237e-06   9.329933381655052e-06
4.138975228479321e-05   -8.217459483929237e-06   9.329933381655052e-06
4.138975228479321e-05   -8.217459483929237e-06   9.329933381655052e-06
5.599519254975224e-05   -9.80340874458729e-06   3.142492283691404e-05
5.599519254975224e-05   -9.80340874458729e-06   3.142492283691404e-05
5.599519254975224e-05   -9.80340874458729e-06   3.142492283691404e-05
5.599519254975224e-05   -9.80340874458729e-06   3.142492283691404e-05
2.7944896044015206e-05   -7.695619018309539e-06   -1.406089750354781e-05
2.7944896044015206e-05   -7.695619018309539e-06   -1.406089750354781e-05
2.7944896044015206e-05   -7.695619018309539e-06   -1.406089750354781e-05
2.7944896044015206e-05   -7.695619018309539e-06   -1.406089750354781e-05
2.6885623594939166e-05   -9.597468120366333e-06   2.7152373879532057e-05
2.6885623594939166e-05   -9.597468120366333e-06   2.7152373879532057e-05
2.6885623594939166e-05   -9.597468120366333e-06   2.7152373879532057e-05
2.6885623594939166e-05   -9.597468120366333e-06   2.7152373879532057e-05
5.422461945309532e-05   -7.64576955854029e-06   -1.958363835449103e-05
5.422461945309532e-05   -7.64576955854029e-06   -1.958363835449103e-05
5.422461945309532e-05   -7.64576955854029e-06   -1.958363835449103e-05
5.422461945309532e-05   -7.64576955854029e-06   -1.958363835449103e-05
3.954718922446915e-05   -8.001954652859904e-06   5.092456416478367e-06
3.954718922446915e-05   -8.001954652859904e-06   5.092456416478367e-06
3.954718922446915e-05   -8.001954652859904e-06   5.092456416478367e-06
3.954718922446915e-05   -8.001954652859904e-06   5.092456416478367e-06
2.9737897101564357e-05   -5.462694486061889e-06   3.9470288897126924e-05
2.9737897101564357e-05   -5.462694486061889e-06   3.9470288897126924e-05
2.9737897101564357e-05   -5.462694486061889e-06   3.9470288897126924e-05
2.9737897101564357e-05   -5.462694486061889e-06   3.9470288897126924e-05
3.24904793579369e-06   -2.3535985435424976e-06   -2.8123354803128407e-06
3.24904793579369e-06   -2.3535985435424976e-06   -2.8123354803128407e-06
3.24904793579369e-06   -2.3535985435424976e-06   -2.8123354803128407e-06
3.24904793579369e-06   -2.3535985435424976e-06   -2.8123354803128407e-06
2.4706242471132924e-06   -5.7935417424937775e-06   4.11188385238423e-05
2.4706242471132924e-06   -5.7935417424937775e-06   4.11188385238423e-05
2.4706242471132924e-06   -5.7935417424937775e-06   4.11188385238423e-05
2.4706242471132924e-06   -5.7935417424937775e-06   4.11188385238423e-05
2.895442365616025e-05   -2.831138200379106e-06   -4.798269283171611e-06
2.895442365616025e-05   -2.831138200379106e-06   -4.798269283171611e-06
2.895442365616025e-05   -2.831138200379106e-06   -4.798269283171611e-06
2.895442365616025e-05   -2.831138200379106e-06   -4.798269283171611e-06
1.5948643024855805e-05   -3.822055510117883e-06   1.7472582154845555e-05
1.5948643024855805e-05   -3.822055510117883e-06   1.7472582154845555e-05
1.5948643024855805e-05   -3.822055510117883e-06   1.7472582154845555e-05
1.5948643024855805e-05   -3.822055510117883e-06   1.7472582154845555e-05
2.8954423656160223e-05   -5.7935417424937775e-06   3.934139639857328e-05
2.8954423656160223e-05   -5.7935417424937775e-06   3.934139639857328e-05
2.8954423656160223e-05   -5.7935417424937775e-06   3.934139639857328e-05
2.8954423656160223e-05   -5.7935417424937775e-06   3.934139639857328e-05
2.4706242471132924e-06   -2.831138200379106e-06   -3.0208271579025645e-06
2.4706242471132924e-06   -2.831138200379106e-06   -3.0208271579025645e-06
2.4706242471132924e-06   -2.831138200379106e-06   -3.0208271579025645e-06
2.4706242471132924e-06   -2.831138200379106e-06   -3.0208271579025645e-06
1.477084600118902e-06   -5.9401001290060665e-06   4.073022171495054e-05
1.477084600118902e-06   -5.9401001290060665e-06   4.073022171495054e-05
1.477084600118902e-06   -5.9401001290060665e-06   4.073022171495054e-05
1.477084600118902e-06   -5.9401001290060665e-06   4.073022171495054e-05
2.7944896044015206e-05   -3.1439094609888793e-06   -5.060511759020302e-06
2.7944896044015206e-05   -3.1439094609888793e-06   -5.060511759020302e-06
2.7944896044015206e-05   -3.1439094609888793e-06   -5.060511759020302e-06
2.7944896044015206e-05   -3.1439094609888793e-06   -5.060511759020302e-06
1.4961289839472377e-05   -4.002621259137796e-06   1.709405899410788e-05
1.4961289839472377e-05   -4.002621259137796e-06   1.709405899410788e-05
1.4961289839472377e-05   -4.002621259137796e-06   1.709405899410788e-05
1.4961289839472377e-05   -4.002621259137796e-06   1.709405899410788e-05
2.7944896044015152e-05   -5.9401001290060665e-06   3.9052507314140056e-05
2.7944896044015152e-05   -5.9401001290060665e-06   3.9052507314140056e-05
2.7944896044015152e-05   -5.9401001290060665e-06   3.9052507314140056e-05
2.7944896044015152e-05   -5.9401001290060665e-06   3.9052507314140056e-05
1.477084600118902e-06   -3.1439094609888793e-06   -3.382797358209965e-06
1.477084600118902e-06   -3.1439094609888793e-06   -3.382797358209965e-06
1.477084600118902e-06   -3.1439094609888793e-06   -3.382797358209965e-06
1.477084600118902e-06   -3.1439094609888793e-06   -3.382797358209965e-06
3.7955058771557443e-07   -5.805164816071601e-06   4.1327165965818636e-05
3.7955058771557443e-07   -5.805164816071601e-06   4.1327165965818636e-05
3.7955058771557443e-07   -5.805164816071601e-06   4.1327165965818636e-05
3.7955058771557443e-07   -5.805164816071601e-06   4.1327165965818636e-05
2.6885623594939152e-05   -3.2773636550464946e-06   -4.3663030761689845e-06
2.6885623594939152e-05   -3.2773636550464946e-06   -4.3663030761689845e-06
2.6885623594939152e-05   -3.2773636550464946e-06   -4.3663030761689845e-06
2.6885623594939152e-05   -3.2773636550464946e-06   -4.3663030761689845e-06
1.415756469245252e-05   -3.964142975547598e-06   1.7259196020276825e-05
1.415756469245252e-05   -3.964142975547598e-06   1.7259196020276825e-05
1.415756469245252e-05   -3.964142975547598e-06   1.7259196020276825e-05
1.415756469245252e-05   -3.964142975547598e-06   1.7259196020276825e-05
3.2490479357937034e-06   -2.28796594000779e-06   4.035636839485072e-05
3.2490479357937034e-06   -2.28796594000779e-06   4.035636839485072e-05
3.2490479357937034e-06   -2.28796594000779e-06   4.035636839485072e-05
3.2490479357937034e-06   -2.28796594000779e-06   4.035636839485072e-05
-2.2413944960846595e-05   2.0949943215888348e-06   2.144897240749944e-07
-2.2413944960846595e-05   2.0949943215888348e-06   2.144897240749944e-07
-2.2413944960846595e-05   2.0949943215888348e-06   2.144897240749944e-07
-2.2413944960846595e-05   2.0949943215888348e-06   2.144897240749944e-07
-2.3291063108150573e-05   -2.4156777771516466e-06   4.328882756706831e-05
-2.3291063108150573e-05   -2.4156777771516466e-06   4.328882756706831e-05
-2.3291063108150573e-05   -2.4156777771516466e-06   4.328882756706831e-05
-2.3291063108150573e-05   -2.4156777771516466e-06   4.328882756706831e-05
2.4706242471132924e-06   1.7300290014957836e-06   -2.134742092226797e-06
2.4706242471132924e-06   1.7300290014957836e-06   -2.134742092226797e-06
2.4706242471132924e-06   1.7300290014957836e-06   -2.134742092226797e-06
2.4706242471132924e-06   1.7300290014957836e-06   -2.134742092226797e-06
-9.978042322513832e-06   -2.7453836356182426e-08   1.9667525226529437e-05
-9.978042322513832e-06   -2.7453836356182426e-08   1.9667525226529437e-05
-9.978042322513832e-06   -2.7453836356182426e-08   1.9667525226529437e-05
-9.978042322513832e-06   -2.7453836356182426e-08   1.9667525226529437e-05
2.470624247113306e-06   -2.4156777771516466e-06   4.0801403499880025e-05
2.470624247113306e-06   -2.4156777771516466e-06   4.0801403499880025e-05
2.470624247113306e-06   -2.4156777771516466e-06   4.0801403499880025e-05
2.470624247113306e-06   -2.4156777771516466e-06   4.0801403499880025e-05
-2.3291063108150573e-05   1.7300290014957836e-06   3.5268197496165013e-07
-2.3291063108150573e-05   1.7300290014957836e-06   3.5268197496165013e-07
-2.3291063108150573e-05   1.7300290014957836e-06   3.5268197496165013e-07
-2.3291063108150573e-05   1.7300290014957836e-06   3.5268197496165013e-07
-2.4466636793351725e-05   -2.5722518468516975e-06   4.415471753067574e-05
-2.4466636793351725e-05   -2.5722518468516975e-06   4.415471753067574e-05
-2.4466636793351725e-05   -2.5722518468516975e-06   4.415471753067574e-05
-2.4466636793351725e-05   -2.5722518468516975e-06   4.415471753067574e-05
1.477084600118902e-06   1.3902924276745082e-06   -1.4623446898247858e-06
1.477084600118902e-06   1.3902924276745082e-06   -1.4623446898247858e-06
1.477084600118902e-06   1.3902924276745082e-06   -1.4623446898247858e-06
1.477084600118902e-06   1.3902924276745082e-06   -1.4623446898247858e-06
-1.0843149279294944e-05   -1.296947691837788e-07   1.998337076064674e-05
-1.0843149279294944e-05   -1.296947691837788e-07   1.998337076064674e-05
-1.0843149279294944e-05   -1.296947691837788e-07   1.998337076064674e-05
-1.0843149279294944e-05   -1.296947691837788e-07   1.998337076064674e-05
1.477084600118902e-06   -2.572251846852131e-06   4.177719096595963e-05
1.477084600118902e-06   -2.572251846852131e-06   4.177719096595963e-05
1.477084600118902e-06   -2.572251846852131e-06   4.177719096595963e-05
1.477084600118902e-06   -2.572251846852131e-06   4.177719096595963e-05
-2.4466636793351725e-05   1.3902924276745082e-06   9.151818748914364e-07
-2.4466636793351725e-05   1.3902924276745082e-06   9.151818748914364e-07
-2.4466636793351725e-05   1.3902924276745082e-06   9.151818748914364e-07
-2.4466636793351725e-05   1.3902924276745082e-06   9.151818748914364e-07
-2.571911724786417e-05   -2.5562850754431987e-06   4.5193335905737916e-05
-2.571911724786417e-05   -2.5562850754431987e-06   4.5193335905737916e-05
-2.571911724786417e-05   -2.5562850754431987e-06   4.5193335905737916e-05
-2.571911724786417e-05   -2.5562850754431987e-06   4.5193335905737916e-05
3.7955058771557443e-07   1.1457152608728045e-06   -5.25644022018087e-07
3.7955058771557443e-07   1.1457152608728045e-06   -5.25644022018087e-07
3.7955058771557443e-07   1.1457152608728045e-06   -5.25644022018087e-07
3.7955058771557443e-07   1.1457152608728045e-06   -5.25644022018087e-07
-1.1946274801149423e-05   -2.0287413000702123e-07   2.082655192728539e-05
-1.1946274801149423e-05   -2.0287413000702123e-07   2.082655192728539e-05
-1.1946274801149423e-05   -2.0287413000702123e-07   2.082655192728539e-05
-1.1946274801149423e-05   -2.0287413000702123e-07   2.082655192728539e-05
-2.2413944960846487e-05   2.4864462133357065e-06   3.6476322487799615e-05
-2.2413944960846487e-05   2.4864462133357065e-06   3.6476322487799615e-05
-2.2413944960846487e-05   2.4864462133357065e-06   3.6476322487799615e-05
-2.2413944960846487e-05   2.4864462133357065e-06   3.6476322487799615e-05
-4.7559136110443415e-05   6.820569676458613e-06   -2.8318553503214015e-06
-4.7559136110443415e-05   6.820569676458613e-06   -2.8318553503214015e-06
-4.7559136110443415e-05   6.820569676458613e-06   -2.8318553503214015e-06
-4.7559136110443415e-05   6.820569676458613e-06   -2.8318553503214015e-06
-4.883587367847855e-05   2.3403571944428415e-06   4.0369827415876e-05
-4.883587367847855e-05   2.3403571944428415e-06   4.0369827415876e-05
-4.883587367847855e-05   2.3403571944428415e-06   4.0369827415876e-05
-4.883587367847855e-05   2.3403571944428415e-06   4.0369827415876e-05
-2.3291063108150546e-05   6.454984211143062e-06   -4.673633078024317e-06
-2.3291063108150546e-05   6.454984211143062e-06   -4.673633078024317e-06
-2.3291063108150546e-05   6.454984211143062e-06   -4.673633078024317e-06
-2.3291063108150546e-05   6.454984211143062e-06   -4.673633078024317e-06
-3.5245330345159036e-05   4.603603103665258e-06   1.636097431480986e-05
-3.5245330345159036e-05   4.603603103665258e-06   1.636097431480986e-05
-3.5245330345159036e-05   4.603603103665258e-06   1.636097431480986e-05
-3.5245330345159036e-05   4.603603103665258e-06   1.636097431480986e-05
-2.3291063108150573e-05   2.3403571944428415e-06   3.7901051205855435e-05
-2.3291063108150573e-05   2.3403571944428415e-06   3.7901051205855435e-05
-2.3291063108150573e-05   2.3403571944428415e-06   3.7901051205855435e-05
-2.3291063108150573e-05   2.3403571944428415e-06   3.7901051205855435e-05
-4.883587367847847e-05   6.4549842111434955e-06   -2.2048568680038596e-06
-4.883587367847847e-05   6.4549842111434955e-06   -2.2048568680038596e-06
-4.883587367847847e-05   6.4549842111434955e-06   -2.2048568680038596e-06
-4.883587367847847e-05   6.4549842111434955e-06   -2.2048568680038596e-06
-5.0400770743742976e-05   2.069423836680972e-06   4.284610385341136e-05
-5.0400770743742976e-05   2.069423836680972e-06   4.284610385341136e-05
-5.0400770743742976e-05   2.069423836680972e-06   4.284610385341136e-05
-5.0400770743742976e-05   2.069423836680972e-06   4.284610385341136e-05
-2.4466636793351725e-05   6.116599932530324e-06   -2.8057583880834367e-06
-2.4466636793351725e-05   6.116599932530324e-06   -2.8057583880834367e-06
-2.4466636793351725e-05   6.116599932530324e-06   -2.8057583880834367e-06
-2.4466636793351725e-05   6.116599932530324e-06   -2.8057583880834367e-06
-3.619580282419086e-05   4.519895216980978e-06   1.770087449264469e-05
-3.619580282419086e-05   4.519895216980978e-06   1.770087449264469e-05
-3.619580282419086e-05   4.519895216980978e-06   1.770087449264469e-05
-3.619580282419086e-05   4.519895216980978e-06   1.770087449264469e-05
-2.4466636793351725e-05   2.069423836680972e-06   4.041779819590201e-05
-2.4466636793351725e-05   2.069423836680972e-06   4.041779819590201e-05
-2.4466636793351725e-05   2.069423836680972e-06   4.041779819590201e-05
-2.4466636793351725e-05   2.069423836680972e-06   4.041779819590201e-05
-5.0400770743742895e-05   6.116599932530324e-06   -3.774527305741397e-07
-5.0400770743742895e-05   6.116599932530324e-06   -3.774527305741397e-07
-5.0400770743742895e-05   6.116599932530324e-06   -3.774527305741397e-07
-5.0400770743742895e-05   6.116599932530324e-06   -3.774527305741397e-07
-5.2056282282145146e-05   1.7624542382505166e-06   4.4815727408324896e-05
-5.2056282282145146e-05   1.7624542382505166e-06   4.4815727408324896e-05
-5.2056282282145146e-05   1.7624542382505166e-06   4.4815727408324896e-05
-5.2056282282145146e-05   1.7624542382505166e-06   4.4815727408324896e-05
-2.5719117247864116e-05   5.661395565222192e-06   -1.4189124449931435e-06
-2.5719117247864116e-05   5.661395565222192e-06   -1.4189124449931435e-06
-2.5719117247864116e-05   5.661395565222192e-06   -1.4189124449931435e-06
-2.5719117247864116e-05   5.661395565222192e-06   -1.4189124449931435e-06
-3.778073420267173e-05   4.245531894828906e-06   1.953330068192374e-05
-3.778073420267173e-05   4.245531894828906e-06   1.953330068192374e-05
-3.778073420267173e-05   4.245531894828906e-06   1.953330068192374e-05
-3.778073420267173e-05   4.245531894828906e-06   1.953330068192374e-05
-4.7559136110443415e-05   1.1251042025115041e-05   1.9203597500392884e-05
-4.7559136110443415e-05   1.1251042025115041e-05   1.9203597500392884e-05
-4.7559136110443415e-05   1.1251042025115041e-05   1.9203597500392884e-05
-4.7559136110443415e-05   1.1251042025115041e-05   1.9203597500392884e-05
-7.164571026554195e-05   1.1092470126816256e-05   -2.103583589708395e-05
-7.164571026554195e-05   1.1092470126816256e-05   -2.103583589708395e-05
-7.164571026554195e-05   1.1092470126816256e-05   -2.103583589708395e-05
-7.164571026554195e-05   1.1092470126816256e-05   -2.103583589708395e-05
-7.39380166494899e-05   1.0862036408496815e-05   2.8461111112020867e-05
-7.39380166494899e-05   1.0862036408496815e-05   2.8461111112020867e-05
-7.39380166494899e-05   1.0862036408496815e-05   2.8461111112020867e-05
-7.39380166494899e-05   1.0862036408496815e-05   2.8461111112020867e-05
-4.883587367847847e-05   1.1306638903364231e-05   -1.3642555336585436e-05
-4.883587367847847e-05   1.1306638903364231e-05   -1.3642555336585436e-05
-4.883587367847847e-05   1.1306638903364231e-05   -1.3642555336585436e-05
-4.883587367847847e-05   1.1306638903364231e-05   -1.3642555336585436e-05
-5.805968102611179e-05   1.1301980132454384e-05   1.7332521720161433e-06
-5.805968102611179e-05   1.1301980132454384e-05   1.7332521720161433e-06
-5.805968102611179e-05   1.1301980132454384e-05   1.7332521720161433e-06
-5.805968102611179e-05   1.1301980132454384e-05   1.7332521720161433e-06
-4.883587367847844e-05   1.0862036408496381e-05   2.8194349615100157e-05
-4.883587367847844e-05   1.0862036408496381e-05   2.8194349615100157e-05
-4.883587367847844e-05   1.0862036408496381e-05   2.8194349615100157e-05
-4.883587367847844e-05   1.0862036408496381e-05   2.8194349615100157e-05
-7.39380166494899e-05   1.1306638903364231e-05   -1.3375793839664942e-05
-7.39380166494899e-05   1.1306638903364231e-05   -1.3375793839664942e-05
-7.39380166494899e-05   1.1306638903364231e-05   -1.3375793839664942e-05
-7.39380166494899e-05   1.1306638903364231e-05   -1.3375793839664942e-05
-7.618593732108879e-05   1.058458740796223e-05   3.495736211399109e-05
-7.618593732108879e-05   1.058458740796223e-05   3.495736211399109e-05
-7.618593732108879e-05   1.058458740796223e-05   3.495736211399109e-05
-7.618593732108879e-05   1.058458740796223e-05   3.495736211399109e-05
-5.0400770743742895e-05   1.1225635575821263e-05   -8.402544415634337e-06
-5.0400770743742895e-05   1.1225635575821263e-05   -8.402544415634337e-06
-5.0400770743742895e-05   1.1225635575821263e-05   -8.402544415634337e-06
-5.0400770743742895e-05   1.1225635575821263e-05   -8.402544415634337e-06
-6.069015924983564e-05   1.1301527185226916e-05   8.7009014622107e-06
-6.069015924983564e-05   1.1301527185226916e-05   8.7009014622107e-06
-6.069015924983564e-05   1.1301527185226916e-05   8.7009014622107e-06
-6.069015924983564e-05   1.1301527185226916e-05   8.7009014622107e-06
-5.0400770743742895e-05   1.0584587407962663e-05   3.4572733213275976e-05
-5.0400770743742895e-05   1.0584587407962663e-05   3.4572733213275976e-05
-5.0400770743742895e-05   1.0584587407962663e-05   3.4572733213275976e-05
-5.0400770743742895e-05   1.0584587407962663e-05   3.4572733213275976e-05
-7.61859373210889e-05   1.1225635575821263e-05   -8.017915514919004e-06
-7.61859373210889e-05   1.1225635575821263e-05   -8.017915514919004e-06
-7.61859373210889e-05   1.1225635575821263e-05   -8.017915514919004e-06
-7.61859373210889e-05   1.1225635575821263e-05   -8.017915514919004e-06
-7.883726069307141e-05   8.819231732372194e-06   4.581168603294615e-05
-7.883726069307141e-05   8.819231732372194e-06   4.581168603294615e-05
-7.883726069307141e-05   8.819231732372194e-06   4.581168603294615e-05
-7.883726069307141e-05   8.819231732372194e-06   4.581168603294615e-05
-5.2056282282145064e-05   1.0335340784235238e-05   2.6705658361802923e-07
-5.2056282282145064e-05   1.0335340784235238e-05   2.6705658361802923e-07
-5.2056282282145064e-05   1.0335340784235238e-05   2.6705658361802923e-07
-5.2056282282145064e-05   1.0335340784235238e-05   2.6705658361802923e-07
-6.16303912332388e-05   1.0765968905537219e-05   1.5965527962660407e-05
-6.16303912332388e-05   1.0765968905537219e-05   1.5965527962660407e-05
-6.16303912332388e-05   1.0765968905537219e-05   1.5965527962660407e-05
-6.16303912332388e-05   1.0765968905537219e-05   1.5965527962660407e-05
4.7718871348003834e-05   -6.6745640336981354e-06   3.680241260413993e-05
4.7718871348003834e-05   -6.6745640336981354e-06   3.680241260413993e-05
4.7718871348003834e-05   -6.6745640336981354e-06   3.680241260413993e-05
4.7718871348003834e-05   -6.6745640336981354e-06   3.680241260413993e-05
2.3621549765354344e-05   -4.896830727186153e-06   -2.293150049702264e-06
2.3621549765354344e-05   -4.896830727186153e-06   -2.293150049702264e-06
2.3621549765354344e-05   -4.896830727186153e-06   -2.293150049702264e-06
2.3621549765354344e-05   -4.896830727186153e-06   -2.293150049702264e-06
2.2718983719379265e-05   -7.563718908476947e-06   3.200028659346198e-05
2.2718983719379265e-05   -7.563718908476947e-06   3.200028659346198e-05
2.2718983719379265e-05   -7.563718908476947e-06   3.200028659346198e-05
2.2718983719379265e-05   -7.563718908476947e-06   3.200028659346198e-05
4.605912887128006e-05   -5.680695510080179e-06   -8.029769365410316e-06
4.605912887128006e-05   -5.680695510080179e-06   -8.029769365410316e-06
4.605912887128006e-05   -5.680695510080179e-06   -8.029769365410316e-06
4.605912887128006e-05   -5.680695510080179e-06   -8.029769365410316e-06
3.342594059204675e-05   -6.1403938643052845e-06   1.3301363445846959e-05
3.342594059204675e-05   -6.1403938643052845e-06   1.3301363445846959e-05
3.342594059204675e-05   -6.1403938643052845e-06   1.3301363445846959e-05
3.342594059204675e-05   -6.1403938643052845e-06   1.3301363445846959e-05
4.605912887127999e-05   -7.563718908476947e-06   3.087047255442431e-05
4.605912887127999e-05   -7.563718908476947e-06   3.087047255442431e-05
4.605912887127999e-05   -7.563718908476947e-06   3.087047255442431e-05
4.605912887127999e-05   -7.563718908476947e-06   3.087047255442431e-05
2.2718983719379333e-05   -5.680695510080179e-06   -6.899955326372361e-06
2.2718983719379333e-05   -5.680695510080179e-06   -6.899955326372361e-06
2.2718983719379333e-05   -5.680695510080179e-06   -6.899955326372361e-06
2.2718983719379333e-05   -5.680695510080179e-06   -6.899955326372361e-06
2.171595642069996e-05   -7.695619018309972e-06   2.8676115500541688e-05
2.171595642069996e-05   -7.695619018309972e-06   2.8676115500541688e-05
2.171595642069996e-05   -7.695619018309972e-06   2.8676115500541688e-05
2.171595642069996e-05   -7.695619018309972e-06   2.8676115500541688e-05
4.455596232095611e-05   -5.837999662428647e-06   -1.0505132613413457e-05
4.455596232095611e-05   -5.837999662428647e-06   -1.0505132613413457e-05
4.455596232095611e-05   -5.837999662428647e-06   -1.0505132613413457e-05
4.455596232095611e-05   -5.837999662428647e-06   -1.0505132613413457e-05
3.280248682782701e-05   -6.4442559022876225e-06   9.447746952383036e-06
3.280248682782701e-05   -6.4442559022876225e-06   9.447746952383036e-06
3.280248682782701e-05   -6.4442559022876225e-06   9.447746952383036e-06
3.280248682782701e-05   -6.4442559022876225e-06   9.447746952383036e-06
4.455596232095596e-05   -7.695619018309539e-06   2.7561543887013066e-05
4.455596232095596e-05   -7.695619018309539e-06   2.7561543887013066e-05
4.455596232095596e-05   -7.695619018309539e-06   2.7561543887013066e-05
4.455596232095596e-05   -7.695619018309539e-06   2.7561543887013066e-05
2.1715956420699994e-05   -5.837999662428647e-06   -9.390560999884964e-06
2.1715956420699994e-05   -5.837999662428647e-06   -9.390560999884964e-06
2.1715956420699994e-05   -5.837999662428647e-06   -9.390560999884964e-06
2.1715956420699994e-05   -5.837999662428647e-06   -9.390560999884964e-06
2.0751147357413772e-05   -7.64576955854029e-06   2.4039154894483095e-05
2.0751147357413772e-05   -7.64576955854029e-06   2.4039154894483095e-05
2.0751147357413772e-05   -7.64576955854029e-06   2.4039154894483095e-05
2.0751147357413772e-05   -7.64576955854029e-06   2.4039154894483095e-05
4.285329615107959e-05   -5.900713913882961e-06   -1.384479314842054e-05
4.285329615107959e-05   -5.900713913882961e-06   -1.384479314842054e-05
4.285329615107959e-05   -5.900713913882961e-06   -1.384479314842054e-05
4.285329615107959e-05   -5.900713913882961e-06   -1.384479314842054e-05
3.111598631509876e-05   -6.334994770847927e-06   5.977958425727536e-06
3.111598631509876e-05   -6.334994770847927e-06   5.977958425727536e-06
3.111598631509876e-05   -6.334994770847927e-06   5.977958425727536e-06
3.111598631509876e-05   -6.334994770847927e-06   5.977958425727536e-06
2.3621549765354344e-05   -2.353598543542064e-06   3.8607839390592154e-05
2.3621549765354344e-05   -2.353598543542064e-06   3.8607839390592154e-05
2.3621549765354344e-05   -2.353598543542064e-06   3.8607839390592154e-05
2.3621549765354344e-05   -2.353598543542064e-06   3.8607839390592154e-05
1.0023862111740864e-06   -9.369554096277065e-07   1.7592193473068597e-06
1.0023862111740864e-06   -9.369554096277065e-07   1.7592193473068597e-06
1.0023862111740864e-06   -9.369554096277065e-07   1.7592193473068597e-06
1.0023862111740864e-06   -9.369554096277065e-07   1.7592193473068597e-06
1.3583894744661291e-07   -2.831138200379106e-06   3.9008530366856e-05
1.3583894744661291e-07   -2.831138200379106e-06   3.9008530366856e-05
1.3583894744661291e-07   -2.831138200379106e-06   3.9008530366856e-05
1.3583894744661291e-07   -2.831138200379106e-06   3.9008530366856e-05
2.2718983719379333e-05   -1.492566418540616e-06   5.668126778648574e-07
2.2718983719379333e-05   -1.492566418540616e-06   5.668126778648574e-07
2.2718983719379333e-05   -1.492566418540616e-06   5.668126778648574e-07
2.2718983719379333e-05   -1.492566418540616e-06   5.668126778648574e-07
1.172560158527932e-05   -1.8332015275157251e-06   1.9093497300083168e-05
1.172560158527932e-05   -1.8332015275157251e-06   1.9093497300083168e-05
1.172560158527932e-05   -1.8332015275157251e-06   1.9093497300083168e-05
1.172560158527932e-05   -1.8332015275157251e-06   1.9093497300083168e-05
2.271898371937932e-05   -2.831138200379106e-06   3.8205387297752386e-05
2.271898371937932e-05   -2.831138200379106e-06   3.8205387297752386e-05
2.271898371937932e-05   -2.831138200379106e-06   3.8205387297752386e-05
2.271898371937932e-05   -2.831138200379106e-06   3.8205387297752386e-05
1.3583894744661291e-07   -1.492566418540616e-06   1.3699557469680924e-06
1.3583894744661291e-07   -1.492566418540616e-06   1.3699557469680924e-06
1.3583894744661291e-07   -1.492566418540616e-06   1.3699557469680924e-06
1.3583894744661291e-07   -1.492566418540616e-06   1.3699557469680924e-06
-7.648899507989624e-07   -3.1439094609888793e-06   3.841983336542532e-05
-7.648899507989624e-07   -3.1439094609888793e-06   3.841983336542532e-05
-7.648899507989624e-07   -3.1439094609888793e-06   3.841983336542532e-05
-7.648899507989624e-07   -3.1439094609888793e-06   3.841983336542532e-05
2.1715956420699994e-05   -1.9050225937284997e-06   2.084239592374087e-07
2.1715956420699994e-05   -1.9050225937284997e-06   2.084239592374087e-07
2.1715956420699994e-05   -1.9050225937284997e-06   2.084239592374087e-07
2.1715956420699994e-05   -1.9050225937284997e-06   2.084239592374087e-07
1.0730576578198296e-05   -2.124179035146133e-06   1.8648884228257957e-05
1.0730576578198296e-05   -2.124179035146133e-06   1.8648884228257957e-05
1.0730576578198296e-05   -2.124179035146133e-06   1.8648884228257957e-05
1.0730576578198296e-05   -2.124179035146133e-06   1.8648884228257957e-05
2.171595642069996e-05   -3.1439094609888793e-06   3.767650124506905e-05
2.171595642069996e-05   -3.1439094609888793e-06   3.767650124506905e-05
2.171595642069996e-05   -3.1439094609888793e-06   3.767650124506905e-05
2.171595642069996e-05   -3.1439094609888793e-06   3.767650124506905e-05
-7.648899507989624e-07   -1.905022593728066e-06   9.517560795940187e-07
-7.648899507989624e-07   -1.905022593728066e-06   9.517560795940187e-07
-7.648899507989624e-07   -1.905022593728066e-06   9.517560795940187e-07
-7.648899507989624e-07   -1.905022593728066e-06   9.517560795940187e-07
-1.7026149144747587e-06   -3.2773636550464946e-06   3.8713856369882024e-05
-1.7026149144747587e-06   -3.2773636550464946e-06   3.8713856369882024e-05
-1.7026149144747587e-06   -3.2773636550464946e-06   3.8713856369882024e-05
-1.7026149144747587e-06   -3.2773636550464946e-06   3.8713856369882024e-05
2.0751147357413826e-05   -2.2300547647589007e-06   6.625339158951803e-07
2.0751147357413826e-05   -2.2300547647589007e-06   6.625339158951803e-07
2.0751147357413826e-05   -2.2300547647589007e-06   6.625339158951803e-07
2.0751147357413826e-05   -2.2300547647589007e-06   6.625339158951803e-07
9.982881348036064e-06   -2.280092273237999e-06   1.863966643661272e-05
9.982881348036064e-06   -2.280092273237999e-06   1.863966643661272e-05
9.982881348036064e-06   -2.280092273237999e-06   1.863966643661272e-05
9.982881348036064e-06   -2.280092273237999e-06   1.863966643661272e-05
1.0023862111740864e-06   2.094994321588401e-06   3.9854874318370065e-05
1.0023862111740864e-06   2.094994321588401e-06   3.9854874318370065e-05
1.0023862111740864e-06   2.094994321588401e-06   3.9854874318370065e-05
1.0023862111740864e-06   2.094994321588401e-06   3.9854874318370065e-05
-2.0956877707483442e-05   3.0386831262681387e-06   3.8223144034150915e-06
-2.0956877707483442e-05   3.0386831262681387e-06   3.8223144034150915e-06
-2.0956877707483442e-05   3.0386831262681387e-06   3.8223144034150915e-06
-2.0956877707483442e-05   3.0386831262681387e-06   3.8223144034150915e-06
-2.186235012708492e-05   1.7300290014957836e-06   4.040259897660804e-05
-2.186235012708492e-05   1.7300290014957836e-06   4.040259897660804e-05
-2.186235012708492e-05   1.7300290014957836e-06   4.040259897660804e-05
-2.186235012708492e-05   1.7300290014957836e-06   4.040259897660804e-05
1.3583894744661291e-07   2.5766682416228544e-06   3.230966974979182e-06
1.3583894744661291e-07   2.5766682416228544e-06   3.230966974979182e-06
1.3583894744661291e-07   2.5766682416228544e-06   3.230966974979182e-06
1.3583894744661291e-07   2.5766682416228544e-06   3.230966974979182e-06
-1.0436363923602624e-05   2.3866765590939594e-06   2.0965300102912152e-05
-1.0436363923602624e-05   2.3866765590939594e-06   2.0965300102912152e-05
-1.0436363923602624e-05   2.3866765590939594e-06   2.0965300102912152e-05
-1.0436363923602624e-05   2.3866765590939594e-06   2.0965300102912152e-05
1.3583894744661291e-07   1.7300290014957836e-06   3.989461543253171e-05
1.3583894744661291e-07   1.7300290014957836e-06   3.989461543253171e-05
1.3583894744661291e-07   1.7300290014957836e-06   3.989461543253171e-05
1.3583894744661291e-07   1.7300290014957836e-06   3.989461543253171e-05
-2.186235012708492e-05   2.5766682416228544e-06   3.738950519055484e-06
-2.186235012708492e-05   2.5766682416228544e-06   3.738950519055484e-06
-2.186235012708492e-05   2.5766682416228544e-06   3.738950519055484e-06
-2.186235012708492e-05   2.5766682416228544e-06   3.738950519055484e-06
-2.2818418049595887e-05   1.390292427674942e-06   4.078295064010489e-05
-2.2818418049595887e-05   1.390292427674942e-06   4.078295064010489e-05
-2.2818418049595887e-05   1.390292427674942e-06   4.078295064010489e-05
-2.2818418049595887e-05   1.390292427674942e-06   4.078295064010489e-05
-7.648899507989624e-07   2.128066771498599e-06   3.5844058691492954e-06
-7.648899507989624e-07   2.128066771498599e-06   3.5844058691492954e-06
-7.648899507989624e-07   2.128066771498599e-06   3.5844058691492954e-06
-7.648899507989624e-07   2.128066771498599e-06   3.5844058691492954e-06
-1.1277449576353746e-05   2.123106791116023e-06   2.1108314566636725e-05
-1.1277449576353746e-05   2.123106791116023e-06   2.1108314566636725e-05
-1.1277449576353746e-05   2.123106791116023e-06   2.1108314566636725e-05
-1.1277449576353746e-05   2.123106791116023e-06   2.1108314566636725e-05
-7.648899507989624e-07   1.390292427674942e-06   4.0340286033810823e-05
-7.648899507989624e-07   1.390292427674942e-06   4.0340286033810823e-05
-7.648899507989624e-07   1.390292427674942e-06   4.0340286033810823e-05
-7.648899507989624e-07   1.390292427674942e-06   4.0340286033810823e-05
-2.2818418049595887e-05   2.128066771498599e-06   4.027070475443387e-06
-2.2818418049595887e-05   2.128066771498599e-06   4.027070475443387e-06
-2.2818418049595887e-05   2.128066771498599e-06   4.027070475443387e-06
-2.2818418049595887e-05   2.128066771498599e-06   4.027070475443387e-06
-2.3804949962368254e-05   1.1457152608728045e-06   4.138767248239544e-05
-2.3804949962368254e-05   1.1457152608728045e-06   4.138767248239544e-05
-2.3804949962368254e-05   1.1457152608728045e-06   4.138767248239544e-05
-2.3804949962368254e-05   1.1457152608728045e-06   4.138767248239544e-05
-1.7026149144747587e-06   1.7287781858355347e-06   4.200609647595367e-06
-1.7026149144747587e-06   1.7287781858355347e-06   4.200609647595367e-06
-1.7026149144747587e-06   1.7287781858355347e-06   4.200609647595367e-06
-1.7026149144747587e-06   1.7287781858355347e-06   4.200609647595367e-06
-1.2187651654914963e-05   1.87063615790517e-06   2.1590556098421694e-05
-1.2187651654914963e-05   1.87063615790517e-06   2.1590556098421694e-05
-1.2187651654914963e-05   1.87063615790517e-06   2.1590556098421694e-05
-1.2187651654914963e-05   1.87063615790517e-06   2.1590556098421694e-05
-2.0956877707483496e-05   6.820569676459047e-06   3.477426844890764e-05
-2.0956877707483496e-05   6.820569676459047e-06   3.477426844890764e-05
-2.0956877707483496e-05   6.820569676459047e-06   3.477426844890764e-05
-2.0956877707483496e-05   6.820569676459047e-06   3.477426844890764e-05
-4.22278110327425e-05   6.90697310630527e-06   -6.254450352824719e-07
-4.22278110327425e-05   6.90697310630527e-06   -6.254450352824719e-07
-4.22278110327425e-05   6.90697310630527e-06   -6.254450352824719e-07
-4.22278110327425e-05   6.90697310630527e-06   -6.254450352824719e-07
-4.3278961391251495e-05   6.454984211143062e-06   3.538293180825104e-05
-4.3278961391251495e-05   6.454984211143062e-06   3.538293180825104e-05
-4.3278961391251495e-05   6.454984211143062e-06   3.538293180825104e-05
-4.3278961391251495e-05   6.454984211143062e-06   3.538293180825104e-05
-2.1862350127084947e-05   6.466064018858901e-06   -3.180681833221807e-07
-2.1862350127084947e-05   6.466064018858901e-06   -3.180681833221807e-07
-2.1862350127084947e-05   6.466064018858901e-06   -3.180681833221807e-07
-2.1862350127084947e-05   6.466064018858901e-06   -3.180681833221807e-07
-3.193815028522947e-05   6.6456373428707555e-06   1.6367188085844792e-05
-3.193815028522947e-05   6.6456373428707555e-06   1.6367188085844792e-05
-3.193815028522947e-05   6.6456373428707555e-06   1.6367188085844792e-05
-3.193815028522947e-05   6.6456373428707555e-06   1.6367188085844792e-05
-2.1862350127084947e-05   6.454984211143062e-06   3.5376283923622184e-05
-2.1862350127084947e-05   6.454984211143062e-06   3.5376283923622184e-05
-2.1862350127084947e-05   6.454984211143062e-06   3.5376283923622184e-05
-2.1862350127084947e-05   6.454984211143062e-06   3.5376283923622184e-05
-4.3278961391251495e-05   6.466064018858901e-06   -3.114202986931108e-07
-4.3278961391251495e-05   6.466064018858901e-06   -3.114202986931108e-07
-4.3278961391251495e-05   6.466064018858901e-06   -3.114202986931108e-07
-4.3278961391251495e-05   6.466064018858901e-06   -3.114202986931108e-07
-4.44438073206697e-05   6.116599932530324e-06   3.702766308109266e-05
-4.44438073206697e-05   6.116599932530324e-06   3.702766308109266e-05
-4.44438073206697e-05   6.116599932530324e-06   3.702766308109266e-05
-4.44438073206697e-05   6.116599932530324e-06   3.702766308109266e-05
-2.2818418049595914e-05   6.0593544391343915e-06   1.01969492534074e-06
-2.2818418049595914e-05   6.0593544391343915e-06   1.01969492534074e-06
-2.2818418049595914e-05   6.0593544391343915e-06   1.01969492534074e-06
-2.2818418049595914e-05   6.0593544391343915e-06   1.01969492534074e-06
-3.269762631215298e-05   6.396795781606068e-06   1.728257722411939e-05
-3.269762631215298e-05   6.396795781606068e-06   1.728257722411939e-05
-3.269762631215298e-05   6.396795781606068e-06   1.728257722411939e-05
-3.269762631215298e-05   6.396795781606068e-06   1.728257722411939e-05
-2.2818418049595887e-05   6.1165999325298905e-06   3.7062010377130394e-05
-2.2818418049595887e-05   6.1165999325298905e-06   3.7062010377130394e-05
-2.2818418049595887e-05   6.1165999325298905e-06   3.7062010377130394e-05
-2.2818418049595887e-05   6.1165999325298905e-06   3.7062010377130394e-05
-4.44438073206697e-05   6.0593544391343915e-06   9.853476293029528e-07
-4.44438073206697e-05   6.0593544391343915e-06   9.853476293029528e-07
-4.44438073206697e-05   6.0593544391343915e-06   9.853476293029528e-07
-4.44438073206697e-05   6.0593544391343915e-06   9.853476293029528e-07
-4.5553860095624594e-05   5.661395565222192e-06   3.821383580727327e-05
-4.5553860095624594e-05   5.661395565222192e-06   3.821383580727327e-05
-4.5553860095624594e-05   5.661395565222192e-06   3.821383580727327e-05
-4.5553860095624594e-05   5.661395565222192e-06   3.821383580727327e-05
-2.3804949962368254e-05   5.56244881462541e-06   2.025020302203991e-06
-2.3804949962368254e-05   5.56244881462541e-06   2.025020302203991e-06
-2.3804949962368254e-05   5.56244881462541e-06   2.025020302203991e-06
-2.3804949962368254e-05   5.56244881462541e-06   2.025020302203991e-06
-3.390692927947844e-05   6.073269515297335e-06   1.8555160076986186e-05
-3.390692927947844e-05   6.073269515297335e-06   1.8555160076986186e-05
-3.390692927947844e-05   6.073269515297335e-06   1.8555160076986186e-05
-3.390692927947844e-05   6.073269515297335e-06   1.8555160076986186e-05
-4.222781103274239e-05   1.1092470126816256e-05   1.6717273099032398e-05
-4.222781103274239e-05   1.1092470126816256e-05   1.6717273099032398e-05
-4.222781103274239e-05   1.1092470126816256e-05   1.6717273099032398e-05
-4.222781103274239e-05   1.1092470126816256e-05   1.6717273099032398e-05
-6.244526426349726e-05   9.947025241872996e-06   -1.7665749216524908e-05
-6.244526426349726e-05   9.947025241872996e-06   -1.7665749216524908e-05
-6.244526426349726e-05   9.947025241872996e-06   -1.7665749216524908e-05
-6.244526426349726e-05   9.947025241872996e-06   -1.7665749216524908e-05
-6.410065552705596e-05   1.1306638903364231e-05   2.3193268748757318e-05
-6.410065552705596e-05   1.1306638903364231e-05   2.3193268748757318e-05
-6.410065552705596e-05   1.1306638903364231e-05   2.3193268748757318e-05
-6.410065552705596e-05   1.1306638903364231e-05   2.3193268748757318e-05
-4.3278961391251495e-05   1.0053364585177471e-05   -1.0757590220004942e-05
-4.3278961391251495e-05   1.0053364585177471e-05   -1.0757590220004942e-05
-4.3278961391251495e-05   1.0053364585177471e-05   -1.0757590220004942e-05
-4.3278961391251495e-05   1.0053364585177471e-05   -1.0757590220004942e-05
-5.0983122334000754e-05   1.0537576040143236e-05   1.7921511449312867e-06
-5.0983122334000754e-05   1.0537576040143236e-05   1.7921511449312867e-06
-5.0983122334000754e-05   1.0537576040143236e-05   1.7921511449312867e-06
-5.0983122334000754e-05   1.0537576040143236e-05   1.7921511449312867e-06
-4.327896139125136e-05   1.1306638903364231e-05   2.3945233339669678e-05
-4.327896139125136e-05   1.1306638903364231e-05   2.3945233339669678e-05
-4.327896139125136e-05   1.1306638903364231e-05   2.3945233339669678e-05
-4.327896139125136e-05   1.1306638903364231e-05   2.3945233339669678e-05
-6.410065552705607e-05   1.0053364585177471e-05   -1.1509554810917194e-05
-6.410065552705607e-05   1.0053364585177471e-05   -1.1509554810917194e-05
-6.410065552705607e-05   1.0053364585177471e-05   -1.1509554810917194e-05
-6.410065552705607e-05   1.0053364585177471e-05   -1.1509554810917194e-05
-6.571682006935588e-05   1.1225635575821263e-05   2.8232959639696914e-05
-6.571682006935588e-05   1.1225635575821263e-05   2.8232959639696914e-05
-6.571682006935588e-05   1.1225635575821263e-05   2.8232959639696914e-05
-6.571682006935588e-05   1.1225635575821263e-05   2.8232959639696914e-05
-4.44438073206697e-05   9.942949315262448e-06   -6.452449851778168e-06
-4.44438073206697e-05   9.942949315262448e-06   -6.452449851778168e-06
-4.44438073206697e-05   9.942949315262448e-06   -6.452449851778168e-06
-4.44438073206697e-05   9.942949315262448e-06   -6.452449851778168e-06
-5.301865628352279e-05   1.0730257915225229e-05   7.366579926333704e-06
-5.301865628352279e-05   1.0730257915225229e-05   7.366579926333704e-06
-5.301865628352279e-05   1.0730257915225229e-05   7.366579926333704e-06
-5.301865628352279e-05   1.0730257915225229e-05   7.366579926333704e-06
-4.44438073206697e-05   1.1225635575821263e-05   2.9002571396032463e-05
-4.44438073206697e-05   1.1225635575821263e-05   2.9002571396032463e-05
-4.44438073206697e-05   1.1225635575821263e-05   2.9002571396032463e-05
-4.44438073206697e-05   1.1225635575821263e-05   2.9002571396032463e-05
-6.571682006935599e-05   9.942949315262014e-06   -7.222061608113447e-06
-6.571682006935599e-05   9.942949315262014e-06   -7.222061608113447e-06
-6.571682006935599e-05   9.942949315262014e-06   -7.222061608113447e-06
-6.571682006935599e-05   9.942949315262014e-06   -7.222061608113447e-06
-6.760406430906919e-05   1.0335340784234804e-05   3.6865353664919474e-05
-6.760406430906919e-05   1.0335340784234804e-05   3.6865353664919474e-05
-6.760406430906919e-05   1.0335340784234804e-05   3.6865353664919474e-05
-6.760406430906919e-05   1.0335340784234804e-05   3.6865353664919474e-05
-4.5553860095624594e-05   9.176863492932168e-06   8.100996839598856e-07
-4.5553860095624594e-05   9.176863492932168e-06   8.100996839598856e-07
-4.5553860095624594e-05   9.176863492932168e-06   8.100996839598856e-07
-4.5553860095624594e-05   9.176863492932168e-06   8.100996839598856e-07
-5.35332172464912e-05   1.0414144047495109e-05   1.3366659936000548e-05
-5.35332172464912e-05   1.0414144047495109e-05   1.3366659936000548e-05
-5.35332172464912e-05   1.0414144047495109e-05   1.3366659936000548e-05
-5.35332172464912e-05   1.0414144047495109e-05   1.3366659936000548e-05
3.624635950288355e-05   -4.896830727186153e-06   3.074219047838767e-05
3.624635950288355e-05   -4.896830727186153e-06   3.074219047838767e-05
3.624635950288355e-05   -4.896830727186153e-06   3.074219047838767e-05
3.624635950288355e-05   -4.896830727186153e-06   3.074219047838767e-05
1.7062038702388178e-05   -3.2387739747458642e-06   -2.3684347097386801e-07
1.7062038702388178e-05   -3.2387739747458642e-06   -2.3684347097386801e-07
1.7062038702388178e-05   -3.2387739747458642e-06   -2.3684347097386801e-07
1.7062038702388178e-05   -3.2387739747458642e-06   -2.3684347097386801e-07
1.6255755377314165e-05   -5.680695510080179e-06   2.7009779152756134e-05
1.6255755377314165e-05   -5.680695510080179e-06   2.7009779152756134e-05
1.6255755377314165e-05   -5.680695510080179e-06   2.7009779152756134e-05
1.6255755377314165e-05   -5.680695510080179e-06   2.7009779152756134e-05
3.468623759314637e-05   -3.930089097102388e-06   -4.758055054750754e-06
3.468623759314637e-05   -3.930089097102388e-06   -4.758055054750754e-06
3.468623759314637e-05   -3.930089097102388e-06   -4.758055054750754e-06
3.468623759314637e-05   -3.930089097102388e-06   -4.758055054750754e-06
2.4836658713828476e-05   -4.470220539241725e-06   1.1981988609395992e-05
2.4836658713828476e-05   -4.470220539241725e-06   1.1981988609395992e-05
2.4836658713828476e-05   -4.470220539241725e-06   1.1981988609395992e-05
2.4836658713828476e-05   -4.470220539241725e-06   1.1981988609395992e-05
3.468623759314637e-05   -5.680695510080179e-06   2.5959415304969763e-05
3.468623759314637e-05   -5.680695510080179e-06   2.5959415304969763e-05
3.468623759314637e-05   -5.680695510080179e-06   2.5959415304969763e-05
3.468623759314637e-05   -5.680695510080179e-06   2.5959415304969763e-05
1.6255755377314192e-05   -3.930089097102388e-06   -3.70769120696399e-06
1.6255755377314192e-05   -3.930089097102388e-06   -3.70769120696399e-06
1.6255755377314192e-05   -3.930089097102388e-06   -3.70769120696399e-06
1.6255755377314192e-05   -3.930089097102388e-06   -3.70769120696399e-06
1.5365696357974104e-05   -5.83799966242908e-06   2.4386411405578814e-05
1.5365696357974104e-05   -5.83799966242908e-06   2.4386411405578814e-05
1.5365696357974104e-05   -5.83799966242908e-06   2.4386411405578814e-05
1.5365696357974104e-05   -5.83799966242908e-06   2.4386411405578814e-05
3.3318804933555636e-05   -4.114640097823861e-06   -6.56945195915345e-06
3.3318804933555636e-05   -4.114640097823861e-06   -6.56945195915345e-06
3.3318804933555636e-05   -4.114640097823861e-06   -6.56945195915345e-06
3.3318804933555636e-05   -4.114640097823861e-06   -6.56945195915345e-06
2.419098078321955e-05   -4.750778079244027e-06   9.025271080259425e-06
2.419098078321955e-05   -4.750778079244027e-06   9.025271080259425e-06
2.419098078321955e-05   -4.750778079244027e-06   9.025271080259425e-06
2.419098078321955e-05   -4.750778079244027e-06   9.025271080259425e-06
3.331880493355558e-05   -5.83799966242908e-06   2.3352395666815856e-05
3.331880493355558e-05   -5.83799966242908e-06   2.3352395666815856e-05
3.331880493355558e-05   -5.83799966242908e-06   2.3352395666815856e-05
3.331880493355558e-05   -5.83799966242908e-06   2.3352395666815856e-05
1.5365696357974138e-05   -4.114640097823861e-06   -5.5354362203901934e-06
1.5365696357974138e-05   -4.114640097823861e-06   -5.5354362203901934e-06
1.5365696357974138e-05   -4.114640097823861e-06   -5.5354362203901934e-06
1.5365696357974138e-05   -4.114640097823861e-06   -5.5354362203901934e-06
1.4543779693689738e-05   -5.900713913882961e-06   2.083222008182964e-05
1.4543779693689738e-05   -5.900713913882961e-06   2.083222008182964e-05
1.4543779693689738e-05   -5.900713913882961e-06   2.083222008182964e-05
1.4543779693689738e-05   -5.900713913882961e-06   2.083222008182964e-05
3.1790758734670977e-05   -4.2864961300465975e-06   -8.881275656773908e-06
3.1790758734670977e-05   -4.2864961300465975e-06   -8.881275656773908e-06
3.1790758734670977e-05   -4.2864961300465975e-06   -8.881275656773908e-06
3.1790758734670977e-05   -4.2864961300465975e-06   -8.881275656773908e-06
2.276265234283168e-05   -4.723280967890327e-06   6.42763923233163e-06
2.276265234283168e-05   -4.723280967890327e-06   6.42763923233163e-06
2.276265234283168e-05   -4.723280967890327e-06   6.42763923233163e-06
2.276265234283168e-05   -4.723280967890327e-06   6.42763923233163e-06
1.7062038702388117e-05   -9.369554096281402e-07   3.493940804651205e-05
1.7062038702388117e-05   -9.369554096281402e-07   3.493940804651205e-05
1.7062038702388117e-05   -9.369554096281402e-07   3.493940804651205e-05
1.7062038702388117e-05   -9.369554096281402e-07   3.493940804651205e-05
-1.0952319758052121e-06   -1.7934603014279835e-08   5.22870273349154e-06
-1.0952319758052121e-06   -1.7934603014279835e-08   5.22870273349154e-06
-1.0952319758052121e-06   -1.7934603014279835e-08   5.22870273349154e-06
-1.0952319758052121e-06   -1.7934603014279835e-08   5.22870273349154e-06
-1.8533170525690648e-06   -1.492566418540616e-06   3.500066934752758e-05
-1.8533170525690648e-06   -1.492566418540616e-06   3.500066934752758e-05
-1.8533170525690648e-06   -1.492566418540616e-06   3.500066934752758e-05
-1.8533170525690648e-06   -1.492566418540616e-06   3.500066934752758e-05
1.6255755377314192e-05   -6.190294343166262e-07   4.294759773854674e-06
1.6255755377314192e-05   -6.190294343166262e-07   4.294759773854674e-06
1.6255755377314192e-05   -6.190294343166262e-07   4.294759773854674e-06
1.6255755377314192e-05   -6.190294343166262e-07   4.294759773854674e-06
7.469277444912167e-06   -7.884782188011946e-07   1.9040558931881878e-05
7.469277444912167e-06   -7.884782188011946e-07   1.9040558931881878e-05
7.469277444912167e-06   -7.884782188011946e-07   1.9040558931881878e-05
7.469277444912167e-06   -7.884782188011946e-07   1.9040558931881878e-05
1.6255755377314118e-05   -1.492566418540616e-06   3.447654715699319e-05
1.6255755377314118e-05   -1.492566418540616e-06   3.447654715699319e-05
1.6255755377314118e-05   -1.492566418540616e-06   3.447654715699319e-05
1.6255755377314118e-05   -1.492566418540616e-06   3.447654715699319e-05
-1.8533170525690648e-06   -6.190294343166262e-07   4.818881964389074e-06
-1.8533170525690648e-06   -6.190294343166262e-07   4.818881964389074e-06
-1.8533170525690648e-06   -6.190294343166262e-07   4.818881964389074e-06
-1.8533170525690648e-06   -6.190294343166262e-07   4.818881964389074e-06
-2.6275582987011614e-06   -1.905022593728066e-06   3.44728285635702e-05
-2.6275582987011614e-06   -1.905022593728066e-06   3.44728285635702e-05
-2.6275582987011614e-06   -1.905022593728066e-06   3.44728285635702e-05
-2.6275582987011614e-06   -1.905022593728066e-06   3.44728285635702e-05
1.5365696357974138e-05   -1.0926355956139642e-06   3.996638603575911e-06
1.5365696357974138e-05   -1.0926355956139642e-06   3.996638603575911e-06
1.5365696357974138e-05   -1.0926355956139642e-06   3.996638603575911e-06
1.5365696357974138e-05   -1.0926355956139642e-06   3.996638603575911e-06
6.6187774334315114e-06   -1.159334706555366e-06   1.8614856277713118e-05
6.6187774334315114e-06   -1.159334706555366e-06   1.8614856277713118e-05
6.6187774334315114e-06   -1.159334706555366e-06   1.8614856277713118e-05
6.6187774334315114e-06   -1.159334706555366e-06   1.8614856277713118e-05
1.5365696357974104e-05   -1.905022593728066e-06   3.398539636470131e-05
1.5365696357974104e-05   -1.905022593728066e-06   3.398539636470131e-05
1.5365696357974104e-05   -1.905022593728066e-06   3.398539636470131e-05
1.5365696357974104e-05   -1.905022593728066e-06   3.398539636470131e-05
-2.6275582987011614e-06   -1.0926355956139642e-06   4.484070802444765e-06
-2.6275582987011614e-06   -1.0926355956139642e-06   4.484070802444765e-06
-2.6275582987011614e-06   -1.0926355956139642e-06   4.484070802444765e-06
-2.6275582987011614e-06   -1.0926355956139642e-06   4.484070802444765e-06
-3.4060164822674697e-06   -2.2300547647589007e-06   3.471194191979844e-05
-3.4060164822674697e-06   -2.2300547647589007e-06   3.471194191979844e-05
-3.4060164822674697e-06   -2.2300547647589007e-06   3.471194191979844e-05
-3.4060164822674697e-06   -2.2300547647589007e-06   3.471194191979844e-05
1.4543779693689745e-05   -1.531007830680043e-06   4.376186799422312e-06
1.4543779693689745e-05   -1.531007830680043e-06   4.376186799422312e-06
1.4543779693689745e-05   -1.531007830680043e-06   4.376186799422312e-06
1.4543779693689745e-05   -1.531007830680043e-06   4.376186799422312e-06
5.969592582581956e-06   -1.4336191742412956e-06   1.860806545740608e-05
5.969592582581956e-06   -1.4336191742412956e-06   1.860806545740608e-05
5.969592582581956e-06   -1.4336191742412956e-06   1.860806545740608e-05
5.969592582581956e-06   -1.4336191742412956e-06   1.860806545740608e-05
-1.0952319758052257e-06   3.038683126267705e-06   3.698770230378115e-05
-1.0952319758052257e-06   3.038683126267705e-06   3.698770230378115e-05
-1.0952319758052257e-06   3.038683126267705e-06   3.698770230378115e-05
-1.0952319758052257e-06   3.038683126267705e-06   3.698770230378115e-05
-1.8871529407835932e-05   3.1281785165396866e-06   7.4142371512263576e-06
-1.8871529407835932e-05   3.1281785165396866e-06   7.4142371512263576e-06
-1.8871529407835932e-05   3.1281785165396866e-06   7.4142371512263576e-06
-1.8871529407835932e-05   3.1281785165396866e-06   7.4142371512263576e-06
-1.9633763403384852e-05   2.5766682416228544e-06   3.687582110263317e-05
-1.9633763403384852e-05   2.5766682416228544e-06   3.687582110263317e-05
-1.9633763403384852e-05   2.5766682416228544e-06   3.687582110263317e-05
-1.9633763403384852e-05   2.5766682416228544e-06   3.687582110263317e-05
-1.8533170525690784e-06   2.600235786780463e-06   7.227603324179221e-06
-1.8533170525690784e-06   2.600235786780463e-06   7.227603324179221e-06
-1.8533170525690784e-06   2.600235786780463e-06   7.227603324179221e-06
-1.8533170525690784e-06   2.600235786780463e-06   7.227603324179221e-06
-1.0390342233179215e-05   2.7862317485004458e-06   2.1344381048164014e-05
-1.0390342233179215e-05   2.7862317485004458e-06   2.1344381048164014e-05
-1.0390342233179215e-05   2.7862317485004458e-06   2.1344381048164014e-05
-1.0390342233179215e-05   2.7862317485004458e-06   2.1344381048164014e-05
-1.8533170525690784e-06   2.5766682416228544e-06   3.686168057553886e-05
-1.8533170525690784e-06   2.5766682416228544e-06   3.686168057553886e-05
-1.8533170525690784e-06   2.5766682416228544e-06   3.686168057553886e-05
-1.8533170525690784e-06   2.5766682416228544e-06   3.686168057553886e-05
-1.9633763403384852e-05   2.600235786780463e-06   7.241743851273499e-06
-1.9633763403384852e-05   2.600235786780463e-06   7.241743851273499e-06
-1.9633763403384852e-05   2.600235786780463e-06   7.241743851273499e-06
-1.9633763403384852e-05   2.600235786780463e-06   7.241743851273499e-06
-2.0414994860675216e-05   2.128066771498599e-06   3.7077048001518936e-05
-2.0414994860675216e-05   2.128066771498599e-06   3.7077048001518936e-05
-2.0414994860675216e-05   2.128066771498599e-06   3.7077048001518936e-05
-2.0414994860675216e-05   2.128066771498599e-06   3.7077048001518936e-05
-2.6275582987011614e-06   2.0806828521541688e-06   7.459750749835099e-06
-2.6275582987011614e-06   2.0806828521541688e-06   7.459750749835099e-06
-2.6275582987011614e-06   2.0806828521541688e-06   7.459750749835099e-06
-2.6275582987011614e-06   2.0806828521541688e-06   7.459750749835099e-06
-1.1097985494033945e-05   2.4313668543554916e-06   2.136671900740327e-05
-1.1097985494033945e-05   2.4313668543554916e-06   2.136671900740327e-05
-1.1097985494033945e-05   2.4313668543554916e-06   2.136671900740327e-05
-1.1097985494033945e-05   2.4313668543554916e-06   2.136671900740327e-05
-2.6275582987011614e-06   2.128066771498599e-06   3.710547835312529e-05
-2.6275582987011614e-06   2.128066771498599e-06   3.710547835312529e-05
-2.6275582987011614e-06   2.128066771498599e-06   3.710547835312529e-05
-2.6275582987011614e-06   2.128066771498599e-06   3.710547835312529e-05
-2.041499486067527e-05   2.0806828521541688e-06   7.431320398228582e-06
-2.041499486067527e-05   2.0806828521541688e-06   7.431320398228582e-06
-2.041499486067527e-05   2.0806828521541688e-06   7.431320398228582e-06
-2.041499486067527e-05   2.0806828521541688e-06   7.431320398228582e-06
-2.119588159481034e-05   1.7287781858355347e-06   3.7536978317549274e-05
-2.119588159481034e-05   1.7287781858355347e-06   3.7536978317549274e-05
-2.119588159481034e-05   1.7287781858355347e-06   3.7536978317549274e-05
-2.119588159481034e-05   1.7287781858355347e-06   3.7536978317549274e-05
-3.4060164822674697e-06   1.5876881862076156e-06   7.971857129754795e-06
-3.4060164822674697e-06   1.5876881862076156e-06   7.971857129754795e-06
-3.4060164822674697e-06   1.5876881862076156e-06   7.971857129754795e-06
-3.4060164822674697e-06   1.5876881862076156e-06   7.971857129754795e-06
-1.183885511963539e-05   2.0856034847983526e-06   2.1727839012880985e-05
-1.183885511963539e-05   2.0856034847983526e-06   2.1727839012880985e-05
-1.183885511963539e-05   2.0856034847983526e-06   2.1727839012880985e-05
-1.183885511963539e-05   2.0856034847983526e-06   2.1727839012880985e-05
-1.8871529407835878e-05   6.90697310630527e-06   3.254179804133839e-05
-1.8871529407835878e-05   6.90697310630527e-06   3.254179804133839e-05
-1.8871529407835878e-05   6.90697310630527e-06   3.254179804133839e-05
-1.8871529407835878e-05   6.90697310630527e-06   3.254179804133839e-05
-3.625711202644749e-05   6.156104723002839e-06   3.1153059803376787e-06
-3.625711202644749e-05   6.156104723002839e-06   3.1153059803376787e-06
-3.625711202644749e-05   6.156104723002839e-06   3.1153059803376787e-06
-3.625711202644749e-05   6.156104723002839e-06   3.1153059803376787e-06
-3.707734887347522e-05   6.466064018858901e-06   3.23295759105998e-05
-3.707734887347522e-05   6.466064018858901e-06   3.23295759105998e-05
-3.707734887347522e-05   6.466064018858901e-06   3.23295759105998e-05
-3.707734887347522e-05   6.466064018858901e-06   3.23295759105998e-05
-1.9633763403384906e-05   5.65068653609886e-06   3.746159950105245e-06
-1.9633763403384906e-05   5.65068653609886e-06   3.746159950105245e-06
-1.9633763403384906e-05   5.65068653609886e-06   3.746159950105245e-06
-1.9633763403384906e-05   5.65068653609886e-06   3.746159950105245e-06
-2.786750884597131e-05   6.212638190621457e-06   1.7131898028368935e-05
-2.786750884597131e-05   6.212638190621457e-06   1.7131898028368935e-05
-2.786750884597131e-05   6.212638190621457e-06   1.7131898028368935e-05
-2.786750884597131e-05   6.212638190621457e-06   1.7131898028368935e-05
-1.9633763403384852e-05   6.466064018858467e-06   3.281880240025561e-05
-1.9633763403384852e-05   6.466064018858467e-06   3.281880240025561e-05
-1.9633763403384852e-05   6.466064018858467e-06   3.281880240025561e-05
-1.9633763403384852e-05   6.466064018858467e-06   3.281880240025561e-05
-3.707734887347511e-05   5.65068653609886e-06   3.256933460449112e-06
-3.707734887347511e-05   5.65068653609886e-06   3.256933460449112e-06
-3.707734887347511e-05   5.65068653609886e-06   3.256933460449112e-06
-3.707734887347511e-05   5.65068653609886e-06   3.256933460449112e-06
-3.7980215495398665e-05   6.0593544391343915e-06   3.35418122318922e-05
-3.7980215495398665e-05   6.0593544391343915e-06   3.35418122318922e-05
-3.7980215495398665e-05   6.0593544391343915e-06   3.35418122318922e-05
-3.7980215495398665e-05   6.0593544391343915e-06   3.35418122318922e-05
-2.041499486067527e-05   5.1795874065948405e-06   4.794304726876838e-06
-2.041499486067527e-05   5.1795874065948405e-06   4.794304726876838e-06
-2.041499486067527e-05   5.1795874065948405e-06   4.794304726876838e-06
-2.041499486067527e-05   5.1795874065948405e-06   4.794304726876838e-06
-2.8455926041121048e-05   5.890041287942398e-06   1.7769584365478694e-05
-2.8455926041121048e-05   5.890041287942398e-06   1.7769584365478694e-05
-2.8455926041121048e-05   5.890041287942398e-06   1.7769584365478694e-05
-2.8455926041121048e-05   5.890041287942398e-06   1.7769584365478694e-05
-2.0414994860675243e-05   6.0593544391343915e-06   3.406967245141602e-05
-2.0414994860675243e-05   6.0593544391343915e-06   3.406967245141602e-05
-2.0414994860675243e-05   6.0593544391343915e-06   3.406967245141602e-05
-2.0414994860675243e-05   6.0593544391343915e-06   3.406967245141602e-05
-3.798021549539861e-05   5.1795874065948405e-06   4.2664445073534e-06
-3.798021549539861e-05   5.1795874065948405e-06   4.2664445073534e-06
-3.798021549539861e-05   5.1795874065948405e-06   4.2664445073534e-06
-3.798021549539861e-05   5.1795874065948405e-06   4.2664445073534e-06
-3.8805654633767596e-05   5.56244881462541e-06   3.4452578996025524e-05
-3.8805654633767596e-05   5.56244881462541e-06   3.4452578996025524e-05
-3.8805654633767596e-05   5.56244881462541e-06   3.4452578996025524e-05
-3.8805654633767596e-05   5.56244881462541e-06   3.4452578996025524e-05
-2.1195881594810367e-05   4.630828446034255e-06   5.66192948558492e-06
-2.1195881594810367e-05   4.630828446034255e-06   5.66192948558492e-06
-2.1195881594810367e-05   4.630828446034255e-06   5.66192948558492e-06
-2.1195881594810367e-05   4.630828446034255e-06   5.66192948558492e-06
-2.939287538518084e-05   5.525964408387499e-06   1.8786504225458498e-05
-2.939287538518084e-05   5.525964408387499e-06   1.8786504225458498e-05
-2.939287538518084e-05   5.525964408387499e-06   1.8786504225458498e-05
-2.939287538518084e-05   5.525964408387499e-06   1.8786504225458498e-05
-3.625711202644749e-05   9.947025241872996e-06   1.573823976108073e-05
-3.625711202644749e-05   9.947025241872996e-06   1.573823976108073e-05
-3.625711202644749e-05   9.947025241872996e-06   1.573823976108073e-05
-3.625711202644749e-05   9.947025241872996e-06   1.573823976108073e-05
-5.277078468150944e-05   8.486325151812416e-06   -1.2660968051392469e-05
-5.277078468150944e-05   8.486325151812416e-06   -1.2660968051392469e-05
-5.277078468150944e-05   8.486325151812416e-06   -1.2660968051392469e-05
-5.277078468150944e-05   8.486325151812416e-06   -1.2660968051392469e-05
-5.424509951889976e-05   1.0053364585177471e-05   2.0918108562729965e-05
-5.424509951889976e-05   1.0053364585177471e-05   2.0918108562729965e-05
-5.424509951889976e-05   1.0053364585177471e-05   2.0918108562729965e-05
-5.424509951889976e-05   1.0053364585177471e-05   2.0918108562729965e-05
-3.707734887347522e-05   8.444535540914379e-06   -6.729511753086491e-06
-3.707734887347522e-05   8.444535540914379e-06   -6.729511753086491e-06
-3.707734887347522e-05   8.444535540914379e-06   -6.729511753086491e-06
-3.707734887347522e-05   8.444535540914379e-06   -6.729511753086491e-06
-4.337211527930008e-05   9.097334211084166e-06   3.370086387853024e-06
-4.337211527930008e-05   9.097334211084166e-06   3.370086387853024e-06
-4.337211527930008e-05   9.097334211084166e-06   3.370086387853024e-06
-4.337211527930008e-05   9.097334211084166e-06   3.370086387853024e-06
-3.707734887347519e-05   1.0053364585177471e-05   2.1883405989287863e-05
-3.707734887347519e-05   1.0053364585177471e-05   2.1883405989287863e-05
-3.707734887347519e-05   1.0053364585177471e-05   2.1883405989287863e-05
-3.707734887347519e-05   1.0053364585177471e-05   2.1883405989287863e-05
-5.424509951889987e-05   8.444535540914379e-06   -7.694809179644335e-06
-5.424509951889987e-05   8.444535540914379e-06   -7.694809179644335e-06
-5.424509951889987e-05   8.444535540914379e-06   -7.694809179644335e-06
-5.424509951889987e-05   8.444535540914379e-06   -7.694809179644335e-06
-5.556494572918699e-05   9.942949315262448e-06   2.5101844632338926e-05
-5.556494572918699e-05   9.942949315262448e-06   2.5101844632338926e-05
-5.556494572918699e-05   9.942949315262448e-06   2.5101844632338926e-05
-5.556494572918699e-05   9.942949315262448e-06   2.5101844632338926e-05
-3.7980215495398665e-05   8.272665784475868e-06   -3.203868972169899e-06
-3.7980215495398665e-05   8.272665784475868e-06   -3.203868972169899e-06
-3.7980215495398665e-05   8.272665784475868e-06   -3.203868972169899e-06
-3.7980215495398665e-05   8.272665784475868e-06   -3.203868972169899e-06
-4.506757216099112e-05   9.198035985152767e-06   8.053170016746394e-06
-4.506757216099112e-05   9.198035985152767e-06   8.053170016746394e-06
-4.506757216099112e-05   9.198035985152767e-06   8.053170016746394e-06
-4.506757216099112e-05   9.198035985152767e-06   8.053170016746394e-06
-3.7980215495398665e-05   9.942949315262014e-06   2.6104014750811134e-05
-3.7980215495398665e-05   9.942949315262014e-06   2.6104014750811134e-05
-3.7980215495398665e-05   9.942949315262014e-06   2.6104014750811134e-05
-3.7980215495398665e-05   9.942949315262014e-06   2.6104014750811134e-05
-5.55649457291871e-05   8.272665784475651e-06   -4.2060390906419444e-06
-5.55649457291871e-05   8.272665784475651e-06   -4.2060390906419444e-06
-5.55649457291871e-05   8.272665784475651e-06   -4.2060390906419444e-06
-5.55649457291871e-05   8.272665784475651e-06   -4.2060390906419444e-06
-5.708133785416869e-05   9.176863492931734e-06   3.2299310638521156e-05
-5.708133785416869e-05   9.176863492931734e-06   3.2299310638521156e-05
-5.708133785416869e-05   9.176863492931734e-06   3.2299310638521156e-05
-5.708133785416869e-05   9.176863492931734e-06   3.2299310638521156e-05
-3.8805654633767596e-05   7.5140038435683905e-06   2.837554394137206e-06
-3.8805654633767596e-05   7.5140038435683905e-06   2.837554394137206e-06
-3.8805654633767596e-05   7.5140038435683905e-06   2.837554394137206e-06
-3.8805654633767596e-05   7.5140038435683905e-06   2.837554394137206e-06
-4.5428653838784736e-05   8.883422877192793e-06   1.3054234982325238e-05
-4.5428653838784736e-05   8.883422877192793e-06   1.3054234982325238e-05
-4.5428653838784736e-05   8.883422877192793e-06   1.3054234982325238e-05
-4.5428653838784736e-05   8.883422877192793e-06   1.3054234982325238e-05
2.4992211630166903e-05   -3.2387739747458642e-06   2.5039748436846707e-05
2.4992211630166903e-05   -3.2387739747458642e-06   2.5039748436846707e-05
2.4992211630166903e-05   -3.2387739747458642e-06   2.5039748436846707e-05
2.4992211630166903e-05   -3.2387739747458642e-06   2.5039748436846707e-05
1.0371469186798835e-05   -1.5948805292184936e-06   1.658180431883061e-06
1.0371469186798835e-05   -1.5948805292184936e-06   1.658180431883061e-06
1.0371469186798835e-05   -1.5948805292184936e-06   1.658180431883061e-06
1.0371469186798835e-05   -1.5948805292184936e-06   1.658180431883061e-06
9.722749780762304e-06   -3.930089097102388e-06   2.251070964126166e-05
9.722749780762304e-06   -3.930089097102388e-06   2.251070964126166e-05
9.722749780762304e-06   -3.930089097102388e-06   2.251070964126166e-05
9.722749780762304e-06   -3.930089097102388e-06   2.251070964126166e-05
2.3611042044675827e-05   -2.2134960560651895e-06   -1.6663999565499693e-06
2.3611042044675827e-05   -2.2134960560651895e-06   -1.6663999565499693e-06
2.3611042044675827e-05   -2.2134960560651895e-06   -1.6663999565499693e-06
2.3611042044675827e-05   -2.2134960560651895e-06   -1.6663999565499693e-06
1.632000127152582e-05   -2.8100765490811017e-06   1.0843282961176972e-05
1.632000127152582e-05   -2.8100765490811017e-06   1.0843282961176972e-05
1.632000127152582e-05   -2.8100765490811017e-06   1.0843282961176972e-05
1.632000127152582e-05   -2.8100765490811017e-06   1.0843282961176972e-05
2.3611042044675868e-05   -3.930089097102388e-06   2.148075381663947e-05
2.3611042044675868e-05   -3.930089097102388e-06   2.148075381663947e-05
2.3611042044675868e-05   -3.930089097102388e-06   2.148075381663947e-05
2.3611042044675868e-05   -3.930089097102388e-06   2.148075381663947e-05
9.72274978076227e-06   -2.2134960560651895e-06   -6.36444131927455e-07
9.72274978076227e-06   -2.2134960560651895e-06   -6.36444131927455e-07
9.72274978076227e-06   -2.2134960560651895e-06   -6.36444131927455e-07
9.72274978076227e-06   -2.2134960560651895e-06   -6.36444131927455e-07
8.994010573777231e-06   -4.114640097823644e-06   2.0632907494669934e-05
8.994010573777231e-06   -4.114640097823644e-06   2.0632907494669934e-05
8.994010573777231e-06   -4.114640097823644e-06   2.0632907494669934e-05
8.994010573777231e-06   -4.114640097823644e-06   2.0632907494669934e-05
2.2425266222068407e-05   -2.426326412030902e-06   -2.7655067972909736e-06
2.2425266222068407e-05   -2.426326412030902e-06   -2.7655067972909736e-06
2.2425266222068407e-05   -2.426326412030902e-06   -2.7655067972909736e-06
2.2425266222068407e-05   -2.426326412030902e-06   -2.7655067972909736e-06
1.5706226937011224e-05   -3.072516054060826e-06   8.82060579635629e-06
1.5706226937011224e-05   -3.072516054060826e-06   8.82060579635629e-06
1.5706226937011224e-05   -3.072516054060826e-06   8.82060579635629e-06
1.5706226937011224e-05   -3.072516054060826e-06   8.82060579635629e-06
2.2425266222068448e-05   -4.114640097823644e-06   1.961991928319429e-05
2.2425266222068448e-05   -4.114640097823644e-06   1.961991928319429e-05
2.2425266222068448e-05   -4.114640097823644e-06   1.961991928319429e-05
2.2425266222068448e-05   -4.114640097823644e-06   1.961991928319429e-05
8.994010573777214e-06   -2.426326412030902e-06   -1.7525185858151791e-06
8.994010573777214e-06   -2.426326412030902e-06   -1.7525185858151791e-06
8.994010573777214e-06   -2.426326412030902e-06   -1.7525185858151791e-06
8.994010573777214e-06   -2.426326412030902e-06   -1.7525185858151791e-06
8.340715166141742e-06   -4.2864961300465975e-06   1.8193618597914978e-05
8.340715166141742e-06   -4.2864961300465975e-06   1.8193618597914978e-05
8.340715166141742e-06   -4.2864961300465975e-06   1.8193618597914978e-05
8.340715166141742e-06   -4.2864961300465975e-06   1.8193618597914978e-05
2.108011465885654e-05   -2.7072620288977247e-06   -3.98625435063223e-06
2.108011465885654e-05   -2.7072620288977247e-06   -3.98625435063223e-06
2.108011465885654e-05   -2.7072620288977247e-06   -3.98625435063223e-06
2.108011465885654e-05   -2.7072620288977247e-06   -3.98625435063223e-06
1.4567415490614258e-05   -3.123665341971029e-06   7.118086250948954e-06
1.4567415490614258e-05   -3.123665341971029e-06   7.118086250948954e-06
1.4567415490614258e-05   -3.123665341971029e-06   7.118086250948954e-06
1.4567415490614258e-05   -3.123665341971029e-06   7.118086250948954e-06
1.0371469186798868e-05   -1.7934603014062994e-08   3.094021822466048e-05
1.0371469186798868e-05   -1.7934603014062994e-08   3.094021822466048e-05
1.0371469186798868e-05   -1.7934603014062994e-08   3.094021822466048e-05
1.0371469186798868e-05   -1.7934603014062994e-08   3.094021822466048e-05
-3.3472273395621267e-06   8.169850290585916e-07   8.576675793302551e-06
-3.3472273395621267e-06   8.169850290585916e-07   8.576675793302551e-06
-3.3472273395621267e-06   8.169850290585916e-07   8.576675793302551e-06
-3.3472273395621267e-06   8.169850290585916e-07   8.576675793302551e-06
-3.943368034108912e-06   -6.190294343166262e-07   3.099914746683961e-05
-3.943368034108912e-06   -6.190294343166262e-07   3.099914746683961e-05
-3.943368034108912e-06   -6.190294343166262e-07   3.099914746683961e-05
-3.943368034108912e-06   -6.190294343166262e-07   3.099914746683961e-05
9.72274978076227e-06   1.9094864028195227e-07   7.736297597295306e-06
9.72274978076227e-06   1.9094864028195227e-07   7.736297597295306e-06
9.72274978076227e-06   1.9094864028195227e-07   7.736297597295306e-06
9.72274978076227e-06   1.9094864028195227e-07   7.736297597295306e-06
3.1030663205026605e-06   3.891528271350066e-08   1.8860323378936224e-05
3.1030663205026605e-06   3.891528271350066e-08   1.8860323378936224e-05
3.1030663205026605e-06   3.891528271350066e-08   1.8860323378936224e-05
3.1030663205026605e-06   3.891528271350066e-08   1.8860323378936224e-05
9.7227497807623e-06   -6.190294343166262e-07   3.051316062208033e-05
9.7227497807623e-06   -6.190294343166262e-07   3.051316062208033e-05
9.7227497807623e-06   -6.190294343166262e-07   3.051316062208033e-05
9.7227497807623e-06   -6.190294343166262e-07   3.051316062208033e-05
-3.943368034108898e-06   1.9094864028195227e-07   8.22228444205444e-06
-3.943368034108898e-06   1.9094864028195227e-07   8.22228444205444e-06
-3.943368034108898e-06   1.9094864028195227e-07   8.22228444205444e-06
-3.943368034108898e-06   1.9094864028195227e-07   8.22228444205444e-06
-4.552907476709222e-06   -1.0926355956139642e-06   3.062788075545238e-05
-4.552907476709222e-06   -1.0926355956139642e-06   3.062788075545238e-05
-4.552907476709222e-06   -1.0926355956139642e-06   3.062788075545238e-05
-4.552907476709222e-06   -1.0926355956139642e-06   3.062788075545238e-05
8.994010573777214e-06   -3.2113820092050105e-07   7.586785567825598e-06
8.994010573777214e-06   -3.2113820092050105e-07   7.586785567825598e-06
8.994010573777214e-06   -3.2113820092050105e-07   7.586785567825598e-06
8.994010573777214e-06   -3.2113820092050105e-07   7.586785567825598e-06
2.447508932755531e-06   -3.785317947348644e-07   1.853205779248478e-05
2.447508932755531e-06   -3.785317947348644e-07   1.853205779248478e-05
2.447508932755531e-06   -3.785317947348644e-07   1.853205779248478e-05
2.447508932755531e-06   -3.785317947348644e-07   1.853205779248478e-05
8.994010573777238e-06   -1.0926355956139642e-06   3.016498231863643e-05
8.994010573777238e-06   -1.0926355956139642e-06   3.016498231863643e-05
8.994010573777238e-06   -1.0926355956139642e-06   3.016498231863643e-05
8.994010573777238e-06   -1.0926355956139642e-06   3.016498231863643e-05
-4.552907476709222e-06   -3.2113820092050105e-07   8.049684004641762e-06
-4.552907476709222e-06   -3.2113820092050105e-07   8.049684004641762e-06
-4.552907476709222e-06   -3.2113820092050105e-07   8.049684004641762e-06
-4.552907476709222e-06   -3.2113820092050105e-07   8.049684004641762e-06
-5.157347785729325e-06   -1.531007830680043e-06   3.0905824877846275e-05
-5.157347785729325e-06   -1.531007830680043e-06   3.0905824877846275e-05
-5.157347785729325e-06   -1.531007830680043e-06   3.0905824877846275e-05
-5.157347785729325e-06   -1.531007830680043e-06   3.0905824877846275e-05
8.340715166141708e-06   -8.255503406190846e-07   7.985778797357989e-06
8.340715166141708e-06   -8.255503406190846e-07   7.985778797357989e-06
8.340715166141708e-06   -8.255503406190846e-07   7.985778797357989e-06
8.340715166141708e-06   -8.255503406190846e-07   7.985778797357989e-06
1.9298132791116137e-06   -7.263470390489121e-07   1.8611093294799324e-05
1.9298132791116137e-06   -7.263470390489121e-07   1.8611093294799324e-05
1.9298132791116137e-06   -7.263470390489121e-07   1.8611093294799324e-05
1.9298132791116137e-06   -7.263470390489121e-07   1.8611093294799324e-05
-3.3472273395621267e-06   3.1281785165396866e-06   3.3573007187475724e-05
-3.3472273395621267e-06   3.1281785165396866e-06   3.3573007187475724e-05
-3.3472273395621267e-06   3.1281785165396866e-06   3.3573007187475724e-05
-3.3472273395621267e-06   3.1281785165396866e-06   3.3573007187475724e-05
-1.683948026834402e-05   3.0790047849801536e-06   1.1056414733903643e-05
-1.683948026834402e-05   3.0790047849801536e-06   1.1056414733903643e-05
-1.683948026834402e-05   3.0790047849801536e-06   1.1056414733903643e-05
-1.683948026834402e-05   3.0790047849801536e-06   1.1056414733903643e-05
-1.7427684155734406e-05   2.600235786780463e-06   3.3353923394335025e-05
-1.7427684155734406e-05   2.600235786780463e-06   3.3353923394335025e-05
-1.7427684155734406e-05   2.600235786780463e-06   3.3353923394335025e-05
-1.7427684155734406e-05   2.600235786780463e-06   3.3353923394335025e-05
-3.943368034108898e-06   2.5103267329558508e-06   1.0934008623920819e-05
-3.943368034108898e-06   2.5103267329558508e-06   1.0934008623920819e-05
-3.943368034108898e-06   2.5103267329558508e-06   1.0934008623920819e-05
-3.943368034108898e-06   2.5103267329558508e-06   1.0934008623920819e-05
-1.0415374750624996e-05   2.759190110090178e-06   2.1571368458500975e-05
-1.0415374750624996e-05   2.759190110090178e-06   2.1571368458500975e-05
-1.0415374750624996e-05   2.759190110090178e-06   2.1571368458500975e-05
-1.0415374750624996e-05   2.759190110090178e-06   2.1571368458500975e-05
-3.943368034108912e-06   2.600235786780246e-06   3.3407868826629836e-05
-3.943368034108912e-06   2.600235786780246e-06   3.3407868826629836e-05
-3.943368034108912e-06   2.600235786780246e-06   3.3407868826629836e-05
-3.943368034108912e-06   2.600235786780246e-06   3.3407868826629836e-05
-1.7427684155734406e-05   2.5103267329558508e-06   1.0880063191625981e-05
-1.7427684155734406e-05   2.5103267329558508e-06   1.0880063191625981e-05
-1.7427684155734406e-05   2.5103267329558508e-06   1.0880063191625981e-05
-1.7427684155734406e-05   2.5103267329558508e-06   1.0880063191625981e-05
-1.8030011248104785e-05   2.0806828521541688e-06   3.3524057925384595e-05
-1.8030011248104785e-05   2.0806828521541688e-06   3.3524057925384595e-05
-1.8030011248104785e-05   2.0806828521541688e-06   3.3524057925384595e-05
-1.8030011248104785e-05   2.0806828521541688e-06   3.3524057925384595e-05
-4.552907476709222e-06   1.9481782230568526e-06   1.1141721083850474e-05
-4.552907476709222e-06   1.9481782230568526e-06   1.1141721083850474e-05
-4.552907476709222e-06   1.9481782230568526e-06   1.1141721083850474e-05
-4.552907476709222e-06   1.9481782230568526e-06   1.1141721083850474e-05
-1.0954014284097773e-05   2.346518687849474e-06   2.1571228150623083e-05
-1.0954014284097773e-05   2.346518687849474e-06   2.1571228150623083e-05
-1.0954014284097773e-05   2.346518687849474e-06   2.1571228150623083e-05
-1.0954014284097773e-05   2.346518687849474e-06   2.1571228150623083e-05
-4.552907476709222e-06   2.0806828521541688e-06   3.3603560702842985e-05
-4.552907476709222e-06   2.0806828521541688e-06   3.3603560702842985e-05
-4.552907476709222e-06   2.0806828521541688e-06   3.3603560702842985e-05
-4.552907476709222e-06   2.0806828521541688e-06   3.3603560702842985e-05
-1.8030011248104785e-05   1.9481782230568526e-06   1.106221830639222e-05
-1.8030011248104785e-05   1.9481782230568526e-06   1.106221830639222e-05
-1.8030011248104785e-05   1.9481782230568526e-06   1.106221830639222e-05
-1.8030011248104785e-05   1.9481782230568526e-06   1.106221830639222e-05
-1.862530290883631e-05   1.5876881862076156e-06   3.3973659187009524e-05
-1.862530290883631e-05   1.5876881862076156e-06   3.3973659187009524e-05
-1.862530290883631e-05   1.5876881862076156e-06   3.3973659187009524e-05
-1.862530290883631e-05   1.5876881862076156e-06   3.3973659187009524e-05
-5.157347785729311e-06   1.4070084183377858e-06   1.1635475175886451e-05
-5.157347785729311e-06   1.4070084183377858e-06   1.1635475175886451e-05
-5.157347785729311e-06   1.4070084183377858e-06   1.1635475175886451e-05
-5.157347785729311e-06   1.4070084183377858e-06   1.1635475175886451e-05
-1.151745464093678e-05   1.9435716119974456e-06   2.1913715351703036e-05
-1.151745464093678e-05   1.9435716119974456e-06   2.1913715351703036e-05
-1.151745464093678e-05   1.9435716119974456e-06   2.1913715351703036e-05
-1.151745464093678e-05   1.9435716119974456e-06   2.1913715351703036e-05
-1.683948026834402e-05   6.156104723002839e-06   2.9695092807633045e-05
-1.683948026834402e-05   6.156104723002839e-06   2.9695092807633045e-05
-1.683948026834402e-05   6.156104723002839e-06   2.9695092807633045e-05
-1.683948026834402e-05   6.156104723002839e-06   2.9695092807633045e-05
-3.0106183145842363e-05   5.2797310352240695e-06   7.058097132468192e-06
-3.0106183145842363e-05   5.2797310352240695e-06   7.058097132468192e-06
-3.0106183145842363e-05   5.2797310352240695e-06   7.058097132468192e-06
-3.0106183145842363e-05   5.2797310352240695e-06   7.058097132468192e-06
-3.073720458969043e-05   5.65068653609886e-06   2.930252016887123e-05
-3.073720458969043e-05   5.65068653609886e-06   2.930252016887123e-05
-3.073720458969043e-05   5.65068653609886e-06   2.930252016887123e-05
-3.073720458969043e-05   5.65068653609886e-06   2.930252016887123e-05
-1.742768415573435e-05   4.7243209956068354e-06   7.67580543657335e-06
-1.742768415573435e-05   4.7243209956068354e-06   7.67580543657335e-06
-1.742768415573435e-05   4.7243209956068354e-06   7.67580543657335e-06
-1.742768415573435e-05   4.7243209956068354e-06   7.67580543657335e-06
-2.371041356007234e-05   5.359782683514707e-06   1.7765744097725917e-05
-2.371041356007234e-05   5.359782683514707e-06   1.7765744097725917e-05
-2.371041356007234e-05   5.359782683514707e-06   1.7765744097725917e-05
-2.371041356007234e-05   5.359782683514707e-06   1.7765744097725917e-05
-1.7427684155734406e-05   5.650686536099077e-06   2.9858339493166663e-05
-1.7427684155734406e-05   5.650686536099077e-06   2.9858339493166663e-05
-1.7427684155734406e-05   5.650686536099077e-06   2.9858339493166663e-05
-1.7427684155734406e-05   5.650686536099077e-06   2.9858339493166663e-05
-3.073720458969038e-05   4.7243209956068354e-06   7.119986112278189e-06
-3.073720458969038e-05   4.7243209956068354e-06   7.119986112278189e-06
-3.073720458969038e-05   4.7243209956068354e-06   7.119986112278189e-06
-3.073720458969038e-05   4.7243209956068354e-06   7.119986112278189e-06
-3.144731275346699e-05   5.1795874065948405e-06   3.030545378937934e-05
-3.144731275346699e-05   5.1795874065948405e-06   3.030545378937934e-05
-3.144731275346699e-05   5.1795874065948405e-06   3.030545378937934e-05
-3.144731275346699e-05   5.1795874065948405e-06   3.030545378937934e-05
-1.803001124810473e-05   4.2102732988385724e-06   8.524873078429582e-06
-1.803001124810473e-05   4.2102732988385724e-06   8.524873078429582e-06
-1.803001124810473e-05   4.2102732988385724e-06   8.524873078429582e-06
-1.803001124810473e-05   4.2102732988385724e-06   8.524873078429582e-06
-2.4147252628646543e-05   4.981493812763506e-06   1.825754307097809e-05
-2.4147252628646543e-05   4.981493812763506e-06   1.825754307097809e-05
-2.4147252628646543e-05   4.981493812763506e-06   1.825754307097809e-05
-2.4147252628646543e-05   4.981493812763506e-06   1.825754307097809e-05
-1.8030011248104758e-05   5.1795874065948405e-06   3.0887042254032797e-05
-1.8030011248104758e-05   5.1795874065948405e-06   3.0887042254032797e-05
-1.8030011248104758e-05   5.1795874065948405e-06   3.0887042254032797e-05
-1.8030011248104758e-05   5.1795874065948405e-06   3.0887042254032797e-05
-3.1447312753466936e-05   4.2102732988385724e-06   7.943284613775746e-06
-3.1447312753466936e-05   4.2102732988385724e-06   7.943284613775746e-06
-3.1447312753466936e-05   4.2102732988385724e-06   7.943284613775746e-06
-3.1447312753466936e-05   4.2102732988385724e-06   7.943284613775746e-06
-3.207856647171979e-05   4.630828446034255e-06   3.11511932505463e-05
-3.207856647171979e-05   4.630828446034255e-06   3.11511932505463e-05
-3.207856647171979e-05   4.630828446034255e-06   3.11511932505463e-05
-3.207856647171979e-05   4.630828446034255e-06   3.11511932505463e-05
-1.8625302908836257e-05   3.635507959250713e-06   9.326279604477306e-06
-1.8625302908836257e-05   3.635507959250713e-06   9.326279604477306e-06
-1.8625302908836257e-05   3.635507959250713e-06   9.326279604477306e-06
-1.8625302908836257e-05   3.635507959250713e-06   9.326279604477306e-06
-2.4859115699988585e-05   4.583186090287555e-06   1.9147360711109322e-05
-2.4859115699988585e-05   4.583186090287555e-06   1.9147360711109322e-05
-2.4859115699988585e-05   4.583186090287555e-06   1.9147360711109322e-05
-2.4859115699988585e-05   4.583186090287555e-06   1.9147360711109322e-05
-3.0106183145842363e-05   8.4863251518122e-06   1.4269414617271853e-05
-3.0106183145842363e-05   8.4863251518122e-06   1.4269414617271853e-05
-3.0106183145842363e-05   8.4863251518122e-06   1.4269414617271853e-05
-3.0106183145842363e-05   8.4863251518122e-06   1.4269414617271853e-05
-4.254897764636951e-05   6.92725529624909e-06   -7.404018130277958e-06
-4.254897764636951e-05   6.92725529624909e-06   -7.404018130277958e-06
-4.254897764636951e-05   6.92725529624909e-06   -7.404018130277958e-06
-4.254897764636951e-05   6.92725529624909e-06   -7.404018130277958e-06
-4.386858473327446e-05   8.444535540914379e-06   1.8298982321661873e-05
-4.386858473327446e-05   8.444535540914379e-06   1.8298982321661873e-05
-4.386858473327446e-05   8.444535540914379e-06   1.8298982321661873e-05
-4.386858473327446e-05   8.444535540914379e-06   1.8298982321661873e-05
-3.073720458969032e-05   6.7493811514586066e-06   -2.5695586173047117e-06
-3.073720458969032e-05   6.7493811514586066e-06   -2.5695586173047117e-06
-3.073720458969032e-05   6.7493811514586066e-06   -2.5695586173047117e-06
-3.073720458969032e-05   6.7493811514586066e-06   -2.5695586173047117e-06
-3.543543244136625e-05   7.512427049488537e-06   4.802993596671017e-06
-3.543543244136625e-05   7.512427049488537e-06   4.802993596671017e-06
-3.543543244136625e-05   7.512427049488537e-06   4.802993596671017e-06
-3.543543244136625e-05   7.512427049488537e-06   4.802993596671017e-06
-3.073720458969038e-05   8.444535540914379e-06   1.931607495533525e-05
-3.073720458969038e-05   8.444535540914379e-06   1.931607495533525e-05
-3.073720458969038e-05   8.444535540914379e-06   1.931607495533525e-05
-3.073720458969038e-05   8.444535540914379e-06   1.931607495533525e-05
-4.3868584733274517e-05   6.7493811514586066e-06   -3.586651250978034e-06
-4.3868584733274517e-05   6.7493811514586066e-06   -3.586651250978034e-06
-4.3868584733274517e-05   6.7493811514586066e-06   -3.586651250978034e-06
-4.3868584733274517e-05   6.7493811514586066e-06   -3.586651250978034e-06
-4.501976694047319e-05   8.272665784475868e-06   2.1790399712829072e-05
-4.501976694047319e-05   8.272665784475868e-06   2.1790399712829072e-05
-4.501976694047319e-05   8.272665784475868e-06   2.1790399712829072e-05
-4.501976694047319e-05   8.272665784475868e-06   2.1790399712829072e-05
-3.144731275346688e-05   6.53143145609757e-06   2.1438333151232005e-07
-3.144731275346688e-05   6.53143145609757e-06   2.1438333151232005e-07
-3.144731275346688e-05   6.53143145609757e-06   2.1438333151232005e-07
-3.144731275346688e-05   6.53143145609757e-06   2.1438333151232005e-07
-3.683340041892366e-05   7.517523110168751e-06   8.599541114832497e-06
-3.683340041892366e-05   7.517523110168751e-06   8.599541114832497e-06
-3.683340041892366e-05   7.517523110168751e-06   8.599541114832497e-06
-3.683340041892366e-05   7.517523110168751e-06   8.599541114832497e-06
-3.1447312753466936e-05   8.272665784475651e-06   2.2835140309855877e-05
-3.1447312753466936e-05   8.272665784475651e-06   2.2835140309855877e-05
-3.1447312753466936e-05   8.272665784475651e-06   2.2835140309855877e-05
-3.1447312753466936e-05   8.272665784475651e-06   2.2835140309855877e-05
-4.5019766940473244e-05   6.53143145609757e-06   -8.303572655146479e-07
-4.5019766940473244e-05   6.53143145609757e-06   -8.303572655146479e-07
-4.5019766940473244e-05   6.53143145609757e-06   -8.303572655146479e-07
-4.5019766940473244e-05   6.53143145609757e-06   -8.303572655146479e-07
-4.635500349292615e-05   7.5140038435683905e-06   2.7857168169137525e-05
-4.635500349292615e-05   7.5140038435683905e-06   2.7857168169137525e-05
-4.635500349292615e-05   7.5140038435683905e-06   2.7857168169137525e-05
-4.635500349292615e-05   7.5140038435683905e-06   2.7857168169137525e-05
-3.207856647171963e-05   5.799633491709085e-06   5.091728678242294e-06
-3.207856647171963e-05   5.799633491709085e-06   5.091728678242294e-06
-3.207856647171963e-05   5.799633491709085e-06   5.091728678242294e-06
-3.207856647171963e-05   5.799633491709085e-06   5.091728678242294e-06
-3.7144511780503984e-05   7.1987848559440515e-06   1.269548004100853e-05
-3.7144511780503984e-05   7.1987848559440515e-06   1.269548004100853e-05
-3.7144511780503984e-05   7.1987848559440515e-06   1.269548004100853e-05
-3.7144511780503984e-05   7.1987848559440515e-06   1.269548004100853e-05
1.3898173852126361e-05   -1.5948805292184936e-06   1.9712459436974647e-05
1.3898173852126361e-05   -1.5948805292184936e-06   1.9712459436974647e-05
1.3898173852126361e-05   -1.5948805292184936e-06   1.9712459436974647e-05
1.3898173852126361e-05   -1.5948805292184936e-06   1.9712459436974647e-05
3.641431490159007e-06   3.2880621343928454e-08   3.5945455240332744e-06
3.641431490159007e-06   3.2880621343928454e-08   3.5945455240332744e-06
3.641431490159007e-06   3.2880621343928454e-08   3.5945455240332744e-06
3.641431490159007e-06   3.2880621343928454e-08   3.5945455240332744e-06
3.1559018396632464e-06   -2.2134960560654064e-06   1.8376647694508664e-05
3.1559018396632464e-06   -2.2134960560654064e-06   1.8376647694508664e-05
3.1559018396632464e-06   -2.2134960560654064e-06   1.8376647694508664e-05
3.1559018396632464e-06   -2.2134960560654064e-06   1.8376647694508664e-05
1.2697825535864024e-05   -5.216239628833864e-07   1.4583182782655039e-06
1.2697825535864024e-05   -5.216239628833864e-07   1.4583182782655039e-06
1.2697825535864024e-05   -5.216239628833864e-07   1.4583182782655039e-06
1.2697825535864024e-05   -5.216239628833864e-07   1.4583182782655039e-06
7.855783501683278e-06   -1.1527693441078755e-06   9.907075563968608e-06
7.855783501683278e-06   -1.1527693441078755e-06   9.907075563968608e-06
7.855783501683278e-06   -1.1527693441078755e-06   9.907075563968608e-06
7.855783501683278e-06   -1.1527693441078755e-06   9.907075563968608e-06
1.2697825535864038e-05   -2.2134960560649727e-06   1.7361524438599995e-05
1.2697825535864038e-05   -2.2134960560649727e-06   1.7361524438599995e-05
1.2697825535864038e-05   -2.2134960560649727e-06   1.7361524438599995e-05
1.2697825535864038e-05   -2.2134960560649727e-06   1.7361524438599995e-05
3.1559018396632396e-06   -5.216239628833864e-07   2.4734415341743634e-06
3.1559018396632396e-06   -5.216239628833864e-07   2.4734415341743634e-06
3.1559018396632396e-06   -5.216239628833864e-07   2.4734415341743634e-06
3.1559018396632396e-06   -5.216239628833864e-07   2.4734415341743634e-06
2.5899623620283157e-06   -2.4263264120311188e-06   1.7245685402656006e-05
2.5899623620283157e-06   -2.4263264120311188e-06   1.7245685402656006e-05
2.5899623620283157e-06   -2.4263264120311188e-06   1.7245685402656006e-05
2.5899623620283157e-06   -2.4263264120311188e-06   1.7245685402656006e-05
1.1681398052817675e-05   -7.605326599663051e-07   1.0938163334349839e-06
1.1681398052817675e-05   -7.605326599663051e-07   1.0938163334349839e-06
1.1681398052817675e-05   -7.605326599663051e-07   1.0938163334349839e-06
1.1681398052817675e-05   -7.605326599663051e-07   1.0938163334349839e-06
7.276112884542032e-06   -1.3948296962119563e-06   8.81653650230854e-06
7.276112884542032e-06   -1.3948296962119563e-06   8.81653650230854e-06
7.276112884542032e-06   -1.3948296962119563e-06   8.81653650230854e-06
7.276112884542032e-06   -1.3948296962119563e-06   8.81653650230854e-06
1.1681398052817703e-05   -2.4263264120311188e-06   1.624620915141714e-05
1.1681398052817703e-05   -2.4263264120311188e-06   1.624620915141714e-05
1.1681398052817703e-05   -2.4263264120311188e-06   1.624620915141714e-05
1.1681398052817703e-05   -2.4263264120311188e-06   1.624620915141714e-05
2.5899623620283055e-06   -7.605326599663051e-07   2.0932925846738233e-06
2.5899623620283055e-06   -7.605326599663051e-07   2.0932925846738233e-06
2.5899623620283055e-06   -7.605326599663051e-07   2.0932925846738233e-06
2.5899623620283055e-06   -7.605326599663051e-07   2.0932925846738233e-06
2.0995755056336185e-06   -2.7072620288977247e-06   1.5937602717910242e-05
2.0995755056336185e-06   -2.7072620288977247e-06   1.5937602717910242e-05
2.0995755056336185e-06   -2.7072620288977247e-06   1.5937602717910242e-05
2.0995755056336185e-06   -2.7072620288977247e-06   1.5937602717910242e-05
1.0491010217228802e-05   -1.1581635170837892e-06   1.0224190914967675e-06
1.0491010217228802e-05   -1.1581635170837892e-06   1.0224190914967675e-06
1.0491010217228802e-05   -1.1581635170837892e-06   1.0224190914967675e-06
1.0491010217228802e-05   -1.1581635170837892e-06   1.0224190914967675e-06
6.420839653523012e-06   -1.5193908992118272e-06   8.022773126950276e-06
6.420839653523012e-06   -1.5193908992118272e-06   8.022773126950276e-06
6.420839653523012e-06   -1.5193908992118272e-06   8.022773126950276e-06
6.420839653523012e-06   -1.5193908992118272e-06   8.022773126950276e-06
3.6414314901590136e-06   8.169850290585916e-07   2.7106659709487933e-05
3.6414314901590136e-06   8.169850290585916e-07   2.7106659709487933e-05
3.6414314901590136e-06   8.169850290585916e-07   2.7106659709487933e-05
3.6414314901590136e-06   8.169850290585916e-07   2.7106659709487933e-05
-5.701682205685096e-06   1.5543856619493895e-06   1.1977243929482228e-05
-5.701682205685096e-06   1.5543856619493895e-06   1.1977243929482228e-05
-5.701682205685096e-06   1.5543856619493895e-06   1.1977243929482228e-05
-5.701682205685096e-06   1.5543856619493895e-06   1.1977243929482228e-05
-6.128256124563052e-06   1.909486402821691e-07   2.719163245268482e-05
-6.128256124563052e-06   1.909486402821691e-07   2.719163245268482e-05
-6.128256124563052e-06   1.909486402821691e-07   2.719163245268482e-05
-6.128256124563052e-06   1.909486402821691e-07   2.719163245268482e-05
3.1559018396632396e-06   9.280203552043675e-07   1.1275792816687805e-05
3.1559018396632396e-06   9.280203552043675e-07   1.1275792816687805e-05
3.1559018396632396e-06   9.280203552043675e-07   1.1275792816687805e-05
3.1559018396632396e-06   9.280203552043675e-07   1.1275792816687805e-05
-1.3281072172994256e-06   8.10041065384343e-07   1.8819928818851825e-05
-1.3281072172994256e-06   8.10041065384343e-07   1.8819928818851825e-05
-1.3281072172994256e-06   8.10041065384343e-07   1.8819928818851825e-05
-1.3281072172994256e-06   8.10041065384343e-07   1.8819928818851825e-05
3.1559018396632396e-06   1.9094864028195227e-07   2.674938942373139e-05
3.1559018396632396e-06   1.9094864028195227e-07   2.674938942373139e-05
3.1559018396632396e-06   1.9094864028195227e-07   2.674938942373139e-05
3.1559018396632396e-06   1.9094864028195227e-07   2.674938942373139e-05
-6.128256124563052e-06   9.280203552043675e-07   1.1718035845641314e-05
-6.128256124563052e-06   9.280203552043675e-07   1.1718035845641314e-05
-6.128256124563052e-06   9.280203552043675e-07   1.1718035845641314e-05
-6.128256124563052e-06   9.280203552043675e-07   1.1718035845641314e-05
-6.567306601106923e-06   -3.2113820092050105e-07   2.7016081803739713e-05
-6.567306601106923e-06   -3.2113820092050105e-07   2.7016081803739713e-05
-6.567306601106923e-06   -3.2113820092050105e-07   2.7016081803739713e-05
-6.567306601106923e-06   -3.2113820092050105e-07   2.7016081803739713e-05
2.5899623620283055e-06   3.973488781506152e-07   1.1322874617738217e-05
2.5899623620283055e-06   3.973488781506152e-07   1.1322874617738217e-05
2.5899623620283055e-06   3.973488781506152e-07   1.1322874617738217e-05
2.5899623620283055e-06   3.973488781506152e-07   1.1322874617738217e-05
-1.7835147178004672e-06   3.7329425046136316e-07   1.862643586073339e-05
-1.7835147178004672e-06   3.7329425046136316e-07   1.862643586073339e-05
-1.7835147178004672e-06   3.7329425046136316e-07   1.862643586073339e-05
-1.7835147178004672e-06   3.7329425046136316e-07   1.862643586073339e-05
2.5899623620283157e-06   -3.2113820092050105e-07   2.658498955629689e-05
2.5899623620283157e-06   -3.2113820092050105e-07   2.658498955629689e-05
2.5899623620283157e-06   -3.2113820092050105e-07   2.658498955629689e-05
2.5899623620283157e-06   -3.2113820092050105e-07   2.658498955629689e-05
-6.5673066011069365e-06   3.973488781503984e-07   1.1753966865180997e-05
-6.5673066011069365e-06   3.973488781503984e-07   1.1753966865180997e-05
-6.5673066011069365e-06   3.973488781503984e-07   1.1753966865180997e-05
-6.5673066011069365e-06   3.973488781503984e-07   1.1753966865180997e-05
-6.999829741749625e-06   -8.255503406190846e-07   2.7370578274168436e-05
-6.999829741749625e-06   -8.255503406190846e-07   2.7370578274168436e-05
-6.999829741749625e-06   -8.255503406190846e-07   2.7370578274168436e-05
-6.999829741749625e-06   -8.255503406190846e-07   2.7370578274168436e-05
2.099575505633615e-06   -1.4474555902347155e-07   1.1796419992906163e-05
2.099575505633615e-06   -1.4474555902347155e-07   1.1796419992906163e-05
2.099575505633615e-06   -1.4474555902347155e-07   1.1796419992906163e-05
2.099575505633615e-06   -1.4474555902347155e-07   1.1796419992906163e-05
-2.169024255465311e-06   -1.8435434752123864e-08   1.883496685350831e-05
-2.169024255465311e-06   -1.8435434752123864e-08   1.883496685350831e-05
-2.169024255465311e-06   -1.8435434752123864e-08   1.883496685350831e-05
-2.169024255465311e-06   -1.8435434752123864e-08   1.883496685350831e-05
-5.701682205685096e-06   3.0790047849801536e-06   3.0058343268759245e-05
-5.701682205685096e-06   3.0790047849801536e-06   3.0058343268759245e-05
-5.701682205685096e-06   3.0790047849801536e-06   3.0058343268759245e-05
-5.701682205685096e-06   3.0790047849801536e-06   3.0058343268759245e-05
-1.4885816419053528e-05   2.9030401993612644e-06   1.4645874161773871e-05
-1.4885816419053528e-05   2.9030401993612644e-06   1.4645874161773871e-05
-1.4885816419053528e-05   2.9030401993612644e-06   1.4645874161773871e-05
-1.4885816419053528e-05   2.9030401993612644e-06   1.4645874161773871e-05
-1.529515103106978e-05   2.510326732955634e-06   2.979261119356912e-05
-1.529515103106978e-05   2.510326732955634e-06   2.979261119356912e-05
-1.529515103106978e-05   2.510326732955634e-06   2.979261119356912e-05
-1.529515103106978e-05   2.510326732955634e-06   2.979261119356912e-05
-6.128256124563025e-06   2.325750997985007e-06   1.462519845704045e-05
-6.128256124563025e-06   2.325750997985007e-06   1.462519845704045e-05
-6.128256124563025e-06   2.325750997985007e-06   1.462519845704045e-05
-6.128256124563025e-06   2.325750997985007e-06   1.462519845704045e-05
-1.0522367217775954e-05   2.639751805751144e-06   2.176031646106987e-05
-1.0522367217775954e-05   2.639751805751144e-06   2.176031646106987e-05
-1.0522367217775954e-05   2.639751805751144e-06   2.176031646106987e-05
-1.0522367217775954e-05   2.639751805751144e-06   2.176031646106987e-05
-6.128256124563052e-06   2.510326732955634e-06   2.9903356634551495e-05
-6.128256124563052e-06   2.510326732955634e-06   2.9903356634551495e-05
-6.128256124563052e-06   2.510326732955634e-06   2.9903356634551495e-05
-6.128256124563052e-06   2.510326732955634e-06   2.9903356634551495e-05
-1.5295151031069753e-05   2.325750997985007e-06   1.451445301605802e-05
-1.5295151031069753e-05   2.325750997985007e-06   1.451445301605802e-05
-1.5295151031069753e-05   2.325750997985007e-06   1.451445301605802e-05
-1.5295151031069753e-05   2.325750997985007e-06   1.451445301605802e-05
-1.571789073399031e-05   1.9481782230570694e-06   2.9990065668795626e-05
-1.571789073399031e-05   1.9481782230570694e-06   2.9990065668795626e-05
-1.571789073399031e-05   1.9481782230570694e-06   2.9990065668795626e-05
-1.571789073399031e-05   1.9481782230570694e-06   2.9990065668795626e-05
-6.5673066011069094e-06   1.7514228661354766e-06   1.4857145328142895e-05
-6.5673066011069094e-06   1.7514228661354766e-06   1.4857145328142895e-05
-6.5673066011069094e-06   1.7514228661354766e-06   1.4857145328142895e-05
-6.5673066011069094e-06   1.7514228661354766e-06   1.4857145328142895e-05
-1.0886791897152626e-05   2.2007279728650936e-06   2.1786704424181188e-05
-1.0886791897152626e-05   2.2007279728650936e-06   2.1786704424181188e-05
-1.0886791897152626e-05   2.2007279728650936e-06   2.1786704424181188e-05
-1.0886791897152626e-05   2.2007279728650936e-06   2.1786704424181188e-05
-6.5673066011069365e-06   1.9481782230570694e-06   3.0108118882948343e-05
-6.5673066011069365e-06   1.9481782230570694e-06   3.0108118882948343e-05
-6.5673066011069365e-06   1.9481782230570694e-06   3.0108118882948343e-05
-6.5673066011069365e-06   1.9481782230570694e-06   3.0108118882948343e-05
-1.571789073399028e-05   1.7514228661354766e-06   1.4739092113989988e-05
-1.571789073399028e-05   1.7514228661354766e-06   1.4739092113989988e-05
-1.571789073399028e-05   1.7514228661354766e-06   1.4739092113989988e-05
-1.571789073399028e-05   1.7514228661354766e-06   1.4739092113989988e-05
-1.6134017166501705e-05   1.4070084183377858e-06   3.0473713959423745e-05
-1.6134017166501705e-05   1.4070084183377858e-06   3.0473713959423745e-05
-1.6134017166501705e-05   1.4070084183377858e-06   3.0473713959423745e-05
-1.6134017166501705e-05   1.4070084183377858e-06   3.0473713959423745e-05
-6.999829741749625e-06   1.2015314196100763e-06   1.5373354450740436e-05
-6.999829741749625e-06   1.2015314196100763e-06   1.5373354450740436e-05
-6.999829741749625e-06   1.2015314196100763e-06   1.5373354450740436e-05
-6.999829741749625e-06   1.2015314196100763e-06   1.5373354450740436e-05
-1.127443700782404e-05   1.7705201178154668e-06   2.215630667527492e-05
-1.127443700782404e-05   1.7705201178154668e-06   2.215630667527492e-05
-1.127443700782404e-05   1.7705201178154668e-06   2.215630667527492e-05
-1.127443700782404e-05   1.7705201178154668e-06   2.215630667527492e-05
-1.4885816419053528e-05   5.2797310352240695e-06   2.648027112861983e-05
-1.4885816419053528e-05   5.2797310352240695e-06   2.648027112861983e-05
-1.4885816419053528e-05   5.2797310352240695e-06   2.648027112861983e-05
-1.4885816419053528e-05   5.2797310352240695e-06   2.648027112861983e-05
-2.3903764600923785e-05   4.313393901602021e-06   1.0870555211996396e-05
-2.3903764600923785e-05   4.313393901602021e-06   1.0870555211996396e-05
-2.3903764600923785e-05   4.313393901602021e-06   1.0870555211996396e-05
-2.3903764600923785e-05   4.313393901602021e-06   1.0870555211996396e-05
-2.4349972579774644e-05   4.7243209956068354e-06   2.5992527654172164e-05
-2.4349972579774644e-05   4.7243209956068354e-06   2.5992527654172164e-05
-2.4349972579774644e-05   4.7243209956068354e-06   2.5992527654172164e-05
-2.4349972579774644e-05   4.7243209956068354e-06   2.5992527654172164e-05
-1.5295151031069726e-05   3.731278021700153e-06   1.1496984190675083e-05
-1.5295151031069726e-05   3.731278021700153e-06   1.1496984190675083e-05
-1.5295151031069726e-05   3.731278021700153e-06   1.1496984190675083e-05
-1.5295151031069726e-05   3.731278021700153e-06   1.1496984190675083e-05
-1.9561374408698026e-05   4.438572868054914e-06   1.8182979578910497e-05
-1.9561374408698026e-05   4.438572868054914e-06   1.8182979578910497e-05
-1.9561374408698026e-05   4.438572868054914e-06   1.8182979578910497e-05
-1.9561374408698026e-05   4.438572868054914e-06   1.8182979578910497e-05
-1.529515103106978e-05   4.7243209956068354e-06   2.6588353438516434e-05
-1.529515103106978e-05   4.7243209956068354e-06   2.6588353438516434e-05
-1.529515103106978e-05   4.7243209956068354e-06   2.6588353438516434e-05
-1.529515103106978e-05   4.7243209956068354e-06   2.6588353438516434e-05
-2.434997257977459e-05   3.73127802170037e-06   1.0901158406331139e-05
-2.434997257977459e-05   3.73127802170037e-06   1.0901158406331139e-05
-2.434997257977459e-05   3.73127802170037e-06   1.0901158406331139e-05
-2.434997257977459e-05   3.73127802170037e-06   1.0901158406331139e-05
-2.4878359467525124e-05   4.210273298838356e-06   2.6847727880615572e-05
-2.4878359467525124e-05   4.210273298838356e-06   2.6847727880615572e-05
-2.4878359467525124e-05   4.210273298838356e-06   2.6847727880615572e-05
-2.4878359467525124e-05   4.210273298838356e-06   2.6847727880615572e-05
-1.5717890733990254e-05   3.201952365143113e-06   1.2185272551608188e-05
-1.5717890733990254e-05   3.201952365143113e-06   1.2185272551608188e-05
-1.5717890733990254e-05   3.201952365143113e-06   1.2185272551608188e-05
-1.5717890733990254e-05   3.201952365143113e-06   1.2185272551608188e-05
-1.9850399959046386e-05   4.0269000427192465e-06   1.8577819320156027e-05
-1.9850399959046386e-05   4.0269000427192465e-06   1.8577819320156027e-05
-1.9850399959046386e-05   4.0269000427192465e-06   1.8577819320156027e-05
-1.9850399959046386e-05   4.0269000427192465e-06   1.8577819320156027e-05
-1.571789073399028e-05   4.210273298838356e-06   2.745272044083261e-05
-1.571789073399028e-05   4.210273298838356e-06   2.745272044083261e-05
-1.571789073399028e-05   4.210273298838356e-06   2.745272044083261e-05
-1.571789073399028e-05   4.210273298838356e-06   2.745272044083261e-05
-2.487835946752507e-05   3.201952365143113e-06   1.1580279991390988e-05
-2.487835946752507e-05   3.201952365143113e-06   1.1580279991390988e-05
-2.487835946752507e-05   3.201952365143113e-06   1.1580279991390988e-05
-2.487835946752507e-05   3.201952365143113e-06   1.1580279991390988e-05
-2.5331719050559836e-05   3.6355079592504964e-06   2.7673337253451922e-05
-2.5331719050559836e-05   3.6355079592504964e-06   2.7673337253451922e-05
-2.5331719050559836e-05   3.6355079592504964e-06   2.7673337253451922e-05
-2.5331719050559836e-05   3.6355079592504964e-06   2.7673337253451922e-05
-1.613401716650165e-05   2.636192967109827e-06   1.2943423108639828e-05
-1.613401716650165e-05   2.636192967109827e-06   1.2943423108639828e-05
-1.613401716650165e-05   2.636192967109827e-06   1.2943423108639828e-05
-1.613401716650165e-05   2.636192967109827e-06   1.2943423108639828e-05
-2.0347612761112006e-05   3.614537608553252e-06   1.937907564812533e-05
-2.0347612761112006e-05   3.614537608553252e-06   1.937907564812533e-05
-2.0347612761112006e-05   3.614537608553252e-06   1.937907564812533e-05
-2.0347612761112006e-05   3.614537608553252e-06   1.937907564812533e-05
-2.3903764600923785e-05   6.92725529624909e-06   1.237379549903848e-05
-2.3903764600923785e-05   6.92725529624909e-06   1.237379549903848e-05
-2.3903764600923785e-05   6.92725529624909e-06   1.237379549903848e-05
-2.3903764600923785e-05   6.92725529624909e-06   1.237379549903848e-05
-3.203921305690885e-05   5.308170960145004e-06   -2.1567358625991647e-06
-3.203921305690885e-05   5.308170960145004e-06   -2.1567358625991647e-06
-3.203921305690885e-05   5.308170960145004e-06   -2.1567358625991647e-06
-3.203921305690885e-05   5.308170960145004e-06   -2.1567358625991647e-06
-3.318321806424927e-05   6.7493811514586066e-06   1.5259290259615494e-05
-3.318321806424927e-05   6.7493811514586066e-06   1.5259290259615494e-05
-3.318321806424927e-05   6.7493811514586066e-06   1.5259290259615494e-05
-3.318321806424927e-05   6.7493811514586066e-06   1.5259290259615494e-05
-2.4349972579774536e-05   5.009893376502162e-06   1.580907117131893e-06
-2.4349972579774536e-05   5.009893376502162e-06   1.580907117131893e-06
-2.4349972579774536e-05   5.009893376502162e-06   1.580907117131893e-06
-2.4349972579774536e-05   5.009893376502162e-06   1.580907117131893e-06
-2.7335832655922857e-05   5.888289755826004e-06   6.030302749785821e-06
-2.7335832655922857e-05   5.888289755826004e-06   6.030302749785821e-06
-2.7335832655922857e-05   5.888289755826004e-06   6.030302749785821e-06
-2.7335832655922857e-05   5.888289755826004e-06   6.030302749785821e-06
-2.4349972579774536e-05   6.749381151458823e-06   1.6302982924589426e-05
-2.4349972579774536e-05   6.749381151458823e-06   1.6302982924589426e-05
-2.4349972579774536e-05   6.749381151458823e-06   1.6302982924589426e-05
-2.4349972579774536e-05   6.749381151458823e-06   1.6302982924589426e-05
-3.3183218064249326e-05   5.009893376502162e-06   5.372144521578531e-07
-3.3183218064249326e-05   5.009893376502162e-06   5.372144521578531e-07
-3.3183218064249326e-05   5.009893376502162e-06   5.372144521578531e-07
-3.3183218064249326e-05   5.009893376502162e-06   5.372144521578531e-07
-3.4168068379417636e-05   6.53143145609757e-06   1.8056275354183266e-05
-3.4168068379417636e-05   6.53143145609757e-06   1.8056275354183266e-05
-3.4168068379417636e-05   6.53143145609757e-06   1.8056275354183266e-05
-3.4168068379417636e-05   6.53143145609757e-06   1.8056275354183266e-05
-2.487835946752507e-05   4.760512715815688e-06   3.6359784118646446e-06
-2.487835946752507e-05   4.760512715815688e-06   3.6359784118646446e-06
-2.487835946752507e-05   4.760512715815688e-06   3.6359784118646446e-06
-2.487835946752507e-05   4.760512715815688e-06   3.6359784118646446e-06
-2.8434472155149077e-05   5.811071316087031e-06   8.93249773107588e-06
-2.8434472155149077e-05   5.811071316087031e-06   8.93249773107588e-06
-2.8434472155149077e-05   5.811071316087031e-06   8.93249773107588e-06
-2.8434472155149077e-05   5.811071316087031e-06   8.93249773107588e-06
-2.487835946752507e-05   6.53143145609757e-06   1.9118826598352092e-05
-2.487835946752507e-05   6.53143145609757e-06   1.9118826598352092e-05
-2.487835946752507e-05   6.53143145609757e-06   1.9118826598352092e-05
-2.487835946752507e-05   6.53143145609757e-06   1.9118826598352092e-05
-3.416806837941769e-05   4.7605127158159045e-06   2.573427167695602e-06
-3.416806837941769e-05   4.7605127158159045e-06   2.573427167695602e-06
-3.416806837941769e-05   4.7605127158159045e-06   2.573427167695602e-06
-3.416806837941769e-05   4.7605127158159045e-06   2.573427167695602e-06
-3.5346641121175744e-05   5.799633491709085e-06   2.300537289977615e-05
-3.5346641121175744e-05   5.799633491709085e-06   2.300537289977615e-05
-3.5346641121175744e-05   5.799633491709085e-06   2.300537289977615e-05
-3.5346641121175744e-05   5.799633491709085e-06   2.300537289977615e-05
-2.533171905055978e-05   4.08195729252386e-06   7.344441834927643e-06
-2.533171905055978e-05   4.08195729252386e-06   7.344441834927643e-06
-2.533171905055978e-05   4.08195729252386e-06   7.344441834927643e-06
-2.533171905055978e-05   4.08195729252386e-06   7.344441834927643e-06
-2.8707845368757982e-05   5.502501820666946e-06   1.211899231503904e-05
-2.8707845368757982e-05   5.502501820666946e-06   1.211899231503904e-05
-2.8707845368757982e-05   5.502501820666946e-06   1.211899231503904e-05
-2.8707845368757982e-05   5.502501820666946e-06   1.211899231503904e-05
2.80384855640279e-06   3.2880621343928454e-08   1.4717856207433974e-05
2.80384855640279e-06   3.2880621343928454e-08   1.4717856207433974e-05
2.80384855640279e-06   3.2880621343928454e-08   1.4717856207433974e-05
2.80384855640279e-06   3.2880621343928454e-08   1.4717856207433974e-05
-3.070884610935582e-06   1.5961537521344809e-06   5.864598140344502e-06
-3.070884610935582e-06   1.5961537521344809e-06   5.864598140344502e-06
-3.070884610935582e-06   1.5961537521344809e-06   5.864598140344502e-06
-3.070884610935582e-06   1.5961537521344809e-06   5.864598140344502e-06
-3.415035374529366e-06   -5.216239628833864e-07   1.4514476961603219e-05
-3.415035374529366e-06   -5.216239628833864e-07   1.4514476961603219e-05
-3.415035374529366e-06   -5.216239628833864e-07   1.4514476961603219e-05
-3.415035374529366e-06   -5.216239628833864e-07   1.4514476961603219e-05
1.756694976337087e-06   1.078851899468129e-06   4.934640859414693e-06
1.756694976337087e-06   1.078851899468129e-06   4.934640859414693e-06
1.756694976337087e-06   1.078851899468129e-06   4.934640859414693e-06
1.756694976337087e-06   1.078851899468129e-06   4.934640859414693e-06
-6.194384203915355e-07   4.57937322505134e-07   9.267411933473597e-06
-6.194384203915355e-07   4.57937322505134e-07   9.267411933473597e-06
-6.194384203915355e-07   4.57937322505134e-07   9.267411933473597e-06
-6.194384203915355e-07   4.57937322505134e-07   9.267411933473597e-06
1.7566949763370734e-06   -5.216239628836033e-07   1.3554191444192028e-05
1.7566949763370734e-06   -5.216239628836033e-07   1.3554191444192028e-05
1.7566949763370734e-06   -5.216239628836033e-07   1.3554191444192028e-05
1.7566949763370734e-06   -5.216239628836033e-07   1.3554191444192028e-05
-3.415035374529366e-06   1.078851899468129e-06   5.89492637682583e-06
-3.415035374529366e-06   1.078851899468129e-06   5.89492637682583e-06
-3.415035374529366e-06   1.078851899468129e-06   5.89492637682583e-06
-3.415035374529366e-06   1.078851899468129e-06   5.89492637682583e-06
-3.840219153826831e-06   -7.605326599660883e-07   1.4133399376946819e-05
-3.840219153826831e-06   -7.605326599660883e-07   1.4133399376946819e-05
-3.840219153826831e-06   -7.605326599660883e-07   1.4133399376946819e-05
-3.840219153826831e-06   -7.605326599660883e-07   1.4133399376946819e-05
8.47908710598563e-07   7.943307863881146e-07   5.3869348684252325e-06
8.47908710598563e-07   7.943307863881146e-07   5.3869348684252325e-06
8.47908710598563e-07   7.943307863881146e-07   5.3869348684252325e-06
8.47908710598563e-07   7.943307863881146e-07   5.3869348684252325e-06
-1.1842991504433128e-06   2.3753124836598145e-07   9.108027692974658e-06
-1.1842991504433128e-06   2.3753124836598145e-07   9.108027692974658e-06
-1.1842991504433128e-06   2.3753124836598145e-07   9.108027692974658e-06
-1.1842991504433128e-06   2.3753124836598145e-07   9.108027692974658e-06
8.479087105985766e-07   -7.605326599660883e-07   1.3200481309134145e-05
8.479087105985766e-07   -7.605326599660883e-07   1.3200481309134145e-05
8.479087105985766e-07   -7.605326599660883e-07   1.3200481309134145e-05
8.479087105985766e-07   -7.605326599660883e-07   1.3200481309134145e-05
-3.840219153826827e-06   7.943307863881146e-07   6.31985293623777e-06
-3.840219153826827e-06   7.943307863881146e-07   6.31985293623777e-06
-3.840219153826827e-06   7.943307863881146e-07   6.31985293623777e-06
-3.840219153826827e-06   7.943307863881146e-07   6.31985293623777e-06
-4.195651288987334e-06   -1.1581635170835724e-06   1.3995884573039861e-05
-4.195651288987334e-06   -1.1581635170835724e-06   1.3995884573039861e-05
-4.195651288987334e-06   -1.1581635170835724e-06   1.3995884573039861e-05
-4.195651288987334e-06   -1.1581635170835724e-06   1.3995884573039861e-05
-2.923212934272915e-07   1.9110060543237658e-07   6.680776106930415e-06
-2.923212934272915e-07   1.9110060543237658e-07   6.680776106930415e-06
-2.923212934272915e-07   1.9110060543237658e-07   6.680776106930415e-06
-2.923212934272915e-07   1.9110060543237658e-07   6.680776106930415e-06
-1.7935179252999288e-06   3.5839731689791404e-08   9.27592701763025e-06
-1.7935179252999288e-06   3.5839731689791404e-08   9.27592701763025e-06
-1.7935179252999288e-06   3.5839731689791404e-08   9.27592701763025e-06
-1.7935179252999288e-06   3.5839731689791404e-08   9.27592701763025e-06
-3.070884610935582e-06   1.5543856619493895e-06   2.3596078111622824e-05
-3.070884610935582e-06   1.5543856619493895e-06   2.3596078111622824e-05
-3.070884610935582e-06   1.5543856619493895e-06   2.3596078111622824e-05
-3.070884610935582e-06   1.5543856619493895e-06   2.3596078111622824e-05
-7.987646706480796e-06   1.8632637200127929e-06   1.5586801453885404e-05
-7.987646706480796e-06   1.8632637200127929e-06   1.5586801453885404e-05
-7.987646706480796e-06   1.8632637200127929e-06   1.5586801453885404e-05
-7.987646706480796e-06   1.8632637200127929e-06   1.5586801453885404e-05
-8.247288990158292e-06   9.280203552043675e-07   2.353143409835885e-05
-8.247288990158292e-06   9.280203552043675e-07   2.353143409835885e-05
-8.247288990158292e-06   9.280203552043675e-07   2.353143409835885e-05
-8.247288990158292e-06   9.280203552043675e-07   2.353143409835885e-05
-3.415035374529366e-06   1.2856967789410352e-06   1.5263072218068527e-05
-3.415035374529366e-06   1.2856967789410352e-06   1.5263072218068527e-05
-3.415035374529366e-06   1.2856967789410352e-06   1.5263072218068527e-05
-3.415035374529366e-06   1.2856967789410352e-06   1.5263072218068527e-05
-5.714303834835424e-06   1.340713648324745e-06   1.9062176196948255e-05
-5.714303834835424e-06   1.340713648324745e-06   1.9062176196948255e-05
-5.714303834835424e-06   1.340713648324745e-06   1.9062176196948255e-05
-5.714303834835424e-06   1.340713648324745e-06   1.9062176196948255e-05
-3.4150353745293593e-06   9.280203552043675e-07   2.3316828244116417e-05
-3.4150353745293593e-06   9.280203552043675e-07   2.3316828244116417e-05
-3.4150353745293593e-06   9.280203552043675e-07   2.3316828244116417e-05
-3.4150353745293593e-06   9.280203552043675e-07   2.3316828244116417e-05
-8.247288990158265e-06   1.2856967789410352e-06   1.54776780723105e-05
-8.247288990158265e-06   1.2856967789410352e-06   1.54776780723105e-05
-8.247288990158265e-06   1.2856967789410352e-06   1.54776780723105e-05
-8.247288990158265e-06   1.2856967789410352e-06   1.54776780723105e-05
-8.515109536743251e-06   3.973488781503984e-07   2.357622078820714e-05
-8.515109536743251e-06   3.973488781503984e-07   2.357622078820714e-05
-8.515109536743251e-06   3.973488781503984e-07   2.357622078820714e-05
-8.515109536743251e-06   3.973488781503984e-07   2.357622078820714e-05
-3.840219153826827e-06   7.527478418102021e-07   1.557149743848393e-05
-3.840219153826827e-06   7.527478418102021e-07   1.557149743848393e-05
-3.840219153826827e-06   7.527478418102021e-07   1.557149743848393e-05
-3.840219153826827e-06   7.527478418102021e-07   1.557149743848393e-05
-5.979440292169411e-06   9.187557271223001e-07   1.9037261271201005e-05
-5.979440292169411e-06   9.187557271223001e-07   1.9037261271201005e-05
-5.979440292169411e-06   9.187557271223001e-07   1.9037261271201005e-05
-5.979440292169411e-06   9.187557271223001e-07   1.9037261271201005e-05
-3.840219153826827e-06   3.973488781506152e-07   2.336298141001117e-05
-3.840219153826827e-06   3.973488781506152e-07   2.336298141001117e-05
-3.840219153826827e-06   3.973488781506152e-07   2.336298141001117e-05
-3.840219153826827e-06   3.973488781506152e-07   2.336298141001117e-05
-8.515109536743237e-06   7.527478418102021e-07   1.5784736816679633e-05
-8.515109536743237e-06   7.527478418102021e-07   1.5784736816679633e-05
-8.515109536743237e-06   7.527478418102021e-07   1.5784736816679633e-05
-8.515109536743237e-06   7.527478418102021e-07   1.5784736816679633e-05
-8.777864316986405e-06   -1.447455590236884e-07   2.4032616471640557e-05
-8.777864316986405e-06   -1.447455590236884e-07   2.4032616471640557e-05
-8.777864316986405e-06   -1.447455590236884e-07   2.4032616471640557e-05
-8.777864316986405e-06   -1.447455590236884e-07   2.4032616471640557e-05
-4.19565128898732e-06   1.7557128144298634e-07   1.6203404654028852e-05
-4.19565128898732e-06   1.7557128144298634e-07   1.6203404654028852e-05
-4.19565128898732e-06   1.7557128144298634e-07   1.6203404654028852e-05
-4.19565128898732e-06   1.7557128144298634e-07   1.6203404654028852e-05
-6.24420044313529e-06   5.042161768341585e-07   1.942046630704078e-05
-6.24420044313529e-06   5.042161768341585e-07   1.942046630704078e-05
-6.24420044313529e-06   5.042161768341585e-07   1.942046630704078e-05
-6.24420044313529e-06   5.042161768341585e-07   1.942046630704078e-05
-7.987646706480796e-06   2.9030401993612644e-06   2.65556139301238e-05
-7.987646706480796e-06   2.9030401993612644e-06   2.65556139301238e-05
-7.987646706480796e-06   2.9030401993612644e-06   2.65556139301238e-05
-7.987646706480796e-06   2.9030401993612644e-06   2.65556139301238e-05
-1.2886447419820416e-05   2.2357375203879227e-06   1.799056446717375e-05
-1.2886447419820416e-05   2.2357375203879227e-06   1.799056446717375e-05
-1.2886447419820416e-05   2.2357375203879227e-06   1.799056446717375e-05
-1.2886447419820416e-05   2.2357375203879227e-06   1.799056446717375e-05
-1.3106260254448017e-05   2.325750997985007e-06   2.6063545305366072e-05
-1.3106260254448017e-05   2.325750997985007e-06   2.6063545305366072e-05
-1.3106260254448017e-05   2.325750997985007e-06   2.6063545305366072e-05
-1.3106260254448017e-05   2.325750997985007e-06   2.6063545305366072e-05
-8.247288990158265e-06   1.700665323999006e-06   1.8340311269274886e-05
-8.247288990158265e-06   1.700665323999006e-06   1.8340311269274886e-05
-8.247288990158265e-06   1.700665323999006e-06   1.8340311269274886e-05
-8.247288990158265e-06   1.700665323999006e-06   1.8340311269274886e-05
-1.0562284426432112e-05   2.246924372396354e-06   2.1870881567359482e-05
-1.0562284426432112e-05   2.246924372396354e-06   2.1870881567359482e-05
-1.0562284426432112e-05   2.246924372396354e-06   2.1870881567359482e-05
-1.0562284426432112e-05   2.246924372396354e-06   2.1870881567359482e-05
-8.247288990158265e-06   2.325750997985007e-06   2.6438596709757608e-05
-8.247288990158265e-06   2.325750997985007e-06   2.6438596709757608e-05
-8.247288990158265e-06   2.325750997985007e-06   2.6438596709757608e-05
-8.247288990158265e-06   2.325750997985007e-06   2.6438596709757608e-05
-1.3106260254448017e-05   1.700665323999006e-06   1.7965259864883133e-05
-1.3106260254448017e-05   1.700665323999006e-06   1.7965259864883133e-05
-1.3106260254448017e-05   1.700665323999006e-06   1.7965259864883133e-05
-1.3106260254448017e-05   1.700665323999006e-06   1.7965259864883133e-05
-1.3341779044526554e-05   1.7514228661354766e-06   2.6322663038352043e-05
-1.3341779044526554e-05   1.7514228661354766e-06   2.6322663038352043e-05
-1.3341779044526554e-05   1.7514228661354766e-06   2.6322663038352043e-05
-1.3341779044526554e-05   1.7514228661354766e-06   2.6322663038352043e-05
-8.515109536743237e-06   1.1568625114405113e-06   1.8634950071530086e-05
-8.515109536743237e-06   1.1568625114405113e-06   1.8634950071530086e-05
-8.515109536743237e-06   1.1568625114405113e-06   1.8634950071530086e-05
-8.515109536743237e-06   1.1568625114405113e-06   1.8634950071530086e-05
-1.0750097098406698e-05   1.8185396532892882e-06   2.1962923055859603e-05
-1.0750097098406698e-05   1.8185396532892882e-06   2.1962923055859603e-05
-1.0750097098406698e-05   1.8185396532892882e-06   2.1962923055859603e-05
-1.0750097098406698e-05   1.8185396532892882e-06   2.1962923055859603e-05
-8.515109536743237e-06   1.7514228661354766e-06   2.6679399251168848e-05
-8.515109536743237e-06   1.7514228661354766e-06   2.6679399251168848e-05
-8.515109536743237e-06   1.7514228661354766e-06   2.6679399251168848e-05
-8.515109536743237e-06   1.7514228661354766e-06   2.6679399251168848e-05
-1.3341779044526554e-05   1.1568625114405113e-06   1.8278213858713172e-05
-1.3341779044526554e-05   1.1568625114405113e-06   1.8278213858713172e-05
-1.3341779044526554e-05   1.1568625114405113e-06   1.8278213858713172e-05
-1.3341779044526554e-05   1.1568625114405113e-06   1.8278213858713172e-05
-1.357243643876116e-05   1.2015314196102932e-06   2.6864999002610486e-05
-1.357243643876116e-05   1.2015314196102932e-06   2.6864999002610486e-05
-1.357243643876116e-05   1.2015314196102932e-06   2.6864999002610486e-05
-1.357243643876116e-05   1.2015314196102932e-06   2.6864999002610486e-05
-8.777864316986405e-06   6.414163230980758e-07   1.9210114524226745e-05
-8.777864316986405e-06   6.414163230980758e-07   1.9210114524226745e-05
-8.777864316986405e-06   6.414163230980758e-07   1.9210114524226745e-05
-8.777864316986405e-06   6.414163230980758e-07   1.9210114524226745e-05
-1.0959349757706265e-05   1.3966346300575694e-06   2.2392792607917218e-05
-1.0959349757706265e-05   1.3966346300575694e-06   2.2392792607917218e-05
-1.0959349757706265e-05   1.3966346300575694e-06   2.2392792607917218e-05
-1.0959349757706265e-05   1.3966346300575694e-06   2.2392792607917218e-05
-1.2886447419820416e-05   4.313393901602021e-06   2.2959715653135624e-05
-1.2886447419820416e-05   4.313393901602021e-06   2.2959715653135624e-05
-1.2886447419820416e-05   4.313393901602021e-06   2.2959715653135624e-05
-1.2886447419820416e-05   4.313393901602021e-06   2.2959715653135624e-05
-1.7705127371247522e-05   3.0233531630488282e-06   1.4154557957625144e-05
-1.7705127371247522e-05   3.0233531630488282e-06   1.4154557957625144e-05
-1.7705127371247522e-05   3.0233531630488282e-06   1.4154557957625144e-05
-1.7705127371247522e-05   3.0233531630488282e-06   1.4154557957625144e-05
-1.794667510869e-05   3.731278021700153e-06   2.228356842232603e-05
-1.794667510869e-05   3.731278021700153e-06   2.228356842232603e-05
-1.794667510869e-05   3.731278021700153e-06   2.228356842232603e-05
-1.794667510869e-05   3.731278021700153e-06   2.228356842232603e-05
-1.3106260254448017e-05   2.4604312589382015e-06   1.4978718389579775e-05
-1.3106260254448017e-05   2.4604312589382015e-06   1.4978718389579775e-05
-1.3106260254448017e-05   2.4604312589382015e-06   1.4978718389579775e-05
-1.3106260254448017e-05   2.4604312589382015e-06   1.4978718389579775e-05
-1.5378477856956466e-05   3.353092693479838e-06   1.8230150866368924e-05
-1.5378477856956466e-05   3.353092693479838e-06   1.8230150866368924e-05
-1.5378477856956466e-05   3.353092693479838e-06   1.8230150866368924e-05
-1.5378477856956466e-05   3.353092693479838e-06   1.8230150866368924e-05
-1.3106260254448017e-05   3.73127802170037e-06   2.304607647998292e-05
-1.3106260254448017e-05   3.73127802170037e-06   2.304607647998292e-05
-1.3106260254448017e-05   3.73127802170037e-06   2.304607647998292e-05
-1.3106260254448017e-05   3.73127802170037e-06   2.304607647998292e-05
-1.794667510869e-05   2.46043125893831e-06   1.4216210331922615e-05
-1.794667510869e-05   2.46043125893831e-06   1.4216210331922615e-05
-1.794667510869e-05   2.46043125893831e-06   1.4216210331922615e-05
-1.794667510869e-05   2.46043125893831e-06   1.4216210331922615e-05
-1.8280340418228675e-05   3.201952365143113e-06   2.302341457434496e-05
-1.8280340418228675e-05   3.201952365143113e-06   2.302341457434496e-05
-1.8280340418228675e-05   3.201952365143113e-06   2.302341457434496e-05
-1.8280340418228675e-05   3.201952365143113e-06   2.302341457434496e-05
-1.3341779044526554e-05   1.9595708624343088e-06   1.553790785313342e-05
-1.3341779044526554e-05   1.9595708624343088e-06   1.553790785313342e-05
-1.3341779044526554e-05   1.9595708624343088e-06   1.553790785313342e-05
-1.3341779044526554e-05   1.9595708624343088e-06   1.553790785313342e-05
-1.5509768638502283e-05   2.9379200002894405e-06   1.8564214360379538e-05
-1.5509768638502283e-05   2.9379200002894405e-06   1.8564214360379538e-05
-1.5509768638502283e-05   2.9379200002894405e-06   1.8564214360379538e-05
-1.5509768638502283e-05   2.9379200002894405e-06   1.8564214360379538e-05
-1.3341779044526527e-05   3.201952365143113e-06   2.3768843475970025e-05
-1.3341779044526527e-05   3.201952365143113e-06   2.3768843475970025e-05
-1.3341779044526527e-05   3.201952365143113e-06   2.3768843475970025e-05
-1.3341779044526527e-05   3.201952365143113e-06   2.3768843475970025e-05
-1.828034041822862e-05   1.9595708624343088e-06   1.479247895150819e-05
-1.828034041822862e-05   1.9595708624343088e-06   1.479247895150819e-05
-1.828034041822862e-05   1.9595708624343088e-06   1.479247895150819e-05
-1.828034041822862e-05   1.9595708624343088e-06   1.479247895150819e-05
-1.854779741077044e-05   2.63619296710961e-06   2.3846200884712187e-05
-1.854779741077044e-05   2.63619296710961e-06   2.3846200884712187e-05
-1.854779741077044e-05   2.63619296710961e-06   2.3846200884712187e-05
-1.854779741077044e-05   2.63619296710961e-06   2.3846200884712187e-05
-1.3572436438761133e-05   1.4492713420522808e-06   1.62660855730645e-05
-1.3572436438761133e-05   1.4492713420522808e-06   1.62660855730645e-05
-1.3572436438761133e-05   1.4492713420522808e-06   1.62660855730645e-05
-1.3572436438761133e-05   1.4492713420522808e-06   1.62660855730645e-05
-1.5786212671747117e-05   2.543049518130081e-06   1.9299445722394885e-05
-1.5786212671747117e-05   2.543049518130081e-06   1.9299445722394885e-05
-1.5786212671747117e-05   2.543049518130081e-06   1.9299445722394885e-05
-1.5786212671747117e-05   2.543049518130081e-06   1.9299445722394885e-05
-1.7705127371247522e-05   5.308170960145004e-06   1.0129850737070523e-05
-1.7705127371247522e-05   5.308170960145004e-06   1.0129850737070523e-05
-1.7705127371247522e-05   5.308170960145004e-06   1.0129850737070523e-05
-1.7705127371247522e-05   5.308170960145004e-06   1.0129850737070523e-05
-2.149150297607724e-05   3.5734838932301605e-06   2.7784124888719907e-06
-2.149150297607724e-05   3.5734838932301605e-06   2.7784124888719907e-06
-2.149150297607724e-05   3.5734838932301605e-06   2.7784124888719907e-06
-2.149150297607724e-05   3.5734838932301605e-06   2.7784124888719907e-06
-2.2407623672892197e-05   5.009893376502162e-06   1.1876734262991412e-05
-2.2407623672892197e-05   5.009893376502162e-06   1.1876734262991412e-05
-2.2407623672892197e-05   5.009893376502162e-06   1.1876734262991412e-05
-2.2407623672892197e-05   5.009893376502162e-06   1.1876734262991412e-05
-1.794667510869e-05   3.1989219262771196e-06   5.5284028594563845e-06
-1.794667510869e-05   3.1989219262771196e-06   5.5284028594563845e-06
-1.794667510869e-05   3.1989219262771196e-06   5.5284028594563845e-06
-1.794667510869e-05   3.1989219262771196e-06   5.5284028594563845e-06
-1.9197615359651025e-05   4.2293235443164635e-06   6.9950623069010495e-06
-1.9197615359651025e-05   4.2293235443164635e-06   6.9950623069010495e-06
-1.9197615359651025e-05   4.2293235443164635e-06   6.9950623069010495e-06
-1.9197615359651025e-05   4.2293235443164635e-06   6.9950623069010495e-06
-1.794667510869e-05   5.009893376502162e-06   1.296331713312635e-05
-1.794667510869e-05   5.009893376502162e-06   1.296331713312635e-05
-1.794667510869e-05   5.009893376502162e-06   1.296331713312635e-05
-1.794667510869e-05   5.009893376502162e-06   1.296331713312635e-05
-2.2407623672892197e-05   3.1989219262771196e-06   4.441819989321229e-06
-2.2407623672892197e-05   3.1989219262771196e-06   4.441819989321229e-06
-2.2407623672892197e-05   3.1989219262771196e-06   4.441819989321229e-06
-2.2407623672892197e-05   3.1989219262771196e-06   4.441819989321229e-06
-2.319404512618001e-05   4.7605127158159045e-06   1.3987795705894214e-05
-2.319404512618001e-05   4.7605127158159045e-06   1.3987795705894214e-05
-2.319404512618001e-05   4.7605127158159045e-06   1.3987795705894214e-05
-2.319404512618001e-05   4.7605127158159045e-06   1.3987795705894214e-05
-1.828034041822862e-05   2.9416505676080427e-06   6.889605148233005e-06
-1.828034041822862e-05   2.9416505676080427e-06   6.889605148233005e-06
-1.828034041822862e-05   2.9416505676080427e-06   6.889605148233005e-06
-1.828034041822862e-05   2.9416505676080427e-06   6.889605148233005e-06
-1.9974043506696857e-05   4.082500160303669e-06   9.027933873395925e-06
-1.9974043506696857e-05   4.082500160303669e-06   9.027933873395925e-06
-1.9974043506696857e-05   4.082500160303669e-06   9.027933873395925e-06
-1.9974043506696857e-05   4.082500160303669e-06   9.027933873395925e-06
-1.828034041822862e-05   4.7605127158159045e-06   1.5079112994818454e-05
-1.828034041822862e-05   4.7605127158159045e-06   1.5079112994818454e-05
-1.828034041822862e-05   4.7605127158159045e-06   1.5079112994818454e-05
-1.828034041822862e-05   4.7605127158159045e-06   1.5079112994818454e-05
-2.319404512618001e-05   2.9416505676080427e-06   5.7982878593084396e-06
-2.319404512618001e-05   2.9416505676080427e-06   5.7982878593084396e-06
-2.319404512618001e-05   2.9416505676080427e-06   5.7982878593084396e-06
-2.319404512618001e-05   2.9416505676080427e-06   5.7982878593084396e-06
-2.4195186655329073e-05   4.08195729252386e-06   1.7808066389410262e-05
-2.4195186655329073e-05   4.08195729252386e-06   1.7808066389410262e-05
-2.4195186655329073e-05   4.08195729252386e-06   1.7808066389410262e-05
-2.4195186655329073e-05   4.08195729252386e-06   1.7808066389410262e-05
-1.8547797410770387e-05   2.350720264400778e-06   9.43449319868654e-06
-1.8547797410770387e-05   2.350720264400778e-06   9.43449319868654e-06
-1.8547797410770387e-05   2.350720264400778e-06   9.43449319868654e-06
-1.8547797410770387e-05   2.350720264400778e-06   9.43449319868654e-06
-2.0195715190548093e-05   3.800784093466354e-06   1.1310984534209853e-05
-2.0195715190548093e-05   3.800784093466354e-06   1.1310984534209853e-05
-2.0195715190548093e-05   3.800784093466354e-06   1.1310984534209853e-05
-2.0195715190548093e-05   3.800784093466354e-06   1.1310984534209853e-05
-8.774855050341099e-06   1.5961537521344809e-06   1.0506837249043611e-05
-8.774855050341099e-06   1.5961537521344809e-06   1.0506837249043611e-05
-8.774855050341099e-06   1.5961537521344809e-06   1.0506837249043611e-05
-8.774855050341099e-06   1.5961537521344809e-06   1.0506837249043611e-05
-9.606261436316947e-06   3.0166317788386625e-06   9.973446755106035e-06
-9.606261436316947e-06   3.0166317788386625e-06   9.973446755106035e-06
-9.606261436316947e-06   3.0166317788386625e-06   9.973446755106035e-06
-9.606261436316947e-06   3.0166317788386625e-06   9.973446755106035e-06
-9.853828458901977e-06   1.078851899468129e-06   1.1283874104072225e-05
-9.853828458901977e-06   1.078851899468129e-06   1.1283874104072225e-05
-9.853828458901977e-06   1.078851899468129e-06   1.1283874104072225e-05
-9.853828458901977e-06   1.078851899468129e-06   1.1283874104072225e-05
-9.815711896529655e-06   2.356426622509471e-06   1.0453801666293708e-05
-9.815711896529655e-06   2.356426622509471e-06   1.0453801666293708e-05
-9.815711896529655e-06   2.356426622509471e-06   1.0453801666293708e-05
-9.815711896529655e-06   2.356426622509471e-06   1.0453801666293708e-05
-9.276685357713826e-06   1.8804324358038561e-06   9.841020613623861e-06
-9.276685357713826e-06   1.8804324358038561e-06   9.841020613623861e-06
-9.276685357713826e-06   1.8804324358038561e-06   9.841020613623861e-06
-9.276685357713826e-06   1.8804324358038561e-06   9.841020613623861e-06
-9.815711896529668e-06   1.0788518994682373e-06   1.0517329270247496e-05
-9.815711896529668e-06   1.0788518994682373e-06   1.0517329270247496e-05
-9.815711896529668e-06   1.0788518994682373e-06   1.0517329270247496e-05
-9.815711896529668e-06   1.0788518994682373e-06   1.0517329270247496e-05
-9.853828458901977e-06   2.356426622509471e-06   1.1220346500118356e-05
-9.853828458901977e-06   2.356426622509471e-06   1.1220346500118356e-05
-9.853828458901977e-06   2.356426622509471e-06   1.1220346500118356e-05
-9.853828458901977e-06   2.356426622509471e-06   1.1220346500118356e-05
-1.0175126212438941e-05   7.943307863881146e-07   1.1639158117246484e-05
-1.0175126212438941e-05   7.943307863881146e-07   1.1639158117246484e-05
-1.0175126212438941e-05   7.943307863881146e-07   1.1639158117246484e-05
-1.0175126212438941e-05   7.943307863881146e-07   1.1639158117246484e-05
-1.0828159848135405e-05   1.9001755312545625e-06   1.2064040663154198e-05
-1.0828159848135405e-05   1.9001755312545625e-06   1.2064040663154198e-05
-1.0828159848135405e-05   1.9001755312545625e-06   1.2064040663154198e-05
-1.0828159848135405e-05   1.9001755312545625e-06   1.2064040663154198e-05
-9.896154872962235e-06   1.5957148778661737e-06   1.0693375429898562e-05
-9.896154872962235e-06   1.5957148778661737e-06   1.0693375429898562e-05
-9.896154872962235e-06   1.5957148778661737e-06   1.0693375429898562e-05
-9.896154872962235e-06   1.5957148778661737e-06   1.0693375429898562e-05
-1.0828159848135432e-05   7.943307863881146e-07   1.0975651270326604e-05
-1.0828159848135432e-05   7.943307863881146e-07   1.0975651270326604e-05
-1.0828159848135432e-05   7.943307863881146e-07   1.0975651270326604e-05
-1.0828159848135432e-05   7.943307863881146e-07   1.0975651270326604e-05
-1.0175126212438941e-05   1.9001755312545625e-06   1.2727547510073983e-05
-1.0175126212438941e-05   1.9001755312545625e-06   1.2727547510073983e-05
-1.0175126212438941e-05   1.9001755312545625e-06   1.2727547510073983e-05
-1.0175126212438941e-05   1.9001755312545625e-06   1.2727547510073983e-05
-1.0379806560142046e-05   1.9110060543226816e-07   1.2789331670514813e-05
-1.0379806560142046e-05   1.9110060543226816e-07   1.2789331670514813e-05
-1.0379806560142046e-05   1.9110060543226816e-07   1.2789331670514813e-05
-1.0379806560142046e-05   1.9110060543226816e-07   1.2789331670514813e-05
-1.1906213037618177e-05   7.780658586464427e-07   1.4981163314379677e-05
-1.1906213037618177e-05   7.780658586464427e-07   1.4981163314379677e-05
-1.1906213037618177e-05   7.780658586464427e-07   1.4981163314379677e-05
-1.1906213037618177e-05   7.780658586464427e-07   1.4981163314379677e-05
-1.0331230905811588e-05   1.2464707562685967e-06   1.2075150156128453e-05
-1.0331230905811588e-05   1.2464707562685967e-06   1.2075150156128453e-05
-1.0331230905811588e-05   1.2464707562685967e-06   1.2075150156128453e-05
-1.0331230905811588e-05   1.2464707562685967e-06   1.2075150156128453e-05
-9.606261436316947e-06   1.8632637200127929e-06   2.0896000543768763e-05
-9.606261436316947e-06   1.8632637200127929e-06   2.0896000543768763e-05
-9.606261436316947e-06   1.8632637200127929e-06   2.0896000543768763e-05
-9.606261436316947e-06   1.8632637200127929e-06   2.0896000543768763e-05
-9.743487800975955e-06   7.809194846656285e-07   2.001788339479546e-05
-9.743487800975955e-06   7.809194846656285e-07   2.001788339479546e-05
-9.743487800975955e-06   7.809194846656285e-07   2.001788339479546e-05
-9.743487800975955e-06   7.809194846656285e-07   2.001788339479546e-05
-9.820289365384746e-06   1.2856967789410352e-06   2.01049883377239e-05
-9.820289365384746e-06   1.2856967789410352e-06   2.01049883377239e-05
-9.820289365384746e-06   1.2856967789410352e-06   2.01049883377239e-05
-9.820289365384746e-06   1.2856967789410352e-06   2.01049883377239e-05
-9.853828458901977e-06   3.7397743295598893e-07   2.0707918434510414e-05
-9.853828458901977e-06   3.7397743295598893e-07   2.0707918434510414e-05
-9.853828458901977e-06   3.7397743295598893e-07   2.0707918434510414e-05
-9.853828458901977e-06   3.7397743295598893e-07   2.0707918434510414e-05
-9.726238195181198e-06   9.513111731349055e-07   2.0148867750868446e-05
-9.726238195181198e-06   9.513111731349055e-07   2.0148867750868446e-05
-9.726238195181198e-06   9.513111731349055e-07   2.0148867750868446e-05
-9.726238195181198e-06   9.513111731349055e-07   2.0148867750868446e-05
-9.853828458901987e-06   1.2856967789409268e-06   2.065201994531495e-05
-9.853828458901987e-06   1.2856967789409268e-06   2.065201994531495e-05
-9.853828458901987e-06   1.2856967789409268e-06   2.065201994531495e-05
-9.853828458901987e-06   1.2856967789409268e-06   2.065201994531495e-05
-9.820289365384746e-06   3.7397743295598893e-07   2.0160886826919432e-05
-9.820289365384746e-06   3.7397743295598893e-07   2.0160886826919432e-05
-9.820289365384746e-06   3.7397743295598893e-07   2.0160886826919432e-05
-9.820289365384746e-06   3.7397743295598893e-07   2.0160886826919432e-05
-9.915396223944241e-06   7.527478418102021e-07   2.038065953072568e-05
-9.915396223944241e-06   7.527478418102021e-07   2.038065953072568e-05
-9.915396223944241e-06   7.527478418102021e-07   2.038065953072568e-05
-9.915396223944241e-06   7.527478418102021e-07   2.038065953072568e-05
-1.0175126212438941e-05   -9.749063946819063e-08   2.132368593365048e-05
-1.0175126212438941e-05   -9.749063946819063e-08   2.132368593365048e-05
-1.0175126212438941e-05   -9.749063946819063e-08   2.132368593365048e-05
-1.0175126212438941e-05   -9.749063946819063e-08   2.132368593365048e-05
-9.82029856159996e-06   6.144392431536947e-07   2.030514858601272e-05
-9.82029856159996e-06   6.144392431536947e-07   2.030514858601272e-05
-9.82029856159996e-06   6.144392431536947e-07   2.030514858601272e-05
-9.82029856159996e-06   6.144392431536947e-07   2.030514858601272e-05
-1.0175126212438941e-05   7.527478418100936e-07   2.089080261949254e-05
-1.0175126212438941e-05   7.527478418100936e-07   2.089080261949254e-05
-1.0175126212438941e-05   7.527478418100936e-07   2.089080261949254e-05
-1.0175126212438941e-05   7.527478418100936e-07   2.089080261949254e-05
-9.915396223944214e-06   -9.749063946819063e-08   2.0813542844883525e-05
-9.915396223944214e-06   -9.749063946819063e-08   2.0813542844883525e-05
-9.915396223944214e-06   -9.749063946819063e-08   2.0813542844883525e-05
-9.915396223944214e-06   -9.749063946819063e-08   2.0813542844883525e-05
-9.984739752940183e-06   1.7557128144309476e-07   2.0966986832198506e-05
-9.984739752940183e-06   1.7557128144309476e-07   2.0966986832198506e-05
-9.984739752940183e-06   1.7557128144309476e-07   2.0966986832198506e-05
-9.984739752940183e-06   1.7557128144309476e-07   2.0966986832198506e-05
-1.0379806560142019e-05   -7.167869050660625e-07   2.216084642277336e-05
-1.0379806560142019e-05   -7.167869050660625e-07   2.216084642277336e-05
-1.0379806560142019e-05   -7.167869050660625e-07   2.216084642277336e-05
-1.0379806560142019e-05   -7.167869050660625e-07   2.216084642277336e-05
-9.968753012959572e-06   2.188131562973596e-07   2.091439714065074e-05
-9.968753012959572e-06   2.188131562973596e-07   2.091439714065074e-05
-9.968753012959572e-06   2.188131562973596e-07   2.091439714065074e-05
-9.968753012959572e-06   2.188131562973596e-07   2.091439714065074e-05
-9.743487800975982e-06   2.2357375203879227e-06   2.3050738623232826e-05
-9.743487800975982e-06   2.2357375203879227e-06   2.3050738623232826e-05
-9.743487800975982e-06   2.2357375203879227e-06   2.3050738623232826e-05
-9.743487800975982e-06   2.2357375203879227e-06   2.3050738623232826e-05
-1.0497950216219122e-05   2.1740545291316134e-07   2.0582302024009427e-05
-1.0497950216219122e-05   2.1740545291316134e-07   2.0582302024009427e-05
-1.0497950216219122e-05   2.1740545291316134e-07   2.0582302024009427e-05
-1.0497950216219122e-05   2.1740545291316134e-07   2.0582302024009427e-05
-1.0523974774933643e-05   1.700665323999006e-06   2.187157018251158e-05
-1.0523974774933643e-05   1.700665323999006e-06   2.187157018251158e-05
-1.0523974774933643e-05   1.700665323999006e-06   2.187157018251158e-05
-1.0523974774933643e-05   1.700665323999006e-06   2.187157018251158e-05
-9.820289365384746e-06   -1.260869296290006e-07   2.1794812518773456e-05
-9.820289365384746e-06   -1.260869296290006e-07   2.1794812518773456e-05
-9.820289365384746e-06   -1.260869296290006e-07   2.1794812518773456e-05
-9.820289365384746e-06   -1.260869296290006e-07   2.1794812518773456e-05
-1.0129147509397557e-05   9.72828336711089e-07   2.1650226932324072e-05
-1.0129147509397557e-05   9.72828336711089e-07   2.1650226932324072e-05
-1.0129147509397557e-05   9.72828336711089e-07   2.1650226932324072e-05
-1.0129147509397557e-05   9.72828336711089e-07   2.1650226932324072e-05
-9.820289365384746e-06   1.700665323999006e-06   2.296762153468834e-05
-9.820289365384746e-06   1.700665323999006e-06   2.296762153468834e-05
-9.820289365384746e-06   1.700665323999006e-06   2.296762153468834e-05
-9.820289365384746e-06   1.700665323999006e-06   2.296762153468834e-05
-1.0523974774933643e-05   -1.260869296290006e-07   2.0698761166596587e-05
-1.0523974774933643e-05   -1.260869296290006e-07   2.0698761166596587e-05
-1.0523974774933643e-05   -1.260869296290006e-07   2.0698761166596587e-05
-1.0523974774933643e-05   -1.260869296290006e-07   2.0698761166596587e-05
-1.0571028890448347e-05   1.1568625114405113e-06   2.221432178463865e-05
-1.0571028890448347e-05   1.1568625114405113e-06   2.221432178463865e-05
-1.0571028890448347e-05   1.1568625114405113e-06   2.221432178463865e-05
-1.0571028890448347e-05   1.1568625114405113e-06   2.221432178463865e-05
-9.915396223944214e-06   -5.373891567887149e-07   2.2138151674735946e-05
-9.915396223944214e-06   -5.373891567887149e-07   2.2138151674735946e-05
-9.915396223944214e-06   -5.373891567887149e-07   2.2138151674735946e-05
-9.915396223944214e-06   -5.373891567887149e-07   2.2138151674735946e-05
-1.0135071330727617e-05   6.327146893756906e-07   2.1802214545009653e-05
-1.0135071330727617e-05   6.327146893756906e-07   2.1802214545009653e-05
-1.0135071330727617e-05   6.327146893756906e-07   2.1802214545009653e-05
-1.0135071330727617e-05   6.327146893756906e-07   2.1802214545009653e-05
-9.915396223944214e-06   1.1568625114406197e-06   2.323087278557597e-05
-9.915396223944214e-06   1.1568625114406197e-06   2.323087278557597e-05
-9.915396223944214e-06   1.1568625114406197e-06   2.323087278557597e-05
-9.915396223944214e-06   1.1568625114406197e-06   2.323087278557597e-05
-1.0571028890448347e-05   -5.373891567887149e-07   2.1121600673798356e-05
-1.0571028890448347e-05   -5.373891567887149e-07   2.1121600673798356e-05
-1.0571028890448347e-05   -5.373891567887149e-07   2.1121600673798356e-05
-1.0571028890448347e-05   -5.373891567887149e-07   2.1121600673798356e-05
-1.060126522533009e-05   6.414163230979673e-07   2.2826512111024364e-05
-1.060126522533009e-05   6.414163230979673e-07   2.2826512111024364e-05
-1.060126522533009e-05   6.414163230979673e-07   2.2826512111024364e-05
-1.060126522533009e-05   6.414163230979673e-07   2.2826512111024364e-05
-9.984739752940183e-06   -9.502411553884062e-07   2.275396414413278e-05
-9.984739752940183e-06   -9.502411553884062e-07   2.275396414413278e-05
-9.984739752940183e-06   -9.502411553884062e-07   2.275396414413278e-05
-9.984739752940183e-06   -9.502411553884062e-07   2.275396414413278e-05
-1.0157858801586938e-05   2.8308351333601427e-07   2.2302501090642156e-05
-1.0157858801586938e-05   2.8308351333601427e-07   2.2302501090642156e-05
-1.0157858801586938e-05   2.8308351333601427e-07   2.2302501090642156e-05
-1.0157858801586938e-05   2.8308351333601427e-07   2.2302501090642156e-05
-1.0497950216219122e-05   3.0233531630488282e-06   1.877775731633127e-05
-1.0497950216219122e-05   3.0233531630488282e-06   1.877775731633127e-05
-1.0497950216219122e-05   3.0233531630488282e-06   1.877775731633127e-05
-1.0497950216219122e-05   3.0233531630488282e-06   1.877775731633127e-05
-1.1585833650889143e-05   9.932409353877658e-07   1.5746550921951256e-05
-1.1585833650889143e-05   9.932409353877658e-07   1.5746550921951256e-05
-1.1585833650889143e-05   9.932409353877658e-07   1.5746550921951256e-05
-1.1585833650889143e-05   9.932409353877658e-07   1.5746550921951256e-05
-1.1605198618619471e-05   2.4604312589382015e-06   1.7733136876028118e-05
-1.1605198618619471e-05   2.4604312589382015e-06   1.7733136876028118e-05
-1.1605198618619471e-05   2.4604312589382015e-06   1.7733136876028118e-05
-1.1605198618619471e-05   2.4604312589382015e-06   1.7733136876028118e-05
-1.0523974774933643e-05   5.406115403047695e-07   1.7082988967731787e-05
-1.0523974774933643e-05   5.406115403047695e-07   1.7082988967731787e-05
-1.0523974774933643e-05   5.406115403047695e-07   1.7082988967731787e-05
-1.0523974774933643e-05   5.406115403047695e-07   1.7082988967731787e-05
-1.1024358461527993e-05   1.7957752999318583e-06   1.7163863522946235e-05
-1.1024358461527993e-05   1.7957752999318583e-06   1.7163863522946235e-05
-1.1024358461527993e-05   1.7957752999318583e-06   1.7163863522946235e-05
-1.1024358461527993e-05   1.7957752999318583e-06   1.7163863522946235e-05
-1.0523974774933643e-05   2.4604312589382015e-06   1.888502870720822e-05
-1.0523974774933643e-05   2.4604312589382015e-06   1.888502870720822e-05
-1.0523974774933643e-05   2.4604312589382015e-06   1.888502870720822e-05
-1.0523974774933643e-05   2.4604312589382015e-06   1.888502870720822e-05
-1.1605198618619471e-05   5.406115403047695e-07   1.5931097136551685e-05
-1.1605198618619471e-05   5.406115403047695e-07   1.5931097136551685e-05
-1.1605198618619471e-05   5.406115403047695e-07   1.5931097136551685e-05
-1.1605198618619471e-05   5.406115403047695e-07   1.5931097136551685e-05
-1.1731312042390096e-05   1.9595708624343088e-06   1.839006762901715e-05
-1.1731312042390096e-05   1.9595708624343088e-06   1.839006762901715e-05
-1.1731312042390096e-05   1.9595708624343088e-06   1.839006762901715e-05
-1.1731312042390096e-05   1.9595708624343088e-06   1.839006762901715e-05
-1.0571028890448347e-05   1.529906123647149e-07   1.7540210525822603e-05
-1.0571028890448347e-05   1.529906123647149e-07   1.7540210525822603e-05
-1.0571028890448347e-05   1.529906123647149e-07   1.7540210525822603e-05
-1.0571028890448347e-05   1.529906123647149e-07   1.7540210525822603e-05
-1.0993184970555862e-05   1.4240378341214477e-06   1.7481175659614422e-05
-1.0993184970555862e-05   1.4240378341214477e-06   1.7481175659614422e-05
-1.0993184970555862e-05   1.4240378341214477e-06   1.7481175659614422e-05
-1.0993184970555862e-05   1.4240378341214477e-06   1.7481175659614422e-05
-1.0571028890448347e-05   1.9595708624343088e-06   1.9474015779058517e-05
-1.0571028890448347e-05   1.9595708624343088e-06   1.9474015779058517e-05
-1.0571028890448347e-05   1.9595708624343088e-06   1.9474015779058517e-05
-1.0571028890448347e-05   1.9595708624343088e-06   1.9474015779058517e-05
-1.1731312042390096e-05   1.5299061236482333e-07   1.6456262375780912e-05
-1.1731312042390096e-05   1.5299061236482333e-07   1.6456262375780912e-05
-1.1731312042390096e-05   1.5299061236482333e-07   1.6456262375780912e-05
-1.1731312042390096e-05   1.5299061236482333e-07   1.6456262375780912e-05
-1.1806587941002255e-05   1.4492713420523893e-06   1.9206318833741437e-05
-1.1806587941002255e-05   1.4492713420523893e-06   1.9206318833741437e-05
-1.1806587941002255e-05   1.4492713420523893e-06   1.9206318833741437e-05
-1.1806587941002255e-05   1.4492713420523893e-06   1.9206318833741437e-05
-1.060126522533009e-05   -2.3778429799443338e-07   1.8209681024982218e-05
-1.060126522533009e-05   -2.3778429799443338e-07   1.8209681024982218e-05
-1.060126522533009e-05   -2.3778429799443338e-07   1.8209681024982218e-05
-1.060126522533009e-05   -2.3778429799443338e-07   1.8209681024982218e-05
-1.10486326589775e-05   1.0919632124012715e-06   1.8157444908156956e-05
-1.10486326589775e-05   1.0919632124012715e-06   1.8157444908156956e-05
-1.10486326589775e-05   1.0919632124012715e-06   1.8157444908156956e-05
-1.10486326589775e-05   1.0919632124012715e-06   1.8157444908156956e-05
-1.1585833650889143e-05   3.5734838932301605e-06   7.224356751130492e-06
-1.1585833650889143e-05   3.5734838932301605e-06   7.224356751130492e-06
-1.1585833650889143e-05   3.5734838932301605e-06   7.224356751130492e-06
-1.1585833650889143e-05   3.5734838932301605e-06   7.224356751130492e-06
-1.144748516405795e-05   1.6376616636242522e-06   6.293444224752403e-06
-1.144748516405795e-05   1.6376616636242522e-06   6.293444224752403e-06
-1.144748516405795e-05   1.6376616636242522e-06   6.293444224752403e-06
-1.144748516405795e-05   1.6376616636242522e-06   6.293444224752403e-06
-1.2036163891774817e-05   3.1989219262770112e-06   7.916331118264924e-06
-1.2036163891774817e-05   3.1989219262770112e-06   7.916331118264924e-06
-1.2036163891774817e-05   3.1989219262770112e-06   7.916331118264924e-06
-1.2036163891774817e-05   3.1989219262770112e-06   7.916331118264924e-06
-1.1605198618619471e-05   1.317258117449426e-06   8.327053948302778e-06
-1.1605198618619471e-05   1.317258117449426e-06   8.327053948302778e-06
-1.1605198618619471e-05   1.317258117449426e-06   8.327053948302778e-06
-1.1605198618619471e-05   1.317258117449426e-06   8.327053948302778e-06
-1.1289525088599412e-05   2.5143102081085595e-06   7.08270014387381e-06
-1.1289525088599412e-05   2.5143102081085595e-06   7.08270014387381e-06
-1.1289525088599412e-05   2.5143102081085595e-06   7.08270014387381e-06
-1.1289525088599412e-05   2.5143102081085595e-06   7.08270014387381e-06
-1.1605198618619471e-05   3.1989219262770112e-06   9.045329403561454e-06
-1.1605198618619471e-05   3.1989219262770112e-06   9.045329403561454e-06
-1.1605198618619471e-05   3.1989219262770112e-06   9.045329403561454e-06
-1.1605198618619471e-05   3.1989219262770112e-06   9.045329403561454e-06
-1.2036163891774871e-05   1.317258117449426e-06   7.198055663006303e-06
-1.2036163891774871e-05   1.317258117449426e-06   7.198055663006303e-06
-1.2036163891774871e-05   1.317258117449426e-06   7.198055663006303e-06
-1.2036163891774871e-05   1.317258117449426e-06   7.198055663006303e-06
-1.2553037313252531e-05   2.9416505676080427e-06   9.386867723950101e-06
-1.2553037313252531e-05   2.9416505676080427e-06   9.386867723950101e-06
-1.2553037313252531e-05   2.9416505676080427e-06   9.386867723950101e-06
-1.2553037313252531e-05   2.9416505676080427e-06   9.386867723950101e-06
-1.1731312042390096e-05   1.1077737312887572e-06   9.117651707637726e-06
-1.1731312042390096e-05   1.1077737312887572e-06   9.117651707637726e-06
-1.1731312042390096e-05   1.1077737312887572e-06   9.117651707637726e-06
-1.1731312042390096e-05   1.1077737312887572e-06   9.117651707637726e-06
-1.1709179427072449e-05   2.3272944615347927e-06   8.34905157729457e-06
-1.1709179427072449e-05   2.3272944615347927e-06   8.34905157729457e-06
-1.1709179427072449e-05   2.3272944615347927e-06   8.34905157729457e-06
-1.1709179427072449e-05   2.3272944615347927e-06   8.34905157729457e-06
-1.1731312042390096e-05   2.9416505676080427e-06   1.0487193825741803e-05
-1.1731312042390096e-05   2.9416505676080427e-06   1.0487193825741803e-05
-1.1731312042390096e-05   2.9416505676080427e-06   1.0487193825741803e-05
-1.1731312042390096e-05   2.9416505676080427e-06   1.0487193825741803e-05
-1.2553037313252585e-05   1.1077737312887572e-06   8.017325605846079e-06
-1.2553037313252585e-05   1.1077737312887572e-06   8.017325605846079e-06
-1.2553037313252585e-05   1.1077737312887572e-06   8.017325605846079e-06
-1.2553037313252585e-05   1.1077737312887572e-06   8.017325605846079e-06
-1.3321275748271768e-05   2.350720264400778e-06   1.2088174755608798e-05
-1.3321275748271768e-05   2.350720264400778e-06   1.2088174755608798e-05
-1.3321275748271768e-05   2.350720264400778e-06   1.2088174755608798e-05
-1.3321275748271768e-05   2.350720264400778e-06   1.2088174755608798e-05
-1.1806587941002255e-05   6.862124664192004e-07   1.056239975561488e-05
-1.1806587941002255e-05   6.862124664192004e-07   1.056239975561488e-05
-1.1806587941002255e-05   6.862124664192004e-07   1.056239975561488e-05
-1.1806587941002255e-05   6.862124664192004e-07   1.056239975561488e-05
-1.1851087817403826e-05   2.1047637522062868e-06   9.785435444810962e-06
-1.1851087817403826e-05   2.1047637522062868e-06   9.785435444810962e-06
-1.1851087817403826e-05   2.1047637522062868e-06   9.785435444810962e-06
-1.1851087817403826e-05   2.1047637522062868e-06   9.785435444810962e-06
-2.2780657165686854e-05   3.016631778838554e-06   8.791862694262724e-06
-2.2780657165686854e-05   3.016631778838554e-06   8.791862694262724e-06
-2.2780657165686854e-05   3.016631778838554e-06   8.791862694262724e-06
-2.2780657165686854e-05   3.016631778838554e-06   8.791862694262724e-06
-1.5381494344455217e-05   4.176846536637063e-06   2.1819929584327932e-05
-1.5381494344455217e-05   4.176846536637063e-06   2.1819929584327932e-05
-1.5381494344455217e-05   4.176846536637063e-06   2.1819929584327932e-05
-1.5381494344455217e-05   4.176846536637063e-06   2.1819929584327932e-05
-1.5374247372398734e-05   2.356426622509471e-06   9.98573179517248e-06
-1.5374247372398734e-05   2.356426622509471e-06   9.98573179517248e-06
-1.5374247372398734e-05   2.356426622509471e-06   9.98573179517248e-06
-1.5374247372398734e-05   2.356426622509471e-06   9.98573179517248e-06
-2.5093863349037035e-05   1.6916090037556362e-06   2.6583982327488747e-05
-2.5093863349037035e-05   1.6916090037556362e-06   2.6583982327488747e-05
-2.5093863349037035e-05   1.6916090037556362e-06   2.6583982327488747e-05
-2.5093863349037035e-05   1.6916090037556362e-06   2.6583982327488747e-05
-1.864315096033334e-05   2.4750275939058853e-06   1.536274385889237e-05
-1.864315096033334e-05   2.4750275939058853e-06   1.536274385889237e-05
-1.864315096033334e-05   2.4750275939058853e-06   1.536274385889237e-05
-1.864315096033334e-05   2.4750275939058853e-06   1.536274385889237e-05
-2.509386334903709e-05   2.356426622509471e-06   1.0384622366424673e-05
-2.509386334903709e-05   2.356426622509471e-06   1.0384622366424673e-05
-2.509386334903709e-05   2.356426622509471e-06   1.0384622366424673e-05
-2.509386334903709e-05   2.356426622509471e-06   1.0384622366424673e-05
-1.5374247372398714e-05   1.6916090037556362e-06   2.6185091756236473e-05
-1.5374247372398714e-05   1.6916090037556362e-06   2.6185091756236473e-05
-1.5374247372398714e-05   1.6916090037556362e-06   2.6185091756236473e-05
-1.5374247372398714e-05   1.6916090037556362e-06   2.6185091756236473e-05
-1.558423725470839e-05   1.9001755312545625e-06   1.11687656057995e-05
-1.558423725470839e-05   1.9001755312545625e-06   1.11687656057995e-05
-1.558423725470839e-05   1.9001755312545625e-06   1.11687656057995e-05
-1.558423725470839e-05   1.9001755312545625e-06   1.11687656057995e-05
-2.518242091973121e-05   1.2137010320939913e-06   2.7577623080333894e-05
-2.518242091973121e-05   1.2137010320939913e-06   2.7577623080333894e-05
-2.518242091973121e-05   1.2137010320939913e-06   2.7577623080333894e-05
-2.518242091973121e-05   1.2137010320939913e-06   2.7577623080333894e-05
-1.989421102131626e-05   1.546089108148325e-06   1.8564507070676237e-05
-1.989421102131626e-05   1.546089108148325e-06   1.8564507070676237e-05
-1.989421102131626e-05   1.546089108148325e-06   1.8564507070676237e-05
-1.989421102131626e-05   1.546089108148325e-06   1.8564507070676237e-05
-2.518242091973125e-05   1.9001755312545625e-06   1.1580650305295908e-05
-2.518242091973125e-05   1.9001755312545625e-06   1.1580650305295908e-05
-2.518242091973125e-05   1.9001755312545625e-06   1.1580650305295908e-05
-2.518242091973125e-05   1.9001755312545625e-06   1.1580650305295908e-05
-1.5584237254708364e-05   1.2137010320939913e-06   2.7165738380837594e-05
-1.5584237254708364e-05   1.2137010320939913e-06   2.7165738380837594e-05
-1.5584237254708364e-05   1.2137010320939913e-06   2.7165738380837594e-05
-1.5584237254708364e-05   1.2137010320939913e-06   2.7165738380837594e-05
-1.5418140651777328e-05   7.780658586464427e-07   1.3237953263219374e-05
-1.5418140651777328e-05   7.780658586464427e-07   1.3237953263219374e-05
-1.5418140651777328e-05   7.780658586464427e-07   1.3237953263219374e-05
-1.5418140651777328e-05   7.780658586464427e-07   1.3237953263219374e-05
-2.545537683567415e-05   -8.187584015026546e-07   3.092477479247012e-05
-2.545537683567415e-05   -8.187584015026546e-07   3.092477479247012e-05
-2.545537683567415e-05   -8.187584015026546e-07   3.092477479247012e-05
-2.545537683567415e-05   -8.187584015026546e-07   3.092477479247012e-05
-1.959084206653732e-05   7.495433842839416e-07   2.0209569105770108e-05
-1.959084206653732e-05   7.495433842839416e-07   2.0209569105770108e-05
-1.959084206653732e-05   7.495433842839416e-07   2.0209569105770108e-05
-1.959084206653732e-05   7.495433842839416e-07   2.0209569105770108e-05
-1.5381494344455244e-05   7.809194846656285e-07   2.0181834729839532e-05
-1.5381494344455244e-05   7.809194846656285e-07   2.0181834729839532e-05
-1.5381494344455244e-05   7.809194846656285e-07   2.0181834729839532e-05
-1.5381494344455244e-05   7.809194846656285e-07   2.0181834729839532e-05
-9.438861844252337e-06   -4.718045748754521e-06   2.678684309012561e-05
-9.438861844252337e-06   -4.718045748754521e-06   2.678684309012561e-05
-9.438861844252337e-06   -4.718045748754521e-06   2.678684309012561e-05
-9.438861844252337e-06   -4.718045748754521e-06   2.678684309012561e-05
-9.458208372000837e-06   3.7397743295598893e-07   1.6930371312561226e-05
-9.458208372000837e-06   3.7397743295598893e-07   1.6930371312561226e-05
-9.458208372000837e-06   3.7397743295598893e-07   1.6930371312561226e-05
-9.458208372000837e-06   3.7397743295598893e-07   1.6930371312561226e-05
-1.5374247372398714e-05   -3.864243262049626e-06   2.9333368730227705e-05
-1.5374247372398714e-05   -3.864243262049626e-06   2.9333368730227705e-05
-1.5374247372398714e-05   -3.864243262049626e-06   2.9333368730227705e-05
-1.5374247372398714e-05   -3.864243262049626e-06   2.9333368730227705e-05
-1.234743142347025e-05   -2.3332708743594344e-06   2.3370092049399503e-05
-1.234743142347025e-05   -2.3332708743594344e-06   2.3370092049399503e-05
-1.234743142347025e-05   -2.3332708743594344e-06   2.3370092049399503e-05
-1.234743142347025e-05   -2.3332708743594344e-06   2.3370092049399503e-05
-1.537424737239872e-05   3.7397743295598893e-07   1.947330372956428e-05
-1.537424737239872e-05   3.7397743295598893e-07   1.947330372956428e-05
-1.537424737239872e-05   3.7397743295598893e-07   1.947330372956428e-05
-1.537424737239872e-05   3.7397743295598893e-07   1.947330372956428e-05
-9.458208372000837e-06   -3.864243262049626e-06   2.67904363132243e-05
-9.458208372000837e-06   -3.864243262049626e-06   2.67904363132243e-05
-9.458208372000837e-06   -3.864243262049626e-06   2.67904363132243e-05
-9.458208372000837e-06   -3.864243262049626e-06   2.67904363132243e-05
-9.495698928226889e-06   -9.749063946819063e-08   1.7452472460104834e-05
-9.495698928226889e-06   -9.749063946819063e-08   1.7452472460104834e-05
-9.495698928226889e-06   -9.749063946819063e-08   1.7452472460104834e-05
-9.495698928226889e-06   -9.749063946819063e-08   1.7452472460104834e-05
-1.5584237254708364e-05   -3.951543254920083e-06   2.9912467906845235e-05
-1.5584237254708364e-05   -3.951543254920083e-06   2.9912467906845235e-05
-1.5584237254708364e-05   -3.951543254920083e-06   2.9912467906845235e-05
-1.5584237254708364e-05   -3.951543254920083e-06   2.9912467906845235e-05
-1.2257563923000915e-05   -2.0385860703388487e-06   2.3220238043250677e-05
-1.2257563923000915e-05   -2.0385860703388487e-06   2.3220238043250677e-05
-1.2257563923000915e-05   -2.0385860703388487e-06   2.3220238043250677e-05
-1.2257563923000915e-05   -2.0385860703388487e-06   2.3220238043250677e-05
-1.558423725470839e-05   -9.749063946819063e-08   1.976490402937623e-05
-1.558423725470839e-05   -9.749063946819063e-08   1.976490402937623e-05
-1.558423725470839e-05   -9.749063946819063e-08   1.976490402937623e-05
-1.558423725470839e-05   -9.749063946819063e-08   1.976490402937623e-05
-9.495698928226862e-06   -3.951543254920083e-06   2.760003633757403e-05
-9.495698928226862e-06   -3.951543254920083e-06   2.760003633757403e-05
-9.495698928226862e-06   -3.951543254920083e-06   2.760003633757403e-05
-9.495698928226862e-06   -3.951543254920083e-06   2.760003633757403e-05
-9.403415870291496e-06   -7.167869050660625e-07   1.810363660771755e-05
-9.403415870291496e-06   -7.167869050660625e-07   1.810363660771755e-05
-9.403415870291496e-06   -7.167869050660625e-07   1.810363660771755e-05
-9.403415870291496e-06   -7.167869050660625e-07   1.810363660771755e-05
-1.5418140651777294e-05   -3.986487925010981e-06   3.008999852216082e-05
-1.5418140651777294e-05   -3.986487925010981e-06   3.008999852216082e-05
-1.5418140651777294e-05   -3.986487925010981e-06   3.008999852216082e-05
-1.5418140651777294e-05   -3.986487925010981e-06   3.008999852216082e-05
-1.2314978183416365e-05   -2.288329343325807e-06   2.3899165925881483e-05
-1.2314978183416365e-05   -2.288329343325807e-06   2.3899165925881483e-05
-1.2314978183416365e-05   -2.288329343325807e-06   2.3899165925881483e-05
-1.2314978183416365e-05   -2.288329343325807e-06   2.3899165925881483e-05
-9.438861844252337e-06   2.1740545291316134e-07   1.8657873459486266e-05
-9.438861844252337e-06   2.1740545291316134e-07   1.8657873459486266e-05
-9.438861844252337e-06   2.1740545291316134e-07   1.8657873459486266e-05
-9.438861844252337e-06   2.1740545291316134e-07   1.8657873459486266e-05
-6.947683971173413e-06   -3.6858241170062075e-06   2.0467898839332776e-05
-6.947683971173413e-06   -3.6858241170062075e-06   2.0467898839332776e-05
-6.947683971173413e-06   -3.6858241170062075e-06   2.0467898839332776e-05
-6.947683971173413e-06   -3.6858241170062075e-06   2.0467898839332776e-05
-6.886077459803167e-06   -1.260869296290006e-07   1.6468000735032104e-05
-6.886077459803167e-06   -1.260869296290006e-07   1.6468000735032104e-05
-6.886077459803167e-06   -1.260869296290006e-07   1.6468000735032104e-05
-6.886077459803167e-06   -1.260869296290006e-07   1.6468000735032104e-05
-9.458208372000837e-06   -3.6199140452676504e-06   2.2851181858077996e-05
-9.458208372000837e-06   -3.6199140452676504e-06   2.2851181858077996e-05
-9.458208372000837e-06   -3.6199140452676504e-06   2.2851181858077996e-05
-9.458208372000837e-06   -3.6199140452676504e-06   2.2851181858077996e-05
-8.132497370623388e-06   -1.862491012637386e-06   1.9587209702870846e-05
-8.132497370623388e-06   -1.862491012637386e-06   1.9587209702870846e-05
-8.132497370623388e-06   -1.862491012637386e-06   1.9587209702870846e-05
-8.132497370623388e-06   -1.862491012637386e-06   1.9587209702870846e-05
-9.458208372000837e-06   -1.260869296290006e-07   1.8564297004415088e-05
-9.458208372000837e-06   -1.260869296290006e-07   1.8564297004415088e-05
-9.458208372000837e-06   -1.260869296290006e-07   1.8564297004415088e-05
-9.458208372000837e-06   -1.260869296290006e-07   1.8564297004415088e-05
-6.886077459803167e-06   -3.6199140452676504e-06   2.0754885588694904e-05
-6.886077459803167e-06   -3.6199140452676504e-06   2.0754885588694904e-05
-6.886077459803167e-06   -3.6199140452676504e-06   2.0754885588694904e-05
-6.886077459803167e-06   -3.6199140452676504e-06   2.0754885588694904e-05
-6.833390895691691e-06   -5.373891567887149e-07   1.6861364284247583e-05
-6.833390895691691e-06   -5.373891567887149e-07   1.6861364284247583e-05
-6.833390895691691e-06   -5.373891567887149e-07   1.6861364284247583e-05
-6.833390895691691e-06   -5.373891567887149e-07   1.6861364284247583e-05
-9.495698928226862e-06   -3.730250832971384e-06   2.3214261344182513e-05
-9.495698928226862e-06   -3.730250832971384e-06   2.3214261344182513e-05
-9.495698928226862e-06   -3.730250832971384e-06   2.3214261344182513e-05
-9.495698928226862e-06   -3.730250832971384e-06   2.3214261344182513e-05
-8.061185465134952e-06   -1.98588800088016e-06   1.9776787873107624e-05
-8.061185465134952e-06   -1.98588800088016e-06   1.9776787873107624e-05
-8.061185465134952e-06   -1.98588800088016e-06   1.9776787873107624e-05
-8.061185465134952e-06   -1.98588800088016e-06   1.9776787873107624e-05
-9.495698928226862e-06   -5.373891567887149e-07   1.8777081289957337e-05
-9.495698928226862e-06   -5.373891567887149e-07   1.8777081289957337e-05
-9.495698928226862e-06   -5.373891567887149e-07   1.8777081289957337e-05
-9.495698928226862e-06   -5.373891567887149e-07   1.8777081289957337e-05
-6.833390895691691e-06   -3.730250832971384e-06   2.1298544338472922e-05
-6.833390895691691e-06   -3.730250832971384e-06   2.1298544338472922e-05
-6.833390895691691e-06   -3.730250832971384e-06   2.1298544338472922e-05
-6.833390895691691e-06   -3.730250832971384e-06   2.1298544338472922e-05
-6.700063756244831e-06   -9.502411553884062e-07   1.747056956455102e-05
-6.700063756244831e-06   -9.502411553884062e-07   1.747056956455102e-05
-6.700063756244831e-06   -9.502411553884062e-07   1.747056956455102e-05
-6.700063756244831e-06   -9.502411553884062e-07   1.747056956455102e-05
-9.403415870291469e-06   -3.886240616107479e-06   2.3737756097726712e-05
-9.403415870291469e-06   -3.886240616107479e-06   2.3737756097726712e-05
-9.403415870291469e-06   -3.886240616107479e-06   2.3737756097726712e-05
-9.403415870291469e-06   -3.886240616107479e-06   2.3737756097726712e-05
-7.977855822128533e-06   -2.165979149780831e-06   2.0329665804325926e-05
-7.977855822128533e-06   -2.165979149780831e-06   2.0329665804325926e-05
-7.977855822128533e-06   -2.165979149780831e-06   2.0329665804325926e-05
-7.977855822128533e-06   -2.165979149780831e-06   2.0329665804325926e-05
-6.947683971173413e-06   9.932409353877658e-07   1.2698251952073035e-05
-6.947683971173413e-06   9.932409353877658e-07   1.2698251952073035e-05
-6.947683971173413e-06   9.932409353877658e-07   1.2698251952073035e-05
-6.947683971173413e-06   9.932409353877658e-07   1.2698251952073035e-05
-5.79677785388197e-06   -1.5127772626124083e-06   1.311281789542537e-05
-5.79677785388197e-06   -1.5127772626124083e-06   1.311281789542537e-05
-5.79677785388197e-06   -1.5127772626124083e-06   1.311281789542537e-05
-5.79677785388197e-06   -1.5127772626124083e-06   1.311281789542537e-05
-5.672809911661414e-06   5.406115403047695e-07   1.1465553212999498e-05
-5.672809911661414e-06   5.406115403047695e-07   1.1465553212999498e-05
-5.672809911661414e-06   5.406115403047695e-07   1.1465553212999498e-05
-5.672809911661414e-06   5.406115403047695e-07   1.1465553212999498e-05
-6.886077459803167e-06   -1.7705139983082764e-06   1.4874341116403685e-05
-6.886077459803167e-06   -1.7705139983082764e-06   1.4874341116403685e-05
-6.886077459803167e-06   -1.7705139983082764e-06   1.4874341116403685e-05
-6.886077459803167e-06   -1.7705139983082764e-06   1.4874341116403685e-05
-6.279701190034013e-06   -3.4517202078006423e-07   1.3008508813604756e-05
-6.279701190034013e-06   -3.4517202078006423e-07   1.3008508813604756e-05
-6.279701190034013e-06   -3.4517202078006423e-07   1.3008508813604756e-05
-6.279701190034013e-06   -3.4517202078006423e-07   1.3008508813604756e-05
-6.886077459803167e-06   5.406115403047695e-07   1.2852228536167087e-05
-6.886077459803167e-06   5.406115403047695e-07   1.2852228536167087e-05
-6.886077459803167e-06   5.406115403047695e-07   1.2852228536167087e-05
-6.886077459803167e-06   5.406115403047695e-07   1.2852228536167087e-05
-5.672809911661414e-06   -1.7705139983082764e-06   1.3487665793235798e-05
-5.672809911661414e-06   -1.7705139983082764e-06   1.3487665793235798e-05
-5.672809911661414e-06   -1.7705139983082764e-06   1.3487665793235798e-05
-5.672809911661414e-06   -1.7705139983082764e-06   1.3487665793235798e-05
-5.6172887794532825e-06   1.529906123647149e-07   1.2007485819877893e-05
-5.6172887794532825e-06   1.529906123647149e-07   1.2007485819877893e-05
-5.6172887794532825e-06   1.529906123647149e-07   1.2007485819877893e-05
-5.6172887794532825e-06   1.529906123647149e-07   1.2007485819877893e-05
-6.833390895691691e-06   -1.9678232482920363e-06   1.5306810996669213e-05
-6.833390895691691e-06   -1.9678232482920363e-06   1.5306810996669213e-05
-6.833390895691691e-06   -1.9678232482920363e-06   1.5306810996669213e-05
-6.833390895691691e-06   -1.9678232482920363e-06   1.5306810996669213e-05
-6.156754335650218e-06   -6.208422538456107e-07   1.337089479993192e-05
-6.156754335650218e-06   -6.208422538456107e-07   1.337089479993192e-05
-6.156754335650218e-06   -6.208422538456107e-07   1.337089479993192e-05
-6.156754335650218e-06   -6.208422538456107e-07   1.337089479993192e-05
-6.833390895691691e-06   1.529906123647149e-07   1.3279974136271857e-05
-6.833390895691691e-06   1.529906123647149e-07   1.3279974136271857e-05
-6.833390895691691e-06   1.529906123647149e-07   1.3279974136271857e-05
-6.833390895691691e-06   1.529906123647149e-07   1.3279974136271857e-05
-5.617288779453337e-06   -1.9678232482920905e-06   1.4034322680275113e-05
-5.617288779453337e-06   -1.9678232482920905e-06   1.4034322680275113e-05
-5.617288779453337e-06   -1.9678232482920905e-06   1.4034322680275113e-05
-5.617288779453337e-06   -1.9678232482920905e-06   1.4034322680275113e-05
-5.525234705032413e-06   -2.3778429799443338e-07   1.2688043804017987e-05
-5.525234705032413e-06   -2.3778429799443338e-07   1.2688043804017987e-05
-5.525234705032413e-06   -2.3778429799443338e-07   1.2688043804017987e-05
-5.525234705032413e-06   -2.3778429799443338e-07   1.2688043804017987e-05
-6.700063756244831e-06   -2.226512845451519e-06   1.5839329351179543e-05
-6.700063756244831e-06   -2.226512845451519e-06   1.5839329351179543e-05
-6.700063756244831e-06   -2.226512845451519e-06   1.5839329351179543e-05
-6.700063756244831e-06   -2.226512845451519e-06   1.5839329351179543e-05
-6.061656825479485e-06   -8.624942721443922e-07   1.3956906655920019e-05
-6.061656825479485e-06   -8.624942721443922e-07   1.3956906655920019e-05
-6.061656825479485e-06   -8.624942721443922e-07   1.3956906655920019e-05
-6.061656825479485e-06   -8.624942721443922e-07   1.3956906655920019e-05
-5.79677785388197e-06   1.6376616636242522e-06   2.9030276738375147e-06
-5.79677785388197e-06   1.6376616636242522e-06   2.9030276738375147e-06
-5.79677785388197e-06   1.6376616636242522e-06   2.9030276738375147e-06
-5.79677785388197e-06   1.6376616636242522e-06   2.9030276738375147e-06
-3.358969113090738e-06   -1.6872827938942039e-07   5.88220827601473e-06
-3.358969113090738e-06   -1.6872827938942039e-07   5.88220827601473e-06
-3.358969113090738e-06   -1.6872827938942039e-07   5.88220827601473e-06
-3.358969113090738e-06   -1.6872827938942039e-07   5.88220827601473e-06
-3.5501801824411837e-06   1.317258117449426e-06   2.9298664918430513e-06
-3.5501801824411837e-06   1.317258117449426e-06   2.9298664918430513e-06
-3.5501801824411837e-06   1.317258117449426e-06   2.9298664918430513e-06
-3.5501801824411837e-06   1.317258117449426e-06   2.9298664918430513e-06
-5.672809911661414e-06   -2.3548110406296056e-07   7.399226240117516e-06
-5.672809911661414e-06   -2.3548110406296056e-07   7.399226240117516e-06
-5.672809911661414e-06   -2.3548110406296056e-07   7.399226240117516e-06
-5.672809911661414e-06   -2.3548110406296056e-07   7.399226240117516e-06
-4.436662215422278e-06   8.42001120154401e-07   4.692490745188561e-06
-4.436662215422278e-06   8.42001120154401e-07   4.692490745188561e-06
-4.436662215422278e-06   8.42001120154401e-07   4.692490745188561e-06
-4.436662215422278e-06   8.42001120154401e-07   4.692490745188561e-06
-5.67280991166136e-06   1.3172581174495344e-06   3.861510024750212e-06
-5.67280991166136e-06   1.3172581174495344e-06   3.861510024750212e-06
-5.67280991166136e-06   1.3172581174495344e-06   3.861510024750212e-06
-5.67280991166136e-06   1.3172581174495344e-06   3.861510024750212e-06
-3.5501801824411837e-06   -2.3548110406301477e-07   6.46758270721003e-06
-3.5501801824411837e-06   -2.3548110406301477e-07   6.46758270721003e-06
-3.5501801824411837e-06   -2.3548110406301477e-07   6.46758270721003e-06
-3.5501801824411837e-06   -2.3548110406301477e-07   6.46758270721003e-06
-3.7071931642157258e-06   1.1077737312887572e-06   3.8087490215410816e-06
-3.7071931642157258e-06   1.1077737312887572e-06   3.8087490215410816e-06
-3.7071931642157258e-06   1.1077737312887572e-06   3.8087490215410816e-06
-3.7071931642157258e-06   1.1077737312887572e-06   3.8087490215410816e-06
-5.6172887794532825e-06   -3.257698190340069e-07   7.852367843797447e-06
-5.6172887794532825e-06   -3.257698190340069e-07   7.852367843797447e-06
-5.6172887794532825e-06   -3.257698190340069e-07   7.852367843797447e-06
-5.6172887794532825e-06   -3.257698190340069e-07   7.852367843797447e-06
-4.515442997928562e-06   6.836635883338796e-07   5.41029816350199e-06
-4.515442997928562e-06   6.836635883338796e-07   5.41029816350199e-06
-4.515442997928562e-06   6.836635883338796e-07   5.41029816350199e-06
-4.515442997928562e-06   6.836635883338796e-07   5.41029816350199e-06
-5.617288779453337e-06   1.1077737312887572e-06   4.668875151734816e-06
-5.617288779453337e-06   1.1077737312887572e-06   4.668875151734816e-06
-5.617288779453337e-06   1.1077737312887572e-06   4.668875151734816e-06
-5.617288779453337e-06   1.1077737312887572e-06   4.668875151734816e-06
-3.7071931642157258e-06   -3.257698190339527e-07   6.9922417136037665e-06
-3.7071931642157258e-06   -3.257698190339527e-07   6.9922417136037665e-06
-3.7071931642157258e-06   -3.257698190339527e-07   6.9922417136037665e-06
-3.7071931642157258e-06   -3.257698190339527e-07   6.9922417136037665e-06
-4.092637186711354e-06   6.862124664192004e-07   5.379911166108727e-06
-4.092637186711354e-06   6.862124664192004e-07   5.379911166108727e-06
-4.092637186711354e-06   6.862124664192004e-07   5.379911166108727e-06
-4.092637186711354e-06   6.862124664192004e-07   5.379911166108727e-06
-5.525234705032413e-06   -4.3559545453091637e-07   8.44065844921374e-06
-5.525234705032413e-06   -4.3559545453091637e-07   8.44065844921374e-06
-5.525234705032413e-06   -4.3559545453091637e-07   8.44065844921374e-06
-5.525234705032413e-06   -4.3559545453091637e-07   8.44065844921374e-06
-4.526238173358752e-06   5.763986393777631e-07   6.168467773412533e-06
-4.526238173358752e-06   5.763986393777631e-07   6.168467773412533e-06
-4.526238173358752e-06   5.763986393777631e-07   6.168467773412533e-06
-4.526238173358752e-06   5.763986393777631e-07   6.168467773412533e-06
-5.3371690543772094e-05   4.176846536637117e-06   2.287425433137463e-05
-5.3371690543772094e-05   4.176846536637117e-06   2.287425433137463e-05
-5.3371690543772094e-05   4.176846536637117e-06   2.287425433137463e-05
-5.3371690543772094e-05   4.176846536637117e-06   2.287425433137463e-05
-1.2546767479177715e-05   -2.60838278702941e-05   7.275938812820658e-05
-1.2546767479177715e-05   -2.60838278702941e-05   7.275938812820658e-05
-1.2546767479177715e-05   -2.60838278702941e-05   7.275938812820658e-05
-1.2546767479177715e-05   -2.60838278702941e-05   7.275938812820658e-05
-1.4726938263533505e-05   1.6916090037556362e-06   1.2556110881183324e-05
-1.4726938263533505e-05   1.6916090037556362e-06   1.2556110881183324e-05
-1.4726938263533505e-05   1.6916090037556362e-06   1.2556110881183324e-05
-1.4726938263533505e-05   1.6916090037556362e-06   1.2556110881183324e-05
-4.8676528033944375e-05   -2.0274179718607237e-05   8.231823373195238e-05
-4.8676528033944375e-05   -2.0274179718607237e-05   8.231823373195238e-05
-4.8676528033944375e-05   -2.0274179718607237e-05   8.231823373195238e-05
-4.8676528033944375e-05   -2.0274179718607237e-05   8.231823373195238e-05
-3.2454786517239925e-05   -1.0093469233887666e-05   4.9173571579946546e-05
-3.2454786517239925e-05   -1.0093469233887666e-05   4.9173571579946546e-05
-3.2454786517239925e-05   -1.0093469233887666e-05   4.9173571579946546e-05
-3.2454786517239925e-05   -1.0093469233887666e-05   4.9173571579946546e-05
-4.8676528033944294e-05   1.6916090037556362e-06   2.573558411460099e-05
-4.8676528033944294e-05   1.6916090037556362e-06   2.573558411460099e-05
-4.8676528033944294e-05   1.6916090037556362e-06   2.573558411460099e-05
-4.8676528033944294e-05   1.6916090037556362e-06   2.573558411460099e-05
-1.4726938263533526e-05   -2.0274179718607237e-05   6.913876049853467e-05
-1.4726938263533526e-05   -2.0274179718607237e-05   6.913876049853467e-05
-1.4726938263533526e-05   -2.0274179718607237e-05   6.913876049853467e-05
-1.4726938263533526e-05   -2.0274179718607237e-05   6.913876049853467e-05
-1.5060061948651376e-05   1.2137010320939913e-06   1.3797708149536003e-05
-1.5060061948651376e-05   1.2137010320939913e-06   1.3797708149536003e-05
-1.5060061948651376e-05   1.2137010320939913e-06   1.3797708149536003e-05
-1.5060061948651376e-05   1.2137010320939913e-06   1.3797708149536003e-05
-4.592767813859209e-05   -1.7474842073058037e-05   7.645686099586163e-05
-4.592767813859209e-05   -1.7474842073058037e-05   7.645686099586163e-05
-4.592767813859209e-05   -1.7474842073058037e-05   7.645686099586163e-05
-4.592767813859209e-05   -1.7474842073058037e-05   7.645686099586163e-05
-3.14841718665491e-05   -9.562583632820282e-06   4.763699547831405e-05
-3.14841718665491e-05   -9.562583632820282e-06   4.763699547831405e-05
-3.14841718665491e-05   -9.562583632820282e-06   4.763699547831405e-05
-3.14841718665491e-05   -9.562583632820282e-06   4.763699547831405e-05
-4.592767813859201e-05   1.2137010320939913e-06   2.5010834012627222e-05
-4.592767813859201e-05   1.2137010320939913e-06   2.5010834012627222e-05
-4.592767813859201e-05   1.2137010320939913e-06   2.5010834012627222e-05
-4.592767813859201e-05   1.2137010320939913e-06   2.5010834012627222e-05
-1.5060061948651404e-05   -1.7474842073058037e-05   6.52437351327704e-05
-1.5060061948651404e-05   -1.7474842073058037e-05   6.52437351327704e-05
-1.5060061948651404e-05   -1.7474842073058037e-05   6.52437351327704e-05
-1.5060061948651404e-05   -1.7474842073058037e-05   6.52437351327704e-05
-1.649686449621797e-05   -8.187584015026546e-07   1.7277837315761937e-05
-1.649686449621797e-05   -8.187584015026546e-07   1.7277837315761937e-05
-1.649686449621797e-05   -8.187584015026546e-07   1.7277837315761937e-05
-1.649686449621797e-05   -8.187584015026546e-07   1.7277837315761937e-05
-4.24040554784956e-05   -1.3757293757644312e-05   6.821961016657619e-05
-4.24040554784956e-05   -1.3757293757644312e-05   6.821961016657619e-05
-4.24040554784956e-05   -1.3757293757644312e-05   6.821961016657619e-05
-4.24040554784956e-05   -1.3757293757644312e-05   6.821961016657619e-05
-3.0283306338751022e-05   -8.827150872797534e-06   4.5060275869427195e-05
-3.0283306338751022e-05   -8.827150872797534e-06   4.5060275869427195e-05
-3.0283306338751022e-05   -8.827150872797534e-06   4.5060275869427195e-05
-3.0283306338751022e-05   -8.827150872797534e-06   4.5060275869427195e-05
-1.2546767479177688e-05   -4.718045748754521e-06   1.2984142333065645e-05
-1.2546767479177688e-05   -4.718045748754521e-06   1.2984142333065645e-05
-1.2546767479177688e-05   -4.718045748754521e-06   1.2984142333065645e-05
-1.2546767479177688e-05   -4.718045748754521e-06   1.2984142333065645e-05
-4.37045601899954e-06   -8.086927558535832e-06   2.4589999014160423e-05
-4.37045601899954e-06   -8.086927558535832e-06   2.4589999014160423e-05
-4.37045601899954e-06   -8.086927558535832e-06   2.4589999014160423e-05
-4.37045601899954e-06   -8.086927558535832e-06   2.4589999014160423e-05
-4.882387327272928e-06   -3.864243262049626e-06   1.1590057337666966e-05
-4.882387327272928e-06   -3.864243262049626e-06   1.1590057337666966e-05
-4.882387327272928e-06   -3.864243262049626e-06   1.1590057337666966e-05
-4.882387327272928e-06   -3.864243262049626e-06   1.1590057337666966e-05
-1.4726938263533526e-05   -1.0721460791229044e-05   3.211197274894215e-05
-1.4726938263533526e-05   -1.0721460791229044e-05   3.211197274894215e-05
-1.4726938263533526e-05   -1.0721460791229044e-05   3.211197274894215e-05
-1.4726938263533526e-05   -1.0721460791229044e-05   3.211197274894215e-05
-8.655454218370023e-06   -5.617113070610218e-06   1.8930224041298273e-05
-8.655454218370023e-06   -5.617113070610218e-06   1.8930224041298273e-05
-8.655454218370023e-06   -5.617113070610218e-06   1.8930224041298273e-05
-8.655454218370023e-06   -5.617113070610218e-06   1.8930224041298273e-05
-1.4726938263533478e-05   -3.864243262049626e-06   1.5704387855174475e-05
-1.4726938263533478e-05   -3.864243262049626e-06   1.5704387855174475e-05
-1.4726938263533478e-05   -3.864243262049626e-06   1.5704387855174475e-05
-1.4726938263533478e-05   -3.864243262049626e-06   1.5704387855174475e-05
-4.882387327272928e-06   -1.0721460791229044e-05   2.799764223143452e-05
-4.882387327272928e-06   -1.0721460791229044e-05   2.799764223143452e-05
-4.882387327272928e-06   -1.0721460791229044e-05   2.799764223143452e-05
-4.882387327272928e-06   -1.0721460791229044e-05   2.799764223143452e-05
-5.320995693068831e-06   -3.951543254920138e-06   1.3031893158314334e-05
-5.320995693068831e-06   -3.951543254920138e-06   1.3031893158314334e-05
-5.320995693068831e-06   -3.951543254920138e-06   1.3031893158314334e-05
-5.320995693068831e-06   -3.951543254920138e-06   1.3031893158314334e-05
-1.5060061948651404e-05   -9.805784116969016e-06   3.2776214768181144e-05
-1.5060061948651404e-05   -9.805784116969016e-06   3.2776214768181144e-05
-1.5060061948651404e-05   -9.805784116969016e-06   3.2776214768181144e-05
-1.5060061948651404e-05   -9.805784116969016e-06   3.2776214768181144e-05
-9.760308087947469e-06   -6.86735797907298e-06   2.2180235984270463e-05
-9.760308087947469e-06   -6.86735797907298e-06   2.2180235984270463e-05
-9.760308087947469e-06   -6.86735797907298e-06   2.2180235984270463e-05
-9.760308087947469e-06   -6.86735797907298e-06   2.2180235984270463e-05
-1.5060061948651404e-05   -3.951543254920138e-06   1.6544437675543658e-05
-1.5060061948651404e-05   -3.951543254920138e-06   1.6544437675543658e-05
-1.5060061948651404e-05   -3.951543254920138e-06   1.6544437675543658e-05
-1.5060061948651404e-05   -3.951543254920138e-06   1.6544437675543658e-05
-5.320995693068831e-06   -9.805784116969016e-06   2.926367025095182e-05
-5.320995693068831e-06   -9.805784116969016e-06   2.926367025095182e-05
-5.320995693068831e-06   -9.805784116969016e-06   2.926367025095182e-05
-5.320995693068831e-06   -9.805784116969016e-06   2.926367025095182e-05
-6.03449060798149e-06   -3.986487925011035e-06   1.4256120896473693e-05
-6.03449060798149e-06   -3.986487925011035e-06   1.4256120896473693e-05
-6.03449060798149e-06   -3.986487925011035e-06   1.4256120896473693e-05
-6.03449060798149e-06   -3.986487925011035e-06   1.4256120896473693e-05
-1.649686449621798e-05   -9.228212433458442e-06   3.483844541526951e-05
-1.649686449621798e-05   -9.228212433458442e-06   3.483844541526951e-05
-1.649686449621798e-05   -9.228212433458442e-06   3.483844541526951e-05
-1.649686449621798e-05   -9.228212433458442e-06   3.483844541526951e-05
-1.04053346717307e-05   -6.27022847970646e-06   2.2911105335539524e-05
-1.04053346717307e-05   -6.27022847970646e-06   2.2911105335539524e-05
-1.04053346717307e-05   -6.27022847970646e-06   2.2911105335539524e-05
-1.04053346717307e-05   -6.27022847970646e-06   2.2911105335539524e-05
-4.37045601899954e-06   -3.6858241170062075e-06   6.985806738355632e-06
-4.37045601899954e-06   -3.6858241170062075e-06   6.985806738355632e-06
-4.37045601899954e-06   -3.6858241170062075e-06   6.985806738355632e-06
-4.37045601899954e-06   -3.6858241170062075e-06   6.985806738355632e-06
-2.4384499334126905e-06   -2.25990240300858e-06   1.1061369909399018e-05
-2.4384499334126905e-06   -2.25990240300858e-06   1.1061369909399018e-05
-2.4384499334126905e-06   -2.25990240300858e-06   1.1061369909399018e-05
-2.4384499334126905e-06   -2.25990240300858e-06   1.1061369909399018e-05
-2.343945036110322e-06   -3.6199140452676504e-06   8.047990590036877e-06
-2.343945036110322e-06   -3.6199140452676504e-06   8.047990590036877e-06
-2.343945036110322e-06   -3.6199140452676504e-06   8.047990590036877e-06
-2.343945036110322e-06   -3.6199140452676504e-06   8.047990590036877e-06
-4.882387327272928e-06   -2.9579345327405596e-06   1.188154003445825e-05
-4.882387327272928e-06   -2.9579345327405596e-06   1.188154003445825e-05
-4.882387327272928e-06   -2.9579345327405596e-06   1.188154003445825e-05
-4.882387327272928e-06   -2.9579345327405596e-06   1.188154003445825e-05
-3.2867517265911943e-06   -2.963406985190888e-06   9.225430838125342e-06
-3.2867517265911943e-06   -2.963406985190888e-06   9.225430838125342e-06
-3.2867517265911943e-06   -2.963406985190888e-06   9.225430838125342e-06
-3.2867517265911943e-06   -2.963406985190888e-06   9.225430838125342e-06
-4.882387327272928e-06   -3.6199140452676504e-06   7.650802882520636e-06
-4.882387327272928e-06   -3.6199140452676504e-06   7.650802882520636e-06
-4.882387327272928e-06   -3.6199140452676504e-06   7.650802882520636e-06
-4.882387327272928e-06   -3.6199140452676504e-06   7.650802882520636e-06
-2.343945036110322e-06   -2.957934532740553e-06   1.2278727741974464e-05
-2.343945036110322e-06   -2.957934532740553e-06   1.2278727741974464e-05
-2.343945036110322e-06   -2.957934532740553e-06   1.2278727741974464e-05
-2.343945036110322e-06   -2.957934532740553e-06   1.2278727741974464e-05
-2.348360231040742e-06   -3.730250832971384e-06   8.605163953516958e-06
-2.348360231040742e-06   -3.730250832971384e-06   8.605163953516958e-06
-2.348360231040742e-06   -3.730250832971384e-06   8.605163953516958e-06
-2.348360231040742e-06   -3.730250832971384e-06   8.605163953516958e-06
-5.320995693068831e-06   -3.7985078519811648e-06   1.3600510601636173e-05
-5.320995693068831e-06   -3.7985078519811648e-06   1.3600510601636173e-05
-5.320995693068831e-06   -3.7985078519811648e-06   1.3600510601636173e-05
-5.320995693068831e-06   -3.7985078519811648e-06   1.3600510601636173e-05
-3.4856710502767453e-06   -3.2400669046228224e-06   1.020657162856774e-05
-3.4856710502767453e-06   -3.2400669046228224e-06   1.020657162856774e-05
-3.4856710502767453e-06   -3.2400669046228224e-06   1.020657162856774e-05
-3.4856710502767453e-06   -3.2400669046228224e-06   1.020657162856774e-05
-5.320995693068831e-06   -3.7302508329714384e-06   8.646118164922791e-06
-5.320995693068831e-06   -3.7302508329714384e-06   8.646118164922791e-06
-5.320995693068831e-06   -3.7302508329714384e-06   8.646118164922791e-06
-5.320995693068831e-06   -3.7302508329714384e-06   8.646118164922791e-06
-2.348360231040742e-06   -3.7985078519811648e-06   1.3559556390230313e-05
-2.348360231040742e-06   -3.7985078519811648e-06   1.3559556390230313e-05
-2.348360231040742e-06   -3.7985078519811648e-06   1.3559556390230313e-05
-2.348360231040742e-06   -3.7985078519811648e-06   1.3559556390230313e-05
-2.384899494992565e-06   -3.886240616107479e-06   9.439067914681883e-06
-2.384899494992565e-06   -3.886240616107479e-06   9.439067914681883e-06
-2.384899494992565e-06   -3.886240616107479e-06   9.439067914681883e-06
-2.384899494992565e-06   -3.886240616107479e-06   9.439067914681883e-06
-6.034490607981517e-06   -4.597292564982095e-06   1.594835093898805e-05
-6.034490607981517e-06   -4.597292564982095e-06   1.594835093898805e-05
-6.034490607981517e-06   -4.597292564982095e-06   1.594835093898805e-05
-6.034490607981517e-06   -4.597292564982095e-06   1.594835093898805e-05
-3.712400033167637e-06   -3.5378641576931744e-06   1.1442542936591644e-05
-3.712400033167637e-06   -3.5378641576931744e-06   1.1442542936591644e-05
-3.712400033167637e-06   -3.5378641576931744e-06   1.1442542936591644e-05
-3.712400033167637e-06   -3.5378641576931744e-06   1.1442542936591644e-05
-2.4384499334126905e-06   -1.5127772626124083e-06   1.9898897416469334e-06
-2.4384499334126905e-06   -1.5127772626124083e-06   1.9898897416469334e-06
-2.4384499334126905e-06   -1.5127772626124083e-06   1.9898897416469334e-06
-2.4384499334126905e-06   -1.5127772626124083e-06   1.9898897416469334e-06
-1.8115987884369657e-06   3.882314558248807e-07   4.175246881002166e-06
-1.8115987884369657e-06   3.882314558248807e-07   4.175246881002166e-06
-1.8115987884369657e-06   3.882314558248807e-07   4.175246881002166e-06
-1.8115987884369657e-06   3.882314558248807e-07   4.175246881002166e-06
-1.4664209820381183e-06   -1.7705139983082764e-06   3.3125255885454487e-06
-1.4664209820381183e-06   -1.7705139983082764e-06   3.3125255885454487e-06
-1.4664209820381183e-06   -1.7705139983082764e-06   3.3125255885454487e-06
-1.4664209820381183e-06   -1.7705139983082764e-06   3.3125255885454487e-06
-2.343945036110322e-06   1.379517863580836e-07   3.629986207865862e-06
-2.343945036110322e-06   1.379517863580836e-07   3.629986207865862e-06
-2.343945036110322e-06   1.379517863580836e-07   3.629986207865862e-06
-2.343945036110322e-06   1.379517863580836e-07   3.629986207865862e-06
-1.8907089909168083e-06   -7.109114991799383e-07   3.3839107705326997e-06
-1.8907089909168083e-06   -7.109114991799383e-07   3.3839107705326997e-06
-1.8907089909168083e-06   -7.109114991799383e-07   3.3839107705326997e-06
-1.8907089909168083e-06   -7.109114991799383e-07   3.3839107705326997e-06
-2.343945036110322e-06   -1.7705139983082764e-06   2.1674461177456313e-06
-2.343945036110322e-06   -1.7705139983082764e-06   2.1674461177456313e-06
-2.343945036110322e-06   -1.7705139983082764e-06   2.1674461177456313e-06
-2.343945036110322e-06   -1.7705139983082764e-06   2.1674461177456313e-06
-1.4664209820381183e-06   1.379517863580836e-07   4.775065678665679e-06
-1.4664209820381183e-06   1.379517863580836e-07   4.775065678665679e-06
-1.4664209820381183e-06   1.379517863580836e-07   4.775065678665679e-06
-1.4664209820381183e-06   1.379517863580836e-07   4.775065678665679e-06
-1.2772738050171196e-06   -1.9678232482920905e-06   3.6390225907627534e-06
-1.2772738050171196e-06   -1.9678232482920905e-06   3.6390225907627534e-06
-1.2772738050171196e-06   -1.9678232482920905e-06   3.6390225907627534e-06
-1.2772738050171196e-06   -1.9678232482920905e-06   3.6390225907627534e-06
-2.348360231040742e-06   -2.58503283209375e-07   4.398574655085745e-06
-2.348360231040742e-06   -2.58503283209375e-07   4.398574655085745e-06
-2.348360231040742e-06   -2.58503283209375e-07   4.398574655085745e-06
-2.348360231040742e-06   -2.58503283209375e-07   4.398574655085745e-06
-1.7142633525373864e-06   -9.104828625256965e-07   3.7329342718367582e-06
-1.7142633525373864e-06   -9.104828625256965e-07   3.7329342718367582e-06
-1.7142633525373864e-06   -9.104828625256965e-07   3.7329342718367582e-06
-1.7142633525373864e-06   -9.104828625256965e-07   3.7329342718367582e-06
-2.348360231040742e-06   -1.9678232482920905e-06   2.613430611713059e-06
-2.348360231040742e-06   -1.9678232482920905e-06   2.613430611713059e-06
-2.348360231040742e-06   -1.9678232482920905e-06   2.613430611713059e-06
-2.348360231040742e-06   -1.9678232482920905e-06   2.613430611713059e-06
-1.2772738050171196e-06   -2.58503283209375e-07   5.424166634135385e-06
-1.2772738050171196e-06   -2.58503283209375e-07   5.424166634135385e-06
-1.2772738050171196e-06   -2.58503283209375e-07   5.424166634135385e-06
-1.2772738050171196e-06   -2.58503283209375e-07   5.424166634135385e-06
-9.87182276636204e-07   -2.226512845451519e-06   3.9947127324991075e-06
-9.87182276636204e-07   -2.226512845451519e-06   3.9947127324991075e-06
-9.87182276636204e-07   -2.226512845451519e-06   3.9947127324991075e-06
-9.87182276636204e-07   -2.226512845451519e-06   3.9947127324991075e-06
-2.384899494992565e-06   -1.0723930322298282e-06   5.6317695418263945e-06
-2.384899494992565e-06   -1.0723930322298282e-06   5.6317695418263945e-06
-2.384899494992565e-06   -1.0723930322298282e-06   5.6317695418263945e-06
-2.384899494992565e-06   -1.0723930322298282e-06   5.6317695418263945e-06
-1.5707518114688743e-06   -1.215598063909832e-06   4.360779754961899e-06
-1.5707518114688743e-06   -1.215598063909832e-06   4.360779754961899e-06
-1.5707518114688743e-06   -1.215598063909832e-06   4.360779754961899e-06
-1.5707518114688743e-06   -1.215598063909832e-06   4.360779754961899e-06
-1.8115987884369657e-06   -1.6872827938942039e-07   -3.0162806808931865e-06
-1.8115987884369657e-06   -1.6872827938942039e-07   -3.0162806808931865e-06
-1.8115987884369657e-06   -1.6872827938942039e-07   -3.0162806808931865e-06
-1.8115987884369657e-06   -1.6872827938942039e-07   -3.0162806808931865e-06
-3.3783117985247777e-07   2.5905511974029337e-07   -3.0333129377453204e-07
-3.3783117985247777e-07   2.5905511974029337e-07   -3.0333129377453204e-07
-3.3783117985247777e-07   2.5905511974029337e-07   -3.0333129377453204e-07
-3.3783117985247777e-07   2.5905511974029337e-07   -3.0333129377453204e-07
1.0935985660337315e-09   -2.3548110406296056e-07   -2.365802273027141e-06
1.0935985660337315e-09   -2.3548110406296056e-07   -2.365802273027141e-06
1.0935985660337315e-09   -2.3548110406296056e-07   -2.365802273027141e-06
1.0935985660337315e-09   -2.3548110406296056e-07   -2.365802273027141e-06
-1.4664209820381183e-06   4.4803838184632566e-07   -3.300563302326793e-07
-1.4664209820381183e-06   4.4803838184632566e-07   -3.300563302326793e-07
-1.4664209820381183e-06   4.4803838184632566e-07   -3.300563302326793e-07
-1.4664209820381183e-06   4.4803838184632566e-07   -3.300563302326793e-07
-8.260252979816409e-07   1.1988482329021552e-07   -1.2004903351932675e-06
-8.260252979816409e-07   1.1988482329021552e-07   -1.2004903351932675e-06
-8.260252979816409e-07   1.1988482329021552e-07   -1.2004903351932675e-06
-8.260252979816409e-07   1.1988482329021552e-07   -1.2004903351932675e-06
-1.4664209820380641e-06   -2.3548110406301477e-07   -2.7759139645729418e-06
-1.4664209820380641e-06   -2.3548110406301477e-07   -2.7759139645729418e-06
-1.4664209820380641e-06   -2.3548110406301477e-07   -2.7759139645729418e-06
-1.4664209820380641e-06   -2.3548110406301477e-07   -2.7759139645729418e-06
1.0935985660879416e-09   4.4803838184632566e-07   8.00553613128233e-08
1.0935985660879416e-09   4.4803838184632566e-07   8.00553613128233e-08
1.0935985660879416e-09   4.4803838184632566e-07   8.00553613128233e-08
1.0935985660879416e-09   4.4803838184632566e-07   8.00553613128233e-08
1.7835188124304012e-07   -3.257698190339527e-07   -2.1176222370805934e-06
1.7835188124304012e-07   -3.257698190339527e-07   -2.1176222370805934e-06
1.7835188124304012e-07   -3.257698190339527e-07   -2.1176222370805934e-06
1.7835188124304012e-07   -3.257698190339527e-07   -2.1176222370805934e-06
-1.2772738050171196e-06   3.8308019535664834e-07   -1.1688943528148556e-07
-1.2772738050171196e-06   3.8308019535664834e-07   -1.1688943528148556e-07
-1.2772738050171196e-06   3.8308019535664834e-07   -1.1688943528148556e-07
-1.2772738050171196e-06   3.8308019535664834e-07   -1.1688943528148556e-07
-5.757430673788142e-07   7.825241408812036e-08   -1.1032106625837512e-06
-5.757430673788142e-07   7.825241408812036e-08   -1.1032106625837512e-06
-5.757430673788142e-07   7.825241408812036e-08   -1.1032106625837512e-06
-5.757430673788142e-07   7.825241408812036e-08   -1.1032106625837512e-06
-1.2772738050171196e-06   -3.257698190339527e-07   -2.5429322457149134e-06
-1.2772738050171196e-06   -3.257698190339527e-07   -2.5429322457149134e-06
-1.2772738050171196e-06   -3.257698190339527e-07   -2.5429322457149134e-06
-1.2772738050171196e-06   -3.257698190339527e-07   -2.5429322457149134e-06
1.7835188124304012e-07   3.8308019535664834e-07   3.084205733528073e-07
1.7835188124304012e-07   3.8308019535664834e-07   3.084205733528073e-07
1.7835188124304012e-07   3.8308019535664834e-07   3.084205733528073e-07
1.7835188124304012e-07   3.8308019535664834e-07   3.084205733528073e-07
3.987445552235515e-07   -4.3559545453091637e-07   -1.752876211357098e-06
3.987445552235515e-07   -4.3559545453091637e-07   -1.752876211357098e-06
3.987445552235515e-07   -4.3559545453091637e-07   -1.752876211357098e-06
3.987445552235515e-07   -4.3559545453091637e-07   -1.752876211357098e-06
-9.87182276636204e-07   3.274792615279301e-07   9.915701210724132e-08
-9.87182276636204e-07   3.274792615279301e-07   9.915701210724132e-08
-9.87182276636204e-07   3.274792615279301e-07   9.915701210724132e-08
-9.87182276636204e-07   3.274792615279301e-07   9.915701210724132e-08
-3.492888636314124e-07   2.776472166762735e-08   -7.841699523178283e-07
-3.492888636314124e-07   2.776472166762735e-08   -7.841699523178283e-07
-3.492888636314124e-07   2.776472166762735e-08   -7.841699523178283e-07
-3.492888636314124e-07   2.776472166762735e-08   -7.841699523178283e-07
              </DataArray>   
             <DataArray type="Float64" NumberOfComponents="3" Name="Stress" format="ascii">   
-2.7707180333011494   -0.6926795083252874   -0.6926795083252874
-2.7707180333011494   -0.6926795083252874   -0.6926795083252874
-2.7707180333011494   -0.6926795083252874   -0.6926795083252874
-2.7707180333011494   -0.6926795083252874   -0.6926795083252874
-1.6033294461027905   -0.05092357501140071   -0.03219548894913728
-1.6033294461027905   -0.05092357501140071   -0.03219548894913728
-1.6033294461027905   -0.05092357501140071   -0.03219548894913728
-1.6033294461027905   -0.05092357501140071   -0.03219548894913728
-1.7281064928016254   -0.43202662320040636   -0.43202662320040636
-1.7281064928016254   -0.43202662320040636   -0.43202662320040636
-1.7281064928016254   -0.43202662320040636   -0.43202662320040636
-1.7281064928016254   -0.43202662320040636   -0.43202662320040636
-2.6703470538952088   -0.2193925076918995   -0.08393357980761314
-2.6703470538952088   -0.2193925076918995   -0.08393357980761314
-2.6703470538952088   -0.2193925076918995   -0.08393357980761314
-2.6703470538952088   -0.2193925076918995   -0.08393357980761314
-2.0943107847674933   -0.3434088113944992   -0.005789928711741558
-2.0943107847674933   -0.3434088113944992   -0.005789928711741558
-2.0943107847674933   -0.3434088113944992   -0.005789928711741558
-2.0943107847674933   -0.3434088113944992   -0.005789928711741558
-2.8996464848836783   -0.7249116212209196   -0.7249116212209196
-2.8996464848836783   -0.7249116212209196   -0.7249116212209196
-2.8996464848836783   -0.7249116212209196   -0.7249116212209196
-2.8996464848836783   -0.7249116212209196   -0.7249116212209196
-1.5531960837703673   0.01910346837140625   -0.008604669615927998
-1.5531960837703673   0.01910346837140625   -0.008604669615927998
-1.5531960837703673   0.01910346837140625   -0.008604669615927998
-1.5531960837703673   0.01910346837140625   -0.008604669615927998
-1.7329441501829292   -0.4332360375457323   -0.4332360375457323
-1.7329441501829292   -0.4332360375457323   -0.4332360375457323
-1.7329441501829292   -0.4332360375457323   -0.4332360375457323
-1.7329441501829292   -0.4332360375457323   -0.4332360375457323
-2.760051985094039   -0.22148561510779408   -0.12298596359241643
-2.760051985094039   -0.22148561510779408   -0.12298596359241643
-2.760051985094039   -0.22148561510779408   -0.12298596359241643
-2.760051985094039   -0.22148561510779408   -0.12298596359241643
-2.1723852644549555   -0.3233117429013517   -0.1152856504735767
-2.1723852644549555   -0.3233117429013517   -0.1152856504735767
-2.1723852644549555   -0.3233117429013517   -0.1152856504735767
-2.1723852644549555   -0.3233117429013517   -0.1152856504735767
-2.990175188171113   -0.7475437970427783   -0.7475437970427783
-2.990175188171113   -0.7475437970427783   -0.7475437970427783
-2.990175188171113   -0.7475437970427783   -0.7475437970427783
-2.990175188171113   -0.7475437970427783   -0.7475437970427783
-1.5486482444274696   0.0469948470676394   0.008012606618181317
-1.5486482444274696   0.0469948470676394   0.008012606618181317
-1.5486482444274696   0.0469948470676394   0.008012606618181317
-1.5486482444274696   0.0469948470676394   0.008012606618181317
-1.7319927972995572   -0.4329981993248893   -0.4329981993248893
-1.7319927972995572   -0.4329981993248893   -0.4329981993248893
-1.7319927972995572   -0.4329981993248893   -0.4329981993248893
-1.7319927972995572   -0.4329981993248893   -0.4329981993248893
-2.9203205751293266   -0.19424149197330498   -0.07380572626745854
-2.9203205751293266   -0.19424149197330498   -0.07380572626745854
-2.9203205751293266   -0.19424149197330498   -0.07380572626745854
-2.9203205751293266   -0.19424149197330498   -0.07380572626745854
-2.2302993524453836   -0.31826961687302874   -0.208349178044899
-2.2302993524453836   -0.31826961687302874   -0.208349178044899
-2.2302993524453836   -0.31826961687302874   -0.208349178044899
-2.2302993524453836   -0.31826961687302874   -0.208349178044899
-1.763006259234095   -0.44075156480852373   -0.44075156480852373
-1.763006259234095   -0.44075156480852373   -0.44075156480852373
-1.763006259234095   -0.44075156480852373   -0.44075156480852373
-1.763006259234095   -0.44075156480852373   -0.44075156480852373
-0.7356231568385002   -0.04903040854890997   -0.015926881164493305
-0.7356231568385002   -0.04903040854890997   -0.015926881164493305
-0.7356231568385002   -0.04903040854890997   -0.015926881164493305
-0.7356231568385002   -0.04903040854890997   -0.015926881164493305
-0.7722060516978239   -0.19305151292445596   -0.19305151292445596
-0.7722060516978239   -0.19305151292445596   -0.19305151292445596
-0.7722060516978239   -0.19305151292445596   -0.19305151292445596
-0.7722060516978239   -0.19305151292445596   -0.19305151292445596
-1.6050876351611003   -0.18883045536639043   -0.06012850283179701
-1.6050876351611003   -0.18883045536639043   -0.06012850283179701
-1.6050876351611003   -0.18883045536639043   -0.06012850283179701
-1.6050876351611003   -0.18883045536639043   -0.06012850283179701
-1.1838556535958513   -0.22429519414809146   0.009244625765645302
-1.1838556535958513   -0.22429519414809146   0.009244625765645302
-1.1838556535958513   -0.22429519414809146   0.009244625765645302
-1.1838556535958513   -0.22429519414809146   0.009244625765645302
-1.728106492801624   -0.432026623200406   -0.432026623200406
-1.728106492801624   -0.432026623200406   -0.432026623200406
-1.728106492801624   -0.432026623200406   -0.432026623200406
-1.728106492801624   -0.432026623200406   -0.432026623200406
-0.6940050868235106   0.005326762143348179   -0.00042496362069378846
-0.6940050868235106   0.005326762143348179   -0.00042496362069378846
-0.6940050868235106   0.005326762143348179   -0.00042496362069378846
-0.6940050868235106   0.005326762143348179   -0.00042496362069378846
-0.7549391658382644   -0.1887347914595661   -0.1887347914595661
-0.7549391658382644   -0.1887347914595661   -0.1887347914595661
-0.7549391658382644   -0.1887347914595661   -0.1887347914595661
-0.7549391658382644   -0.1887347914595661   -0.1887347914595661
-1.6010162771303862   -0.1540360898887804   -0.052796619939969126
-1.6010162771303862   -0.1540360898887804   -0.052796619939969126
-1.6010162771303862   -0.1540360898887804   -0.052796619939969126
-1.6010162771303862   -0.1540360898887804   -0.052796619939969126
-1.1673404783038541   -0.1888201268783408   -0.06102953270118617
-1.1673404783038541   -0.1888201268783408   -0.06102953270118617
-1.1673404783038541   -0.1888201268783408   -0.06102953270118617
-1.1673404783038541   -0.1888201268783408   -0.06102953270118617
-1.7329441501829292   -0.4332360375457323   -0.4332360375457323
-1.7329441501829292   -0.4332360375457323   -0.4332360375457323
-1.7329441501829292   -0.4332360375457323   -0.4332360375457323
-1.7329441501829292   -0.4332360375457323   -0.4332360375457323
-0.6664198662545976   0.047056582728510515   0.01807033227069673
-0.6664198662545976   0.047056582728510515   0.01807033227069673
-0.6664198662545976   0.047056582728510515   0.01807033227069673
-0.6664198662545976   0.047056582728510515   0.01807033227069673
-0.739210381859492   -0.184802595464873   -0.184802595464873
-0.739210381859492   -0.184802595464873   -0.184802595464873
-0.739210381859492   -0.184802595464873   -0.184802595464873
-0.739210381859492   -0.184802595464873   -0.184802595464873
-1.5892170061241706   -0.11884777303180488   -0.03326966974104713
-1.5892170061241706   -0.11884777303180488   -0.03326966974104713
-1.5892170061241706   -0.11884777303180488   -0.03326966974104713
-1.5892170061241706   -0.11884777303180488   -0.03326966974104713
-1.1730797551678276   -0.16708523650117119   -0.13596584224252148
-1.1730797551678276   -0.16708523650117119   -0.13596584224252148
-1.1730797551678276   -0.16708523650117119   -0.13596584224252148
-1.1730797551678276   -0.16708523650117119   -0.13596584224252148
-0.8029241098842453   -0.20073102747106134   -0.20073102747106134
-0.8029241098842453   -0.20073102747106134   -0.20073102747106134
-0.8029241098842453   -0.20073102747106134   -0.20073102747106134
-0.8029241098842453   -0.20073102747106134   -0.20073102747106134
0.09512366265935387   0.006195888313821925   0.0007812848397639135
0.09512366265935387   0.006195888313821925   0.0007812848397639135
0.09512366265935387   0.006195888313821925   0.0007812848397639135
0.09512366265935387   0.006195888313821925   0.0007812848397639135
0.12376640717342034   0.030941601793355086   0.030941601793355086
0.12376640717342034   0.030941601793355086   0.030941601793355086
0.12376640717342034   0.030941601793355086   0.030941601793355086
0.12376640717342034   0.030941601793355086   0.030941601793355086
-0.7259352305411362   -0.12547142155852947   -0.029277498506944208
-0.7259352305411362   -0.12547142155852947   -0.029277498506944208
-0.7259352305411362   -0.12547142155852947   -0.029277498506944208
-0.7259352305411362   -0.12547142155852947   -0.029277498506944208
-0.31084626315135067   -0.07885147962008449   0.052724994962683694
-0.31084626315135067   -0.07885147962008449   0.052724994962683694
-0.31084626315135067   -0.07885147962008449   0.052724994962683694
-0.31084626315135067   -0.07885147962008449   0.052724994962683694
-0.7722060516978251   -0.19305151292445627   -0.19305151292445627
-0.7722060516978251   -0.19305151292445627   -0.19305151292445627
-0.7722060516978251   -0.19305151292445627   -0.19305151292445627
-0.7722060516978251   -0.19305151292445627   -0.19305151292445627
0.12597841046186076   0.05446287529103419   0.01848034473787706
0.12597841046186076   0.05446287529103419   0.01848034473787706
0.12597841046186076   0.05446287529103419   0.01848034473787706
0.12597841046186076   0.05446287529103419   0.01848034473787706
0.13925960411525798   0.034814901028814495   0.034814901028814495
0.13925960411525798   0.034814901028814495   0.034814901028814495
0.13925960411525798   0.034814901028814495   0.034814901028814495
0.13925960411525798   0.034814901028814495   0.034814901028814495
-0.7002635060552871   -0.08445773675711069   -0.01963354724714106
-0.7002635060552871   -0.08445773675711069   -0.01963354724714106
-0.7002635060552871   -0.08445773675711069   -0.01963354724714106
-0.7002635060552871   -0.08445773675711069   -0.01963354724714106
-0.298176835593398   -0.04873164595138545   -0.018023024954831386
-0.298176835593398   -0.04873164595138545   -0.018023024954831386
-0.298176835593398   -0.04873164595138545   -0.018023024954831386
-0.298176835593398   -0.04873164595138545   -0.018023024954831386
-0.7549391658382656   -0.1887347914595664   -0.1887347914595664
-0.7549391658382656   -0.1887347914595664   -0.1887347914595664
-0.7549391658382656   -0.1887347914595664   -0.1887347914595664
-0.7549391658382656   -0.1887347914595664   -0.1887347914595664
0.1507633125828426   0.09592000441587772   0.031228339979673166
0.1507633125828426   0.09592000441587772   0.031228339979673166
0.1507633125828426   0.09592000441587772   0.031228339979673166
0.1507633125828426   0.09592000441587772   0.031228339979673166
0.16009385450237434   0.040023463625593586   0.040023463625593586
0.16009385450237434   0.040023463625593586   0.040023463625593586
0.16009385450237434   0.040023463625593586   0.040023463625593586
0.16009385450237434   0.040023463625593586   0.040023463625593586
-0.6723253455993597   -0.035548274570941646   0.00036826494185387276
-0.6723253455993597   -0.035548274570941646   0.00036826494185387276
-0.6723253455993597   -0.035548274570941646   0.00036826494185387276
-0.6723253455993597   -0.035548274570941646   0.00036826494185387276
-0.28924727567212455   -0.01969510975572148   -0.0881393180991488
-0.28924727567212455   -0.01969510975572148   -0.0881393180991488
-0.28924727567212455   -0.01969510975572148   -0.0881393180991488
-0.28924727567212455   -0.01969510975572148   -0.0881393180991488
0.10414247558737429   0.02603561889684357   0.02603561889684357
0.10414247558737429   0.02603561889684357   0.02603561889684357
0.10414247558737429   0.02603561889684357   0.02603561889684357
0.10414247558737429   0.02603561889684357   0.02603561889684357
1.0045345593351689   0.09217227077526988   0.030990167049077803
1.0045345593351689   0.09217227077526988   0.030990167049077803
1.0045345593351689   0.09217227077526988   0.030990167049077803
1.0045345593351689   0.09217227077526988   0.030990167049077803
1.0907445828710631   0.2726861457177658   0.2726861457177658
1.0907445828710631   0.2726861457177658   0.2726861457177658
1.0907445828710631   0.2726861457177658   0.2726861457177658
1.0907445828710631   0.2726861457177658   0.2726861457177658
0.09428931184945322   -0.07073125837345556   -0.014771014659671712
0.09428931184945322   -0.07073125837345556   -0.014771014659671712
0.09428931184945322   -0.07073125837345556   -0.014771014659671712
0.09428931184945322   -0.07073125837345556   -0.014771014659671712
0.5727706404778883   0.07131121497676082   0.10404610588119598
0.5727706404778883   0.07131121497676082   0.10404610588119598
0.5727706404778883   0.07131121497676082   0.10404610588119598
0.5727706404778883   0.07131121497676082   0.10404610588119598
0.12376640717342076   0.03094160179335519   0.03094160179335519
0.12376640717342076   0.03094160179335519   0.03094160179335519
0.12376640717342076   0.03094160179335519   0.03094160179335519
0.12376640717342076   0.03094160179335519   0.03094160179335519
1.0164821978548366   0.1262279958586961   0.0478323704957031
1.0164821978548366   0.1262279958586961   0.0478323704957031
1.0164821978548366   0.1262279958586961   0.0478323704957031
1.0164821978548366   0.1262279958586961   0.0478323704957031
1.0860976160226483   0.2715244040056621   0.2715244040056621
1.0860976160226483   0.2715244040056621   0.2715244040056621
1.0860976160226483   0.2715244040056621   0.2715244040056621
1.0860976160226483   0.2715244040056621   0.2715244040056621
0.11923118574139341   -0.030625512122726427   0.00011322231103147277
0.11923118574139341   -0.030625512122726427   0.00011322231103147277
0.11923118574139341   -0.030625512122726427   0.00011322231103147277
0.11923118574139341   -0.030625512122726427   0.00011322231103147277
0.5685686172953431   0.09359924790190995   0.027049786383650586
0.5685686172953431   0.09359924790190995   0.027049786383650586
0.5685686172953431   0.09359924790190995   0.027049786383650586
0.5685686172953431   0.09359924790190995   0.027049786383650586
0.1392596041152581   0.03481490102881452   0.03481490102881452
0.1392596041152581   0.03481490102881452   0.03481490102881452
0.1392596041152581   0.03481490102881452   0.03481490102881452
0.1392596041152581   0.03481490102881452   0.03481490102881452
1.0217144487189407   0.16172924192427834   0.05940372956850796
1.0217144487189407   0.16172924192427834   0.05940372956850796
1.0217144487189407   0.16172924192427834   0.05940372956850796
1.0217144487189407   0.16172924192427834   0.05940372956850796
1.107155632661843   0.27678890816546076   0.27678890816546076
1.107155632661843   0.27678890816546076   0.27678890816546076
1.107155632661843   0.27678890816546076   0.27678890816546076
1.107155632661843   0.27678890816546076   0.27678890816546076
0.15192319485631678   0.022431094558087887   0.016762534462810036
0.15192319485631678   0.022431094558087887   0.016762534462810036
0.15192319485631678   0.022431094558087887   0.016762534462810036
0.15192319485631678   0.022431094558087887   0.016762534462810036
0.5774148438509001   0.12698275205446855   -0.044342815548443236
0.5774148438509001   0.12698275205446855   -0.044342815548443236
0.5774148438509001   0.12698275205446855   -0.044342815548443236
0.5774148438509001   0.12698275205446855   -0.044342815548443236
1.088780079744777   0.27219501993619427   0.27219501993619427
1.088780079744777   0.27219501993619427   0.27219501993619427
1.088780079744777   0.27219501993619427   0.27219501993619427
1.088780079744777   0.27219501993619427   0.27219501993619427
2.2586561778479224   0.17217670716734268   0.05908253941638586
2.2586561778479224   0.17217670716734268   0.05908253941638586
2.2586561778479224   0.17217670716734268   0.05908253941638586
2.2586561778479224   0.17217670716734268   0.05908253941638586
2.3087088670105698   0.5771772167526424   0.5771772167526424
2.3087088670105698   0.5771772167526424   0.5771772167526424
2.3087088670105698   0.5771772167526424   0.5771772167526424
2.3087088670105698   0.5771772167526424   0.5771772167526424
0.9695645681555832   -0.05507458066664528   -0.0054532014752225605
0.9695645681555832   -0.05507458066664528   -0.0054532014752225605
0.9695645681555832   -0.05507458066664528   -0.0054532014752225605
0.9695645681555832   -0.05507458066664528   -0.0054532014752225605
1.6108350095646875   0.22799813449341144   0.18182678313049555
1.6108350095646875   0.22799813449341144   0.18182678313049555
1.6108350095646875   0.22799813449341144   0.18182678313049555
1.6108350095646875   0.22799813449341144   0.18182678313049555
1.0907445828710622   0.27268614571776556   0.27268614571776556
1.0907445828710622   0.27268614571776556   0.27268614571776556
1.0907445828710622   0.27268614571776556   0.27268614571776556
1.0907445828710622   0.27268614571776556   0.27268614571776556
2.1395233886572105   0.2014110267303587   0.10701601500816615
2.1395233886572105   0.2014110267303587   0.10701601500816615
2.1395233886572105   0.2014110267303587   0.10701601500816615
2.1395233886572105   0.2014110267303587   0.10701601500816615
2.2397711446228277   0.5599427861557069   0.5599427861557069
2.2397711446228277   0.5599427861557069   0.5599427861557069
2.2397711446228277   0.5599427861557069   0.5599427861557069
2.2397711446228277   0.5599427861557069   0.5599427861557069
0.9729790654412572   -0.0303584081140659   0.007814463218434833
0.9729790654412572   -0.0303584081140659   0.007814463218434833
0.9729790654412572   -0.0303584081140659   0.007814463218434833
0.9729790654412572   -0.0303584081140659   0.007814463218434833
1.563086971780145   0.2345889649272819   0.08718550711219167
1.563086971780145   0.2345889649272819   0.08718550711219167
1.563086971780145   0.2345889649272819   0.08718550711219167
1.563086971780145   0.2345889649272819   0.08718550711219167
1.0860976160226483   0.2715244040056621   0.2715244040056621
1.0860976160226483   0.2715244040056621   0.2715244040056621
1.0860976160226483   0.2715244040056621   0.2715244040056621
1.0860976160226483   0.2715244040056621   0.2715244040056621
2.070673599395213   0.20208097938976105   0.07231686678361045
2.070673599395213   0.20208097938976105   0.07231686678361045
2.070673599395213   0.20208097938976105   0.07231686678361045
2.070673599395213   0.20208097938976105   0.07231686678361045
2.1371251189211993   0.5342812797302998   0.5342812797302998
2.1371251189211993   0.5342812797302998   0.5342812797302998
2.1371251189211993   0.5342812797302998   0.5342812797302998
2.1371251189211993   0.5342812797302998   0.5342812797302998
1.0090101710639552   0.031944568907362775   0.030905939434127908
1.0090101710639552   0.031944568907362775   0.030905939434127908
1.0090101710639552   0.031944568907362775   0.030905939434127908
1.0090101710639552   0.031944568907362775   0.030905939434127908
1.4967459080474712   0.25436756299724156   -0.022889176383542237
1.4967459080474712   0.25436756299724156   -0.022889176383542237
1.4967459080474712   0.25436756299724156   -0.022889176383542237
1.4967459080474712   0.25436756299724156   -0.022889176383542237
-2.1896344843984745   -0.15679999766113328   0.024727436097885733
-2.1896344843984745   -0.15679999766113328   0.024727436097885733
-2.1896344843984745   -0.15679999766113328   0.024727436097885733
-2.1896344843984745   -0.15679999766113328   0.024727436097885733
-1.3938120834452263   -0.03222800954465915   -0.009041222810229094
-1.3938120834452263   -0.03222800954465915   -0.009041222810229094
-1.3938120834452263   -0.03222800954465915   -0.009041222810229094
-1.3938120834452263   -0.03222800954465915   -0.009041222810229094
-1.4031971031149053   0.056695143078986876   0.02935472326651689
-1.4031971031149053   0.056695143078986876   0.02935472326651689
-1.4031971031149053   0.056695143078986876   0.02935472326651689
-1.4031971031149053   0.056695143078986876   0.02935472326651689
-2.2222051481225984   -0.15162243077334664   -0.026347796092361694
-2.2222051481225984   -0.15162243077334664   -0.026347796092361694
-2.2222051481225984   -0.15162243077334664   -0.026347796092361694
-2.2222051481225984   -0.15162243077334664   -0.026347796092361694
-1.7313011042439044   -0.059148484597351114   -0.006902905981324259
-1.7313011042439044   -0.059148484597351114   -0.006902905981324259
-1.7313011042439044   -0.059148484597351114   -0.006902905981324259
-1.7313011042439044   -0.059148484597351114   -0.006902905981324259
-2.206016454305893   -0.10762085280745814   0.010594095025279249
-2.206016454305893   -0.10762085280745814   0.010594095025279249
-2.206016454305893   -0.10762085280745814   0.010594095025279249
-2.206016454305893   -0.10762085280745814   0.010594095025279249
-1.4217137613053248   0.010365600739388803   -0.01689902534595837
-1.4217137613053248   0.010365600739388803   -0.01689902534595837
-1.4217137613053248   0.010365600739388803   -0.01689902534595837
-1.4217137613053248   0.010365600739388803   -0.01689902534595837
-1.4048454129675954   0.08083525646879797   0.03341182216410399
-1.4048454129675954   0.08083525646879797   0.03341182216410399
-1.4048454129675954   0.08083525646879797   0.03341182216410399
-1.4048454129675954   0.08083525646879797   0.03341182216410399
-2.2356419674955186   -0.1335438230711325   -0.03477946790523037
-2.2356419674955186   -0.1335438230711325   -0.03477946790523037
-2.2356419674955186   -0.1335438230711325   -0.03477946790523037
-2.2356419674955186   -0.1335438230711325   -0.03477946790523037
-1.7798891538702168   -0.03958719930915894   -0.016898594721623694
-1.7798891538702168   -0.03958719930915894   -0.016898594721623694
-1.7798891538702168   -0.03958719930915894   -0.016898594721623694
-1.7798891538702168   -0.03958719930915894   -0.016898594721623694
-2.1954668265051174   -0.0645507565636651   0.09710317053931039
-2.1954668265051174   -0.0645507565636651   0.09710317053931039
-2.1954668265051174   -0.0645507565636651   0.09710317053931039
-2.1954668265051174   -0.0645507565636651   0.09710317053931039
-1.4282936875174708   0.028569056401858917   -0.03156335051832135
-1.4282936875174708   0.028569056401858917   -0.03156335051832135
-1.4282936875174708   0.028569056401858917   -0.03156335051832135
-1.4282936875174708   0.028569056401858917   -0.03156335051832135
-1.3792648731096584   0.1408633916435033   0.06066298979691613
-1.3792648731096584   0.1408633916435033   0.06066298979691613
-1.3792648731096584   0.1408633916435033   0.06066298979691613
-1.3792648731096584   0.1408633916435033   0.06066298979691613
-2.173806111668947   -0.10773205773241229   -0.05687869077262632
-2.173806111668947   -0.10773205773241229   -0.05687869077262632
-2.173806111668947   -0.10773205773241229   -0.05687869077262632
-2.173806111668947   -0.10773205773241229   -0.05687869077262632
-1.711781956973329   0.015988348716894862   0.03794631385591672
-1.711781956973329   0.015988348716894862   0.03794631385591672
-1.711781956973329   0.015988348716894862   0.03794631385591672
-1.711781956973329   0.015988348716894862   0.03794631385591672
-1.4284161759921128   -0.1893846459704986   -0.024905049118821732
-1.4284161759921128   -0.1893846459704986   -0.024905049118821732
-1.4284161759921128   -0.1893846459704986   -0.024905049118821732
-1.4284161759921128   -0.1893846459704986   -0.024905049118821732
-0.6581565202034312   -0.014678024824317792   0.006974552449917293
-0.6581565202034312   -0.014678024824317792   0.006974552449917293
-0.6581565202034312   -0.014678024824317792   0.006974552449917293
-0.6581565202034312   -0.014678024824317792   0.006974552449917293
-0.667762532745809   0.01265680287061699   0.009982685937950528
-0.667762532745809   0.01265680287061699   0.009982685937950528
-0.667762532745809   0.01265680287061699   0.009982685937950528
-0.667762532745809   0.01265680287061699   0.009982685937950528
-1.4567109444492887   -0.13861995602025393   -0.04289938430616012
-1.4567109444492887   -0.13861995602025393   -0.04289938430616012
-1.4567109444492887   -0.13861995602025393   -0.04289938430616012
-1.4567109444492887   -0.13861995602025393   -0.04289938430616012
-1.0527358637161282   -0.08549741462194688   -0.024151391700649637
-1.0527358637161282   -0.08549741462194688   -0.024151391700649637
-1.0527358637161282   -0.08549741462194688   -0.024151391700649637
-1.0527358637161282   -0.08549741462194688   -0.024151391700649637
-1.4553337999555462   -0.15148392610871847   -0.023149691748989468
-1.4553337999555462   -0.15148392610871847   -0.023149691748989468
-1.4553337999555462   -0.15148392610871847   -0.023149691748989468
-1.4553337999555462   -0.15148392610871847   -0.023149691748989468
-0.6665442584682383   0.028116191730393952   0.0006146684660209636
-0.6665442584682383   0.028116191730393952   0.0006146684660209636
-0.6665442584682383   0.028116191730393952   0.0006146684660209636
-0.6665442584682383   0.028116191730393952   0.0006146684660209636
-0.6652270673000256   0.04638972253786658   0.013543232362907102
-0.6652270673000256   0.04638972253786658   0.013543232362907102
-0.6652270673000256   0.04638972253786658   0.013543232362907102
-0.6652270673000256   0.04638972253786658   0.013543232362907102
-1.4572890973583226   -0.10157010884691531   -0.0464012344738195
-1.4572890973583226   -0.10157010884691531   -0.0464012344738195
-1.4572890973583226   -0.10157010884691531   -0.0464012344738195
-1.4572890973583226   -0.10157010884691531   -0.0464012344738195
-1.050675173556669   -0.0475760303823404   -0.01148322303247825
-1.050675173556669   -0.0475760303823404   -0.01148322303247825
-1.050675173556669   -0.0475760303823404   -0.01148322303247825
-1.050675173556669   -0.0475760303823404   -0.01148322303247825
-1.4515859831003515   -0.11456821791746358   -0.004887554113415876
-1.4515859831003515   -0.11456821791746358   -0.004887554113415876
-1.4515859831003515   -0.11456821791746358   -0.004887554113415876
-1.4515859831003515   -0.11456821791746358   -0.004887554113415876
-0.666110504349888   0.06420750881652407   -0.008691739165057194
-0.666110504349888   0.06420750881652407   -0.008691739165057194
-0.666110504349888   0.06420750881652407   -0.008691739165057194
-0.666110504349888   0.06420750881652407   -0.008691739165057194
-0.654068351671462   0.08027266201590683   0.0271838510448031
-0.654068351671462   0.08027266201590683   0.0271838510448031
-0.654068351671462   0.08027266201590683   0.0271838510448031
-0.654068351671462   0.08027266201590683   0.0271838510448031
-1.4416630750782828   -0.05876132424320174   -0.05170330415949588
-1.4416630750782828   -0.05876132424320174   -0.05170330415949588
-1.4416630750782828   -0.05876132424320174   -0.05170330415949588
-1.4416630750782828   -0.05876132424320174   -0.05170330415949588
-1.0462651587517373   -0.011690176048716444   0.005251369769830573
-1.0462651587517373   -0.011690176048716444   0.005251369769830573
-1.0462651587517373   -0.011690176048716444   0.005251369769830573
-1.0462651587517373   -0.011690176048716444   0.005251369769830573
-0.6940123811631159   -0.15765344404432471   -0.029329333128499394
-0.6940123811631159   -0.15765344404432471   -0.029329333128499394
-0.6940123811631159   -0.15765344404432471   -0.029329333128499394
-0.6940123811631159   -0.15765344404432471   -0.029329333128499394
0.07180037916936427   0.01631947753928304   0.027036279632427367
0.07180037916936427   0.01631947753928304   0.027036279632427367
0.07180037916936427   0.01631947753928304   0.027036279632427367
0.07180037916936427   0.01631947753928304   0.027036279632427367
0.0685467285339217   0.03971438961276455   0.0021695982744660072
0.0685467285339217   0.03971438961276455   0.0021695982744660072
0.0685467285339217   0.03971438961276455   0.0021695982744660072
0.0685467285339217   0.03971438961276455   0.0021695982744660072
-0.69692243558971   -0.10443083312372428   -0.018729192287219386
-0.69692243558971   -0.10443083312372428   -0.018729192287219386
-0.69692243558971   -0.10443083312372428   -0.018729192287219386
-0.69692243558971   -0.10443083312372428   -0.018729192287219386
-0.31567098684173295   -0.0522818485324347   -0.009996563895200705
-0.31567098684173295   -0.0522818485324347   -0.009996563895200705
-0.31567098684173295   -0.0522818485324347   -0.009996563895200705
-0.31567098684173295   -0.0522818485324347   -0.009996563895200705
-0.7017444156843499   -0.12019312005217632   -0.027076805831966744
-0.7017444156843499   -0.12019312005217632   -0.027076805831966744
-0.7017444156843499   -0.12019312005217632   -0.027076805831966744
-0.7017444156843499   -0.12019312005217632   -0.027076805831966744
0.07604550703359084   0.05815347494624576   0.021224405439329977
0.07604550703359084   0.05815347494624576   0.021224405439329977
0.07604550703359084   0.05815347494624576   0.021224405439329977
0.07604550703359084   0.05815347494624576   0.021224405439329977
0.07402215546595262   0.0768389674298571   0.012564312166460017
0.07402215546595262   0.0768389674298571   0.012564312166460017
0.07402215546595262   0.0768389674298571   0.012564312166460017
0.07402215546595262   0.0768389674298571   0.012564312166460017
-0.6946314517092166   -0.06371913218077797   -0.023369834964409062
-0.6946314517092166   -0.06371913218077797   -0.023369834964409062
-0.6946314517092166   -0.06371913218077797   -0.023369834964409062
-0.6946314517092166   -0.06371913218077797   -0.023369834964409062
-0.3106974410152599   -0.012830691429148638   0.003706613819803573
-0.3106974410152599   -0.012830691429148638   0.003706613819803573
-0.3106974410152599   -0.012830691429148638   0.003706613819803573
-0.3106974410152599   -0.012830691429148638   0.003706613819803573
-0.6964972139559523   -0.08255110380299088   -0.013866674575875058
-0.6964972139559523   -0.08255110380299088   -0.013866674575875058
-0.6964972139559523   -0.08255110380299088   -0.013866674575875058
-0.6964972139559523   -0.08255110380299088   -0.013866674575875058
0.07876852389645686   0.09855154523583841   0.014583576512999517
0.07876852389645686   0.09855154523583841   0.014583576512999517
0.07876852389645686   0.09855154523583841   0.014583576512999517
0.07876852389645686   0.09855154523583841   0.014583576512999517
0.07578531015075592   0.11813536595075663   0.020675811800231612
0.07578531015075592   0.11813536595075663   0.020675811800231612
0.07578531015075592   0.11813536595075663   0.020675811800231612
0.07578531015075592   0.11813536595075663   0.020675811800231612
-0.6854894515344574   -0.02019996324082801   -0.029449023013441884
-0.6854894515344574   -0.02019996324082801   -0.029449023013441884
-0.6854894515344574   -0.02019996324082801   -0.029449023013441884
-0.6854894515344574   -0.02019996324082801   -0.029449023013441884
-0.3028709643559452   0.028425999526895285   0.018708338473658576
-0.3028709643559452   0.028425999526895285   0.018708338473658576
-0.3028709643559452   0.028425999526895285   0.018708338473658576
-0.3028709643559452   0.028425999526895285   0.018708338473658576
0.03280600307878841   -0.11557891545171266   -0.03603720782945628
0.03280600307878841   -0.11557891545171266   -0.03603720782945628
0.03280600307878841   -0.11557891545171266   -0.03603720782945628
0.03280600307878841   -0.11557891545171266   -0.03603720782945628
0.8261629736799119   0.05699821880705133   0.04963218009931073
0.8261629736799119   0.05699821880705133   0.04963218009931073
0.8261629736799119   0.05699821880705133   0.04963218009931073
0.8261629736799119   0.05699821880705133   0.04963218009931073
0.8252111858509986   0.07681825728981899   -0.007945310344846222
0.8252111858509986   0.07681825728981899   -0.007945310344846222
0.8252111858509986   0.07681825728981899   -0.007945310344846222
0.8252111858509986   0.07681825728981899   -0.007945310344846222
0.04728639411203374   -0.06940605944609533   0.0049883752238855834
0.04728639411203374   -0.06940605944609533   0.0049883752238855834
0.04728639411203374   -0.06940605944609533   0.0049883752238855834
0.04728639411203374   -0.06940605944609533   0.0049883752238855834
0.4275299129308653   -0.009922575901722047   0.0008912940979431787
0.4275299129308653   -0.009922575901722047   0.0008912940979431787
0.4275299129308653   -0.009922575901722047   0.0008912940979431787
0.4275299129308653   -0.009922575901722047   0.0008912940979431787
0.03789913711160804   -0.0844382368616312   -0.026915732362706557
0.03789913711160804   -0.0844382368616312   -0.026915732362706557
0.03789913711160804   -0.0844382368616312   -0.026915732362706557
0.03789913711160804   -0.0844382368616312   -0.026915732362706557
0.8394120333002533   0.09666402515418392   0.043213159037062215
0.8394120333002533   0.09666402515418392   0.043213159037062215
0.8394120333002533   0.09666402515418392   0.043213159037062215
0.8394120333002533   0.09666402515418392   0.043213159037062215
0.8318077352789752   0.11353909279618954   0.0083596973680295
0.8318077352789752   0.11353909279618954   0.0083596973680295
0.8318077352789752   0.11353909279618954   0.0083596973680295
0.8318077352789752   0.11353909279618954   0.0083596973680295
0.04905643299752952   -0.03301769032388907   -0.002407642421909254
0.04905643299752952   -0.03301769032388907   -0.002407642421909254
0.04905643299752952   -0.03301769032388907   -0.002407642421909254
0.04905643299752952   -0.03301769032388907   -0.002407642421909254
0.4333176441083274   0.025175833534595835   0.017732985028591542
0.4333176441083274   0.025175833534595835   0.017732985028591542
0.4333176441083274   0.025175833534595835   0.017732985028591542
0.4333176441083274   0.025175833534595835   0.017732985028591542
0.04221202250929859   -0.049984555223951566   -0.019662829963001296
0.04221202250929859   -0.049984555223951566   -0.019662829963001296
0.04221202250929859   -0.049984555223951566   -0.019662829963001296
0.04221202250929859   -0.049984555223951566   -0.019662829963001296
0.8421358971522391   0.13398970908128655   0.03954989044925926
0.8421358971522391   0.13398970908128655   0.03954989044925926
0.8421358971522391   0.13398970908128655   0.03954989044925926
0.8421358971522391   0.13398970908128655   0.03954989044925926
0.8185206417454985   0.15591864687620358   0.017602849164204765
0.8185206417454985   0.15591864687620358   0.017602849164204765
0.8185206417454985   0.15591864687620358   0.017602849164204765
0.8185206417454985   0.15591864687620358   0.017602849164204765
0.048683431353716757   0.012037945673757513   -0.008736161907965063
0.048683431353716757   0.012037945673757513   -0.008736161907965063
0.048683431353716757   0.012037945673757513   -0.008736161907965063
0.048683431353716757   0.012037945673757513   -0.008736161907965063
0.4398047071630054   0.06529956092659624   0.03332589561098902
0.4398047071630054   0.06529956092659624   0.03332589561098902
0.4398047071630054   0.06529956092659624   0.03332589561098902
0.4398047071630054   0.06529956092659624   0.03332589561098902
0.7610070389822303   -0.15249956950456836   -0.06664970507747736
0.7610070389822303   -0.15249956950456836   -0.06664970507747736
0.7610070389822303   -0.15249956950456836   -0.06664970507747736
0.7610070389822303   -0.15249956950456836   -0.06664970507747736
1.5672298424223396   0.10352104373016421   0.048392675195553174
1.5672298424223396   0.10352104373016421   0.048392675195553174
1.5672298424223396   0.10352104373016421   0.048392675195553174
1.5672298424223396   0.10352104373016421   0.048392675195553174
1.5850431016310869   0.04905904465771849   -0.10026360832890722
1.5850431016310869   0.04905904465771849   -0.10026360832890722
1.5850431016310869   0.04905904465771849   -0.10026360832890722
1.5850431016310869   0.04905904465771849   -0.10026360832890722
0.8109831903266276   -0.031219675286777326   0.028952644609887765
0.8109831903266276   -0.031219675286777326   0.028952644609887765
0.8109831903266276   -0.031219675286777326   0.028952644609887765
0.8109831903266276   -0.031219675286777326   0.028952644609887765
1.122340306636001   -0.019652314465248788   -0.028112420426338464
1.122340306636001   -0.019652314465248788   -0.028112420426338464
1.122340306636001   -0.019652314465248788   -0.028112420426338464
1.122340306636001   -0.019652314465248788   -0.028112420426338464
0.7825388509995261   -0.10023902438774063   -0.04424970292464597
0.7825388509995261   -0.10023902438774063   -0.04424970292464597
0.7825388509995261   -0.10023902438774063   -0.04424970292464597
0.7825388509995261   -0.10023902438774063   -0.04424970292464597
1.6278894343518213   0.13248038715231594   0.03054671278016819
1.6278894343518213   0.13248038715231594   0.03054671278016819
1.6278894343518213   0.13248038715231594   0.03054671278016819
1.6278894343518213   0.13248038715231594   0.03054671278016819
1.602619797301757   0.08945569155473715   -0.0227557702980498
1.602619797301757   0.08945569155473715   -0.0227557702980498
1.602619797301757   0.08945569155473715   -0.0227557702980498
1.602619797301757   0.08945569155473715   -0.0227557702980498
0.8078029562812099   -0.013069702855853543   0.014944598031246023
0.8078029562812099   -0.013069702855853543   0.014944598031246023
0.8078029562812099   -0.013069702855853543   0.014944598031246023
0.8078029562812099   -0.013069702855853543   0.014944598031246023
1.1812134460200099   0.029511789858687243   0.019418616423794874
1.1812134460200099   0.029511789858687243   0.019418616423794874
1.1812134460200099   0.029511789858687243   0.019418616423794874
1.1812134460200099   0.029511789858687243   0.019418616423794874
0.7849749407162169   -0.0766459685272281   -0.03561921412233775
0.7849749407162169   -0.0766459685272281   -0.03561921412233775
0.7849749407162169   -0.0766459685272281   -0.03561921412233775
0.7849749407162169   -0.0766459685272281   -0.03561921412233775
1.6235466167687658   0.1511307611281288   0.020203257463601867
1.6235466167687658   0.1511307611281288   0.020203257463601867
1.6235466167687658   0.1511307611281288   0.020203257463601867
1.6235466167687658   0.1511307611281288   0.020203257463601867
1.6000694208650983   0.13701166460488823   -0.034817831879388125
1.6000694208650983   0.13701166460488823   -0.034817831879388125
1.6000694208650983   0.13701166460488823   -0.034817831879388125
1.6000694208650983   0.13701166460488823   -0.034817831879388125
0.7912292002946993   0.028744732937426576   0.008319555848978935
0.7912292002946993   0.028744732937426576   0.008319555848978935
0.7912292002946993   0.028744732937426576   0.008319555848978935
0.7912292002946993   0.028744732937426576   0.008319555848978935
1.15110014649055   0.051764002695400935   0.014424246108876007
1.15110014649055   0.051764002695400935   0.014424246108876007
1.15110014649055   0.051764002695400935   0.014424246108876007
1.15110014649055   0.051764002695400935   0.014424246108876007
-1.7207823773662192   -0.07808497387926577   0.08864424943773072
-1.7207823773662192   -0.07808497387926577   0.08864424943773072
-1.7207823773662192   -0.07808497387926577   0.08864424943773072
-1.7207823773662192   -0.07808497387926577   0.08864424943773072
-1.1428936834283077   -0.04345987697883985   -0.02306552240374589
-1.1428936834283077   -0.04345987697883985   -0.02306552240374589
-1.1428936834283077   -0.04345987697883985   -0.02306552240374589
-1.1428936834283077   -0.04345987697883985   -0.02306552240374589
-1.1016480098500012   0.09263124464915967   0.0743634427475801
-1.1016480098500012   0.09263124464915967   0.0743634427475801
-1.1016480098500012   0.09263124464915967   0.0743634427475801
-1.1016480098500012   0.09263124464915967   0.0743634427475801
-1.728694204137176   -0.12343059653762517   -0.0361380908361142
-1.728694204137176   -0.12343059653762517   -0.0361380908361142
-1.728694204137176   -0.12343059653762517   -0.0361380908361142
-1.728694204137176   -0.12343059653762517   -0.0361380908361142
-1.3657091861396244   -0.021115825072760386   -0.0025463747756268584
-1.3657091861396244   -0.021115825072760386   -0.0025463747756268584
-1.3657091861396244   -0.021115825072760386   -0.0025463747756268584
-1.3657091861396244   -0.021115825072760386   -0.0025463747756268584
-1.6805488939922135   -0.01815837338215337   0.09931623673322691
-1.6805488939922135   -0.01815837338215337   0.09931623673322691
-1.6805488939922135   -0.01815837338215337   0.09931623673322691
-1.6805488939922135   -0.01815837338215337   0.09931623673322691
-1.1422110329310748   -0.005058691442423047   -0.030761736566204748
-1.1422110329310748   -0.005058691442423047   -0.030761736566204748
-1.1422110329310748   -0.005058691442423047   -0.030761736566204748
-1.1422110329310748   -0.005058691442423047   -0.030761736566204748
-1.0971296101577623   0.11489945721312494   0.06892457617830058
-1.0971296101577623   0.11489945721312494   0.06892457617830058
-1.0971296101577623   0.11489945721312494   0.06892457617830058
-1.0971296101577623   0.11489945721312494   0.06892457617830058
-1.7018716377316718   -0.1032426076469734   -0.0494747441179081
-1.7018716377316718   -0.1032426076469734   -0.0494747441179081
-1.7018716377316718   -0.1032426076469734   -0.0494747441179081
-1.7018716377316718   -0.1032426076469734   -0.0494747441179081
-1.3685757104443825   0.005046721284131139   0.015760946349799937
-1.3685757104443825   0.005046721284131139   0.015760946349799937
-1.3685757104443825   0.005046721284131139   0.015760946349799937
-1.3685757104443825   0.005046721284131139   0.015760946349799937
-1.6570397951105886   0.002850731045838606   0.06859113029469513
-1.6570397951105886   0.002850731045838606   0.06859113029469513
-1.6570397951105886   0.002850731045838606   0.06859113029469513
-1.6570397951105886   0.002850731045838606   0.06859113029469513
-1.139462792911051   0.01130477838811178   -0.03914665876311864
-1.139462792911051   0.01130477838811178   -0.03914665876311864
-1.139462792911051   0.01130477838811178   -0.03914665876311864
-1.139462792911051   0.01130477838811178   -0.03914665876311864
-1.09816828593034   0.12970919715998   0.0546897579507286
-1.09816828593034   0.12970919715998   0.0546897579507286
-1.09816828593034   0.12970919715998   0.0546897579507286
-1.09816828593034   0.12970919715998   0.0546897579507286
-1.6670682965992336   -0.0817793886690375   -0.06308694223728219
-1.6670682965992336   -0.0817793886690375   -0.06308694223728219
-1.6670682965992336   -0.0817793886690375   -0.06308694223728219
-1.6670682965992336   -0.0817793886690375   -0.06308694223728219
-1.3292076036006297   0.028481043654333404   0.032819019954623455
-1.3292076036006297   0.028481043654333404   0.032819019954623455
-1.3292076036006297   0.028481043654333404   0.032819019954623455
-1.3292076036006297   0.028481043654333404   0.032819019954623455
-1.146285902692508   -0.10866342579402843   0.025176930090441113
-1.146285902692508   -0.10866342579402843   0.025176930090441113
-1.146285902692508   -0.10866342579402843   0.025176930090441113
-1.146285902692508   -0.10866342579402843   0.025176930090441113
-0.578970741869606   -0.02095661394765365   0.0011055322614587325
-0.578970741869606   -0.02095661394765365   0.0011055322614587325
-0.578970741869606   -0.02095661394765365   0.0011055322614587325
-0.578970741869606   -0.02095661394765365   0.0011055322614587325
-0.5625253301436838   0.056879502903590395   0.040412296007448785
-0.5625253301436838   0.056879502903590395   0.040412296007448785
-0.5625253301436838   0.056879502903590395   0.040412296007448785
-0.5625253301436838   0.056879502903590395   0.040412296007448785
-1.1645047700462905   -0.10716112437761038   -0.040127989207096565
-1.1645047700462905   -0.10716112437761038   -0.040127989207096565
-1.1645047700462905   -0.10716112437761038   -0.040127989207096565
-1.1645047700462905   -0.10716112437761038   -0.040127989207096565
-0.8600093118628642   -0.04220271001654699   -0.017439858626924723
-0.8600093118628642   -0.04220271001654699   -0.017439858626924723
-0.8600093118628642   -0.04220271001654699   -0.017439858626924723
-0.8600093118628642   -0.04220271001654699   -0.017439858626924723
-1.1426430757831463   -0.0623521948996584   0.024371552630667155
-1.1426430757831463   -0.0623521948996584   0.024371552630667155
-1.1426430757831463   -0.0623521948996584   0.024371552630667155
-1.1426430757831463   -0.0623521948996584   0.024371552630667155
-0.579957861242446   0.016499736590020575   -0.006370593172786557
-0.579957861242446   0.016499736590020575   -0.006370593172786557
-0.579957861242446   0.016499736590020575   -0.006370593172786557
-0.579957861242446   0.016499736590020575   -0.006370593172786557
-0.5607165010270566   0.09401672253722657   0.03496032611562383
-0.5607165010270566   0.09401672253722657   0.03496032611562383
-0.5607165010270566   0.09401672253722657   0.03496032611562383
-0.5607165010270566   0.09401672253722657   0.03496032611562383
-1.1578711067116891   -0.07250119695363724   -0.047382252424570455
-1.1578711067116891   -0.07250119695363724   -0.047382252424570455
-1.1578711067116891   -0.07250119695363724   -0.047382252424570455
-1.1578711067116891   -0.07250119695363724   -0.047382252424570455
-0.8505911518467428   -0.004634963939583209   -7.018371242014515e-05
-0.8505911518467428   -0.004634963939583209   -7.018371242014515e-05
-0.8505911518467428   -0.004634963939583209   -7.018371242014515e-05
-0.8505911518467428   -0.004634963939583209   -7.018371242014515e-05
-1.1355633705888546   -0.024678058625887372   0.01633328986185223
-1.1355633705888546   -0.024678058625887372   0.01633328986185223
-1.1355633705888546   -0.024678058625887372   0.01633328986185223
-1.1355633705888546   -0.024678058625887372   0.01633328986185223
-0.5794177856728396   0.04980003568652905   -0.014329410262588597
-0.5794177856728396   0.04980003568652905   -0.014329410262588597
-0.5794177856728396   0.04980003568652905   -0.014329410262588597
-0.5794177856728396   0.04980003568652905   -0.014329410262588597
-0.5605237908713394   0.13304584769120376   0.026193271305588073
-0.5605237908713394   0.13304584769120376   0.026193271305588073
-0.5605237908713394   0.13304584769120376   0.026193271305588073
-0.5605237908713394   0.13304584769120376   0.026193271305588073
-1.15226464320997   -0.03509570565576706   -0.05098712563167857
-1.15226464320997   -0.03509570565576706   -0.05098712563167857
-1.15226464320997   -0.03509570565576706   -0.05098712563167857
-1.15226464320997   -0.03509570565576706   -0.05098712563167857
-0.8511119744660525   0.029823681259382256   0.013208993462205797
-0.8511119744660525   0.029823681259382256   0.013208993462205797
-0.8511119744660525   0.029823681259382256   0.013208993462205797
-0.8511119744660525   0.029823681259382256   0.013208993462205797
-0.6005301374708537   -0.12423624471144447   -0.0034118149809921647
-0.6005301374708537   -0.12423624471144447   -0.0034118149809921647
-0.6005301374708537   -0.12423624471144447   -0.0034118149809921647
-0.6005301374708537   -0.12423624471144447   -0.0034118149809921647
-0.020263936042035875   0.006115405361952179   0.02564398469117384
-0.020263936042035875   0.006115405361952179   0.02564398469117384
-0.020263936042035875   0.006115405361952179   0.02564398469117384
-0.020263936042035875   0.006115405361952179   0.02564398469117384
-0.022434269291054368   0.03666430154161263   0.012258314740809555
-0.022434269291054368   0.03666430154161263   0.012258314740809555
-0.022434269291054368   0.03666430154161263   0.012258314740809555
-0.022434269291054368   0.03666430154161263   0.012258314740809555
-0.6009068547052175   -0.07960454698375122   -0.015011276912883094
-0.6009068547052175   -0.07960454698375122   -0.015011276912883094
-0.6009068547052175   -0.07960454698375122   -0.015011276912883094
-0.6009068547052175   -0.07960454698375122   -0.015011276912883094
-0.31198873368536617   -0.03895720885344263   -0.00976464952384418
-0.31198873368536617   -0.03895720885344263   -0.00976464952384418
-0.31198873368536617   -0.03895720885344263   -0.00976464952384418
-0.31198873368536617   -0.03895720885344263   -0.00976464952384418
-0.6002597181773098   -0.08302373286268205   -0.008356408394408538
-0.6002597181773098   -0.08302373286268205   -0.008356408394408538
-0.6002597181773098   -0.08302373286268205   -0.008356408394408538
-0.6002597181773098   -0.08302373286268205   -0.008356408394408538
-0.019779890516899996   0.043385002722603865   0.01880950743059018
-0.019779890516899996   0.043385002722603865   0.01880950743059018
-0.019779890516899996   0.043385002722603865   0.01880950743059018
-0.019779890516899996   0.043385002722603865   0.01880950743059018
-0.01966751577954601   0.07712275330784231   0.005875656549021915
-0.01966751577954601   0.07712275330784231   0.005875656549021915
-0.01966751577954601   0.07712275330784231   0.005875656549021915
-0.01966751577954601   0.07712275330784231   0.005875656549021915
-0.599367327104494   -0.04227054005928024   -0.02200654167505632
-0.599367327104494   -0.04227054005928024   -0.02200654167505632
-0.599367327104494   -0.04227054005928024   -0.02200654167505632
-0.599367327104494   -0.04227054005928024   -0.02200654167505632
-0.3089319673338999   -0.0015497344838586447   0.0042709261640816
-0.3089319673338999   -0.0015497344838586447   0.0042709261640816
-0.3089319673338999   -0.0015497344838586447   0.0042709261640816
-0.3089319673338999   -0.0015497344838586447   0.0042709261640816
-0.5984660160930401   -0.04313848616672859   -0.016632040510338526
-0.5984660160930401   -0.04313848616672859   -0.016632040510338526
-0.5984660160930401   -0.04313848616672859   -0.016632040510338526
-0.5984660160930401   -0.04313848616672859   -0.016632040510338526
-0.017842864265829803   0.08071666194046075   0.011405005484984524
-0.017842864265829803   0.08071666194046075   0.011405005484984524
-0.017842864265829803   0.08071666194046075   0.011405005484984524
-0.017842864265829803   0.08071666194046075   0.011405005484984524
-0.019057332699503153   0.1187894628731049   -0.000934011278739183
-0.019057332699503153   0.1187894628731049   -0.000934011278739183
-0.019057332699503153   0.1187894628731049   -0.000934011278739183
-0.019057332699503153   0.1187894628731049   -0.000934011278739183
-0.599047229504488   -0.0043023066689373834   -0.02907576750001155
-0.599047229504488   -0.0043023066689373834   -0.02907576750001155
-0.599047229504488   -0.0043023066689373834   -0.02907576750001155
-0.599047229504488   -0.0043023066689373834   -0.02907576750001155
-0.30655178157370566   0.035893380626062274   0.017142318883410623
-0.30655178157370566   0.035893380626062274   0.017142318883410623
-0.30655178157370566   0.035893380626062274   0.017142318883410623
-0.30655178157370566   0.035893380626062274   0.017142318883410623
-0.05978104440798327   -0.13606854265475998   -0.02975760912185075
-0.05978104440798327   -0.13606854265475998   -0.02975760912185075
-0.05978104440798327   -0.13606854265475998   -0.02975760912185075
-0.05978104440798327   -0.13606854265475998   -0.02975760912185075
0.5362985870257054   0.03779926237249891   0.048755074358195746
0.5362985870257054   0.03779926237249891   0.048755074358195746
0.5362985870257054   0.03779926237249891   0.048755074358195746
0.5362985870257054   0.03779926237249891   0.048755074358195746
0.5187498515458616   0.02004056185219917   -0.019241975718469754
0.5187498515458616   0.02004056185219917   -0.019241975718469754
0.5187498515458616   0.02004056185219917   -0.019241975718469754
0.5187498515458616   0.02004056185219917   -0.019241975718469754
-0.040078229126804935   -0.04979602324846685   0.01049884035213622
-0.040078229126804935   -0.04979602324846685   0.01049884035213622
-0.040078229126804935   -0.04979602324846685   0.01049884035213622
-0.040078229126804935   -0.04979602324846685   0.01049884035213622
0.2354140288540879   -0.03151628112253318   -0.005513159593481341
0.2354140288540879   -0.03151628112253318   -0.005513159593481341
0.2354140288540879   -0.03151628112253318   -0.005513159593481341
0.2354140288540879   -0.03151628112253318   -0.005513159593481341
-0.05954210401668661   -0.0992439546548036   -0.03737260269093538
-0.05954210401668661   -0.0992439546548036   -0.03737260269093538
-0.05954210401668661   -0.0992439546548036   -0.03737260269093538
-0.05954210401668661   -0.0992439546548036   -0.03737260269093538
0.5419688064238692   0.07324357324666386   0.04364978727710025
0.5419688064238692   0.07324357324666386   0.04364978727710025
0.5419688064238692   0.07324357324666386   0.04364978727710025
0.5419688064238692   0.07324357324666386   0.04364978727710025
0.5271749930330512   0.05768139516474396   -0.02703077501426583
0.5271749930330512   0.05768139516474396   -0.02703077501426583
0.5271749930330512   0.05768139516474396   -0.02703077501426583
0.5271749930330512   0.05768139516474396   -0.02703077501426583
-0.03892973975452745   -0.016346039213822224   0.003033329195779473
-0.03892973975452745   -0.016346039213822224   0.003033329195779473
-0.03892973975452745   -0.016346039213822224   0.003033329195779473
-0.03892973975452745   -0.016346039213822224   0.003033329195779473
0.2375123343362658   0.002327847399991624   0.008434471186083006
0.2375123343362658   0.002327847399991624   0.008434471186083006
0.2375123343362658   0.002327847399991624   0.008434471186083006
0.2375123343362658   0.002327847399991624   0.008434471186083006
-0.05786018798781888   -0.06292706356123079   -0.04503788762326947
-0.05786018798781888   -0.06292706356123079   -0.04503788762326947
-0.05786018798781888   -0.06292706356123079   -0.04503788762326947
-0.05786018798781888   -0.06292706356123079   -0.04503788762326947
0.5501977187339081   0.10835469697971992   0.03740955167503927
0.5501977187339081   0.10835469697971992   0.03740955167503927
0.5501977187339081   0.10835469697971992   0.03740955167503927
0.5501977187339081   0.10835469697971992   0.03740955167503927
0.532376390957629   0.10487893693223684   -0.028224165219473085
0.532376390957629   0.10487893693223684   -0.028224165219473085
0.532376390957629   0.10487893693223684   -0.028224165219473085
0.532376390957629   0.10487893693223684   -0.028224165219473085
-0.038962984911090355   0.02274128464049151   -0.004414094104061433
-0.038962984911090355   0.02274128464049151   -0.004414094104061433
-0.038962984911090355   0.02274128464049151   -0.004414094104061433
-0.038962984911090355   0.02274128464049151   -0.004414094104061433
0.2457553578391719   0.04006428043872432   0.024996461936025553
0.2457553578391719   0.04006428043872432   0.024996461936025553
0.2457553578391719   0.04006428043872432   0.024996461936025553
0.2457553578391719   0.04006428043872432   0.024996461936025553
0.4803742668129902   -0.13511838274782617   -0.05794888158504911
0.4803742668129902   -0.13511838274782617   -0.05794888158504911
0.4803742668129902   -0.13511838274782617   -0.05794888158504911
0.4803742668129902   -0.13511838274782617   -0.05794888158504911
1.0563558126816106   0.07848712022674409   0.05423707851096624
1.0563558126816106   0.07848712022674409   0.05423707851096624
1.0563558126816106   0.07848712022674409   0.05423707851096624
1.0563558126816106   0.07848712022674409   0.05423707851096624
1.0481266812017473   -0.005008269992344244   -0.07713381979306662
1.0481266812017473   -0.005008269992344244   -0.07713381979306662
1.0481266812017473   -0.005008269992344244   -0.07713381979306662
1.0481266812017473   -0.005008269992344244   -0.07713381979306662
0.5236201272776944   -0.011257970951000618   0.03640793574389364
0.5236201272776944   -0.011257970951000618   0.03640793574389364
0.5236201272776944   -0.011257970951000618   0.03640793574389364
0.5236201272776944   -0.011257970951000618   0.03640793574389364
0.739395905241392   -0.026367886862074225   -0.024266664350541332
0.739395905241392   -0.026367886862074225   -0.024266664350541332
0.739395905241392   -0.026367886862074225   -0.024266664350541332
0.739395905241392   -0.026367886862074225   -0.024266664350541332
0.48087545620793176   -0.11728869095306432   -0.07128469960285137
0.48087545620793176   -0.11728869095306432   -0.07128469960285137
0.48087545620793176   -0.11728869095306432   -0.07128469960285137
0.48087545620793176   -0.11728869095306432   -0.07128469960285137
1.093941925244214   0.10409302298242146   0.04284110744449983
1.093941925244214   0.10409302298242146   0.04284110744449983
1.093941925244214   0.10409302298242146   0.04284110744449983
1.093941925244214   0.10409302298242146   0.04284110744449983
1.0738654068739382   0.016461493361738105   -0.10346187147352402
1.0738654068739382   0.016461493361738105   -0.10346187147352402
1.0738654068739382   0.016461493361738105   -0.10346187147352402
1.0738654068739382   0.016461493361738105   -0.10346187147352402
0.527495048525829   0.005120480471842631   0.02713041714252793
0.527495048525829   0.005120480471842631   0.02713041714252793
0.527495048525829   0.005120480471842631   0.02713041714252793
0.527495048525829   0.005120480471842631   0.02713041714252793
0.7728883412722976   -0.0031555100374100475   -0.007398670428557477
0.7728883412722976   -0.0031555100374100475   -0.007398670428557477
0.7728883412722976   -0.0031555100374100475   -0.007398670428557477
0.7728883412722976   -0.0031555100374100475   -0.007398670428557477
0.48635695319334205   -0.09586311574107487   -0.07757646330699282
0.48635695319334205   -0.09586311574107487   -0.07757646330699282
0.48635695319334205   -0.09586311574107487   -0.07757646330699282
0.48635695319334205   -0.09586311574107487   -0.07757646330699282
1.1217864869193488   0.12422807428758006   0.028376947827695266
1.1217864869193488   0.12422807428758006   0.028376947827695266
1.1217864869193488   0.12422807428758006   0.028376947827695266
1.1217864869193488   0.12422807428758006   0.028376947827695266
1.1147327868827372   0.07231709055978375   -0.09732224262727286
1.1147327868827372   0.07231709055978375   -0.09732224262727286
1.1147327868827372   0.07231709055978375   -0.09732224262727286
1.1147327868827372   0.07231709055978375   -0.09732224262727286
0.5292676427702294   0.041298694741175465   0.01981233603459465
0.5292676427702294   0.041298694741175465   0.01981233603459465
0.5292676427702294   0.041298694741175465   0.01981233603459465
0.5292676427702294   0.041298694741175465   0.01981233603459465
0.7786344377562673   0.02338529582958307   0.011268082524899366
0.7786344377562673   0.02338529582958307   0.011268082524899366
0.7786344377562673   0.02338529582958307   0.011268082524899366
0.7786344377562673   0.02338529582958307   0.011268082524899366
-1.2297712442970434   -0.0401622506082816   0.08030017031778101
-1.2297712442970434   -0.0401622506082816   0.08030017031778101
-1.2297712442970434   -0.0401622506082816   0.08030017031778101
-1.2297712442970434   -0.0401622506082816   0.08030017031778101
-0.8605013303245661   -0.057498379039463726   -0.030324090555529162
-0.8605013303245661   -0.057498379039463726   -0.030324090555529162
-0.8605013303245661   -0.057498379039463726   -0.030324090555529162
-0.8605013303245661   -0.057498379039463726   -0.030324090555529162
-0.809923124624294   0.08124515675285315   0.06846959610339547
-0.809923124624294   0.08124515675285315   0.06846959610339547
-0.809923124624294   0.08124515675285315   0.06846959610339547
-0.809923124624294   0.08124515675285315   0.06846959610339547
-1.2298661697285993   -0.10123759883472314   -0.04435787779258008
-1.2298661697285993   -0.10123759883472314   -0.04435787779258008
-1.2298661697285993   -0.10123759883472314   -0.04435787779258008
-1.2298661697285993   -0.10123759883472314   -0.04435787779258008
-0.9902196267746258   -0.01577754816262114   -0.00219727181011313
-0.9902196267746258   -0.01577754816262114   -0.00219727181011313
-0.9902196267746258   -0.01577754816262114   -0.00219727181011313
-0.9902196267746258   -0.01577754816262114   -0.00219727181011313
-1.1838623139438058   0.008040133439670472   0.07638366885699387
-1.1838623139438058   0.008040133439670472   0.07638366885699387
-1.1838623139438058   0.008040133439670472   0.07638366885699387
-1.1838623139438058   0.008040133439670472   0.07638366885699387
-0.8521838234135076   -0.024289418525959255   -0.037299322563852245
-0.8521838234135076   -0.024289418525959255   -0.037299322563852245
-0.8521838234135076   -0.024289418525959255   -0.037299322563852245
-0.8521838234135076   -0.024289418525959255   -0.037299322563852245
-0.8022948525496845   0.09813994351324717   0.057861226501207355
-0.8022948525496845   0.09813994351324717   0.057861226501207355
-0.8022948525496845   0.09813994351324717   0.057861226501207355
-0.8022948525496845   0.09813994351324717   0.057861226501207355
-1.2007510140640054   -0.08240493829676612   -0.05607364409689538
-1.2007510140640054   -0.08240493829676612   -0.05607364409689538
-1.2007510140640054   -0.08240493829676612   -0.05607364409689538
-1.2007510140640054   -0.08240493829676612   -0.05607364409689538
-0.9832932370623124   0.0065053765054545465   0.010382273658011719
-0.9832932370623124   0.0065053765054545465   0.010382273658011719
-0.9832932370623124   0.0065053765054545465   0.010382273658011719
-0.9832932370623124   0.0065053765054545465   0.010382273658011719
-1.1551422018893829   0.028259436700797003   0.06130604177865488
-1.1551422018893829   0.028259436700797003   0.06130604177865488
-1.1551422018893829   0.028259436700797003   0.06130604177865488
-1.1551422018893829   0.028259436700797003   0.06130604177865488
-0.8445199821857861   -0.009140748945796195   -0.04598372922024961
-0.8445199821857861   -0.009140748945796195   -0.04598372922024961
-0.8445199821857861   -0.009140748945796195   -0.04598372922024961
-0.8445199821857861   -0.009140748945796195   -0.04598372922024961
-0.7980712657106879   0.11459535849582742   0.049789762698496706
-0.7980712657106879   0.11459535849582742   0.049789762698496706
-0.7980712657106879   0.11459535849582742   0.049789762698496706
-0.7980712657106879   0.11459535849582742   0.049789762698496706
-1.1617571488592005   -0.05750493769318868   -0.06713485708260639
-1.1617571488592005   -0.05750493769318868   -0.06713485708260639
-1.1617571488592005   -0.05750493769318868   -0.06713485708260639
-1.1617571488592005   -0.05750493769318868   -0.06713485708260639
-0.9463919462623746   0.027384679930003514   0.02802902107225126
-0.9463919462623746   0.027384679930003514   0.02802902107225126
-0.9463919462623746   0.027384679930003514   0.02802902107225126
-0.9463919462623746   0.027384679930003514   0.02802902107225126
-0.8508127022140568   -0.06951831523110531   0.03013898618865121
-0.8508127022140568   -0.06951831523110531   0.03013898618865121
-0.8508127022140568   -0.06951831523110531   0.03013898618865121
-0.8508127022140568   -0.06951831523110531   0.03013898618865121
-0.49342285903218774   -0.03725754547610684   -0.004894501876090265
-0.49342285903218774   -0.03725754547610684   -0.004894501876090265
-0.49342285903218774   -0.03725754547610684   -0.004894501876090265
-0.49342285903218774   -0.03725754547610684   -0.004894501876090265
-0.46835014025384725   0.047478744267839434   0.036916724227709086
-0.46835014025384725   0.047478744267839434   0.036916724227709086
-0.46835014025384725   0.047478744267839434   0.036916724227709086
-0.46835014025384725   0.047478744267839434   0.036916724227709086
-0.8636119156159376   -0.08273555858004898   -0.03599364352192051
-0.8636119156159376   -0.08273555858004898   -0.03599364352192051
-0.8636119156159376   -0.08273555858004898   -0.03599364352192051
-0.8636119156159376   -0.08273555858004898   -0.03599364352192051
-0.6663601278909356   -0.03248876518189002   -0.013611389859915574
-0.6663601278909356   -0.03248876518189002   -0.013611389859915574
-0.6663601278909356   -0.03248876518189002   -0.013611389859915574
-0.6663601278909356   -0.03248876518189002   -0.013611389859915574
-0.8408351847223925   -0.02947559916521686   0.024630051530972946
-0.8408351847223925   -0.02947559916521686   0.024630051530972946
-0.8408351847223925   -0.02947559916521686   0.024630051530972946
-0.8408351847223925   -0.02947559916521686   0.024630051530972946
-0.488205200479193   -0.00285954447879333   -0.012020288152386854
-0.488205200479193   -0.00285954447879333   -0.012020288152386854
-0.488205200479193   -0.00285954447879333   -0.012020288152386854
-0.488205200479193   -0.00285954447879333   -0.012020288152386854
-0.46239346725456243   0.08212421779589515   0.0302671818659647
-0.46239346725456243   0.08212421779589515   0.0302671818659647
-0.46239346725456243   0.08212421779589515   0.0302671818659647
-0.46239346725456243   0.08212421779589515   0.0302671818659647
-0.851985386754168   -0.050041457900975306   -0.04241004310698791
-0.851985386754168   -0.050041457900975306   -0.04241004310698791
-0.851985386754168   -0.050041457900975306   -0.04241004310698791
-0.851985386754168   -0.050041457900975306   -0.04241004310698791
-0.6535639909129969   0.0015627902443879627   0.001017155823686465
-0.6535639909129969   0.0015627902443879627   0.001017155823686465
-0.6535639909129969   0.0015627902443879627   0.001017155823686465
-0.6535639909129969   0.0015627902443879627   0.001017155823686465
-0.8274849797764494   0.0075521547453756   0.022498379135254036
-0.8274849797764494   0.0075521547453756   0.022498379135254036
-0.8274849797764494   0.0075521547453756   0.022498379135254036
-0.8274849797764494   0.0075521547453756   0.022498379135254036
-0.4832656664620868   0.02815881291974165   -0.02012840929549966
-0.4832656664620868   0.02815881291974165   -0.02012840929549966
-0.4832656664620868   0.02815881291974165   -0.02012840929549966
-0.4832656664620868   0.02815881291974165   -0.02012840929549966
-0.4566381557994448   0.11904199861211516   0.024074908297207605
-0.4566381557994448   0.11904199861211516   0.024074908297207605
-0.4566381557994448   0.11904199861211516   0.024074908297207605
-0.4566381557994448   0.11904199861211516   0.024074908297207605
-0.843283647675775   -0.014807063418355526   -0.046869725212759644
-0.843283647675775   -0.014807063418355526   -0.046869725212759644
-0.843283647675775   -0.014807063418355526   -0.046869725212759644
-0.843283647675775   -0.014807063418355526   -0.046869725212759644
-0.6486058772160018   0.033606463775606776   0.014948287255678698
-0.6486058772160018   0.033606463775606776   0.014948287255678698
-0.6486058772160018   0.033606463775606776   0.014948287255678698
-0.6486058772160018   0.033606463775606776   0.014948287255678698
-0.5038442775527656   -0.09548440655787511   0.0012252666027824976
-0.5038442775527656   -0.09548440655787511   0.0012252666027824976
-0.5038442775527656   -0.09548440655787511   0.0012252666027824976
-0.5038442775527656   -0.09548440655787511   0.0012252666027824976
-0.13012626540551384   -0.011159920482040913   0.020541095048565494
-0.13012626540551384   -0.011159920482040913   0.020541095048565494
-0.13012626540551384   -0.011159920482040913   0.020541095048565494
-0.13012626540551384   -0.011159920482040913   0.020541095048565494
-0.1269354849648104   0.019593021993489085   0.007005198232926703
-0.1269354849648104   0.019593021993489085   0.007005198232926703
-0.1269354849648104   0.019593021993489085   0.007005198232926703
-0.1269354849648104   0.019593021993489085   0.007005198232926703
-0.4983179800612878   -0.05585142796247411   -0.009592302579183736
-0.4983179800612878   -0.05585142796247411   -0.009592302579183736
-0.4983179800612878   -0.05585142796247411   -0.009592302579183736
-0.4983179800612878   -0.05585142796247411   -0.009592302579183736
-0.3153430804327676   -0.034198686529103045   -0.00967471910197111
-0.3153430804327676   -0.034198686529103045   -0.00967471910197111
-0.3153430804327676   -0.034198686529103045   -0.00967471910197111
-0.3153430804327676   -0.034198686529103045   -0.00967471910197111
-0.49750467353173916   -0.05683107912105409   -0.004546118772860493
-0.49750467353173916   -0.05683107912105409   -0.004546118772860493
-0.49750467353173916   -0.05683107912105409   -0.004546118772860493
-0.49750467353173916   -0.05683107912105409   -0.004546118772860493
-0.12481974350962854   0.02350172113679959   0.013675206365525518
-0.12481974350962854   0.02350172113679959   0.013675206365525518
-0.12481974350962854   0.02350172113679959   0.013675206365525518
-0.12481974350962854   0.02350172113679959   0.013675206365525518
-0.11974239155275948   0.05842057991860147   0.0018241226626178088
-0.11974239155275948   0.05842057991860147   0.0018241226626178088
-0.11974239155275948   0.05842057991860147   0.0018241226626178088
-0.11974239155275948   0.05842057991860147   0.0018241226626178088
-0.4923550826253323   -0.020948601255111443   -0.016468075936878334
-0.4923550826253323   -0.020948601255111443   -0.016468075936878334
-0.4923550826253323   -0.020948601255111443   -0.016468075936878334
-0.4923550826253323   -0.020948601255111443   -0.016468075936878334
-0.3076601192639366   0.0006926600099117913   0.004112428812112979
-0.3076601192639366   0.0006926600099117913   0.004112428812112979
-0.3076601192639366   0.0006926600099117913   0.004112428812112979
-0.3076601192639366   0.0006926600099117913   0.004112428812112979
-0.49052461536567615   -0.018127964629372675   -0.010136376264336236
-0.49052461536567615   -0.018127964629372675   -0.010136376264336236
-0.49052461536567615   -0.018127964629372675   -0.010136376264336236
-0.49052461536567615   -0.018127964629372675   -0.010136376264336236
-0.11886845741706038   0.05830434468821795   0.00631002857149672
-0.11886845741706038   0.05830434468821795   0.00631002857149672
-0.11886845741706038   0.05830434468821795   0.00631002857149672
-0.11886845741706038   0.05830434468821795   0.00631002857149672
-0.11328956965722109   0.09781129708775116   -0.00426540856383565
-0.11328956965722109   0.09781129708775116   -0.00426540856383565
-0.11328956965722109   0.09781129708775116   -0.00426540856383565
-0.11328956965722109   0.09781129708775116   -0.00426540856383565
-0.48712175681665787   0.014358576478018054   -0.023659674654758593
-0.48712175681665787   0.014358576478018054   -0.023659674654758593
-0.48712175681665787   0.014358576478018054   -0.023659674654758593
-0.48712175681665787   0.014358576478018054   -0.023659674654758593
-0.3006455041867377   0.035751291187838805   0.017395000574777827
-0.3006455041867377   0.035751291187838805   0.017395000574777827
-0.3006455041867377   0.035751291187838805   0.017395000574777827
-0.3006455041867377   0.035751291187838805   0.017395000574777827
-0.16076327232010046   -0.11677074697465024   -0.02703311303175956
-0.16076327232010046   -0.11677074697465024   -0.02703311303175956
-0.16076327232010046   -0.11677074697465024   -0.02703311303175956
-0.16076327232010046   -0.11677074697465024   -0.02703311303175956
0.22834865984170186   0.018103968766878087   0.044543182504322425
0.22834865984170186   0.018103968766878087   0.044543182504322425
0.22834865984170186   0.018103968766878087   0.044543182504322425
0.22834865984170186   0.018103968766878087   0.044543182504322425
0.21241321951035033   -0.006368616578477142   -0.02485557493507047
0.21241321951035033   -0.006368616578477142   -0.02485557493507047
0.21241321951035033   -0.006368616578477142   -0.02485557493507047
0.21241321951035033   -0.006368616578477142   -0.02485557493507047
-0.13437495924934406   -0.027102076310384006   0.01650292511413044
-0.13437495924934406   -0.027102076310384006   0.01650292511413044
-0.13437495924934406   -0.027102076310384006   0.01650292511413044
-0.13437495924934406   -0.027102076310384006   0.01650292511413044
0.03496226193803387   -0.03211775886111086   -0.0068870923407110835
0.03496226193803387   -0.03211775886111086   -0.0068870923407110835
0.03496226193803387   -0.03211775886111086   -0.0068870923407110835
0.03496226193803387   -0.03211775886111086   -0.0068870923407110835
-0.15522560459568266   -0.08157978499854895   -0.03327259292939653
-0.15522560459568266   -0.08157978499854895   -0.03327259292939653
-0.15522560459568266   -0.08157978499854895   -0.03327259292939653
-0.15522560459568266   -0.08157978499854895   -0.03327259292939653
0.23674961564965766   0.051594842902656715   0.03886294628033232
0.23674961564965766   0.051594842902656715   0.03886294628033232
0.23674961564965766   0.051594842902656715   0.03886294628033232
0.23674961564965766   0.051594842902656715   0.03886294628033232
0.22579653635171845   0.030360285303060962   -0.028161324326050494
0.22579653635171845   0.030360285303060962   -0.028161324326050494
0.22579653635171845   0.030360285303060962   -0.028161324326050494
0.22579653635171845   0.030360285303060962   -0.028161324326050494
-0.12918418331137013   0.004111474675289682   0.00892426911287522
-0.12918418331137013   0.004111474675289682   0.00892426911287522
-0.12918418331137013   0.004111474675289682   0.00892426911287522
-0.12918418331137013   0.004111474675289682   0.00892426911287522
0.04208100585649616   -0.00047964991698843523   0.007138629659149815
0.04208100585649616   -0.00047964991698843523   0.007138629659149815
0.04208100585649616   -0.00047964991698843523   0.007138629659149815
0.04208100585649616   -0.00047964991698843523   0.007138629659149815
-0.14930606650778544   -0.047118920702009945   -0.04045475149190113
-0.14930606650778544   -0.047118920702009945   -0.04045475149190113
-0.14930606650778544   -0.047118920702009945   -0.04045475149190113
-0.14930606650778544   -0.047118920702009945   -0.04045475149190113
0.2489414370634385   0.08461369819566508   0.033309766339943585
0.2489414370634385   0.08461369819566508   0.033309766339943585
0.2489414370634385   0.08461369819566508   0.033309766339943585
0.2489414370634385   0.08461369819566508   0.033309766339943585
0.23657354168943784   0.07222308766192675   -0.032541605597413426
0.23657354168943784   0.07222308766192675   -0.032541605597413426
0.23657354168943784   0.07222308766192675   -0.032541605597413426
0.23657354168943784   0.07222308766192675   -0.032541605597413426
-0.12363654549937933   0.040096222746445774   0.0017147865666784952
-0.12363654549937933   0.040096222746445774   0.0017147865666784952
-0.12363654549937933   0.040096222746445774   0.0017147865666784952
-0.12363654549937933   0.040096222746445774   0.0017147865666784952
0.05307797248128462   0.03393730252740138   0.021662845000533414
0.05307797248128462   0.03393730252740138   0.021662845000533414
0.05307797248128462   0.03393730252740138   0.021662845000533414
0.05307797248128462   0.03393730252740138   0.021662845000533414
0.18155026800461843   -0.11799197166141134   -0.05335283625280331
0.18155026800461843   -0.11799197166141134   -0.05335283625280331
0.18155026800461843   -0.11799197166141134   -0.05335283625280331
0.18155026800461843   -0.11799197166141134   -0.05335283625280331
0.5469391687180638   0.05393207922048386   0.05769413099975093
0.5469391687180638   0.05393207922048386   0.05769413099975093
0.5469391687180638   0.05393207922048386   0.05769413099975093
0.5469391687180638   0.05393207922048386   0.05769413099975093
0.5414837164537915   -0.02901436793807223   -0.07023763836756161
0.5414837164537915   -0.02901436793807223   -0.07023763836756161
0.5414837164537915   -0.02901436793807223   -0.07023763836756161
0.5414837164537915   -0.02901436793807223   -0.07023763836756161
0.22922569818133195   0.009783671185405969   0.04305453065595441
0.22922569818133195   0.009783671185405969   0.04305453065595441
0.22922569818133195   0.009783671185405969   0.04305453065595441
0.22922569818133195   0.009783671185405969   0.04305453065595441
0.3552618201353407   -0.024410156521382953   -0.018775420344479297
0.3552618201353407   -0.024410156521382953   -0.018775420344479297
0.3552618201353407   -0.024410156521382953   -0.018775420344479297
0.3552618201353407   -0.024410156521382953   -0.018775420344479297
0.18665998862219857   -0.09827471251811648   -0.06171563343618996
0.18665998862219857   -0.09827471251811648   -0.06171563343618996
0.18665998862219857   -0.09827471251811648   -0.06171563343618996
0.18665998862219857   -0.09827471251811648   -0.06171563343618996
0.5876033768506865   0.08259796660321195   0.0487483290756296
0.5876033768506865   0.08259796660321195   0.0487483290756296
0.5876033768506865   0.08259796660321195   0.0487483290756296
0.5876033768506865   0.08259796660321195   0.0487483290756296
0.5710682346503492   -0.008438971651986704   -0.08424002960115437
0.5710682346503492   -0.008438971651986704   -0.08424002960115437
0.5710682346503492   -0.008438971651986704   -0.08424002960115437
0.5710682346503492   -0.008438971651986704   -0.08424002960115437
0.23704256931092912   0.024855464450838825   0.03357366132222304
0.23704256931092912   0.024855464450838825   0.03357366132222304
0.23704256931092912   0.024855464450838825   0.03357366132222304
0.23704256931092912   0.024855464450838825   0.03357366132222304
0.3851472974067205   -0.0036629409137663577   -0.002251770260708951
0.3851472974067205   -0.0036629409137663577   -0.002251770260708951
0.3851472974067205   -0.0036629409137663577   -0.002251770260708951
0.3851472974067205   -0.0036629409137663577   -0.002251770260708951
0.19481150902659816   -0.08115628832185352   -0.07156988732673741
0.19481150902659816   -0.08115628832185352   -0.07156988732673741
0.19481150902659816   -0.08115628832185352   -0.07156988732673741
0.19481150902659816   -0.08115628832185352   -0.07156988732673741
0.6170027959978815   0.10127628218390736   0.03571752330061325
0.6170027959978815   0.10127628218390736   0.03571752330061325
0.6170027959978815   0.10127628218390736   0.03571752330061325
0.6170027959978815   0.10127628218390736   0.03571752330061325
0.6164951615698623   0.03674619257733257   -0.09017769358425269
0.6164951615698623   0.03674619257733257   -0.09017769358425269
0.6164951615698623   0.03674619257733257   -0.09017769358425269
0.6164951615698623   0.03674619257733257   -0.09017769358425269
0.2450421673944458   0.05534786485211599   0.026676745737435222
0.2450421673944458   0.05534786485211599   0.026676745737435222
0.2450421673944458   0.05534786485211599   0.026676745737435222
0.2450421673944458   0.05534786485211599   0.026676745737435222
0.4000516881005758   0.01920284588413594   0.011968567151406047
0.4000516881005758   0.01920284588413594   0.011968567151406047
0.4000516881005758   0.01920284588413594   0.011968567151406047
0.4000516881005758   0.01920284588413594   0.011968567151406047
-0.7370390281455255   -0.012343840035785314   0.07198630228382226
-0.7370390281455255   -0.012343840035785314   0.07198630228382226
-0.7370390281455255   -0.012343840035785314   0.07198630228382226
-0.7370390281455255   -0.012343840035785314   0.07198630228382226
-0.5749568435209441   -0.07298590270608285   -0.035610528967683415
-0.5749568435209441   -0.07298590270608285   -0.035610528967683415
-0.5749568435209441   -0.07298590270608285   -0.035610528967683415
-0.5749568435209441   -0.07298590270608285   -0.035610528967683415
-0.5204353068818713   0.06183115341804077   0.06155502062451148
-0.5204353068818713   0.06183115341804077   0.06155502062451148
-0.5204353068818713   0.06183115341804077   0.06155502062451148
-0.5204353068818713   0.06183115341804077   0.06155502062451148
-0.733928559212863   -0.07995027519982956   -0.04847163747813659
-0.733928559212863   -0.07995027519982956   -0.04847163747813659
-0.733928559212863   -0.07995027519982956   -0.04847163747813659
-0.733928559212863   -0.07995027519982956   -0.04847163747813659
-0.6170369535152437   -0.016980232301316414   -0.009090842682478863
-0.6170369535152437   -0.016980232301316414   -0.009090842682478863
-0.6170369535152437   -0.016980232301316414   -0.009090842682478863
-0.6170369535152437   -0.016980232301316414   -0.009090842682478863
-0.6885588749067524   0.029650614548899806   0.06877589430368766
-0.6885588749067524   0.029650614548899806   0.06877589430368766
-0.6885588749067524   0.029650614548899806   0.06877589430368766
-0.6885588749067524   0.029650614548899806   0.06877589430368766
-0.5626523722596637   -0.0446171174023689   -0.04308203544403268
-0.5626523722596637   -0.0446171174023689   -0.04308203544403268
-0.5626523722596637   -0.0446171174023689   -0.04308203544403268
-0.5626523722596637   -0.0446171174023689   -0.04308203544403268
-0.5075263605641036   0.07786742913003557   0.05206353953722674
-0.5075263605641036   0.07786742913003557   0.05206353953722674
-0.5075263605641036   0.07786742913003557   0.05206353953722674
-0.5075263605641036   0.07786742913003557   0.05206353953722674
-0.7002391080227165   -0.061778135596459546   -0.06056026760934173
-0.7002391080227165   -0.061778135596459546   -0.06056026760934173
-0.7002391080227165   -0.061778135596459546   -0.06056026760934173
-0.7002391080227165   -0.061778135596459546   -0.06056026760934173
-0.5994256381916919   0.004009882573431212   0.004304157428157658
-0.5994256381916919   0.004009882573431212   0.004304157428157658
-0.5994256381916919   0.004009882573431212   0.004304157428157658
-0.5994256381916919   0.004009882573431212   0.004304157428157658
-0.6548355988785933   0.049107251718878114   0.055571890795929155
-0.6548355988785933   0.049107251718878114   0.055571890795929155
-0.6548355988785933   0.049107251718878114   0.055571890795929155
-0.6548355988785933   0.049107251718878114   0.055571890795929155
-0.5499458684056376   -0.030033956882712945   -0.05213261365768758
-0.5499458684056376   -0.030033956882712945   -0.05213261365768758
-0.5499458684056376   -0.030033956882712945   -0.05213261365768758
-0.5499458684056376   -0.030033956882712945   -0.05213261365768758
-0.4970709762349134   0.09783970062500374   0.04490216188408415
-0.4970709762349134   0.09783970062500374   0.04490216188408415
-0.4970709762349134   0.09783970062500374   0.04490216188408415
-0.4970709762349134   0.09783970062500374   0.04490216188408415
-0.654978582063216   -0.03268522819419144   -0.07008429185773796
-0.654978582063216   -0.03268522819419144   -0.07008429185773796
-0.654978582063216   -0.03268522819419144   -0.07008429185773796
-0.654978582063216   -0.03268522819419144   -0.07008429185773796
-0.5638819504789019   0.024706506894255312   0.02092342217954076
-0.5638819504789019   0.024706506894255312   0.02092342217954076
-0.5638819504789019   0.024706506894255312   0.02092342217954076
-0.5638819504789019   0.024706506894255312   0.02092342217954076
-0.5547967918672048   -0.041760555290755064   0.033964381885685624
-0.5547967918672048   -0.041760555290755064   0.033964381885685624
-0.5547967918672048   -0.041760555290755064   0.033964381885685624
-0.5547967918672048   -0.041760555290755064   0.033964381885685624
-0.407353128075734   -0.05533641668531815   -0.01054296181137113
-0.407353128075734   -0.05533641668531815   -0.01054296181137113
-0.407353128075734   -0.05533641668531815   -0.01054296181137113
-0.407353128075734   -0.05533641668531815   -0.01054296181137113
-0.3769543172363235   0.02808836762074861   0.03146838910245328
-0.3769543172363235   0.02808836762074861   0.03146838910245328
-0.3769543172363235   0.02808836762074861   0.03146838910245328
-0.3769543172363235   0.02808836762074861   0.03146838910245328
-0.5630012888582692   -0.05901791528791207   -0.03042582055151351
-0.5630012888582692   -0.05901791528791207   -0.03042582055151351
-0.5630012888582692   -0.05901791528791207   -0.03042582055151351
-0.5630012888582692   -0.05901791528791207   -0.03042582055151351
-0.4742141473532245   -0.029483230899093507   -0.012775268929501222
-0.4742141473532245   -0.029483230899093507   -0.012775268929501222
-0.4742141473532245   -0.029483230899093507   -0.012775268929501222
-0.4742141473532245   -0.029483230899093507   -0.012775268929501222
-0.5403525799138781   -0.005104167465625031   0.028903976348139727
-0.5403525799138781   -0.005104167465625031   0.028903976348139727
-0.5403525799138781   -0.005104167465625031   0.028903976348139727
-0.5403525799138781   -0.005104167465625031   0.028903976348139727
-0.3970603180660209   -0.023282672086846964   -0.017690575338436213
-0.3970603180660209   -0.023282672086846964   -0.017690575338436213
-0.3970603180660209   -0.023282672086846964   -0.017690575338436213
-0.3970603180660209   -0.023282672086846964   -0.017690575338436213
-0.36582310133294604   0.06070689158249372   0.02516941888911995
-0.36582310133294604   0.06070689158249372   0.02516941888911995
-0.36582310133294604   0.06070689158249372   0.02516941888911995
-0.36582310133294604   0.06070689158249372   0.02516941888911995
-0.5463291452946231   -0.027657490345644464   -0.0364254646396789
-0.5463291452946231   -0.027657490345644464   -0.0364254646396789
-0.5463291452946231   -0.027657490345644464   -0.0364254646396789
-0.5463291452946231   -0.027657490345644464   -0.0364254646396789
-0.4581175599915741   0.0019674940636652954   0.001311068141824731
-0.4581175599915741   0.0019674940636652954   0.001311068141824731
-0.4581175599915741   0.0019674940636652954   0.001311068141824731
-0.4581175599915741   0.0019674940636652954   0.001311068141824731
-0.5223511589202499   0.02960732638709604   0.026199650499435324
-0.5223511589202499   0.02960732638709604   0.026199650499435324
-0.5223511589202499   0.02960732638709604   0.026199650499435324
-0.5223511589202499   0.02960732638709604   0.026199650499435324
-0.38686565111629223   0.0063775114407831485   -0.025713949885902383
-0.38686565111629223   0.0063775114407831485   -0.025713949885902383
-0.38686565111629223   0.0063775114407831485   -0.025713949885902383
-0.38686565111629223   0.0063775114407831485   -0.025713949885902383
-0.3547273236848342   0.09611213099748442   0.0191699228754994
-0.3547273236848342   0.09611213099748442   0.0191699228754994
-0.3547273236848342   0.09611213099748442   0.0191699228754994
-0.3547273236848342   0.09611213099748442   0.0191699228754994
-0.532566618022077   0.0065946881480925534   -0.04133103457481512
-0.532566618022077   0.0065946881480925534   -0.04133103457481512
-0.532566618022077   0.0065946881480925534   -0.04133103457481512
-0.532566618022077   0.0065946881480925534   -0.04133103457481512
-0.4464773364799622   0.03279890322289829   0.015089180539833769
-0.4464773364799622   0.03279890322289829   0.015089180539833769
-0.4464773364799622   0.03279890322289829   0.015089180539833769
-0.4464773364799622   0.03279890322289829   0.015089180539833769
-0.40686397691407306   -0.06941867194261991   0.005985049254229671
-0.40686397691407306   -0.06941867194261991   0.005985049254229671
-0.40686397691407306   -0.06941867194261991   0.005985049254229671
-0.40686397691407306   -0.06941867194261991   0.005985049254229671
-0.24200837485098825   -0.029200867199308686   0.0149459685714532
-0.24200837485098825   -0.029200867199308686   0.0149459685714532
-0.24200837485098825   -0.029200867199308686   0.0149459685714532
-0.24200837485098825   -0.029200867199308686   0.0149459685714532
-0.23372294812157252   -0.0006283463941061662   0.0019280733229407078
-0.23372294812157252   -0.0006283463941061662   0.0019280733229407078
-0.23372294812157252   -0.0006283463941061662   0.0019280733229407078
-0.23372294812157252   -0.0006283463941061662   0.0019280733229407078
-0.39590079777998133   -0.031658694649942094   -0.003516951345145394
-0.39590079777998133   -0.031658694649942094   -0.003516951345145394
-0.39590079777998133   -0.031658694649942094   -0.003516951345145394
-0.39590079777998133   -0.031658694649942094   -0.003516951345145394
-0.32013253409263026   -0.031195813607309414   -0.00930383129317574
-0.32013253409263026   -0.031195813607309414   -0.00930383129317574
-0.32013253409263026   -0.031195813607309414   -0.00930383129317574
-0.32013253409263026   -0.031195813607309414   -0.00930383129317574
-0.3954276069219505   -0.033264025966464425   0.00045433426152742887
-0.3954276069219505   -0.033264025966464425   0.00045433426152742887
-0.3954276069219505   -0.033264025966464425   0.00045433426152742887
-0.3954276069219505   -0.033264025966464425   0.00045433426152742887
-0.2316674493490891   0.0035056745529298064   0.008071546238321814
-0.2316674493490891   0.0035056745529298064   0.008071546238321814
-0.2316674493490891   0.0035056745529298064   0.008071546238321814
-0.2316674493490891   0.0035056745529298064   0.008071546238321814
-0.22163184346568773   0.03584598978498322   -0.003218359896049596
-0.22163184346568773   0.03584598978498322   -0.003218359896049596
-0.22163184346568773   0.03584598978498322   -0.003218359896049596
-0.22163184346568773   0.03584598978498322   -0.003218359896049596
-0.3847492183746741   0.0015146218714757465   -0.01026889660850231
-0.3847492183746741   0.0015146218714757465   -0.01026889660850231
-0.3847492183746741   0.0015146218714757465   -0.01026889660850231
-0.3847492183746741   0.0015146218714757465   -0.01026889660850231
-0.3073785362135068   0.0015963635863870396   0.004357045056311855
-0.3073785362135068   0.0015963635863870396   0.004357045056311855
-0.3073785362135068   0.0015963635863870396   0.004357045056311855
-0.3073785362135068   0.0015963635863870396   0.004357045056311855
-0.38341235051076966   0.003099644393062248   -0.005169579810572516
-0.38341235051076966   0.003099644393062248   -0.005169579810572516
-0.38341235051076966   0.003099644393062248   -0.005169579810572516
-0.38341235051076966   0.003099644393062248   -0.005169579810572516
-0.22068185778505536   0.03654782080793256   0.0008297374841630192
-0.22068185778505536   0.03654782080793256   0.0008297374841630192
-0.22068185778505536   0.03654782080793256   0.0008297374841630192
-0.22068185778505536   0.03654782080793256   0.0008297374841630192
-0.21021139252339646   0.0726548945730617   -0.009088448472801748
-0.21021139252339646   0.0726548945730617   -0.009088448472801748
-0.21021139252339646   0.0726548945730617   -0.009088448472801748
-0.21021139252339646   0.0726548945730617   -0.009088448472801748
-0.37429219889625304   0.03494369962161889   -0.01748602180572701
-0.37429219889625304   0.03494369962161889   -0.01748602180572701
-0.37429219889625304   0.03494369962161889   -0.01748602180572701
-0.37429219889625304   0.03494369962161889   -0.01748602180572701
-0.29531496830990006   0.034506323873245356   0.017468087074569
-0.29531496830990006   0.034506323873245356   0.017468087074569
-0.29531496830990006   0.034506323873245356   0.017468087074569
-0.29531496830990006   0.034506323873245356   0.017468087074569
-0.26230712443830917   -0.09340462825239863   -0.0223440183120655
-0.26230712443830917   -0.09340462825239863   -0.0223440183120655
-0.26230712443830917   -0.09340462825239863   -0.0223440183120655
-0.26230712443830917   -0.09340462825239863   -0.0223440183120655
-0.08131766616460091   -0.0014513677611637486   0.03918647792273355
-0.08131766616460091   -0.0014513677611637486   0.03918647792273355
-0.08131766616460091   -0.0014513677611637486   0.03918647792273355
-0.08131766616460091   -0.0014513677611637486   0.03918647792273355
-0.09243645867342476   -0.02777280021712701   -0.02878919499550391
-0.09243645867342476   -0.02777280021712701   -0.02878919499550391
-0.09243645867342476   -0.02777280021712701   -0.02878919499550391
-0.09243645867342476   -0.02777280021712701   -0.02878919499550391
-0.2302093679705502   -0.003565263086215076   0.022432890770158753
-0.2302093679705502   -0.003565263086215076   0.022432890770158753
-0.2302093679705502   -0.003565263086215076   0.022432890770158753
-0.2302093679705502   -0.003565263086215076   0.022432890770158753
-0.1665368547480238   -0.030172104770559552   -0.006714441527343065
-0.1665368547480238   -0.030172104770559552   -0.006714441527343065
-0.1665368547480238   -0.030172104770559552   -0.006714441527343065
-0.1665368547480238   -0.030172104770559552   -0.006714441527343065
-0.25153345352016865   -0.05948743350017351   -0.028265366563977132
-0.25153345352016865   -0.05948743350017351   -0.028265366563977132
-0.25153345352016865   -0.05948743350017351   -0.028265366563977132
-0.25153345352016865   -0.05948743350017351   -0.028265366563977132
-0.06827909090350014   0.03098265241713468   0.033242191219857456
-0.06827909090350014   0.03098265241713468   0.033242191219857456
-0.06827909090350014   0.03098265241713468   0.033242191219857456
-0.06827909090350014   0.03098265241713468   0.033242191219857456
-0.07475232043809382   0.0067309495039792056   -0.03241021961695347
-0.07475232043809382   0.0067309495039792056   -0.03241021961695347
-0.07475232043809382   0.0067309495039792056   -0.03241021961695347
-0.07475232043809382   0.0067309495039792056   -0.03241021961695347
-0.21992039626414417   0.02622086995993772   0.014963995936712
-0.21992039626414417   0.02622086995993772   0.014963995936712
-0.21992039626414417   0.02622086995993772   0.014963995936712
-0.21992039626414417   0.02622086995993772   0.014963995936712
-0.15296822612665295   0.00037035070504766454   0.0072076832886041504
-0.15296822612665295   0.00037035070504766454   0.0072076832886041504
-0.15296822612665295   0.00037035070504766454   0.0072076832886041504
-0.15296822612665295   0.00037035070504766454   0.0072076832886041504
-0.24056754698378893   -0.02696685785173713   -0.03508402984984
-0.24056754698378893   -0.02696685785173713   -0.03508402984984
-0.24056754698378893   -0.02696685785173713   -0.03508402984984
-0.24056754698378893   -0.02696685785173713   -0.03508402984984
-0.05146767130040651   0.06255617573369097   0.02818779984177128
-0.05146767130040651   0.06255617573369097   0.02818779984177128
-0.05146767130040651   0.06255617573369097   0.02818779984177128
-0.05146767130040651   0.06255617573369097   0.02818779984177128
-0.05979399432561361   0.04526017057548255   -0.03630802546190334
-0.05979399432561361   0.04526017057548255   -0.03630802546190334
-0.05979399432561361   0.04526017057548255   -0.03630802546190334
-0.05979399432561361   0.04526017057548255   -0.03630802546190334
-0.2093872162858454   0.05992352138799925   0.00776380590001835
-0.2093872162858454   0.05992352138799925   0.00776380590001835
-0.2093872162858454   0.05992352138799925   0.00776380590001835
-0.2093872162858454   0.05992352138799925   0.00776380590001835
-0.13892446526495977   0.032206308574658775   0.021131124187343444
-0.13892446526495977   0.032206308574658775   0.021131124187343444
-0.13892446526495977   0.032206308574658775   0.021131124187343444
-0.13892446526495977   0.032206308574658775   0.021131124187343444
-0.1186668546467037   -0.10044176508517677   -0.04856906716376927
-0.1186668546467037   -0.10044176508517677   -0.04856906716376927
-0.1186668546467037   -0.10044176508517677   -0.04856906716376927
-0.1186668546467037   -0.10044176508517677   -0.04856906716376927
0.03999785602340653   0.02967410801899567   0.0597597844393247
0.03999785602340653   0.02967410801899567   0.0597597844393247
0.03999785602340653   0.02967410801899567   0.0597597844393247
0.03999785602340653   0.02967410801899567   0.0597597844393247
0.04029278747774994   -0.04947721802602399   -0.06431700469761342
0.04029278747774994   -0.04947721802602399   -0.06431700469761342
0.04029278747774994   -0.04947721802602399   -0.06431700469761342
0.04029278747774994   -0.04947721802602399   -0.06431700469761342
-0.06514251534750812   0.030996616482139472   0.048911104934812745
-0.06514251534750812   0.030996616482139472   0.048911104934812745
-0.06514251534750812   0.030996616482139472   0.048911104934812745
-0.06514251534750812   0.030996616482139472   0.048911104934812745
-0.02718135136473218   -0.021329436343378323   -0.011359396369063699
-0.02718135136473218   -0.021329436343378323   -0.011359396369063699
-0.02718135136473218   -0.021329436343378323   -0.011359396369063699
-0.02718135136473218   -0.021329436343378323   -0.011359396369063699
-0.10777071070438098   -0.07739430649700602   -0.05583894887040795
-0.10777071070438098   -0.07739430649700602   -0.05583894887040795
-0.10777071070438098   -0.07739430649700602   -0.05583894887040795
-0.10777071070438098   -0.07739430649700602   -0.05583894887040795
0.08594994549421789   0.06194266761271946   0.0525488997459867
0.08594994549421789   0.06194266761271946   0.0525488997459867
0.08594994549421789   0.06194266761271946   0.0525488997459867
0.08594994549421789   0.06194266761271946   0.0525488997459867
0.0741560785296205   -0.029717407033037265   -0.07640420531583346
0.0741560785296205   -0.029717407033037265   -0.07640420531583346
0.0741560785296205   -0.029717407033037265   -0.07640420531583346
0.0741560785296205   -0.029717407033037265   -0.07640420531583346
-0.05270400497459859   0.045334691068575836   0.039227616135926
-0.05270400497459859   0.045334691068575836   0.039227616135926
-0.05270400497459859   0.045334691068575836   0.039227616135926
-0.05270400497459859   0.045334691068575836   0.039227616135926
0.0006587008294951029   -0.0009983557745695086   0.0037269629708139235
0.0006587008294951029   -0.0009983557745695086   0.0037269629708139235
0.0006587008294951029   -0.0009983557745695086   0.0037269629708139235
0.0006587008294951029   -0.0009983557745695086   0.0037269629708139235
-0.09475969668046282   -0.06113579273070956   -0.0645803585941116
-0.09475969668046282   -0.06113579273070956   -0.0645803585941116
-0.09475969668046282   -0.06113579273070956   -0.0645803585941116
-0.09475969668046282   -0.06113579273070956   -0.0645803585941116
0.1192436937881275   0.07978500031889571   0.03953146362476861
0.1192436937881275   0.07978500031889571   0.03953146362476861
0.1192436937881275   0.07978500031889571   0.03953146362476861
0.1192436937881275   0.07978500031889571   0.03953146362476861
0.1216142708740217   0.008962342467040793   -0.08182296966753204
0.1216142708740217   0.008962342467040793   -0.08182296966753204
0.1216142708740217   0.008962342467040793   -0.08182296966753204
0.1216142708740217   0.008962342467040793   -0.08182296966753204
-0.04108403210374803   0.07062388640711864   0.03187806981578851
-0.04108403210374803   0.07062388640711864   0.03187806981578851
-0.04108403210374803   0.07062388640711864   0.03187806981578851
-0.04108403210374803   0.07062388640711864   0.03187806981578851
0.025749039132251544   0.020361983091768565   0.018474560799386027
0.025749039132251544   0.020361983091768565   0.018474560799386027
0.025749039132251544   0.020361983091768565   0.018474560799386027
0.025749039132251544   0.020361983091768565   0.018474560799386027
-0.2441072647642397   0.013961098051151595   0.06827489606178432
-0.2441072647642397   0.013961098051151595   0.06827489606178432
-0.2441072647642397   0.013961098051151595   0.06827489606178432
-0.2441072647642397   0.013961098051151595   0.06827489606178432
-0.29026143510252933   -0.08900256373612994   -0.04023489759050833
-0.29026143510252933   -0.08900256373612994   -0.04023489759050833
-0.29026143510252933   -0.08900256373612994   -0.04023489759050833
-0.29026143510252933   -0.08900256373612994   -0.04023489759050833
-0.23173748583216308   0.041362887077287094   0.055903100526746775
-0.23173748583216308   0.041362887077287094   0.055903100526746775
-0.23173748583216308   0.041362887077287094   0.055903100526746775
-0.23173748583216308   0.041362887077287094   0.055903100526746775
-0.23704803711493871   -0.058522566305318   -0.05184967870901181
-0.23704803711493871   -0.058522566305318   -0.05184967870901181
-0.23704803711493871   -0.058522566305318   -0.05184967870901181
-0.23704803711493871   -0.058522566305318   -0.05184967870901181
-0.24445060609969174   -0.018802599647236316   -0.018678205567960557
-0.24445060609969174   -0.018802599647236316   -0.018678205567960557
-0.24445060609969174   -0.018802599647236316   -0.018678205567960557
-0.24445060609969174   -0.018802599647236316   -0.018678205567960557
-0.19208927977650608   0.05083018043219526   0.06359136124563056
-0.19208927977650608   0.05083018043219526   0.06359136124563056
-0.19208927977650608   0.05083018043219526   0.06359136124563056
-0.19208927977650608   0.05083018043219526   0.06359136124563056
-0.2738782764395555   -0.06517189292918651   -0.048266072503737635
-0.2738782764395555   -0.06517189292918651   -0.048266072503737635
-0.2738782764395555   -0.06517189292918651   -0.048266072503737635
-0.2738782764395555   -0.06517189292918651   -0.048266072503737635
-0.21368619789603244   0.05705356722144311   0.04704533635345674
-0.21368619789603244   0.05705356722144311   0.04704533635345674
-0.21368619789603244   0.05705356722144311   0.04704533635345674
-0.21368619789603244   0.05705356722144311   0.04704533635345674
-0.19836799980053998   -0.040790059283318025   -0.06458640765455805
-0.19836799980053998   -0.040790059283318025   -0.06458640765455805
-0.19836799980053998   -0.040790059283318025   -0.06458640765455805
-0.19836799980053998   -0.040790059283318025   -0.06458640765455805
-0.21591535482382573   0.0012439551968759927   -0.0038895042280939103
-0.21591535482382573   0.0012439551968759927   -0.0038895042280939103
-0.21591535482382573   0.0012439551968759927   -0.0038895042280939103
-0.21591535482382573   0.0012439551968759927   -0.0038895042280939103
-0.15315017109115311   0.0699118671946148   0.050800809414435856
-0.15315017109115311   0.0699118671946148   0.050800809414435856
-0.15315017109115311   0.0699118671946148   0.050800809414435856
-0.15315017109115311   0.0699118671946148   0.050800809414435856
-0.25624669907645325   -0.05099103172752554   -0.05771257059968236
-0.25624669907645325   -0.05099103172752554   -0.05771257059968236
-0.25624669907645325   -0.05099103172752554   -0.05771257059968236
-0.25624669907645325   -0.05099103172752554   -0.05771257059968236
-0.19717210708037028   0.0810194908028196   0.04063282814447165
-0.19717210708037028   0.0810194908028196   0.04063282814447165
-0.19717210708037028   0.0810194908028196   0.04063282814447165
-0.19717210708037028   0.0810194908028196   0.04063282814447165
-0.14673707692699983   -0.007083075390253976   -0.0727577930539531
-0.14673707692699983   -0.007083075390253976   -0.0727577930539531
-0.14673707692699983   -0.007083075390253976   -0.0727577930539531
-0.14673707692699983   -0.007083075390253976   -0.0727577930539531
-0.18161037204262045   0.022189202287755665   0.011943731298457836
-0.18161037204262045   0.022189202287755665   0.011943731298457836
-0.18161037204262045   0.022189202287755665   0.011943731298457836
-0.18161037204262045   0.022189202287755665   0.011943731298457836
-0.2598430416052719   -0.01596242149751874   0.03881692765716385
-0.2598430416052719   -0.01596242149751874   0.03881692765716385
-0.2598430416052719   -0.01596242149751874   0.03881692765716385
-0.2598430416052719   -0.01596242149751874   0.03881692765716385
-0.32259919804088905   -0.07259884221980535   -0.015719698999753867
-0.32259919804088905   -0.07259884221980535   -0.015719698999753867
-0.32259919804088905   -0.07259884221980535   -0.015719698999753867
-0.32259919804088905   -0.07259884221980535   -0.015719698999753867
-0.28760448373348657   0.00733481242309951   0.02594101287876188
-0.28760448373348657   0.00733481242309951   0.02594101287876188
-0.28760448373348657   0.00733481242309951   0.02594101287876188
-0.28760448373348657   0.00733481242309951   0.02594101287876188
-0.26280944320573   -0.034291510666561574   -0.023802288597235557
-0.26280944320573   -0.034291510666561574   -0.023802288597235557
-0.26280944320573   -0.034291510666561574   -0.023802288597235557
-0.26280944320573   -0.034291510666561574   -0.023802288597235557
-0.2834165232521604   -0.02666561168667657   -0.013145273725894038
-0.2834165232521604   -0.02666561168667657   -0.013145273725894038
-0.2834165232521604   -0.02666561168667657   -0.013145273725894038
-0.2834165232521604   -0.02666561168667657   -0.013145273725894038
-0.24075649009151592   0.018292001530995375   0.033878964776270504
-0.24075649009151592   0.018292001530995375   0.033878964776270504
-0.24075649009151592   0.018292001530995375   0.033878964776270504
-0.24075649009151592   0.018292001530995375   0.033878964776270504
-0.3074502624563138   -0.043041525383077484   -0.022911542929200706
-0.3074502624563138   -0.043041525383077484   -0.022911542929200706
-0.3074502624563138   -0.043041525383077484   -0.022911542929200706
-0.3074502624563138   -0.043041525383077484   -0.022911542929200706
-0.27148632897862496   0.03855449710914553   0.019791656318242253
-0.27148632897862496   0.03855449710914553   0.019791656318242253
-0.27148632897862496   0.03855449710914553   0.019791656318242253
-0.27148632897862496   0.03855449710914553   0.019791656318242253
-0.2412552440867173   -0.004199366609326502   -0.029546960769198
-0.2412552440867173   -0.004199366609326502   -0.029546960769198
-0.2412552440867173   -0.004199366609326502   -0.029546960769198
-0.2412552440867173   -0.004199366609326502   -0.029546960769198
-0.2641625565419221   0.002468394951785087   0.0005052348483405994
-0.2641625565419221   0.002468394951785087   0.0005052348483405994
-0.2641625565419221   0.002468394951785087   0.0005052348483405994
-0.2641625565419221   0.002468394951785087   0.0005052348483405994
-0.21812975872301438   0.05136974982050921   0.03051134961948075
-0.21812975872301438   0.05136974982050921   0.03051134961948075
-0.21812975872301438   0.05136974982050921   0.03051134961948075
-0.21812975872301438   0.05136974982050921   0.03051134961948075
-0.2922591476513745   -0.014661952629742937   -0.030855987306622944
-0.2922591476513745   -0.014661952629742937   -0.030855987306622944
-0.2922591476513745   -0.014661952629742937   -0.030855987306622944
-0.2922591476513745   -0.014661952629742937   -0.030855987306622944
-0.25528993147048284   0.07310559450457804   0.013946810656018084
-0.25528993147048284   0.07310559450457804   0.013946810656018084
-0.25528993147048284   0.07310559450457804   0.013946810656018084
-0.25528993147048284   0.07310559450457804   0.013946810656018084
-0.2226548160340485   0.029195634853833703   -0.03495686067492956
-0.2226548160340485   0.029195634853833703   -0.03495686067492956
-0.2226548160340485   0.029195634853833703   -0.03495686067492956
-0.2226548160340485   0.029195634853833703   -0.03495686067492956
-0.24595948796194816   0.03255171175762087   0.014397311969220034
-0.24595948796194816   0.03255171175762087   0.014397311969220034
-0.24595948796194816   0.03255171175762087   0.014397311969220034
-0.24595948796194816   0.03255171175762087   0.014397311969220034
-0.311537610552909   -0.04391502400826888   0.01090442022860371
-0.311537610552909   -0.04391502400826888   0.01090442022860371
-0.311537610552909   -0.04391502400826888   0.01090442022860371
-0.311537610552909   -0.04391502400826888   0.01090442022860371
-0.35483279304064025   -0.04583663744812797   0.009508426322577727
-0.35483279304064025   -0.04583663744812797   0.009508426322577727
-0.35483279304064025   -0.04583663744812797   0.009508426322577727
-0.35483279304064025   -0.04583663744812797   0.009508426322577727
-0.34191571520787456   -0.02083057612344196   -0.003361441284751498
-0.34191571520787456   -0.02083057612344196   -0.003361441284751498
-0.34191571520787456   -0.02083057612344196   -0.003361441284751498
-0.34191571520787456   -0.02083057612344196   -0.003361441284751498
-0.29488292145003014   -0.006216406702696117   0.0031000434218397613
-0.29488292145003014   -0.006216406702696117   0.0031000434218397613
-0.29488292145003014   -0.006216406702696117   0.0031000434218397613
-0.29488292145003014   -0.006216406702696117   0.0031000434218397613
-0.32628091554816063   -0.027544339449436225   -0.008722868186623538
-0.32628091554816063   -0.027544339449436225   -0.008722868186623538
-0.32628091554816063   -0.027544339449436225   -0.008722868186623538
-0.32628091554816063   -0.027544339449436225   -0.008722868186623538
-0.29512103258561395   -0.009717279278163148   0.005410360319381935
-0.29512103258561395   -0.009717279278163148   0.005410360319381935
-0.29512103258561395   -0.009717279278163148   0.005410360319381935
-0.29512103258561395   -0.009717279278163148   0.005410360319381935
-0.3395965893393214   -0.015248688815001007   0.0026523007495759428
-0.3395965893393214   -0.015248688815001007   0.0026523007495759428
-0.3395965893393214   -0.015248688815001007   0.0026523007495759428
-0.3395965893393214   -0.015248688815001007   0.0026523007495759428
-0.3249842359885699   0.01381542548995722   -0.008529860902168483
-0.3249842359885699   0.01381542548995722   -0.008529860902168483
-0.3249842359885699   0.01381542548995722   -0.008529860902168483
-0.3249842359885699   0.01381542548995722   -0.008529860902168483
-0.27881912075802395   0.02521600336943415   -0.003533808839041176
-0.27881912075802395   0.02521600336943415   -0.003533808839041176
-0.27881912075802395   0.02521600336943415   -0.003533808839041176
-0.27881912075802395   0.02521600336943415   -0.003533808839041176
-0.30859302669774   0.003425753451909111   0.004754554683071281
-0.30859302669774   0.003425753451909111   0.004754554683071281
-0.30859302669774   0.003425753451909111   0.004754554683071281
-0.30859302669774   0.003425753451909111   0.004754554683071281
-0.2782556432608596   0.024805860515984046   -0.00030627849977529764
-0.2782556432608596   0.024805860515984046   -0.00030627849977529764
-0.2782556432608596   0.024805860515984046   -0.00030627849977529764
-0.2782556432608596   0.024805860515984046   -0.00030627849977529764
-0.32373246677237005   0.01604081505677564   -0.004496404387987589
-0.32373246677237005   0.01604081505677564   -0.004496404387987589
-0.32373246677237005   0.01604081505677564   -0.004496404387987589
-0.32373246677237005   0.01604081505677564   -0.004496404387987589
-0.30877195048971967   0.04867227564625605   -0.01436339008910515
-0.30877195048971967   0.04867227564625605   -0.01436339008910515
-0.30877195048971967   0.04867227564625605   -0.01436339008910515
-0.30877195048971967   0.04867227564625605   -0.01436339008910515
-0.26350860314870395   0.05677711220802742   -0.010818065438534755
-0.26350860314870395   0.05677711220802742   -0.010818065438534755
-0.26350860314870395   0.05677711220802742   -0.010818065438534755
-0.26350860314870395   0.05677711220802742   -0.010818065438534755
-0.29172318596332475   0.03445247071911378   0.017601310367445208
-0.29172318596332475   0.03445247071911378   0.017601310367445208
-0.29172318596332475   0.03445247071911378   0.017601310367445208
-0.29172318596332475   0.03445247071911378   0.017601310367445208
-0.3650294212203872   -0.06957773730143837   -0.017733614722853303
-0.3650294212203872   -0.06957773730143837   -0.017733614722853303
-0.3650294212203872   -0.06957773730143837   -0.017733614722853303
-0.3650294212203872   -0.06957773730143837   -0.017733614722853303
-0.389812376018648   -0.01962593054334251   0.03361813809588804
-0.389812376018648   -0.01962593054334251   0.03361813809588804
-0.389812376018648   -0.01962593054334251   0.03361813809588804
-0.389812376018648   -0.01962593054334251   0.03361813809588804
-0.39608864938910204   -0.047836652664524984   -0.03304477570283893
-0.39608864938910204   -0.047836652664524984   -0.03304477570283893
-0.39608864938910204   -0.047836652664524984   -0.03304477570283893
-0.39608864938910204   -0.047836652664524984   -0.03304477570283893
-0.3272335693900901   0.020852594282013887   0.02836611739871537
-0.3272335693900901   0.020852594282013887   0.02836611739871537
-0.3272335693900901   0.020852594282013887   0.02836611739871537
-0.3272335693900901   0.020852594282013887   0.02836611739871537
-0.3680053483336572   -0.02716713087708867   -0.005482051281716057
-0.3680053483336572   -0.02716713087708867   -0.005482051281716057
-0.3680053483336572   -0.02716713087708867   -0.005482051281716057
-0.3680053483336572   -0.02716713087708867   -0.005482051281716057
-0.34905980926486774   -0.036503689198119   -0.023408798495043293
-0.34905980926486774   -0.036503689198119   -0.023408798495043293
-0.34905980926486774   -0.036503689198119   -0.023408798495043293
-0.34905980926486774   -0.036503689198119   -0.023408798495043293
-0.37208036549276874   0.011701674837163   0.027458316277139648
-0.37208036549276874   0.011701674837163   0.027458316277139648
-0.37208036549276874   0.011701674837163   0.027458316277139648
-0.37208036549276874   0.011701674837163   0.027458316277139648
-0.3738998612657854   -0.014982834265567041   -0.03707506018913993
-0.3738998612657854   -0.014982834265567041   -0.03707506018913993
-0.3738998612657854   -0.014982834265567041   -0.03707506018913993
-0.3738998612657854   -0.014982834265567041   -0.03707506018913993
-0.3119881141140612   0.049202033668920064   0.021064140291412195
-0.3119881141140612   0.049202033668920064   0.021064140291412195
-0.3119881141140612   0.049202033668920064   0.021064140291412195
-0.3119881141140612   0.049202033668920064   0.021064140291412195
-0.3479085740535393   0.0026569149478851972   0.008429791978100794
-0.3479085740535393   0.0026569149478851972   0.008429791978100794
-0.3479085740535393   0.0026569149478851972   0.008429791978100794
-0.3479085740535393   0.0026569149478851972   0.008429791978100794
-0.3331379724220834   -0.005426723312463064   -0.03005639426732209
-0.3331379724220834   -0.005426723312463064   -0.03005639426732209
-0.3331379724220834   -0.005426723312463064   -0.03005639426732209
-0.3331379724220834   -0.005426723312463064   -0.03005639426732209
-0.35054479302457564   0.04185113264900257   0.02286631410233922
-0.35054479302457564   0.04185113264900257   0.02286631410233922
-0.35054479302457564   0.04185113264900257   0.02286631410233922
-0.35054479302457564   0.04185113264900257   0.02286631410233922
-0.3544828352563268   0.02121494041110726   -0.04068348001392952
-0.3544828352563268   0.02121494041110726   -0.04068348001392952
-0.3544828352563268   0.02121494041110726   -0.04068348001392952
-0.3544828352563268   0.02121494041110726   -0.04068348001392952
-0.2967006754242551   0.08080289167849485   0.013862369205978865
-0.2967006754242551   0.08080289167849485   0.013862369205978865
-0.2967006754242551   0.08080289167849485   0.013862369205978865
-0.2967006754242551   0.08080289167849485   0.013862369205978865
-0.3308393697138089   0.032253835824088514   0.021732394901022387
-0.3308393697138089   0.032253835824088514   0.021732394901022387
-0.3308393697138089   0.032253835824088514   0.021732394901022387
-0.3308393697138089   0.032253835824088514   0.021732394901022387
-0.41805011263396885   -0.08277228142096438   -0.04442419410310017
-0.41805011263396885   -0.08277228142096438   -0.04442419410310017
-0.41805011263396885   -0.08277228142096438   -0.04442419410310017
-0.41805011263396885   -0.08277228142096438   -0.04442419410310017
-0.4623765648570805   0.006380652506997778   0.06048517221287372
-0.4623765648570805   0.006380652506997778   0.06048517221287372
-0.4623765648570805   0.006380652506997778   0.06048517221287372
-0.4623765648570805   0.006380652506997778   0.06048517221287372
-0.4561582336141844   -0.06882291580891339   -0.05917083825377529
-0.4561582336141844   -0.06882291580891339   -0.05917083825377529
-0.4561582336141844   -0.06882291580891339   -0.05917083825377529
-0.4561582336141844   -0.06882291580891339   -0.05917083825377529
-0.35863208088904963   0.052185025752015446   0.05421638838087932
-0.35863208088904963   0.052185025752015446   0.05421638838087932
-0.35863208088904963   0.052185025752015446   0.05421638838087932
-0.35863208088904963   0.052185025752015446   0.05421638838087932
-0.4068208972645636   -0.01778215528409459   -0.002711111348389472
-0.4068208972645636   -0.01778215528409459   -0.002711111348389472
-0.4068208972645636   -0.01778215528409459   -0.002711111348389472
-0.4068208972645636   -0.01778215528409459   -0.002711111348389472
-0.40130696593908355   -0.05617758070549529   -0.05079543041178561
-0.40130696593908355   -0.05617758070549529   -0.05079543041178561
-0.40130696593908355   -0.05617758070549529   -0.05079543041178561
-0.40130696593908355   -0.05617758070549529   -0.05079543041178561
-0.4111767428050782   0.04184629640766735   0.055067403575167345
-0.4111767428050782   0.04184629640766735   0.055067403575167345
-0.4111767428050782   0.04184629640766735   0.055067403575167345
-0.4111767428050782   0.04184629640766735   0.055067403575167345
-0.4178371801325301   -0.04964258226101132   -0.07052557535410905
-0.4178371801325301   -0.04964258226101132   -0.07052557535410905
-0.4178371801325301   -0.04964258226101132   -0.07052557535410905
-0.4178371801325301   -0.04964258226101132   -0.07052557535410905
-0.34147367392069566   0.0656947688721799   0.04437827339855764
-0.34147367392069566   0.0656947688721799   0.04437827339855764
-0.34147367392069566   0.0656947688721799   0.04437827339855764
-0.34147367392069566   0.0656947688721799   0.04437827339855764
-0.3808824780541139   0.002262928076363094   0.010637479532116845
-0.3808824780541139   0.002262928076363094   0.010637479532116845
-0.3808824780541139   0.002262928076363094   0.010637479532116845
-0.3808824780541139   0.002262928076363094   0.010637479532116845
-0.3833202949188724   -0.04038841890957292   -0.05877164381057467
-0.3833202949188724   -0.04038841890957292   -0.05877164381057467
-0.3833202949188724   -0.04038841890957292   -0.05877164381057467
-0.3833202949188724   -0.04038841890957292   -0.05877164381057467
-0.37357316910334853   0.05885799555174029   0.04229390197904315
-0.37357316910334853   0.05885799555174029   0.04229390197904315
-0.37357316910334853   0.05885799555174029   0.04229390197904315
-0.37357316910334853   0.05885799555174029   0.04229390197904315
-0.36754035099331034   -0.016457771263546875   -0.07707389964800748
-0.36754035099331034   -0.016457771263546875   -0.07707389964800748
-0.36754035099331034   -0.016457771263546875   -0.07707389964800748
-0.36754035099331034   -0.016457771263546875   -0.07707389964800748
-0.32610814495722884   0.08585124558888343   0.03655366630378437
-0.32610814495722884   0.08585124558888343   0.03655366630378437
-0.32610814495722884   0.08585124558888343   0.03655366630378437
-0.32610814495722884   0.08585124558888343   0.03655366630378437
-0.34540088076638065   0.02229176755005209   0.026090868940211072
-0.34540088076638065   0.02229176755005209   0.026090868940211072
-0.34540088076638065   0.02229176755005209   0.026090868940211072
-0.34540088076638065   0.02229176755005209   0.026090868940211072
0.2529775339210028   0.04090020764429808   0.0660399902880997
0.2529775339210028   0.04090020764429808   0.0660399902880997
0.2529775339210028   0.04090020764429808   0.0660399902880997
0.2529775339210028   0.04090020764429808   0.0660399902880997
-0.00612161359735058   -0.10613229073731867   -0.04361536428807883
-0.00612161359735058   -0.10613229073731867   -0.04361536428807883
-0.00612161359735058   -0.10613229073731867   -0.04361536428807883
-0.00612161359735058   -0.10613229073731867   -0.04361536428807883
0.056300450711321504   0.02072152652669566   0.05102229762482696
0.056300450711321504   0.02072152652669566   0.05102229762482696
0.056300450711321504   0.02072152652669566   0.05102229762482696
0.056300450711321504   0.02072152652669566   0.05102229762482696
0.26393350973439444   -0.037183280529550805   -0.05458947847489691
0.26393350973439444   -0.037183280529550805   -0.05458947847489691
0.26393350973439444   -0.037183280529550805   -0.05458947847489691
0.26393350973439444   -0.037183280529550805   -0.05458947847489691
0.12909404822042006   -0.02062118099055095   -0.031458130536121655
0.12909404822042006   -0.02062118099055095   -0.031458130536121655
0.12909404822042006   -0.02062118099055095   -0.031458130536121655
0.12909404822042006   -0.02062118099055095   -0.031458130536121655
0.3087928964341171   0.07293365920426748   0.059590515289890476
0.3087928964341171   0.07293365920426748   0.059590515289890476
0.3087928964341171   0.07293365920426748   0.059590515289890476
0.3087928964341171   0.07293365920426748   0.059590515289890476
0.014199820107392087   -0.08663665711133066   -0.05212267175679382
0.014199820107392087   -0.08663665711133066   -0.05212267175679382
0.014199820107392087   -0.08663665711133066   -0.05212267175679382
0.014199820107392087   -0.08663665711133066   -0.05212267175679382
0.07906300019093697   0.03612993179950896   0.04258254776809994
0.07906300019093697   0.03612993179950896   0.04258254776809994
0.07906300019093697   0.03612993179950896   0.04258254776809994
0.07906300019093697   0.03612993179950896   0.04258254776809994
0.3075142726942543   -0.019776758881172474   -0.06829410210502948
0.3075142726942543   -0.019776758881172474   -0.06829410210502948
0.3075142726942543   -0.019776758881172474   -0.06829410210502948
0.3075142726942543   -0.019776758881172474   -0.06829410210502948
0.16842082868739766   -0.0014097859579092   -0.014784734463772622
0.16842082868739766   -0.0014097859579092   -0.014784734463772622
0.16842082868739766   -0.0014097859579092   -0.014784734463772622
0.16842082868739766   -0.0014097859579092   -0.014784734463772622
0.35286689977310665   0.09176054753661116   0.04693172687144124
0.35286689977310665   0.09176054753661116   0.04693172687144124
0.35286689977310665   0.09176054753661116   0.04693172687144124
0.35286689977310665   0.09176054753661116   0.04693172687144124
0.036409182706976684   -0.07270856502338448   -0.06184804282881187
0.036409182706976684   -0.07270856502338448   -0.06184804282881187
0.036409182706976684   -0.07270856502338448   -0.06184804282881187
0.036409182706976684   -0.07270856502338448   -0.06184804282881187
0.10115424954199101   0.06441657667524685   0.0368491408045602
0.10115424954199101   0.06441657667524685   0.0368491408045602
0.10115424954199101   0.06441657667524685   0.0368491408045602
0.10115424954199101   0.06441657667524685   0.0368491408045602
0.36536488273345186   0.019183744872674775   -0.07531755476257954
0.36536488273345186   0.019183744872674775   -0.07531755476257954
0.36536488273345186   0.019183744872674775   -0.07531755476257954
0.36536488273345186   0.019183744872674775   -0.07531755476257954
0.20143541431048773   0.020118988551490226   0.0009817948335264937
0.20143541431048773   0.020118988551490226   0.0009817948335264937
0.20143541431048773   0.020118988551490226   0.0009817948335264937
0.20143541431048773   0.020118988551490226   0.0009817948335264937
0.03499847472124128   0.011029324538408315   0.04482346202915345
0.03499847472124128   0.011029324538408315   0.04482346202915345
0.03499847472124128   0.011029324538408315   0.04482346202915345
0.03499847472124128   0.011029324538408315   0.04482346202915345
-0.24048364416260345   -0.09010665390680905   -0.02000824355623649
-0.24048364416260345   -0.09010665390680905   -0.02000824355623649
-0.24048364416260345   -0.09010665390680905   -0.02000824355623649
-0.24048364416260345   -0.09010665390680905   -0.02000824355623649
-0.2010922115044179   -0.013090951308914616   0.020483276489717744
-0.2010922115044179   -0.013090951308914616   0.020483276489717744
-0.2010922115044179   -0.013090951308914616   0.020483276489717744
-0.2010922115044179   -0.013090951308914616   0.020483276489717744
0.0367037156709731   -0.010346675636057543   -0.015893175414161867
0.0367037156709731   -0.010346675636057543   -0.015893175414161867
0.0367037156709731   -0.010346675636057543   -0.015893175414161867
0.0367037156709731   -0.010346675636057543   -0.015893175414161867
-0.09445153833323172   -0.02332127955446372   -0.01512321630620938
-0.09445153833323172   -0.02332127955446372   -0.01512321630620938
-0.09445153833323172   -0.02332127955446372   -0.01512321630620938
-0.09445153833323172   -0.02332127955446372   -0.01512321630620938
0.058439316830029765   0.04267194167420921   0.03976621307085855
0.058439316830029765   0.04267194167420921   0.03976621307085855
0.058439316830029765   0.04267194167420921   0.03976621307085855
0.058439316830029765   0.04267194167420921   0.03976621307085855
-0.22081973185662343   -0.06410148781232418   -0.027143788767898535
-0.22081973185662343   -0.06410148781232418   -0.027143788767898535
-0.22081973185662343   -0.06410148781232418   -0.027143788767898535
-0.22081973185662343   -0.06410148781232418   -0.027143788767898535
-0.1803364029812845   0.016789271431337273   0.014477388328688097
-0.1803364029812845   0.016789271431337273   0.014477388328688097
-0.1803364029812845   0.016789271431337273   0.014477388328688097
-0.1803364029812845   0.016789271431337273   0.014477388328688097
0.06262226179194062   0.01801636630853761   -0.021507578735910454
0.06262226179194062   0.01801636630853761   -0.021507578735910454
0.06262226179194062   0.01801636630853761   -0.021507578735910454
0.06262226179194062   0.01801636630853761   -0.021507578735910454
-0.07245203344417105   0.0030431778104651717   -0.0018358784030809922
-0.07245203344417105   0.0030431778104651717   -0.0018358784030809922
-0.07245203344417105   0.0030431778104651717   -0.0018358784030809922
-0.07245203344417105   0.0030431778104651717   -0.0018358784030809922
0.08527168528684165   0.07413882702387613   0.03561707802325618
0.08527168528684165   0.07413882702387613   0.03561707802325618
0.08527168528684165   0.07413882702387613   0.03561707802325618
0.08527168528684165   0.07413882702387613   0.03561707802325618
-0.20105346028325233   -0.03740082309106804   -0.034917803658745736
-0.20105346028325233   -0.03740082309106804   -0.034917803658745736
-0.20105346028325233   -0.03740082309106804   -0.034917803658745736
-0.20105346028325233   -0.03740082309106804   -0.034917803658745736
-0.15945724313481274   0.05057695665958385   0.00875217545455477
-0.15945724313481274   0.05057695665958385   0.00875217545455477
-0.15945724313481274   0.05057695665958385   0.00875217545455477
-0.15945724313481274   0.05057695665958385   0.00875217545455477
0.08544295370573811   0.05017401160243766   -0.027464773303895164
0.08544295370573811   0.05017401160243766   -0.027464773303895164
0.08544295370573811   0.05017401160243766   -0.027464773303895164
0.08544295370573811   0.05017401160243766   -0.027464773303895164
-0.04812615821936663   0.03214819923201433   0.012328560073469866
-0.04812615821936663   0.03214819923201433   0.012328560073469866
-0.04812615821936663   0.03214819923201433   0.012328560073469866
-0.04812615821936663   0.03214819923201433   0.012328560073469866
-0.21869292048114147   -0.017285503343242102   0.0161242242875083
-0.21869292048114147   -0.017285503343242102   0.0161242242875083
-0.21869292048114147   -0.017285503343242102   0.0161242242875083
-0.21869292048114147   -0.017285503343242102   0.0161242242875083
-0.47060252157806537   -0.06401109741929394   0.004153918988721656
-0.47060252157806537   -0.06401109741929394   0.004153918988721656
-0.47060252157806537   -0.06401109741929394   0.004153918988721656
-0.47060252157806537   -0.06401109741929394   0.004153918988721656
-0.4524270479293196   -0.04011860428752964   -0.00886681802303848
-0.4524270479293196   -0.04011860428752964   -0.00886681802303848
-0.4524270479293196   -0.04011860428752964   -0.00886681802303848
-0.4524270479293196   -0.04011860428752964   -0.00886681802303848
-0.19722912948527707   0.016703120929932126   0.010004614346577017
-0.19722912948527707   0.016703120929932126   0.010004614346577017
-0.19722912948527707   0.016703120929932126   0.010004614346577017
-0.19722912948527707   0.016703120929932126   0.010004614346577017
-0.3352271036378254   -0.024035512038353864   -0.008803064726497238
-0.3352271036378254   -0.024035512038353864   -0.008803064726497238
-0.3352271036378254   -0.024035512038353864   -0.008803064726497238
-0.3352271036378254   -0.024035512038353864   -0.008803064726497238
-0.19748770072797175   0.01477133714162926   0.010643541921408275
-0.19748770072797175   0.01477133714162926   0.010643541921408275
-0.19748770072797175   0.01477133714162926   0.010643541921408275
-0.19748770072797175   0.01477133714162926   0.010643541921408275
-0.4504462239426305   -0.036464567755232886   -0.0026167346218945956
-0.4504462239426305   -0.036464567755232886   -0.0026167346218945956
-0.4504462239426305   -0.036464567755232886   -0.0026167346218945956
-0.4504462239426305   -0.036464567755232886   -0.0026167346218945956
-0.4306024682534661   -0.007222637308225643   -0.013943664731897919
-0.4306024682534661   -0.007222637308225643   -0.013943664731897919
-0.4306024682534661   -0.007222637308225643   -0.013943664731897919
-0.4306024682534661   -0.007222637308225643   -0.013943664731897919
-0.17667876849373623   0.04587510894218741   0.0036797232555812256
-0.17667876849373623   0.04587510894218741   0.0036797232555812256
-0.17667876849373623   0.04587510894218741   0.0036797232555812256
-0.17667876849373623   0.04587510894218741   0.0036797232555812256
-0.31269408545924926   0.004859875467134553   0.004582671349504418
-0.31269408545924926   0.004859875467134553   0.004582671349504418
-0.31269408545924926   0.004859875467134553   0.004582671349504418
-0.31269408545924926   0.004859875467134553   0.004582671349504418
-0.1761511438040867   0.0474124597143609   0.0047804959316553874
-0.1761511438040867   0.0474124597143609   0.0047804959316553874
-0.1761511438040867   0.0474124597143609   0.0047804959316553874
-0.1761511438040867   0.0474124597143609   0.0047804959316553874
-0.4297538964903862   -0.007383791627675496   -0.00953965159705266
-0.4297538964903862   -0.007383791627675496   -0.00953965159705266
-0.4297538964903862   -0.007383791627675496   -0.00953965159705266
-0.4297538964903862   -0.007383791627675496   -0.00953965159705266
-0.40965888881059   0.025763226877041398   -0.019737206431578797
-0.40965888881059   0.025763226877041398   -0.019737206431578797
-0.40965888881059   0.025763226877041398   -0.019737206431578797
-0.40965888881059   0.025763226877041398   -0.019737206431578797
-0.15701723189653774   0.07513298472392066   -0.0036037964184050773
-0.15701723189653774   0.07513298472392066   -0.0036037964184050773
-0.15701723189653774   0.07513298472392066   -0.0036037964184050773
-0.15701723189653774   0.07513298472392066   -0.0036037964184050773
-0.29133592384877616   0.03367564627235067   0.017094611447557036
-0.29133592384877616   0.03367564627235067   0.017094611447557036
-0.29133592384877616   0.03367564627235067   0.017094611447557036
-0.29133592384877616   0.03367564627235067   0.017094611447557036
-0.470352531696185   -0.0451491959185507   -0.013458033102615782
-0.470352531696185   -0.0451491959185507   -0.013458033102615782
-0.470352531696185   -0.0451491959185507   -0.013458033102615782
-0.470352531696185   -0.0451491959185507   -0.013458033102615782
-0.6983213950116404   -0.03948571309915817   0.02787782459662758
-0.6983213950116404   -0.03948571309915817   0.02787782459662758
-0.6983213950116404   -0.03948571309915817   0.02787782459662758
-0.6983213950116404   -0.03948571309915817   0.02787782459662758
-0.6985327584793026   -0.06658397653446518   -0.037517547594467425
-0.6985327584793026   -0.06658397653446518   -0.037517547594467425
-0.6985327584793026   -0.06658397653446518   -0.037517547594467425
-0.6985327584793026   -0.06658397653446518   -0.037517547594467425
-0.42730389544625175   0.042512063671519884   0.03411827643324639
-0.42730389544625175   0.042512063671519884   0.03411827643324639
-0.42730389544625175   0.042512063671519884   0.03411827643324639
-0.42730389544625175   0.042512063671519884   0.03411827643324639
-0.5704207580965827   -0.024382928981295654   -0.0037047762669524566
-0.5704207580965827   -0.024382928981295654   -0.0037047762669524566
-0.5704207580965827   -0.024382928981295654   -0.0037047762669524566
-0.5704207580965827   -0.024382928981295654   -0.0037047762669524566
-0.4489645591133596   -0.012917852323780621   -0.018755125906987614
-0.4489645591133596   -0.012917852323780621   -0.018755125906987614
-0.4489645591133596   -0.012917852323780621   -0.018755125906987614
-0.4489645591133596   -0.012917852323780621   -0.018755125906987614
-0.6754486883051148   -0.009730654032083147   0.021049480774094416
-0.6754486883051148   -0.009730654032083147   0.021049480774094416
-0.6754486883051148   -0.009730654032083147   0.021049480774094416
-0.6754486883051148   -0.009730654032083147   0.021049480774094416
-0.6711933798308927   -0.03520080400449191   -0.041744782358816124
-0.6711933798308927   -0.03520080400449191   -0.041744782358816124
-0.6711933798308927   -0.03520080400449191   -0.041744782358816124
-0.6711933798308927   -0.03520080400449191   -0.041744782358816124
-0.4071261337486797   0.06906264459655109   0.02715272588725312
-0.4071261337486797   0.06906264459655109   0.02715272588725312
-0.4071261337486797   0.06906264459655109   0.02715272588725312
-0.4071261337486797   0.06906264459655109   0.02715272588725312
-0.543400010725154   0.004743930300646487   0.010086876776469453
-0.543400010725154   0.004743930300646487   0.010086876776469453
-0.543400010725154   0.004743930300646487   0.010086876776469453
-0.543400010725154   0.004743930300646487   0.010086876776469453
-0.42806891027588406   0.01672778662319152   -0.025226298775407593
-0.42806891027588406   0.01672778662319152   -0.025226298775407593
-0.42806891027588406   0.01672778662319152   -0.025226298775407593
-0.42806891027588406   0.01672778662319152   -0.025226298775407593
-0.6486497663097377   0.018734890962818634   0.017037590279648795
-0.6486497663097377   0.018734890962818634   0.017037590279648795
-0.6486497663097377   0.018734890962818634   0.017037590279648795
-0.6486497663097377   0.018734890962818634   0.017037590279648795
-0.6467347919951412   -0.0009633207512427799   -0.04493457637182333
-0.6467347919951412   -0.0009633207512427799   -0.04493457637182333
-0.6467347919951412   -0.0009633207512427799   -0.04493457637182333
-0.6467347919951412   -0.0009633207512427799   -0.04493457637182333
-0.38715812039543096   0.09839466714482036   0.020135195376437556
-0.38715812039543096   0.09839466714482036   0.020135195376437556
-0.38715812039543096   0.09839466714482036   0.020135195376437556
-0.38715812039543096   0.09839466714482036   0.020135195376437556
-0.5231648382718916   0.03191523519877573   0.02244967883585952
-0.5231648382718916   0.03191523519877573   0.02244967883585952
-0.5231648382718916   0.03191523519877573   0.02244967883585952
-0.5231648382718916   0.03191523519877573   0.02244967883585952
-0.7171484830001144   -0.0648495260443032   -0.04089380240059737
-0.7171484830001144   -0.0648495260443032   -0.04089380240059737
-0.7171484830001144   -0.0648495260443032   -0.04089380240059737
-0.7171484830001144   -0.0648495260443032   -0.04089380240059737
-0.9578839941610494   -0.01684508927035014   0.06037601199451873
-0.9578839941610494   -0.01684508927035014   0.06037601199451873
-0.9578839941610494   -0.01684508927035014   0.06037601199451873
-0.9578839941610494   -0.01684508927035014   0.06037601199451873
-0.9445186547514082   -0.08674941869803168   -0.054569260006997716
-0.9445186547514082   -0.08674941869803168   -0.054569260006997716
-0.9445186547514082   -0.08674941869803168   -0.054569260006997716
-0.9445186547514082   -0.08674941869803168   -0.054569260006997716
-0.6514408981217159   0.07183892588713081   0.05951885177187027
-0.6514408981217159   0.07183892588713081   0.05951885177187027
-0.6514408981217159   0.07183892588713081   0.05951885177187027
-0.6514408981217159   0.07183892588713081   0.05951885177187027
-0.782497040898286   -0.013882596318032375   0.006490218529067955
-0.782497040898286   -0.013882596318032375   0.006490218529067955
-0.782497040898286   -0.013882596318032375   0.006490218529067955
-0.782497040898286   -0.013882596318032375   0.006490218529067955
-0.6939576655422657   -0.03497381728629387   -0.04625224215745112
-0.6939576655422657   -0.03497381728629387   -0.04625224215745112
-0.6939576655422657   -0.03497381728629387   -0.04625224215745112
-0.6939576655422657   -0.03497381728629387   -0.04625224215745112
-0.9007103223799049   0.021354889426343587   0.0563680937261233
-0.9007103223799049   0.021354889426343587   0.0563680937261233
-0.9007103223799049   0.021354889426343587   0.0563680937261233
-0.9007103223799049   0.021354889426343587   0.0563680937261233
-0.9012678655570296   -0.06812889602724567   -0.06494585946220556
-0.9012678655570296   -0.06812889602724567   -0.06494585946220556
-0.9012678655570296   -0.06812889602724567   -0.06494585946220556
-0.9012678655570296   -0.06812889602724567   -0.06494585946220556
-0.6291746678592088   0.08408129818784543   0.049066675307260964
-0.6291746678592088   0.08408129818784543   0.049066675307260964
-0.6291746678592088   0.08408129818784543   0.049066675307260964
-0.6291746678592088   0.08408129818784543   0.049066675307260964
-0.757964000466384   0.005657200080645075   0.01762960280689284
-0.757964000466384   0.005657200080645075   0.01762960280689284
-0.757964000466384   0.005657200080645075   0.01762960280689284
-0.757964000466384   0.005657200080645075   0.01762960280689284
-0.6704161541885748   -0.019651061242881046   -0.053408396908837336
-0.6704161541885748   -0.019651061242881046   -0.053408396908837336
-0.6704161541885748   -0.019651061242881046   -0.053408396908837336
-0.6704161541885748   -0.019651061242881046   -0.053408396908837336
-0.8584464475202149   0.03718339511092719   0.04384893958367591
-0.8584464475202149   0.03718339511092719   0.04384893958367591
-0.8584464475202149   0.03718339511092719   0.04384893958367591
-0.8584464475202149   0.03718339511092719   0.04384893958367591
-0.8479869499622775   -0.04032014513906382   -0.07242448233090308
-0.8479869499622775   -0.04032014513906382   -0.07242448233090308
-0.8479869499622775   -0.04032014513906382   -0.07242448233090308
-0.8479869499622775   -0.04032014513906382   -0.07242448233090308
-0.6096073025554256   0.0988670376979704   0.04087251237754116
-0.6096073025554256   0.0988670376979704   0.04087251237754116
-0.6096073025554256   0.0988670376979704   0.04087251237754116
-0.6096073025554256   0.0988670376979704   0.04087251237754116
-0.7120460457131157   0.02396267387073653   0.03331816558896668
-0.7120460457131157   0.02396267387073653   0.03331816558896668
-0.7120460457131157   0.02396267387073653   0.03331816558896668
-0.7120460457131157   0.02396267387073653   0.03331816558896668
0.7604436011308195   0.06909756692499025   0.06596870929529558
0.7604436011308195   0.06909756692499025   0.06596870929529558
0.7604436011308195   0.06909756692499025   0.06596870929529558
0.7604436011308195   0.06909756692499025   0.06596870929529558
0.2785143172860444   -0.12641602138369334   -0.043422957393681565
0.2785143172860444   -0.12641602138369334   -0.043422957393681565
0.2785143172860444   -0.12641602138369334   -0.043422957393681565
0.2785143172860444   -0.12641602138369334   -0.043422957393681565
0.3439219619779509   -0.00077472144892822   0.04746486468465955
0.3439219619779509   -0.00077472144892822   0.04746486468465955
0.3439219619779509   -0.00077472144892822   0.04746486468465955
0.3439219619779509   -0.00077472144892822   0.04746486468465955
0.7742451860439696   -0.01754112472899147   -0.05543717667359286
0.7742451860439696   -0.01754112472899147   -0.05543717667359286
0.7742451860439696   -0.01754112472899147   -0.05543717667359286
0.7742451860439696   -0.01754112472899147   -0.05543717667359286
0.5061105098736584   -0.022877028233722244   -0.048865725713144625
0.5061105098736584   -0.022877028233722244   -0.048865725713144625
0.5061105098736584   -0.022877028233722244   -0.048865725713144625
0.5061105098736584   -0.022877028233722244   -0.048865725713144625
0.8195749149024583   0.09633080398084427   0.057339538909014665
0.8195749149024583   0.09633080398084427   0.057339538909014665
0.8195749149024583   0.09633080398084427   0.057339538909014665
0.8195749149024583   0.09633080398084427   0.057339538909014665
0.3018012879372819   -0.11143759534094366   -0.05247563162666615
0.3018012879372819   -0.11143759534094366   -0.05247563162666615
0.3018012879372819   -0.11143759534094366   -0.05247563162666615
0.3018012879372819   -0.11143759534094366   -0.05247563162666615
0.3697290131001319   0.014153238826888542   0.039141146029397986
0.3697290131001319   0.014153238826888542   0.039141146029397986
0.3697290131001319   0.014153238826888542   0.039141146029397986
0.3697290131001319   0.014153238826888542   0.039141146029397986
0.8212983738104717   -0.0005746330745299011   -0.06983437267662415
0.8212983738104717   -0.0005746330745299011   -0.06983437267662415
0.8212983738104717   -0.0005746330745299011   -0.06983437267662415
0.8212983738104717   -0.0005746330745299011   -0.06983437267662415
0.5552455837365224   -0.004550723130357828   -0.02959715124782201
0.5552455837365224   -0.004550723130357828   -0.02959715124782201
0.5552455837365224   -0.004550723130357828   -0.02959715124782201
0.5552455837365224   -0.004550723130357828   -0.02959715124782201
0.8671312851555538   0.11463047852245263   0.044125072451796435
0.8671312851555538   0.11463047852245263   0.044125072451796435
0.8671312851555538   0.11463047852245263   0.044125072451796435
0.8671312851555538   0.11463047852245263   0.044125072451796435
0.3273100096423327   -0.09763796488281165   -0.061162667549893836
0.3273100096423327   -0.09763796488281165   -0.061162667549893836
0.3273100096423327   -0.09763796488281165   -0.061162667549893836
0.3273100096423327   -0.09763796488281165   -0.061162667549893836
0.3955003290286041   0.047059088512770034   0.0339237171427445
0.3955003290286041   0.047059088512770034   0.0339237171427445
0.3955003290286041   0.047059088512770034   0.0339237171427445
0.3955003290286041   0.047059088512770034   0.0339237171427445
0.8830871546953506   0.043673850499867384   -0.0753318914107253
0.8830871546953506   0.043673850499867384   -0.0753318914107253
0.8830871546953506   0.043673850499867384   -0.0753318914107253
0.8830871546953506   0.043673850499867384   -0.0753318914107253
0.585564186401601   0.01774450921568381   -0.012929350048490097
0.585564186401601   0.01774450921568381   -0.012929350048490097
0.585564186401601   0.01774450921568381   -0.012929350048490097
0.585564186401601   0.01774450921568381   -0.012929350048490097
0.33076544232830407   0.03869011782450305   0.05272652860941644
0.33076544232830407   0.03869011782450305   0.05272652860941644
0.33076544232830407   0.03869011782450305   0.05272652860941644
0.33076544232830407   0.03869011782450305   0.05272652860941644
-0.16115406608829239   -0.11795264717404473   -0.02274740511799815
-0.16115406608829239   -0.11795264717404473   -0.02274740511799815
-0.16115406608829239   -0.11795264717404473   -0.02274740511799815
-0.16115406608829239   -0.11795264717404473   -0.02274740511799815
-0.11617180455675657   -0.03455005580158156   0.015965443985978378
-0.11617180455675657   -0.03455005580158156   0.015965443985978378
-0.11617180455675657   -0.03455005580158156   0.015965443985978378
-0.11617180455675657   -0.03455005580158156   0.015965443985978378
0.33338511774118046   0.0009762625648292722   -0.00697034051294982
0.33338511774118046   0.0009762625648292722   -0.00697034051294982
0.33338511774118046   0.0009762625648292722   -0.00697034051294982
0.33338511774118046   0.0009762625648292722   -0.00697034051294982
0.0923546815520898   -0.02493343950897887   -0.020820481017239614
0.0923546815520898   -0.02493343950897887   -0.020820481017239614
0.0923546815520898   -0.02493343950897887   -0.020820481017239614
0.0923546815520898   -0.02493343950897887   -0.020820481017239614
0.3572754570221638   0.066364859506971   0.04709275894982086
0.3572754570221638   0.066364859506971   0.04709275894982086
0.3572754570221638   0.066364859506971   0.04709275894982086
0.3572754570221638   0.066364859506971   0.04709275894982086
-0.13812869450572782   -0.09800520341171225   -0.03036385814874908
-0.13812869450572782   -0.09800520341171225   -0.03036385814874908
-0.13812869450572782   -0.09800520341171225   -0.03036385814874908
-0.13812869450572782   -0.09800520341171225   -0.03036385814874908
-0.09212979940202717   -0.006614199089559108   0.010091655467573735
-0.09212979940202717   -0.006614199089559108   0.010091655467573735
-0.09212979940202717   -0.006614199089559108   0.010091655467573735
-0.09212979940202717   -0.006614199089559108   0.010091655467573735
0.36167777782052013   0.026042519200050546   -0.013004310741818893
0.36167777782052013   0.026042519200050546   -0.013004310741818893
0.36167777782052013   0.026042519200050546   -0.013004310741818893
0.36167777782052013   0.026042519200050546   -0.013004310741818893
0.11558333531200983   -0.002858367113930744   -0.008279526988626287
0.11558333531200983   -0.002858367113930744   -0.008279526988626287
0.11558333531200983   -0.002858367113930744   -0.008279526988626287
0.11558333531200983   -0.002858367113930744   -0.008279526988626287
0.3865238355131371   0.09545991348684613   0.04180858343446632
0.3865238355131371   0.09545991348684613   0.04180858343446632
0.3865238355131371   0.09545991348684613   0.04180858343446632
0.3865238355131371   0.09545991348684613   0.04180858343446632
-0.11503813132517827   -0.07409386760689461   -0.0369703356308463
-0.11503813132517827   -0.07409386760689461   -0.0369703356308463
-0.11503813132517827   -0.07409386760689461   -0.0369703356308463
-0.11503813132517827   -0.07409386760689461   -0.0369703356308463
-0.06839007756250849   0.02574934115655281   0.004244905734927206
-0.06839007756250849   0.02574934115655281   0.004244905734927206
-0.06839007756250849   0.02574934115655281   0.004244905734927206
-0.06839007756250849   0.02574934115655281   0.004244905734927206
0.38676859501914257   0.05588957758848037   -0.01856544198027346
0.38676859501914257   0.05588957758848037   -0.01856544198027346
0.38676859501914257   0.05588957758848037   -0.01856544198027346
0.38676859501914257   0.05588957758848037   -0.01856544198027346
0.14427842468919147   0.024213339971095645   0.0063617386888549276
0.14427842468919147   0.024213339971095645   0.0063617386888549276
0.14427842468919147   0.024213339971095645   0.0063617386888549276
0.14427842468919147   0.024213339971095645   0.0063617386888549276
-0.12685216204536537   0.008391736895017161   0.022417731027577135
-0.12685216204536537   0.008391736895017161   0.022417731027577135
-0.12685216204536537   0.008391736895017161   0.022417731027577135
-0.12685216204536537   0.008391736895017161   0.022417731027577135
-0.5920946077281455   -0.10415073904422092   -0.0030074463727376597
-0.5920946077281455   -0.10415073904422092   -0.0030074463727376597
-0.5920946077281455   -0.10415073904422092   -0.0030074463727376597
-0.5920946077281455   -0.10415073904422092   -0.0030074463727376597
-0.5635873129871745   -0.06135166937667814   -0.013911153684576983
-0.5635873129871745   -0.06135166937667814   -0.013911153684576983
-0.5635873129871745   -0.06135166937667814   -0.013911153684576983
-0.5635873129871745   -0.06135166937667814   -0.013911153684576983
-0.106369207970554   0.015523562645875053   0.014904808469532717
-0.106369207970554   0.015523562645875053   0.014904808469532717
-0.106369207970554   0.015523562645875053   0.014904808469532717
-0.106369207970554   0.015523562645875053   0.014904808469532717
-0.3478364425508746   -0.03201916706131756   -0.01299850033808933
-0.3478364425508746   -0.03201916706131756   -0.01299850033808933
-0.3478364425508746   -0.03201916706131756   -0.01299850033808933
-0.3478364425508746   -0.03201916706131756   -0.01299850033808933
-0.10161973601415959   0.03721601911193559   0.01695971178544619
-0.10161973601415959   0.03721601911193559   0.01695971178544619
-0.10161973601415959   0.03721601911193559   0.01695971178544619
-0.10161973601415959   0.03721601911193559   0.01695971178544619
-0.5670448981511571   -0.0817522390503216   -0.010798509830847371
-0.5670448981511571   -0.0817522390503216   -0.010798509830847371
-0.5670448981511571   -0.0817522390503216   -0.010798509830847371
-0.5670448981511571   -0.0817522390503216   -0.010798509830847371
-0.5370891863557312   -0.030701460408362108   -0.018792705635140593
-0.5370891863557312   -0.030701460408362108   -0.018792705635140593
-0.5370891863557312   -0.030701460408362108   -0.018792705635140593
-0.5370891863557312   -0.030701460408362108   -0.018792705635140593
-0.0829686179002363   0.04084513836023043   0.008438225526738527
-0.0829686179002363   0.04084513836023043   0.008438225526738527
-0.0829686179002363   0.04084513836023043   0.008438225526738527
-0.0829686179002363   0.04084513836023043   0.008438225526738527
-0.3211100867084792   -0.006374681290063758   -0.00019893578902082862
-0.3211100867084792   -0.006374681290063758   -0.00019893578902082862
-0.3211100867084792   -0.006374681290063758   -0.00019893578902082862
-0.3211100867084792   -0.006374681290063758   -0.00019893578902082862
-0.0772369976957181   0.06717984286048931   0.010761622049072583
-0.0772369976957181   0.06717984286048931   0.010761622049072583
-0.0772369976957181   0.06717984286048931   0.010761622049072583
-0.0772369976957181   0.06717984286048931   0.010761622049072583
-0.5416209500766479   -0.055836308425013935   -0.016316676223071744
-0.5416209500766479   -0.055836308425013935   -0.016316676223071744
-0.5416209500766479   -0.055836308425013935   -0.016316676223071744
-0.5416209500766479   -0.055836308425013935   -0.016316676223071744
-0.512423267801597   -0.00015293404183551462   -0.024627354342126814
-0.512423267801597   -0.00015293404183551462   -0.024627354342126814
-0.512423267801597   -0.00015293404183551462   -0.024627354342126814
-0.512423267801597   -0.00015293404183551462   -0.024627354342126814
-0.06063352618165124   0.06670637073044083   0.0020706330653254314
-0.06063352618165124   0.06670637073044083   0.0020706330653254314
-0.06063352618165124   0.06670637073044083   0.0020706330653254314
-0.06063352618165124   0.06670637073044083   0.0020706330653254314
-0.296559291270699   0.019173398234703737   0.011980580873969297
-0.296559291270699   0.019173398234703737   0.011980580873969297
-0.296559291270699   0.019173398234703737   0.011980580873969297
-0.296559291270699   0.019173398234703737   0.011980580873969297
-0.5769367330019392   -0.0225484233114399   -0.008820388474482282
-0.5769367330019392   -0.0225484233114399   -0.008820388474482282
-0.5769367330019392   -0.0225484233114399   -0.008820388474482282
-0.5769367330019392   -0.0225484233114399   -0.008820388474482282
-1.013231702993646   -0.08438856143548401   0.019538155267681295
-1.013231702993646   -0.08438856143548401   0.019538155267681295
-1.013231702993646   -0.08438856143548401   0.019538155267681295
-1.013231702993646   -0.08438856143548401   0.019538155267681295
-0.9993771885978783   -0.08709738390167954   -0.04185566828112427
-0.9993771885978783   -0.08709738390167954   -0.04185566828112427
-0.9993771885978783   -0.08709738390167954   -0.04185566828112427
-0.9993771885978783   -0.08709738390167954   -0.04185566828112427
-0.5331928901153026   0.03925520528286022   0.03745408601524789
-0.5331928901153026   0.03925520528286022   0.03745408601524789
-0.5331928901153026   0.03925520528286022   0.03745408601524789
-0.5331928901153026   0.03925520528286022   0.03745408601524789
-0.7752836550287122   -0.03382110648385531   -0.004531663355705644
-0.7752836550287122   -0.03382110648385531   -0.004531663355705644
-0.7752836550287122   -0.03382110648385531   -0.004531663355705644
-0.7752836550287122   -0.03382110648385531   -0.004531663355705644
-0.5495067728633047   0.00856317367756626   -0.013423296119468846
-0.5495067728633047   0.00856317367756626   -0.013423296119468846
-0.5495067728633047   0.00856317367756626   -0.013423296119468846
-0.5495067728633047   0.00856317367756626   -0.013423296119468846
-0.9829953482715964   -0.05633739471810589   0.009293544166711222
-0.9829953482715964   -0.05633739471810589   0.009293544166711222
-0.9829953482715964   -0.05633739471810589   0.009293544166711222
-0.9829953482715964   -0.05633739471810589   0.009293544166711222
-0.9647508421587807   -0.05715188135517102   -0.04629519546125632
-0.9647508421587807   -0.05715188135517102   -0.04629519546125632
-0.9647508421587807   -0.05715188135517102   -0.04629519546125632
-0.9647508421587807   -0.05715188135517102   -0.04629519546125632
-0.5085234452172905   0.06339859256892832   0.029935947079775933
-0.5085234452172905   0.06339859256892832   0.029935947079775933
-0.5085234452172905   0.06339859256892832   0.029935947079775933
-0.5085234452172905   0.06339859256892832   0.029935947079775933
-0.7400577834835425   -0.00547652368931395   0.008304751153139805
-0.7400577834835425   -0.00547652368931395   0.008304751153139805
-0.7400577834835425   -0.00547652368931395   0.008304751153139805
-0.7400577834835425   -0.00547652368931395   0.008304751153139805
-0.5238378334424247   0.03636856598746491   -0.01960596746443269
-0.5238378334424247   0.03636856598746491   -0.01960596746443269
-0.5238378334424247   0.03636856598746491   -0.01960596746443269
-0.5238378334424247   0.03636856598746491   -0.01960596746443269
-0.9486246495954836   -0.029310050435544965   0.006493936435602622
-0.9486246495954836   -0.029310050435544965   0.006493936435602622
-0.9486246495954836   -0.029310050435544965   0.006493936435602622
-0.9486246495954836   -0.029310050435544965   0.006493936435602622
-0.9337887422027098   -0.024693680114817512   -0.048675919114472874
-0.9337887422027098   -0.024693680114817512   -0.048675919114472874
-0.9337887422027098   -0.024693680114817512   -0.048675919114472874
-0.9337887422027098   -0.024693680114817512   -0.048675919114472874
-0.4846303745097096   0.08994623125013305   0.02423794682534531
-0.4846303745097096   0.08994623125013305   0.02423794682534531
-0.4846303745097096   0.08994623125013305   0.02423794682534531
-0.4846303745097096   0.08994623125013305   0.02423794682534531
-0.7162294738416011   0.018755683894109088   0.01937810240690569
-0.7162294738416011   0.018755683894109088   0.01937810240690569
-0.7162294738416011   0.018755683894109088   0.01937810240690569
-0.7162294738416011   0.018755683894109088   0.01937810240690569
-1.0174863149051654   -0.048387874135964154   -0.037735591589435534
-1.0174863149051654   -0.048387874135964154   -0.037735591589435534
-1.0174863149051654   -0.048387874135964154   -0.037735591589435534
-1.0174863149051654   -0.048387874135964154   -0.037735591589435534
-1.4502259534241846   -0.05230360894338831   0.06538952417428033
-1.4502259534241846   -0.05230360894338831   0.06538952417428033
-1.4502259534241846   -0.05230360894338831   0.06538952417428033
-1.4502259534241846   -0.05230360894338831   0.06538952417428033
-1.4223682575192804   -0.10425070928267446   -0.050001964679591594
-1.4223682575192804   -0.10425070928267446   -0.050001964679591594
-1.4223682575192804   -0.10425070928267446   -0.050001964679591594
-1.4223682575192804   -0.10425070928267446   -0.050001964679591594
-0.9440724600233992   0.08110239545063047   0.06646819523895273
-0.9440724600233992   0.08110239545063047   0.06646819523895273
-0.9440724600233992   0.08110239545063047   0.06646819523895273
-0.9440724600233992   0.08110239545063047   0.06646819523895273
-1.154934059914498   -0.014276486089004642   0.013390793537749253
-1.154934059914498   -0.014276486089004642   0.013390793537749253
-1.154934059914498   -0.014276486089004642   0.013390793537749253
-1.154934059914498   -0.014276486089004642   0.013390793537749253
-0.9850104522907304   -0.015168857858716633   -0.04195051278835233
-0.9850104522907304   -0.015168857858716633   -0.04195051278835233
-0.9850104522907304   -0.015168857858716633   -0.04195051278835233
-0.9850104522907304   -0.015168857858716633   -0.04195051278835233
-1.3807539302815874   -0.0073031210029718685   0.06112208322915941
-1.3807539302815874   -0.0073031210029718685   0.06112208322915941
-1.3807539302815874   -0.0073031210029718685   0.06112208322915941
-1.3807539302815874   -0.0073031210029718685   0.06112208322915941
-1.369965757518373   -0.08566775941959107   -0.05888752307075724
-1.369965757518373   -0.08566775941959107   -0.05888752307075724
-1.369965757518373   -0.08566775941959107   -0.05888752307075724
-1.369965757518373   -0.08566775941959107   -0.05888752307075724
-0.9150145959093048   0.09256415070680132   0.052670003724150996
-0.9150145959093048   0.09256415070680132   0.052670003724150996
-0.9150145959093048   0.09256415070680132   0.052670003724150996
-0.9150145959093048   0.09256415070680132   0.052670003724150996
-1.1278964430347416   0.006007347500060073   0.024072486578163174
-1.1278964430347416   0.006007347500060073   0.024072486578163174
-1.1278964430347416   0.006007347500060073   0.024072486578163174
-1.1278964430347416   0.006007347500060073   0.024072486578163174
-0.9536450680929753   -0.0001747985148666531   -0.047743407972533104
-0.9536450680929753   -0.0001747985148666531   -0.047743407972533104
-0.9536450680929753   -0.0001747985148666531   -0.047743407972533104
-0.9536450680929753   -0.0001747985148666531   -0.047743407972533104
-1.33066095795893   0.007745517177841221   0.04422319812900599
-1.33066095795893   0.007745517177841221   0.04422319812900599
-1.33066095795893   0.007745517177841221   0.04422319812900599
-1.33066095795893   0.007745517177841221   0.04422319812900599
-1.3126891666947569   -0.06334488985425782   -0.06710526124426872
-1.3126891666947569   -0.06334488985425782   -0.06710526124426872
-1.3126891666947569   -0.06334488985425782   -0.06710526124426872
-1.3126891666947569   -0.06334488985425782   -0.06710526124426872
-0.8894776460770899   0.10333377847701555   0.04485210292179348
-0.8894776460770899   0.10333377847701555   0.04485210292179348
-0.8894776460770899   0.10333377847701555   0.04485210292179348
-0.8894776460770899   0.10333377847701555   0.04485210292179348
-1.0701112372302295   0.022870104134076585   0.04021586834225342
-1.0701112372302295   0.022870104134076585   0.04021586834225342
-1.0701112372302295   0.022870104134076585   0.04021586834225342
-1.0701112372302295   0.022870104134076585   0.04021586834225342
1.2765855686194003   0.09540692220746474   0.06762050922878374
1.2765855686194003   0.09540692220746474   0.06762050922878374
1.2765855686194003   0.09540692220746474   0.06762050922878374
1.2765855686194003   0.09540692220746474   0.06762050922878374
0.5631025717957672   -0.15032683419385057   -0.031077738224964443
0.5631025717957672   -0.15032683419385057   -0.031077738224964443
0.5631025717957672   -0.15032683419385057   -0.031077738224964443
0.5631025717957672   -0.15032683419385057   -0.031077738224964443
0.6278762379214734   -0.02643849251744118   0.04644493250665468
0.6278762379214734   -0.02643849251744118   0.04644493250665468
0.6278762379214734   -0.02643849251744118   0.04644493250665468
0.6278762379214734   -0.02643849251744118   0.04644493250665468
1.2906689573270842   -0.0023527019347831524   -0.04870828253380027
1.2906689573270842   -0.0023527019347831524   -0.04870828253380027
1.2906689573270842   -0.0023527019347831524   -0.04870828253380027
1.2906689573270842   -0.0023527019347831524   -0.04870828253380027
0.8845267552044105   -0.026811350111587612   -0.06918035940594926
0.8845267552044105   -0.026811350111587612   -0.06918035940594926
0.8845267552044105   -0.026811350111587612   -0.06918035940594926
0.8845267552044105   -0.026811350111587612   -0.06918035940594926
1.3356229915156475   0.11713642416242295   0.05657276231180155
1.3356229915156475   0.11713642416242295   0.05657276231180155
1.3356229915156475   0.11713642416242295   0.05657276231180155
1.3356229915156475   0.11713642416242295   0.05657276231180155
0.5872393126506716   -0.14161050969688588   -0.041567676667901454
0.5872393126506716   -0.14161050969688588   -0.041567676667901454
0.5872393126506716   -0.14161050969688588   -0.041567676667901454
0.5872393126506716   -0.14161050969688588   -0.041567676667901454
0.6532065047269263   -0.012716193954204286   0.03754969200861061
0.6532065047269263   -0.012716193954204286   0.03754969200861061
0.6532065047269263   -0.012716193954204286   0.03754969200861061
0.6532065047269263   -0.012716193954204286   0.03754969200861061
1.3349343933860636   0.012778243040808046   -0.060859271193449624
1.3349343933860636   0.012778243040808046   -0.060859271193449624
1.3349343933860636   0.012778243040808046   -0.060859271193449624
1.3349343933860636   0.012778243040808046   -0.060859271193449624
0.940113906104815   -0.010640439165401111   -0.04705795098466089
0.940113906104815   -0.010640439165401111   -0.04705795098466089
0.940113906104815   -0.010640439165401111   -0.04705795098466089
0.940113906104815   -0.010640439165401111   -0.04705795098466089
1.3796252417542465   0.13344354815599346   0.04192966553227909
1.3796252417542465   0.13344354815599346   0.04192966553227909
1.3796252417542465   0.13344354815599346   0.04192966553227909
1.3796252417542465   0.13344354815599346   0.04192966553227909
0.6122941185342099   -0.12960303689392333   -0.050125396015252635
0.6122941185342099   -0.12960303689392333   -0.050125396015252635
0.6122941185342099   -0.12960303689392333   -0.050125396015252635
0.6122941185342099   -0.12960303689392333   -0.050125396015252635
0.6761529419356962   0.023937592299114352   0.03292103034516405
0.6761529419356962   0.023937592299114352   0.03292103034516405
0.6761529419356962   0.023937592299114352   0.03292103034516405
0.6761529419356962   0.023937592299114352   0.03292103034516405
1.389394323396345   0.05705066494305783   -0.06373196095055193
1.389394323396345   0.05705066494305783   -0.06373196095055193
1.389394323396345   0.05705066494305783   -0.06373196095055193
1.389394323396345   0.05705066494305783   -0.06373196095055193
0.9608996384146608   0.011130508719721266   -0.03174538302982786
0.9608996384146608   0.011130508719721266   -0.03174538302982786
0.9608996384146608   0.011130508719721266   -0.03174538302982786
0.9608996384146608   0.011130508719721266   -0.03174538302982786
0.6229219376697771   0.05579207165952273   0.061900185291708196
0.6229219376697771   0.05579207165952273   0.061900185291708196
0.6229219376697771   0.05579207165952273   0.061900185291708196
0.6229219376697771   0.05579207165952273   0.061900185291708196
-0.0770414327461864   -0.18521624910807166   -0.017698188470564785
-0.0770414327461864   -0.18521624910807166   -0.017698188470564785
-0.0770414327461864   -0.18521624910807166   -0.017698188470564785
-0.0770414327461864   -0.18521624910807166   -0.017698188470564785
-0.021255947118409644   -0.06540972154410571   0.015740803801965436
-0.021255947118409644   -0.06540972154410571   0.015740803801965436
-0.021255947118409644   -0.06540972154410571   0.015740803801965436
-0.021255947118409644   -0.06540972154410571   0.015740803801965436
0.6176591796770863   -0.03414816785232644   0.0030693166196042107
0.6176591796770863   -0.03414816785232644   0.0030693166196042107
0.6176591796770863   -0.03414816785232644   0.0030693166196042107
0.6176591796770863   -0.03414816785232644   0.0030693166196042107
0.27783264614090547   -0.05162374027542939   -0.03296896982828129
0.27783264614090547   -0.05162374027542939   -0.03296896982828129
0.27783264614090547   -0.05162374027542939   -0.03296896982828129
0.27783264614090547   -0.05162374027542939   -0.03296896982828129
0.6501790935188247   0.07669439118178575   0.0548263267941883
0.6501790935188247   0.07669439118178575   0.0548263267941883
0.6501790935188247   0.07669439118178575   0.0548263267941883
0.6501790935188247   0.07669439118178575   0.0548263267941883
-0.051500625708179246   -0.17397704532624836   -0.026915265364739916
-0.051500625708179246   -0.17397704532624836   -0.026915265364739916
-0.051500625708179246   -0.17397704532624836   -0.026915265364739916
-0.051500625708179246   -0.17397704532624836   -0.026915265364739916
0.004573885408665112   -0.04085610149027322   0.00960647821841731
0.004573885408665112   -0.04085610149027322   0.00960647821841731
0.004573885408665112   -0.04085610149027322   0.00960647821841731
0.004573885408665112   -0.04085610149027322   0.00960647821841731
0.6441133237459548   -0.015634695284153205   -0.004997711566298295
0.6441133237459548   -0.015634695284153205   -0.004997711566298295
0.6441133237459548   -0.015634695284153205   -0.004997711566298295
0.6441133237459548   -0.015634695284153205   -0.004997711566298295
0.30026877519238604   -0.0365482394332424   -0.021371220396002637
0.30026877519238604   -0.0365482394332424   -0.021371220396002637
0.30026877519238604   -0.0365482394332424   -0.021371220396002637
0.30026877519238604   -0.0365482394332424   -0.021371220396002637
0.6783805471518591   0.10177056437541339   0.048933145803656444
0.6783805471518591   0.10177056437541339   0.048933145803656444
0.6783805471518591   0.10177056437541339   0.048933145803656444
0.6783805471518591   0.10177056437541339   0.048933145803656444
-0.02833980495573707   -0.15690782810833773   -0.038910246985529084
-0.02833980495573707   -0.15690782810833773   -0.038910246985529084
-0.02833980495573707   -0.15690782810833773   -0.038910246985529084
-0.02833980495573707   -0.15690782810833773   -0.038910246985529084
0.024849610741458982   -0.012099930843976566   0.003406000135063994
0.024849610741458982   -0.012099930843976566   0.003406000135063994
0.024849610741458982   -0.012099930843976566   0.003406000135063994
0.024849610741458982   -0.012099930843976566   0.003406000135063994
0.663920168653792   0.007978612372748328   -0.012283856138001877
0.663920168653792   0.007978612372748328   -0.012283856138001877
0.663920168653792   0.007978612372748328   -0.012283856138001877
0.663920168653792   0.007978612372748328   -0.012283856138001877
0.3277528762671074   -0.01399881881608421   -0.008928156582923345
0.3277528762671074   -0.01399881881608421   -0.008928156582923345
0.3277528762671074   -0.01399881881608421   -0.008928156582923345
0.3277528762671074   -0.01399881881608421   -0.008928156582923345
-0.02719182544761771   0.015581688724384398   0.03075191018982261
-0.02719182544761771   0.015581688724384398   0.03075191018982261
-0.02719182544761771   0.015581688724384398   0.03075191018982261
-0.02719182544761771   0.015581688724384398   0.03075191018982261
-0.712242997634407   -0.2324423390240779   -0.014231478707439661
-0.712242997634407   -0.2324423390240779   -0.014231478707439661
-0.712242997634407   -0.2324423390240779   -0.014231478707439661
-0.712242997634407   -0.2324423390240779   -0.014231478707439661
-0.6558148271823215   -0.10034457435554006   -0.0149902573258367
-0.6558148271823215   -0.10034457435554006   -0.0149902573258367
-0.6558148271823215   -0.10034457435554006   -0.0149902573258367
-0.6558148271823215   -0.10034457435554006   -0.0149902573258367
-0.024522866398596663   -0.07987690730303572   0.013873393159960352
-0.024522866398596663   -0.07987690730303572   0.013873393159960352
-0.024522866398596663   -0.07987690730303572   0.013873393159960352
-0.024522866398596663   -0.07987690730303572   0.013873393159960352
-0.3565572172356294   -0.09394926008130973   -0.02945089764658134
-0.3565572172356294   -0.09394926008130973   -0.02945089764658134
-0.3565572172356294   -0.09394926008130973   -0.02945089764658134
-0.3565572172356294   -0.09394926008130973   -0.02945089764658134
0.001497419361362478   0.03911292445809012   0.024984990198630222
0.001497419361362478   0.03911292445809012   0.024984990198630222
0.001497419361362478   0.03911292445809012   0.024984990198630222
0.001497419361362478   0.03911292445809012   0.024984990198630222
-0.6801919408133446   -0.21769123398772977   -0.019529165848762162
-0.6801919408133446   -0.21769123398772977   -0.019529165848762162
-0.6801919408133446   -0.21769123398772977   -0.019529165848762162
-0.6801919408133446   -0.21769123398772977   -0.019529165848762162
-0.6237771110618933   -0.07308656906043998   -0.0204118184150179
-0.6237771110618933   -0.07308656906043998   -0.0204118184150179
-0.6237771110618933   -0.07308656906043998   -0.0204118184150179
-0.6237771110618933   -0.07308656906043998   -0.0204118184150179
-0.00045904787173736694   -0.06208562411805472   0.005671334444186424
-0.00045904787173736694   -0.06208562411805472   0.005671334444186424
-0.00045904787173736694   -0.06208562411805472   0.005671334444186424
-0.00045904787173736694   -0.06208562411805472   0.005671334444186424
-0.3254563919061871   -0.07435256427058622   -0.01635368358646318
-0.3254563919061871   -0.07435256427058622   -0.01635368358646318
-0.3254563919061871   -0.07435256427058622   -0.01635368358646318
-0.3254563919061871   -0.07435256427058622   -0.01635368358646318
0.027750700345181924   0.06519020598843689   0.019444245422291274
0.027750700345181924   0.06519020598843689   0.019444245422291274
0.027750700345181924   0.06519020598843689   0.019444245422291274
0.027750700345181924   0.06519020598843689   0.019444245422291274
-0.6519965237252656   -0.20037206361338464   -0.03422338717893492
-0.6519965237252656   -0.20037206361338464   -0.03422338717893492
-0.6519965237252656   -0.20037206361338464   -0.03422338717893492
-0.6519965237252656   -0.20037206361338464   -0.03422338717893492
-0.6011370876010199   -0.047103121432382   -0.02647326632942015
-0.6011370876010199   -0.047103121432382   -0.02647326632942015
-0.6011370876010199   -0.047103121432382   -0.02647326632942015
-0.6011370876010199   -0.047103121432382   -0.02647326632942015
0.01534165162322017   -0.04786778021003046   -0.008365946090076187
0.01534165162322017   -0.04786778021003046   -0.008365946090076187
0.01534165162322017   -0.04786778021003046   -0.008365946090076187
0.01534165162322017   -0.04786778021003046   -0.008365946090076187
-0.30264507115114614   -0.05607484830344839   -0.008153272245642915
-0.30264507115114614   -0.05607484830344839   -0.008153272245642915
-0.30264507115114614   -0.05607484830344839   -0.008153272245642915
-0.30264507115114614   -0.05607484830344839   -0.008153272245642915
-0.6669558792391604   -0.01924056074099373   -0.00099766501429141
-0.6669558792391604   -0.01924056074099373   -0.00099766501429141
-0.6669558792391604   -0.01924056074099373   -0.00099766501429141
-0.6669558792391604   -0.01924056074099373   -0.00099766501429141
-1.350382896691276   -0.24990332323881373   -0.011442881279873866
-1.350382896691276   -0.24990332323881373   -0.011442881279873866
-1.350382896691276   -0.24990332323881373   -0.011442881279873866
-1.350382896691276   -0.24990332323881373   -0.011442881279873866
-1.289787749219072   -0.12847255424896323   -0.04458985254009978
-1.289787749219072   -0.12847255424896323   -0.04458985254009978
-1.289787749219072   -0.12847255424896323   -0.04458985254009978
-1.289787749219072   -0.12847255424896323   -0.04458985254009978
-0.6434618015151785   -0.08298577638906951   0.02941607304340771
-0.6434618015151785   -0.08298577638906951   0.02941607304340771
-0.6434618015151785   -0.08298577638906951   0.02941607304340771
-0.6434618015151785   -0.08298577638906951   0.02941607304340771
-0.9789975196046108   -0.11294644529176548   -0.020757817891405052
-0.9789975196046108   -0.11294644529176548   -0.020757817891405052
-0.9789975196046108   -0.11294644529176548   -0.020757817891405052
-0.9789975196046108   -0.11294644529176548   -0.020757817891405052
-0.6315632110199616   0.011062478104136103   -0.005139228973713654
-0.6315632110199616   0.011062478104136103   -0.005139228973713654
-0.6315632110199616   0.011062478104136103   -0.005139228973713654
-0.6315632110199616   0.011062478104136103   -0.005139228973713654
-1.3022052996236089   -0.2230397686514871   -0.012110390160249842
-1.3022052996236089   -0.2230397686514871   -0.012110390160249842
-1.3022052996236089   -0.2230397686514871   -0.012110390160249842
-1.3022052996236089   -0.2230397686514871   -0.012110390160249842
-1.2439897465534797   -0.1000098212744516   -0.05163982080093459
-1.2439897465534797   -0.1000098212744516   -0.05163982080093459
-1.2439897465534797   -0.1000098212744516   -0.05163982080093459
-1.2439897465534797   -0.1000098212744516   -0.05163982080093459
-0.6123496257761739   -0.061615420835893324   0.02525445978903966
-0.6123496257761739   -0.061615420835893324   0.02525445978903966
-0.6123496257761739   -0.061615420835893324   0.02525445978903966
-0.6123496257761739   -0.061615420835893324   0.02525445978903966
-0.9319299238988866   -0.0856387232449708   -0.006816882177674927
-0.9319299238988866   -0.0856387232449708   -0.006816882177674927
-0.9319299238988866   -0.0856387232449708   -0.006816882177674927
-0.9319299238988866   -0.0856387232449708   -0.006816882177674927
-0.5994496851648637   0.037378252971163206   -0.009239510961476426
-0.5994496851648637   0.037378252971163206   -0.009239510961476426
-0.5994496851648637   0.037378252971163206   -0.009239510961476426
-0.5994496851648637   0.037378252971163206   -0.009239510961476426
-1.2590954344007104   -0.20120924231741832   -0.02596883899411011
-1.2590954344007104   -0.20120924231741832   -0.02596883899411011
-1.2590954344007104   -0.20120924231741832   -0.02596883899411011
-1.2590954344007104   -0.20120924231741832   -0.02596883899411011
-1.206834950110328   -0.06999947494907408   -0.053286008570072006
-1.206834950110328   -0.06999947494907408   -0.053286008570072006
-1.206834950110328   -0.06999947494907408   -0.053286008570072006
-1.206834950110328   -0.06999947494907408   -0.053286008570072006
-0.5944778603464036   -0.048029174756858195   0.007748923268142777
-0.5944778603464036   -0.048029174756858195   0.007748923268142777
-0.5944778603464036   -0.048029174756858195   0.007748923268142777
-0.5944778603464036   -0.048029174756858195   0.007748923268142777
-0.905971106512178   -0.06899169403614064   -0.0022660578832316286
-0.905971106512178   -0.06899169403614064   -0.0022660578832316286
-0.905971106512178   -0.06899169403614064   -0.0022660578832316286
-0.905971106512178   -0.06899169403614064   -0.0022660578832316286
-1.313535760580568   -0.04455465000212047   -0.03255587396302737
-1.313535760580568   -0.04455465000212047   -0.03255587396302737
-1.313535760580568   -0.04455465000212047   -0.03255587396302737
-1.313535760580568   -0.04455465000212047   -0.03255587396302737
-1.9806575069532415   -0.1689932498018059   0.07485713569607134
-1.9806575069532415   -0.1689932498018059   0.07485713569607134
-1.9806575069532415   -0.1689932498018059   0.07485713569607134
-1.9806575069532415   -0.1689932498018059   0.07485713569607134
-1.9127068812693042   -0.1346326205912085   -0.0435724637243069
-1.9127068812693042   -0.1346326205912085   -0.0435724637243069
-1.9127068812693042   -0.1346326205912085   -0.0435724637243069
-1.9127068812693042   -0.1346326205912085   -0.0435724637243069
-1.2343311681566338   0.03539364120691563   0.06882685731619965
-1.2343311681566338   0.03539364120691563   0.06882685731619965
-1.2343311681566338   0.03539364120691563   0.06882685731619965
-1.2343311681566338   0.03539364120691563   0.06882685731619965
-1.5382604802504745   -0.053024532496838694   0.007381252170838737
-1.5382604802504745   -0.053024532496838694   0.007381252170838737
-1.5382604802504745   -0.053024532496838694   0.007381252170838737
-1.5382604802504745   -0.053024532496838694   0.007381252170838737
-1.2630327028535744   -0.003200605962924097   -0.036086568998644986
-1.2630327028535744   -0.003200605962924097   -0.036086568998644986
-1.2630327028535744   -0.003200605962924097   -0.036086568998644986
-1.2630327028535744   -0.003200605962924097   -0.036086568998644986
-1.8793764534175434   -0.09140948026654322   0.07985653520981496
-1.8793764534175434   -0.09140948026654322   0.07985653520981496
-1.8793764534175434   -0.09140948026654322   0.07985653520981496
-1.8793764534175434   -0.09140948026654322   0.07985653520981496
-1.8398110124752418   -0.11330716161772669   -0.051890141332521345
-1.8398110124752418   -0.11330716161772669   -0.051890141332521345
-1.8398110124752418   -0.11330716161772669   -0.051890141332521345
-1.8398110124752418   -0.11330716161772669   -0.051890141332521345
-1.1890396763908144   0.056641683767778284   0.06645902497016211
-1.1890396763908144   0.056641683767778284   0.06645902497016211
-1.1890396763908144   0.056641683767778284   0.06645902497016211
-1.1890396763908144   0.056641683767778284   0.06645902497016211
-1.4952453552782299   -0.021388952435193398   0.03064340085628907
-1.4952453552782299   -0.021388952435193398   0.03064340085628907
-1.4952453552782299   -0.021388952435193398   0.03064340085628907
-1.4952453552782299   -0.021388952435193398   0.03064340085628907
-1.2187570352688804   0.013487037466322016   -0.03897312311870066
-1.2187570352688804   0.013487037466322016   -0.03897312311870066
-1.2187570352688804   0.013487037466322016   -0.03897312311870066
-1.2187570352688804   0.013487037466322016   -0.03897312311870066
-1.8091562669132577   -0.06921512863233747   0.057291553492026706
-1.8091562669132577   -0.06921512863233747   0.057291553492026706
-1.8091562669132577   -0.06921512863233747   0.057291553492026706
-1.8091562669132577   -0.06921512863233747   0.057291553492026706
-1.7644202227894379   -0.0931674053170265   -0.06271123933606881
-1.7644202227894379   -0.0931674053170265   -0.06271123933606881
-1.7644202227894379   -0.0931674053170265   -0.06271123933606881
-1.7644202227894379   -0.0931674053170265   -0.06271123933606881
-1.1554836534169288   0.08206302856810693   0.05140797137975166
-1.1554836534169288   0.08206302856810693   0.05140797137975166
-1.1554836534169288   0.08206302856810693   0.05140797137975166
-1.1554836534169288   0.08206302856810693   0.05140797137975166
-1.4141745984399292   0.005652916029974586   0.053953221948038435
-1.4141745984399292   0.005652916029974586   0.053953221948038435
-1.4141745984399292   0.005652916029974586   0.053953221948038435
-1.4141745984399292   0.005652916029974586   0.053953221948038435
1.7431963041766647   0.10454271392910025   0.0631762700088921
1.7431963041766647   0.10454271392910025   0.0631762700088921
1.7431963041766647   0.10454271392910025   0.0631762700088921
1.7431963041766647   0.10454271392910025   0.0631762700088921
0.8309629668407054   -0.15560569382707132   0.01411777639875142
0.8309629668407054   -0.15560569382707132   0.01411777639875142
0.8309629668407054   -0.15560569382707132   0.01411777639875142
0.8309629668407054   -0.15560569382707132   0.01411777639875142
0.8768032008356512   -0.06566525608536775   0.04859470320470971
0.8768032008356512   -0.06566525608536775   0.04859470320470971
0.8768032008356512   -0.06566525608536775   0.04859470320470971
0.8768032008356512   -0.06566525608536775   0.04859470320470971
1.752375275568542   0.014917463863712566   -0.014073003197395184
1.752375275568542   0.014917463863712566   -0.014073003197395184
1.752375275568542   0.014917463863712566   -0.014073003197395184
1.752375275568542   0.014917463863712566   -0.014073003197395184
1.225558823926172   -0.033416920507475856   -0.0814273911525497
1.225558823926172   -0.033416920507475856   -0.0814273911525497
1.225558823926172   -0.033416920507475856   -0.0814273911525497
1.225558823926172   -0.033416920507475856   -0.0814273911525497
1.7854663606580141   0.11634034371741542   0.04995954239626271
1.7854663606580141   0.11634034371741542   0.04995954239626271
1.7854663606580141   0.11634034371741542   0.04995954239626271
1.7854663606580141   0.11634034371741542   0.04995954239626271
0.8516510563558864   -0.1591491953293633   0.01631792004988114
0.8516510563558864   -0.1591491953293633   0.01631792004988114
0.8516510563558864   -0.1591491953293633   0.01631792004988114
0.8516510563558864   -0.1591491953293633   0.01631792004988114
0.8941638976167561   -0.055808472313984586   0.0369776478018949
0.8941638976167561   -0.055808472313984586   0.0369776478018949
0.8941638976167561   -0.055808472313984586   0.0369776478018949
0.8941638976167561   -0.055808472313984586   0.0369776478018949
1.7830661476641612   0.026029661732323406   -0.004311772676406131
1.7830661476641612   0.026029661732323406   -0.004311772676406131
1.7830661476641612   0.026029661732323406   -0.004311772676406131
1.7830661476641612   0.026029661732323406   -0.004311772676406131
1.2760980815276142   -0.026423910948628504   -0.05563084462301862
1.2760980815276142   -0.026423910948628504   -0.05563084462301862
1.2760980815276142   -0.026423910948628504   -0.05563084462301862
1.2760980815276142   -0.026423910948628504   -0.05563084462301862
1.8110645942766008   0.12709846823435722   0.0346116538837591
1.8110645942766008   0.12709846823435722   0.0346116538837591
1.8110645942766008   0.12709846823435722   0.0346116538837591
1.8110645942766008   0.12709846823435722   0.0346116538837591
0.8716879537673424   -0.15135477605299222   0.020144232293834594
0.8716879537673424   -0.15135477605299222   0.020144232293834594
0.8716879537673424   -0.15135477605299222   0.020144232293834594
0.8716879537673424   -0.15135477605299222   0.020144232293834594
0.919715493390837   -0.017377928751001998   0.03380390058465706
0.919715493390837   -0.017377928751001998   0.03380390058465706
0.919715493390837   -0.017377928751001998   0.03380390058465706
0.919715493390837   -0.017377928751001998   0.03380390058465706
1.8149887645889002   0.05149743612093899   -0.0007152985725286942
1.8149887645889002   0.05149743612093899   -0.0007152985725286942
1.8149887645889002   0.05149743612093899   -0.0007152985725286942
1.8149887645889002   0.05149743612093899   -0.0007152985725286942
1.2823606512954815   -0.012177474423089807   -0.04158853839089015
1.2823606512954815   -0.012177474423089807   -0.04158853839089015
1.2823606512954815   -0.012177474423089807   -0.04158853839089015
1.2823606512954815   -0.012177474423089807   -0.04158853839089015
0.8769836085265025   0.022376212533926826   0.06623907846673885
0.8769836085265025   0.022376212533926826   0.06623907846673885
0.8769836085265025   0.022376212533926826   0.06623907846673885
0.8769836085265025   0.022376212533926826   0.06623907846673885
0.046039520909270146   -0.3098687682875668   0.03179093969282963
0.046039520909270146   -0.3098687682875668   0.03179093969282963
0.046039520909270146   -0.3098687682875668   0.03179093969282963
0.046039520909270146   -0.3098687682875668   0.03179093969282963
0.10576827746670037   -0.13120709472874903   0.029665584447877084
0.10576827746670037   -0.13120709472874903   0.029665584447877084
0.10576827746670037   -0.13120709472874903   0.029665584447877084
0.10576827746670037   -0.13120709472874903   0.029665584447877084
0.8544910902121656   -0.14881303819713015   0.020181932199031707
0.8544910902121656   -0.14881303819713015   0.020181932199031707
0.8544910902121656   -0.14881303819713015   0.020181932199031707
0.8544910902121656   -0.14881303819713015   0.020181932199031707
0.45552808587985516   -0.1388714156949286   -0.052045908604214236
0.45552808587985516   -0.1388714156949286   -0.052045908604214236
0.45552808587985516   -0.1388714156949286   -0.052045908604214236
0.45552808587985516   -0.1388714156949286   -0.052045908604214236
0.897744983688002   0.032319001585129264   0.05531935979596688
0.897744983688002   0.032319001585129264   0.05531935979596688
0.897744983688002   0.032319001585129264   0.05531935979596688
0.897744983688002   0.032319001585129264   0.05531935979596688
0.07393396898980954   -0.30091954951206074   0.04020649684673476
0.07393396898980954   -0.30091954951206074   0.04020649684673476
0.07393396898980954   -0.30091954951206074   0.04020649684673476
0.07393396898980954   -0.30091954951206074   0.04020649684673476
0.12977908006212352   -0.11320290076744347   0.021495504701081615
0.12977908006212352   -0.11320290076744347   0.021495504701081615
0.12977908006212352   -0.11320290076744347   0.021495504701081615
0.12977908006212352   -0.11320290076744347   0.021495504701081615
0.8750443737599666   -0.13937905532717254   0.024950611531135314
0.8750443737599666   -0.13937905532717254   0.024950611531135314
0.8750443737599666   -0.13937905532717254   0.024950611531135314
0.8750443737599666   -0.13937905532717254   0.024950611531135314
0.47596269588836776   -0.13197581561392763   -0.026024613588203474
0.47596269588836776   -0.13197581561392763   -0.026024613588203474
0.47596269588836776   -0.13197581561392763   -0.026024613588203474
0.47596269588836776   -0.13197581561392763   -0.026024613588203474
0.9171107833370283   0.04928754980431302   0.04661605428495911
0.9171107833370283   0.04928754980431302   0.04661605428495911
0.9171107833370283   0.04928754980431302   0.04661605428495911
0.9171107833370283   0.04928754980431302   0.04661605428495911
0.09869877813580383   -0.29088339824818654   0.043774492550228083
0.09869877813580383   -0.29088339824818654   0.043774492550228083
0.09869877813580383   -0.29088339824818654   0.043774492550228083
0.09869877813580383   -0.29088339824818654   0.043774492550228083
0.16663475614585294   -0.08617547159369565   0.014231136537717327
0.16663475614585294   -0.08617547159369565   0.014231136537717327
0.16663475614585294   -0.08617547159369565   0.014231136537717327
0.16663475614585294   -0.08617547159369565   0.014231136537717327
0.8975375030619749   -0.12504089764500925   0.030576917834357675
0.8975375030619749   -0.12504089764500925   0.030576917834357675
0.8975375030619749   -0.12504089764500925   0.030576917834357675
0.8975375030619749   -0.12504089764500925   0.030576917834357675
0.5118089498772327   -0.11527753913994301   0.004259286275702892
0.5118089498772327   -0.11527753913994301   0.004259286275702892
0.5118089498772327   -0.11527753913994301   0.004259286275702892
0.5118089498772327   -0.11527753913994301   0.004259286275702892
0.09839618073818016   -0.058939261248424975   0.04264473179823786
0.09839618073818016   -0.058939261248424975   0.04264473179823786
0.09839618073818016   -0.058939261248424975   0.04264473179823786
0.09839618073818016   -0.058939261248424975   0.04264473179823786
-0.7453278830101682   -0.5321938933458812   0.04607684058342165
-0.7453278830101682   -0.5321938933458812   0.04607684058342165
-0.7453278830101682   -0.5321938933458812   0.04607684058342165
-0.7453278830101682   -0.5321938933458812   0.04607684058342165
-0.6509115862048807   -0.20731737043711285   0.003059797295858615
-0.6509115862048807   -0.20731737043711285   0.003059797295858615
-0.6509115862048807   -0.20731737043711285   0.003059797295858615
-0.6509115862048807   -0.20731737043711285   0.003059797295858615
0.052185533692802724   -0.38704093754784064   0.017585708397480596
0.052185533692802724   -0.38704093754784064   0.017585708397480596
0.052185533692802724   -0.38704093754784064   0.017585708397480596
0.052185533692802724   -0.38704093754784064   0.017585708397480596
-0.32115370698420964   -0.2984956427473874   -0.062450495497587286
-0.32115370698420964   -0.2984956427473874   -0.062450495497587286
-0.32115370698420964   -0.2984956427473874   -0.062450495497587286
-0.32115370698420964   -0.2984956427473874   -0.062450495497587286
0.12353877063287094   -0.0463142228489484   0.03362517839892935
0.12353877063287094   -0.0463142228489484   0.03362517839892935
0.12353877063287094   -0.0463142228489484   0.03362517839892935
0.12353877063287094   -0.0463142228489484   0.03362517839892935
-0.7057347584882511   -0.5315140204793064   0.05314058592120567
-0.7057347584882511   -0.5315140204793064   0.05314058592120567
-0.7057347584882511   -0.5315140204793064   0.05314058592120567
-0.7057347584882511   -0.5315140204793064   0.05314058592120567
-0.6144919773908218   -0.18603818977505343   -5.856432172272191e-05
-0.6144919773908218   -0.18603818977505343   -5.856432172272191e-05
-0.6144919773908218   -0.18603818977505343   -5.856432172272191e-05
-0.6144919773908218   -0.18603818977505343   -5.856432172272191e-05
0.07749919823572446   -0.3785085481639049   0.025401742965549673
0.07749919823572446   -0.3785085481639049   0.025401742965549673
0.07749919823572446   -0.3785085481639049   0.025401742965549673
0.07749919823572446   -0.3785085481639049   0.025401742965549673
-0.28426379095651966   -0.28828665423686733   -0.02327659820788721
-0.28426379095651966   -0.28828665423686733   -0.02327659820788721
-0.28426379095651966   -0.28828665423686733   -0.02327659820788721
-0.28426379095651966   -0.28828665423686733   -0.02327659820788721
0.1465259542489787   -0.029514579674304646   0.021541554542220682
0.1465259542489787   -0.029514579674304646   0.021541554542220682
0.1465259542489787   -0.029514579674304646   0.021541554542220682
0.1465259542489787   -0.029514579674304646   0.021541554542220682
-0.6686019720421911   -0.5201153969027671   0.06346866954915414
-0.6686019720421911   -0.5201153969027671   0.06346866954915414
-0.6686019720421911   -0.5201153969027671   0.06346866954915414
-0.6686019720421911   -0.5201153969027671   0.06346866954915414
-0.5543922911962276   -0.1615281303604113   -0.006933754022532658
-0.5543922911962276   -0.1615281303604113   -0.006933754022532658
-0.5543922911962276   -0.1615281303604113   -0.006933754022532658
-0.5543922911962276   -0.1615281303604113   -0.006933754022532658
0.11701307901748567   -0.3547222942283474   0.03466957353053268
0.11701307901748567   -0.3547222942283474   0.03466957353053268
0.11701307901748567   -0.3547222942283474   0.03466957353053268
0.11701307901748567   -0.3547222942283474   0.03466957353053268
-0.23639334772287984   -0.2654572493697193   0.017713541863666374
-0.23639334772287984   -0.2654572493697193   0.017713541863666374
-0.23639334772287984   -0.2654572493697193   0.017713541863666374
-0.23639334772287984   -0.2654572493697193   0.017713541863666374
-0.6653473524586186   -0.10654209844770914   0.020327698442991756
-0.6653473524586186   -0.10654209844770914   0.020327698442991756
-0.6653473524586186   -0.10654209844770914   0.020327698442991756
-0.6653473524586186   -0.10654209844770914   0.020327698442991756
-1.657944786500214   -0.8283282795977581   -0.03892547891752743
-1.657944786500214   -0.8283282795977581   -0.03892547891752743
-1.657944786500214   -0.8283282795977581   -0.03892547891752743
-1.657944786500214   -0.8283282795977581   -0.03892547891752743
-1.5021452020164958   -0.26975896524733906   -0.04576647074662288
-1.5021452020164958   -0.26975896524733906   -0.04576647074662288
-1.5021452020164958   -0.26975896524733906   -0.04576647074662288
-1.5021452020164958   -0.26975896524733906   -0.04576647074662288
-0.7457564053137002   -0.6924263195643691   0.013944650879016918
-0.7457564053137002   -0.6924263195643691   0.013944650879016918
-0.7457564053137002   -0.6924263195643691   0.013944650879016918
-0.7457564053137002   -0.6924263195643691   0.013944650879016918
-1.1415111927212345   -0.48995479219226373   -0.06561015996953544
-1.1415111927212345   -0.48995479219226373   -0.06561015996953544
-1.1415111927212345   -0.48995479219226373   -0.06561015996953544
-1.1415111927212345   -0.48995479219226373   -0.06561015996953544
-0.6223248466360505   -0.08075531256778845   0.019431437270684915
-0.6223248466360505   -0.08075531256778845   0.019431437270684915
-0.6223248466360505   -0.08075531256778845   0.019431437270684915
-0.6223248466360505   -0.08075531256778845   0.019431437270684915
-1.621795188650302   -0.8776484002000742   -0.03612696896290682
-1.621795188650302   -0.8776484002000742   -0.03612696896290682
-1.621795188650302   -0.8776484002000742   -0.03612696896290682
-1.621795188650302   -0.8776484002000742   -0.03612696896290682
-1.453649973263142   -0.2442548505444319   -0.046642341266746254
-1.453649973263142   -0.2442548505444319   -0.046642341266746254
-1.453649973263142   -0.2442548505444319   -0.046642341266746254
-1.453649973263142   -0.2442548505444319   -0.046642341266746254
-0.7104389003185768   -0.6869449419887887   0.021113573253242895
-0.7104389003185768   -0.6869449419887887   0.021113573253242895
-0.7104389003185768   -0.6869449419887887   0.021113573253242895
-0.7104389003185768   -0.6869449419887887   0.021113573253242895
-1.0906017641678494   -0.47665796500190805   -0.04596207914186434
-1.0906017641678494   -0.47665796500190805   -0.04596207914186434
-1.0906017641678494   -0.47665796500190805   -0.04596207914186434
-1.0906017641678494   -0.47665796500190805   -0.04596207914186434
-0.58806571212098   -0.060502179676802506   0.0065367519292386204
-0.58806571212098   -0.060502179676802506   0.0065367519292386204
-0.58806571212098   -0.060502179676802506   0.0065367519292386204
-0.58806571212098   -0.060502179676802506   0.0065367519292386204
-1.5759273502222764   -0.870601801617954   -0.03168227498888354
-1.5759273502222764   -0.870601801617954   -0.03168227498888354
-1.5759273502222764   -0.870601801617954   -0.03168227498888354
-1.5759273502222764   -0.870601801617954   -0.03168227498888354
-1.3779872102055333   -0.21685614429232403   -0.052876574550056565
-1.3779872102055333   -0.21685614429232403   -0.052876574550056565
-1.3779872102055333   -0.21685614429232403   -0.052876574550056565
-1.3779872102055333   -0.21685614429232403   -0.052876574550056565
-0.6340278309094476   -0.6175384667544128   0.0508988838053733
-0.6340278309094476   -0.6175384667544128   0.0508988838053733
-0.6340278309094476   -0.6175384667544128   0.0508988838053733
-0.6340278309094476   -0.6175384667544128   0.0508988838053733
-1.0338275608495298   -0.43196473025324544   -0.025496131299231298
-1.0338275608495298   -0.43196473025324544   -0.025496131299231298
-1.0338275608495298   -0.43196473025324544   -0.025496131299231298
-1.0338275608495298   -0.43196473025324544   -0.025496131299231298
-1.5047763755646855   -0.09089232619237486   -0.01051937764526796
-1.5047763755646855   -0.09089232619237486   -0.01051937764526796
-1.5047763755646855   -0.09089232619237486   -0.01051937764526796
-1.5047763755646855   -0.09089232619237486   -0.01051937764526796
-2.654987900421798   -0.5255782873087108   0.02709646387824416
-2.654987900421798   -0.5255782873087108   0.02709646387824416
-2.654987900421798   -0.5255782873087108   0.02709646387824416
-2.654987900421798   -0.5255782873087108   0.02709646387824416
-2.5505370266404745   -0.25278846417634887   -0.0558778111162823
-2.5505370266404745   -0.25278846417634887   -0.0558778111162823
-2.5505370266404745   -0.25278846417634887   -0.0558778111162823
-2.5505370266404745   -0.25278846417634887   -0.0558778111162823
-1.4716198124913187   -0.2724197168098992   0.1095212284418226
-1.4716198124913187   -0.2724197168098992   0.1095212284418226
-1.4716198124913187   -0.2724197168098992   0.1095212284418226
-1.4716198124913187   -0.2724197168098992   0.1095212284418226
-1.9626332763725773   -0.3048030509114926   0.02802642593934078
-1.9626332763725773   -0.3048030509114926   0.02802642593934078
-1.9626332763725773   -0.3048030509114926   0.02802642593934078
-1.9626332763725773   -0.3048030509114926   0.02802642593934078
-1.4429798145558461   -0.02003429939525697   0.00033580070454870825
-1.4429798145558461   -0.02003429939525697   0.00033580070454870825
-1.4429798145558461   -0.02003429939525697   0.00033580070454870825
-1.4429798145558461   -0.02003429939525697   0.00033580070454870825
-2.5891056569841844   -0.5151025139992316   0.013593086988026304
-2.5891056569841844   -0.5151025139992316   0.013593086988026304
-2.5891056569841844   -0.5151025139992316   0.013593086988026304
-2.5891056569841844   -0.5151025139992316   0.013593086988026304
-2.4930583076540147   -0.2316389952038836   -0.0709257386249466
-2.4930583076540147   -0.2316389952038836   -0.0709257386249466
-2.4930583076540147   -0.2316389952038836   -0.0709257386249466
-2.4930583076540147   -0.2316389952038836   -0.0709257386249466
-1.4217001085545742   -0.25880799613715   0.12766012786882397
-1.4217001085545742   -0.25880799613715   0.12766012786882397
-1.4217001085545742   -0.25880799613715   0.12766012786882397
-1.4217001085545742   -0.25880799613715   0.12766012786882397
-1.9323417165571362   -0.2510430706833015   0.026965195613232226
-1.9323417165571362   -0.2510430706833015   0.026965195613232226
-1.9323417165571362   -0.2510430706833015   0.026965195613232226
-1.9323417165571362   -0.2510430706833015   0.026965195613232226
-1.3985089525561698   -0.0013186617621551155   -0.013873426514149342
-1.3985089525561698   -0.0013186617621551155   -0.013873426514149342
-1.3985089525561698   -0.0013186617621551155   -0.013873426514149342
-1.3985089525561698   -0.0013186617621551155   -0.013873426514149342
-2.5198777470765306   -0.49275661300299317   0.05609468206156476
-2.5198777470765306   -0.49275661300299317   0.05609468206156476
-2.5198777470765306   -0.49275661300299317   0.05609468206156476
-2.5198777470765306   -0.49275661300299317   0.05609468206156476
-2.373693367935769   -0.18772403834251367   -0.07931764865451153
-2.373693367935769   -0.18772403834251367   -0.07931764865451153
-2.373693367935769   -0.18772403834251367   -0.07931764865451153
-2.373693367935769   -0.18772403834251367   -0.07931764865451153
-1.3440386417691874   -0.24067141973830458   0.14068154307766445
-1.3440386417691874   -0.24067141973830458   0.14068154307766445
-1.3440386417691874   -0.24067141973830458   0.14068154307766445
-1.3440386417691874   -0.24067141973830458   0.14068154307766445
-1.8168121762151264   -0.19192929849075943   0.05536294795673453
-1.8168121762151264   -0.19192929849075943   0.05536294795673453
-1.8168121762151264   -0.19192929849075943   0.05536294795673453
-1.8168121762151264   -0.19192929849075943   0.05536294795673453
1.9093415409346879   0.06261855951311796   0.026860469005715065
1.9093415409346879   0.06261855951311796   0.026860469005715065
1.9093415409346879   0.06261855951311796   0.026860469005715065
1.9093415409346879   0.06261855951311796   0.026860469005715065
0.97483525837055   -0.05137565961794327   0.019746650172669813
0.97483525837055   -0.05137565961794327   0.019746650172669813
0.97483525837055   -0.05137565961794327   0.019746650172669813
0.97483525837055   -0.05137565961794327   0.019746650172669813
0.9367679157332414   -0.13761398591180624   0.03887710776031164
0.9367679157332414   -0.13761398591180624   0.03887710776031164
0.9367679157332414   -0.13761398591180624   0.03887710776031164
0.9367679157332414   -0.13761398591180624   0.03887710776031164
1.8954841119053616   0.10679386322144918   0.01428391019217655
1.8954841119053616   0.10679386322144918   0.01428391019217655
1.8954841119053616   0.10679386322144918   0.01428391019217655
1.8954841119053616   0.10679386322144918   0.01428391019217655
1.3529418637053405   -0.01920066242536106   -0.049963682420856845
1.3529418637053405   -0.01920066242536106   -0.049963682420856845
1.3529418637053405   -0.01920066242536106   -0.049963682420856845
1.3529418637053405   -0.01920066242536106   -0.049963682420856845
1.885055639923424   0.048379350062462856   0.020556063441474315
1.885055639923424   0.048379350062462856   0.020556063441474315
1.885055639923424   0.048379350062462856   0.020556063441474315
1.885055639923424   0.048379350062462856   0.020556063441474315
0.9440826725097458   -0.0823131879582531   0.020150093689280932
0.9440826725097458   -0.0823131879582531   0.020150093689280932
0.9440826725097458   -0.0823131879582531   0.020150093689280932
0.9440826725097458   -0.0823131879582531   0.020150093689280932
0.9124895767396444   -0.14079188049874755   0.0321570870927559
0.9124895767396444   -0.14079188049874755   0.0321570870927559
0.9124895767396444   -0.14079188049874755   0.0321570870927559
0.9124895767396444   -0.14079188049874755   0.0321570870927559
1.87329965044453   0.10216989605646021   0.024732167196872518
1.87329965044453   0.10216989605646021   0.024732167196872518
1.87329965044453   0.10216989605646021   0.024732167196872518
1.87329965044453   0.10216989605646021   0.024732167196872518
1.3489183789791286   -0.026486135425052737   -0.057830161335817365
1.3489183789791286   -0.026486135425052737   -0.057830161335817365
1.3489183789791286   -0.026486135425052737   -0.057830161335817365
1.3489183789791286   -0.026486135425052737   -0.057830161335817365
1.8577619997765957   0.04306162389401669   0.00615218601962593
1.8577619997765957   0.04306162389401669   0.00615218601962593
1.8577619997765957   0.04306162389401669   0.00615218601962593
1.8577619997765957   0.04306162389401669   0.00615218601962593
0.9224335739550844   -0.08727726178880157   0.02836245446000954
0.9224335739550844   -0.08727726178880157   0.02836245446000954
0.9224335739550844   -0.08727726178880157   0.02836245446000954
0.9224335739550844   -0.08727726178880157   0.02836245446000954
0.8868773263436581   -0.12842831188506715   0.02776739964268274
0.8868773263436581   -0.12842831188506715   0.02776739964268274
0.8868773263436581   -0.12842831188506715   0.02776739964268274
0.8868773263436581   -0.12842831188506715   0.02776739964268274
1.8391152946254616   0.10333024972586435   0.03557769303575731
1.8391152946254616   0.10333024972586435   0.03557769303575731
1.8391152946254616   0.10333024972586435   0.03557769303575731
1.8391152946254616   0.10333024972586435   0.03557769303575731
1.2982449570840913   -0.026686797079700175   -0.07807355426025124
1.2982449570840913   -0.026686797079700175   -0.07807355426025124
1.2982449570840913   -0.026686797079700175   -0.07807355426025124
1.2982449570840913   -0.026686797079700175   -0.07807355426025124
0.9661821395629046   -0.12264779432675499   0.04775319084325454
0.9661821395629046   -0.12264779432675499   0.04775319084325454
0.9661821395629046   -0.12264779432675499   0.04775319084325454
0.9661821395629046   -0.12264779432675499   0.04775319084325454
0.18749491042356012   -0.11505412823754185   0.01020571816642657
0.18749491042356012   -0.11505412823754185   0.01020571816642657
0.18749491042356012   -0.11505412823754185   0.01020571816642657
0.18749491042356012   -0.11505412823754185   0.01020571816642657
0.12184716418210471   -0.2891593390020486   0.05109435420450019
0.12184716418210471   -0.2891593390020486   0.05109435420450019
0.12184716418210471   -0.2891593390020486   0.05109435420450019
0.12184716418210471   -0.2891593390020486   0.05109435420450019
0.971432962378812   0.037705860148706666   0.036882494927652214
0.971432962378812   0.037705860148706666   0.036882494927652214
0.971432962378812   0.037705860148706666   0.036882494927652214
0.971432962378812   0.037705860148706666   0.036882494927652214
0.5531045997960861   -0.12277939269916188   -0.0021274204218729997
0.5531045997960861   -0.12277939269916188   -0.0021274204218729997
0.5531045997960861   -0.12277939269916188   -0.0021274204218729997
0.5531045997960861   -0.12277939269916188   -0.0021274204218729997
0.9389252973942674   -0.12796048097482302   0.04001051112846542
0.9389252973942674   -0.12796048097482302   0.04001051112846542
0.9389252973942674   -0.12796048097482302   0.04001051112846542
0.9389252973942674   -0.12796048097482302   0.04001051112846542
0.1461443452986754   -0.13170348174649177   0.015124402531796713
0.1461443452986754   -0.13170348174649177   0.015124402531796713
0.1461443452986754   -0.13170348174649177   0.015124402531796713
0.1461443452986754   -0.13170348174649177   0.015124402531796713
0.09244021687362675   -0.29174133098488075   0.04574339012893419
0.09244021687362675   -0.29174133098488075   0.04574339012893419
0.09244021687362675   -0.29174133098488075   0.04574339012893419
0.09244021687362675   -0.29174133098488075   0.04574339012893419
0.9490437513365227   0.03044261044342736   0.043693469134972414
0.9490437513365227   0.03044261044342736   0.043693469134972414
0.9490437513365227   0.03044261044342736   0.043693469134972414
0.9490437513365227   0.03044261044342736   0.043693469134972414
0.5131631008213853   -0.13085902317789758   -0.026510517274910383
0.5131631008213853   -0.13085902317789758   -0.026510517274910383
0.5131631008213853   -0.13085902317789758   -0.026510517274910383
0.5131631008213853   -0.13085902317789758   -0.026510517274910383
0.9148793572358193   -0.12978279926937852   0.03309690834425269
0.9148793572358193   -0.12978279926937852   0.03309690834425269
0.9148793572358193   -0.12978279926937852   0.03309690834425269
0.9148793572358193   -0.12978279926937852   0.03309690834425269
0.11768145531745791   -0.14043907692894853   0.02064732829215777
0.11768145531745791   -0.14043907692894853   0.02064732829215777
0.11768145531745791   -0.14043907692894853   0.02064732829215777
0.11768145531745791   -0.14043907692894853   0.02064732829215777
0.0595351849082075   -0.29159693138725523   0.03579906727689508
0.0595351849082075   -0.29159693138725523   0.03579906727689508
0.0595351849082075   -0.29159693138725523   0.03579906727689508
0.0595351849082075   -0.29159693138725523   0.03579906727689508
0.923634184139021   0.03088778989989749   0.052235586834536676
0.923634184139021   0.03088778989989749   0.052235586834536676
0.923634184139021   0.03088778989989749   0.052235586834536676
0.923634184139021   0.03088778989989749   0.052235586834536676
0.4887727596694681   -0.12985152498335836   -0.047248766048760195
0.4887727596694681   -0.12985152498335836   -0.047248766048760195
0.4887727596694681   -0.12985152498335836   -0.047248766048760195
0.4887727596694681   -0.12985152498335836   -0.047248766048760195
0.1461309650164136   -0.3545425993988489   0.04287446229200115
0.1461309650164136   -0.3545425993988489   0.04287446229200115
0.1461309650164136   -0.3545425993988489   0.04287446229200115
0.1461309650164136   -0.3545425993988489   0.04287446229200115
-0.5694231497729154   -0.17850964175707054   0.0006221214987262649
-0.5694231497729154   -0.17850964175707054   0.0006221214987262649
-0.5694231497729154   -0.17850964175707054   0.0006221214987262649
-0.5694231497729154   -0.17850964175707054   0.0006221214987262649
-0.6881896387624298   -0.5269213126020356   0.058559005581738446
-0.6881896387624298   -0.5269213126020356   0.058559005581738446
-0.6881896387624298   -0.5269213126020356   0.058559005581738446
-0.6881896387624298   -0.5269213126020356   0.058559005581738446
0.16810959033396916   -0.030076944861869195   0.02332409082364291
0.16810959033396916   -0.030076944861869195   0.02332409082364291
0.16810959033396916   -0.030076944861869195   0.02332409082364291
0.16810959033396916   -0.030076944861869195   0.02332409082364291
-0.2326905703005901   -0.26867451855508345   0.010105793692670798
-0.2326905703005901   -0.26867451855508345   0.010105793692670798
-0.2326905703005901   -0.26867451855508345   0.010105793692670798
-0.2326905703005901   -0.26867451855508345   0.010105793692670798
0.10068029765326279   -0.37469915826966366   0.030799840827905586
0.10068029765326279   -0.37469915826966366   0.030799840827905586
0.10068029765326279   -0.37469915826966366   0.030799840827905586
0.10068029765326279   -0.37469915826966366   0.030799840827905586
-0.6322513014030131   -0.19379005451553177   0.005119434292312208
-0.6322513014030131   -0.19379005451553177   0.005119434292312208
-0.6322513014030131   -0.19379005451553177   0.005119434292312208
-0.6322513014030131   -0.19379005451553177   0.005119434292312208
-0.729149397381302   -0.5353817952424258   0.0476841031899716
-0.729149397381302   -0.5353817952424258   0.0476841031899716
-0.729149397381302   -0.5353817952424258   0.0476841031899716
-0.729149397381302   -0.5353817952424258   0.0476841031899716
0.1405557563151969   -0.03813968727707922   0.032719443628983526
0.1405557563151969   -0.03813968727707922   0.032719443628983526
0.1405557563151969   -0.03813968727707922   0.032719443628983526
0.1405557563151969   -0.03813968727707922   0.032719443628983526
-0.2838740821374532   -0.28500793332292473   -0.02408131120659307
-0.2838740821374532   -0.28500793332292473   -0.02408131120659307
-0.2838740821374532   -0.28500793332292473   -0.02408131120659307
-0.2838740821374532   -0.28500793332292473   -0.02408131120659307
0.06935608342994656   -0.3812510344441996   0.019832426369854023
0.06935608342994656   -0.3812510344441996   0.019832426369854023
0.06935608342994656   -0.3812510344441996   0.019832426369854023
0.06935608342994656   -0.3812510344441996   0.019832426369854023
-0.671619373691446   -0.20594009727069998   0.005892523667522617
-0.671619373691446   -0.20594009727069998   0.005892523667522617
-0.671619373691446   -0.20594009727069998   0.005892523667522617
-0.671619373691446   -0.20594009727069998   0.005892523667522617
-0.7735399971336077   -0.5317354118566539   0.040157061540093464
-0.7735399971336077   -0.5317354118566539   0.040157061540093464
-0.7735399971336077   -0.5317354118566539   0.040157061540093464
-0.7735399971336077   -0.5317354118566539   0.040157061540093464
0.10989861552792543   -0.0426327389431763   0.038652027931405736
0.10989861552792543   -0.0426327389431763   0.038652027931405736
0.10989861552792543   -0.0426327389431763   0.038652027931405736
0.10989861552792543   -0.0426327389431763   0.038652027931405736
-0.3254020991012621   -0.29121497615319747   -0.0582336917171192
-0.3254020991012621   -0.29121497615319747   -0.0582336917171192
-0.3254020991012621   -0.29121497615319747   -0.0582336917171192
-0.3254020991012621   -0.29121497615319747   -0.0582336917171192
-0.6452098926512694   -0.6078003766454045   0.05097914199529599
-0.6452098926512694   -0.6078003766454045   0.05097914199529599
-0.6452098926512694   -0.6078003766454045   0.05097914199529599
-0.6452098926512694   -0.6078003766454045   0.05097914199529599
-1.4299163957577259   -0.22223865876849955   -0.033109037271835916
-1.4299163957577259   -0.22223865876849955   -0.033109037271835916
-1.4299163957577259   -0.22223865876849955   -0.033109037271835916
-1.4299163957577259   -0.22223865876849955   -0.033109037271835916
-1.6374729206886245   -0.8826996278982175   -0.045705375415301425
-1.6374729206886245   -0.8826996278982175   -0.045705375415301425
-1.6374729206886245   -0.8826996278982175   -0.045705375415301425
-1.6374729206886245   -0.8826996278982175   -0.045705375415301425
-0.6004522002850059   -0.04982779531742114   0.02015268068423805
-0.6004522002850059   -0.04982779531742114   0.02015268068423805
-0.6004522002850059   -0.04982779531742114   0.02015268068423805
-0.6004522002850059   -0.04982779531742114   0.02015268068423805
-1.067930131507129   -0.42351878082347777   -0.03643221683433204
-1.067930131507129   -0.42351878082347777   -0.03643221683433204
-1.067930131507129   -0.42351878082347777   -0.03643221683433204
-1.067930131507129   -0.42351878082347777   -0.03643221683433204
-0.7287617601100547   -0.688384086209273   0.017161172450851275
-0.7287617601100547   -0.688384086209273   0.017161172450851275
-0.7287617601100547   -0.688384086209273   0.017161172450851275
-0.7287617601100547   -0.688384086209273   0.017161172450851275
-1.5058890548833979   -0.24086903102618956   -0.02961664326121217
-1.5058890548833979   -0.24086903102618956   -0.02961664326121217
-1.5058890548833979   -0.24086903102618956   -0.02961664326121217
-1.5058890548833979   -0.24086903102618956   -0.02961664326121217
-1.6861943401467725   -0.8968897588015768   -0.05285507098250147
-1.6861943401467725   -0.8968897588015768   -0.05285507098250147
-1.6861943401467725   -0.8968897588015768   -0.05285507098250147
-1.6861943401467725   -0.8968897588015768   -0.05285507098250147
-0.6382075099525415   -0.06306204866180645   0.030073793753151605
-0.6382075099525415   -0.06306204866180645   0.030073793753151605
-0.6382075099525415   -0.06306204866180645   0.030073793753151605
-0.6382075099525415   -0.06306204866180645   0.030073793753151605
-1.1274721133982175   -0.46925346551182606   -0.05159379938590393
-1.1274721133982175   -0.46925346551182606   -0.05159379938590393
-1.1274721133982175   -0.46925346551182606   -0.05159379938590393
-1.1274721133982175   -0.46925346551182606   -0.05159379938590393
-0.7706408803113378   -0.7018658949820981   0.0067107882794574525
-0.7706408803113378   -0.7018658949820981   0.0067107882794574525
-0.7706408803113378   -0.7018658949820981   0.0067107882794574525
-0.7706408803113378   -0.7018658949820981   0.0067107882794574525
-1.5539880258976366   -0.25831296859094854   -0.03040028994746339
-1.5539880258976366   -0.25831296859094854   -0.03040028994746339
-1.5539880258976366   -0.25831296859094854   -0.03040028994746339
-1.5539880258976366   -0.25831296859094854   -0.03040028994746339
-1.7277474899502114   -0.8583826706727252   -0.05960247674542479
-1.7277474899502114   -0.8583826706727252   -0.05960247674542479
-1.7277474899502114   -0.8583826706727252   -0.05960247674542479
-1.7277474899502114   -0.8583826706727252   -0.05960247674542479
-0.6860042876329853   -0.08175280262234247   0.02785299980888624
-0.6860042876329853   -0.08175280262234247   0.02785299980888624
-0.6860042876329853   -0.08175280262234247   0.02785299980888624
-0.6860042876329853   -0.08175280262234247   0.02785299980888624
-1.1823169255542578   -0.48484353318489226   -0.06608947634912074
-1.1823169255542578   -0.48484353318489226   -0.06608947634912074
-1.1823169255542578   -0.48484353318489226   -0.06608947634912074
-1.1823169255542578   -0.48484353318489226   -0.06608947634912074
-1.4047384144157085   -0.2556993672909966   0.12624157796072516
-1.4047384144157085   -0.2556993672909966   0.12624157796072516
-1.4047384144157085   -0.2556993672909966   0.12624157796072516
-1.4047384144157085   -0.2556993672909966   0.12624157796072516
-2.4733729572183627   -0.18505021593408044   -0.04390056900575692
-2.4733729572183627   -0.18505021593408044   -0.04390056900575692
-2.4733729572183627   -0.18505021593408044   -0.04390056900575692
-2.4733729572183627   -0.18505021593408044   -0.04390056900575692
-2.62478856568833   -0.5180284536253438   0.034646297561611195
-2.62478856568833   -0.5180284536253438   0.034646297561611195
-2.62478856568833   -0.5180284536253438   0.034646297561611195
-2.62478856568833   -0.5180284536253438   0.034646297561611195
-1.445125021141615   0.02086460418035596   0.01246989024115662
-1.445125021141615   0.02086460418035596   0.01246989024115662
-1.445125021141615   0.02086460418035596   0.01246989024115662
-1.445125021141615   0.02086460418035596   0.01246989024115662
-1.8923798616287637   -0.18196994824616552   0.03802874817266494
-1.8923798616287637   -0.18196994824616552   0.03802874817266494
-1.8923798616287637   -0.18196994824616552   0.03802874817266494
-1.8923798616287637   -0.18196994824616552   0.03802874817266494
-1.4842794253601388   -0.2744528253385413   0.11201529866743198
-1.4842794253601388   -0.2744528253385413   0.11201529866743198
-1.4842794253601388   -0.2744528253385413   0.11201529866743198
-1.4842794253601388   -0.2744528253385413   0.11201529866743198
-2.579013378771439   -0.2160902414080757   -0.03841598007117754
-2.579013378771439   -0.2160902414080757   -0.03841598007117754
-2.579013378771439   -0.2160902414080757   -0.03841598007117754
-2.579013378771439   -0.2160902414080757   -0.03841598007117754
-2.6890274377699965   -0.5400829591956846   -0.011387358208426734
-2.6890274377699965   -0.5400829591956846   -0.011387358208426734
-2.6890274377699965   -0.5400829591956846   -0.011387358208426734
-2.6890274377699965   -0.5400829591956846   -0.011387358208426734
-1.490472971998269   0.006018026197812332   0.022843984760613972
-1.490472971998269   0.006018026197812332   0.022843984760613972
-1.490472971998269   0.006018026197812332   0.022843984760613972
-1.490472971998269   0.006018026197812332   0.022843984760613972
-2.0055652527716954   -0.24022596251053827   0.01565787594827272
-2.0055652527716954   -0.24022596251053827   0.01565787594827272
-2.0055652527716954   -0.24022596251053827   0.01565787594827272
-2.0055652527716954   -0.24022596251053827   0.01565787594827272
-1.5353772059390707   -0.28850606078077545   0.0928469020351933
-1.5353772059390707   -0.28850606078077545   0.0928469020351933
-1.5353772059390707   -0.28850606078077545   0.0928469020351933
-1.5353772059390707   -0.28850606078077545   0.0928469020351933
-2.630821879815411   -0.23225754820330857   -0.028184979427848728
-2.630821879815411   -0.23225754820330857   -0.028184979427848728
-2.630821879815411   -0.23225754820330857   -0.028184979427848728
-2.630821879815411   -0.23225754820330857   -0.028184979427848728
-2.7449057125495133   -0.5490136043712388   -0.00016230930668093002
-2.7449057125495133   -0.5490136043712388   -0.00016230930668093002
-2.7449057125495133   -0.5490136043712388   -0.00016230930668093002
-2.7449057125495133   -0.5490136043712388   -0.00016230930668093002
-1.554154909691646   -0.05937597761437374   0.00935373148905043
-1.554154909691646   -0.05937597761437374   0.00935373148905043
-1.554154909691646   -0.05937597761437374   0.00935373148905043
-1.554154909691646   -0.05937597761437374   0.00935373148905043
-2.029970279992862   -0.29024718663101207   0.024715008904766012
-2.029970279992862   -0.29024718663101207   0.024715008904766012
-2.029970279992862   -0.29024718663101207   0.024715008904766012
-2.029970279992862   -0.29024718663101207   0.024715008904766012
1.672382368854936   0.07692228149163799   -0.036310754763871175
1.672382368854936   0.07692228149163799   -0.036310754763871175
1.672382368854936   0.07692228149163799   -0.036310754763871175
1.672382368854936   0.07692228149163799   -0.036310754763871175
0.8417618238458977   -0.01696538459403249   0.017862063952164636
0.8417618238458977   -0.01696538459403249   0.017862063952164636
0.8417618238458977   -0.01696538459403249   0.017862063952164636
0.8417618238458977   -0.01696538459403249   0.017862063952164636
0.7882043741948367   -0.12393723469466691   -0.032091841677817576
0.7882043741948367   -0.12393723469466691   -0.032091841677817576
0.7882043741948367   -0.12393723469466691   -0.032091841677817576
0.7882043741948367   -0.12393723469466691   -0.032091841677817576
1.6530162933455672   0.1207296942802627   0.02089840360523404
1.6530162933455672   0.1207296942802627   0.02089840360523404
1.6530162933455672   0.1207296942802627   0.02089840360523404
1.6530162933455672   0.1207296942802627   0.02089840360523404
1.1739019649409899   0.0028799311727544796   -0.04534535858191756
1.1739019649409899   0.0028799311727544796   -0.04534535858191756
1.1739019649409899   0.0028799311727544796   -0.04534535858191756
1.1739019649409899   0.0028799311727544796   -0.04534535858191756
1.6259003366034623   0.04269165746468245   -0.03664334328969658
1.6259003366034623   0.04269165746468245   -0.03664334328969658
1.6259003366034623   0.04269165746468245   -0.03664334328969658
1.6259003366034623   0.04269165746468245   -0.03664334328969658
0.813814371362819   -0.047405157453208335   0.01942606692062737
0.813814371362819   -0.047405157453208335   0.01942606692062737
0.813814371362819   -0.047405157453208335   0.01942606692062737
0.813814371362819   -0.047405157453208335   0.01942606692062737
0.7593672115249087   -0.1308636430729771   -0.026503089530631282
0.7593672115249087   -0.1308636430729771   -0.026503089530631282
0.7593672115249087   -0.1308636430729771   -0.026503089530631282
0.7593672115249087   -0.1308636430729771   -0.026503089530631282
1.6129569807743007   0.11091534129417704   0.030549816787384255
1.6129569807743007   0.11091534129417704   0.030549816787384255
1.6129569807743007   0.11091534129417704   0.030549816787384255
1.6129569807743007   0.11091534129417704   0.030549816787384255
1.1581537195014748   -0.011749691377562932   -0.05413165941330225
1.1581537195014748   -0.011749691377562932   -0.05413165941330225
1.1581537195014748   -0.011749691377562932   -0.05413165941330225
1.1581537195014748   -0.011749691377562932   -0.05413165941330225
1.585641087034896   0.03389073984338875   -0.029005050458850573
1.585641087034896   0.03389073984338875   -0.029005050458850573
1.585641087034896   0.03389073984338875   -0.029005050458850573
1.585641087034896   0.03389073984338875   -0.029005050458850573
0.7845937816814482   -0.05592836520504374   0.02469448338413289
0.7845937816814482   -0.05592836520504374   0.02469448338413289
0.7845937816814482   -0.05592836520504374   0.02469448338413289
0.7845937816814482   -0.05592836520504374   0.02469448338413289
0.7314376208798609   -0.12895529207276046   -0.01817234221182694
0.7314376208798609   -0.12895529207276046   -0.01817234221182694
0.7314376208798609   -0.12895529207276046   -0.01817234221182694
0.7314376208798609   -0.12895529207276046   -0.01817234221182694
1.5633558946508053   0.10424588712639868   0.03974993351463927
1.5633558946508053   0.10424588712639868   0.03974993351463927
1.5633558946508053   0.10424588712639868   0.03974993351463927
1.5633558946508053   0.10424588712639868   0.03974993351463927
1.1008647933463123   -0.020502516427364503   -0.07110079210345861
1.1008647933463123   -0.020502516427364503   -0.07110079210345861
1.1008647933463123   -0.020502516427364503   -0.07110079210345861
1.1008647933463123   -0.020502516427364503   -0.07110079210345861
0.8463306745454672   0.01618338960394819   0.007557543252031146
0.8463306745454672   0.01618338960394819   0.007557543252031146
0.8463306745454672   0.01618338960394819   0.007557543252031146
0.8463306745454672   0.01618338960394819   0.007557543252031146
0.08142186983148855   -0.0507072096395232   -0.0019237241178411899
0.08142186983148855   -0.0507072096395232   -0.0019237241178411899
0.08142186983148855   -0.0507072096395232   -0.0019237241178411899
0.08142186983148855   -0.0507072096395232   -0.0019237241178411899
0.030954165330520478   -0.1639424159243796   -0.030880088389548907
0.030954165330520478   -0.1639424159243796   -0.030880088389548907
0.030954165330520478   -0.1639424159243796   -0.030880088389548907
0.030954165330520478   -0.1639424159243796   -0.030880088389548907
0.8473395341412232   0.09773003369116998   0.041916689668270224
0.8473395341412232   0.09773003369116998   0.041916689668270224
0.8473395341412232   0.09773003369116998   0.041916689668270224
0.8473395341412232   0.09773003369116998   0.041916689668270224
0.4432256879439578   -0.02303328583917169   -0.017571262458135752
0.4432256879439578   -0.02303328583917169   -0.017571262458135752
0.4432256879439578   -0.02303328583917169   -0.017571262458135752
0.4432256879439578   -0.02303328583917169   -0.017571262458135752
0.8226332564843738   0.003160405832783625   0.012954929242413885
0.8226332564843738   0.003160405832783625   0.012954929242413885
0.8226332564843738   0.003160405832783625   0.012954929242413885
0.8226332564843738   0.003160405832783625   0.012954929242413885
0.05659734734593623   -0.06843588370742618   0.0018292894705764229
0.05659734734593623   -0.06843588370742618   0.0018292894705764229
0.05659734734593623   -0.06843588370742618   0.0018292894705764229
0.05659734734593623   -0.06843588370742618   0.0018292894705764229
0.003149270251096681   -0.17177266961076715   -0.021488450050574107
0.003149270251096681   -0.17177266961076715   -0.021488450050574107
0.003149270251096681   -0.17177266961076715   -0.021488450050574107
0.003149270251096681   -0.17177266961076715   -0.021488450050574107
0.8168149496042337   0.08363728644455404   0.04623467134846281
0.8168149496042337   0.08363728644455404   0.04623467134846281
0.8168149496042337   0.08363728644455404   0.04623467134846281
0.8168149496042337   0.08363728644455404   0.04623467134846281
0.41122792032250044   -0.03600431641972281   -0.024878594253116296
0.41122792032250044   -0.03600431641972281   -0.024878594253116296
0.41122792032250044   -0.03600431641972281   -0.024878594253116296
0.41122792032250044   -0.03600431641972281   -0.024878594253116296
0.7934968307106657   -0.0056243290364180465   0.018905692361602507
0.7934968307106657   -0.0056243290364180465   0.018905692361602507
0.7934968307106657   -0.0056243290364180465   0.018905692361602507
0.7934968307106657   -0.0056243290364180465   0.018905692361602507
0.026335150036971434   -0.08264329323748708   0.0053115725055195885
0.026335150036971434   -0.08264329323748708   0.0053115725055195885
0.026335150036971434   -0.08264329323748708   0.0053115725055195885
0.026335150036971434   -0.08264329323748708   0.0053115725055195885
-0.026700606986379827   -0.17255681192569405   -0.014652631167958868
-0.026700606986379827   -0.17255681192569405   -0.014652631167958868
-0.026700606986379827   -0.17255681192569405   -0.014652631167958868
-0.026700606986379827   -0.17255681192569405   -0.014652631167958868
0.7860179443328191   0.07467416168732423   0.05109982129288103
0.7860179443328191   0.07467416168732423   0.05109982129288103
0.7860179443328191   0.07467416168732423   0.05109982129288103
0.7860179443328191   0.07467416168732423   0.05109982129288103
0.3861915920972533   -0.0411786804064162   -0.031158763089349187
0.3861915920972533   -0.0411786804064162   -0.031158763089349187
0.3861915920972533   -0.0411786804064162   -0.031158763089349187
0.3861915920972533   -0.0411786804064162   -0.031158763089349187
0.08298898665523602   -0.04759225724908253   0.002796907610453616
0.08298898665523602   -0.04759225724908253   0.002796907610453616
0.08298898665523602   -0.04759225724908253   0.002796907610453616
0.08298898665523602   -0.04759225724908253   0.002796907610453616
-0.6535334203971087   -0.07553093565300646   -0.020562954372743778
-0.6535334203971087   -0.07553093565300646   -0.020562954372743778
-0.6535334203971087   -0.07553093565300646   -0.020562954372743778
-0.6535334203971087   -0.07553093565300646   -0.020562954372743778
-0.7096398180920314   -0.2173286473693067   -0.03518501328754417
-0.7096398180920314   -0.2173286473693067   -0.03518501328754417
-0.7096398180920314   -0.2173286473693067   -0.03518501328754417
-0.7096398180920314   -0.2173286473693067   -0.03518501328754417
0.0890466192664781   0.07158091472399851   0.02405885064186106
0.0890466192664781   0.07158091472399851   0.02405885064186106
0.0890466192664781   0.07158091472399851   0.02405885064186106
0.0890466192664781   0.07158091472399851   0.02405885064186106
-0.298666495690504   -0.06399845055861943   -0.017441039258193278
-0.298666495690504   -0.06399845055861943   -0.017441039258193278
-0.298666495690504   -0.06399845055861943   -0.017441039258193278
-0.298666495690504   -0.06399845055861943   -0.017441039258193278
0.06209644819477628   -0.05313884121080552   0.014027751218154139
0.06209644819477628   -0.05313884121080552   0.014027751218154139
0.06209644819477628   -0.05313884121080552   0.014027751218154139
0.06209644819477628   -0.05313884121080552   0.014027751218154139
-0.6806271246919   -0.09054636910607353   -0.016903824550120856
-0.6806271246919   -0.09054636910607353   -0.016903824550120856
-0.6806271246919   -0.09054636910607353   -0.016903824550120856
-0.6806271246919   -0.09054636910607353   -0.016903824550120856
-0.7422473074436935   -0.2259047291220678   -0.023302701837130284
-0.7422473074436935   -0.2259047291220678   -0.023302701837130284
-0.7422473074436935   -0.2259047291220678   -0.023302701837130284
-0.7422473074436935   -0.2259047291220678   -0.023302701837130284
0.05854118032764521   0.056494331594164914   0.02720409912723644
0.05854118032764521   0.056494331594164914   0.02720409912723644
0.05854118032764521   0.056494331594164914   0.02720409912723644
0.05854118032764521   0.056494331594164914   0.02720409912723644
-0.3256417695003569   -0.07298280063690192   -0.02092042384464802
-0.3256417695003569   -0.07298280063690192   -0.02092042384464802
-0.3256417695003569   -0.07298280063690192   -0.02092042384464802
-0.3256417695003569   -0.07298280063690192   -0.02092042384464802
0.0332250283561112   -0.06227182285162233   0.019389493715353673
0.0332250283561112   -0.06227182285162233   0.019389493715353673
0.0332250283561112   -0.06227182285162233   0.019389493715353673
0.0332250283561112   -0.06227182285162233   0.019389493715353673
-0.7164984674967683   -0.10670588670089959   -0.01375734452367257
-0.7164984674967683   -0.10670588670089959   -0.01375734452367257
-0.7164984674967683   -0.10670588670089959   -0.01375734452367257
-0.7164984674967683   -0.10670588670089959   -0.01375734452367257
-0.7784284783981431   -0.2321716863318818   -0.02071561508605316
-0.7784284783981431   -0.2321716863318818   -0.02071561508605316
-0.7784284783981431   -0.2321716863318818   -0.02071561508605316
-0.7784284783981431   -0.2321716863318818   -0.02071561508605316
0.025545019321590694   0.04361373619688204   0.03040495224931765
0.025545019321590694   0.04361373619688204   0.03040495224931765
0.025545019321590694   0.04361373619688204   0.03040495224931765
0.025545019321590694   0.04361373619688204   0.03040495224931765
-0.36068786578633316   -0.08373933329189152   -0.029302111277130918
-0.36068786578633316   -0.08373933329189152   -0.029302111277130918
-0.36068786578633316   -0.08373933329189152   -0.029302111277130918
-0.36068786578633316   -0.08373933329189152   -0.029302111277130918
-0.6435231838682498   -0.05628895867711971   0.010246251295648778
-0.6435231838682498   -0.05628895867711971   0.010246251295648778
-0.6435231838682498   -0.05628895867711971   0.010246251295648778
-0.6435231838682498   -0.05628895867711971   0.010246251295648778
-1.3708509196408192   -0.0883961914997129   -0.03624064707663917
-1.3708509196408192   -0.0883961914997129   -0.03624064707663917
-1.3708509196408192   -0.0883961914997129   -0.03624064707663917
-1.3708509196408192   -0.0883961914997129   -0.03624064707663917
-1.4346296717132307   -0.22772356029350121   -0.03514867276793722
-1.4346296717132307   -0.22772356029350121   -0.03514867276793722
-1.4346296717132307   -0.22772356029350121   -0.03514867276793722
-1.4346296717132307   -0.22772356029350121   -0.03514867276793722
-0.646839548286115   0.054671400993892616   0.00681628737883478
-0.646839548286115   0.054671400993892616   0.00681628737883478
-0.646839548286115   0.054671400993892616   0.00681628737883478
-0.646839548286115   0.054671400993892616   0.00681628737883478
-1.0155244351602537   -0.07575375465881404   -0.014654177302450645
-1.0155244351602537   -0.07575375465881404   -0.014654177302450645
-1.0155244351602537   -0.07575375465881404   -0.014654177302450645
-1.0155244351602537   -0.07575375465881404   -0.014654177302450645
-0.6666634804899698   -0.06218915168714177   0.024557179040598887
-0.6666634804899698   -0.06218915168714177   0.024557179040598887
-0.6666634804899698   -0.06218915168714177   0.024557179040598887
-0.6666634804899698   -0.06218915168714177   0.024557179040598887
-1.4107624751049292   -0.10681974320801141   -0.0367165068119322
-1.4107624751049292   -0.10681974320801141   -0.0367165068119322
-1.4107624751049292   -0.10681974320801141   -0.0367165068119322
-1.4107624751049292   -0.10681974320801141   -0.0367165068119322
-1.4797409943591464   -0.2423189055041485   -0.02467700605195331
-1.4797409943591464   -0.2423189055041485   -0.02467700605195331
-1.4797409943591464   -0.2423189055041485   -0.02467700605195331
-1.4797409943591464   -0.2423189055041485   -0.02467700605195331
-0.6831090646409258   0.03814560147779253   0.008338181576847577
-0.6831090646409258   0.03814560147779253   0.008338181576847577
-0.6831090646409258   0.03814560147779253   0.008338181576847577
-0.6831090646409258   0.03814560147779253   0.008338181576847577
-1.044047919019024   -0.08383604021472141   -0.014697455257391412
-1.044047919019024   -0.08383604021472141   -0.014697455257391412
-1.044047919019024   -0.08383604021472141   -0.014697455257391412
-1.044047919019024   -0.08383604021472141   -0.014697455257391412
-0.7026817146026089   -0.07687295141100445   0.025493484657229136
-0.7026817146026089   -0.07687295141100445   0.025493484657229136
-0.7026817146026089   -0.07687295141100445   0.025493484657229136
-0.7026817146026089   -0.07687295141100445   0.025493484657229136
-1.4574584759373537   -0.12459048415524351   -0.03099283529190474
-1.4574584759373537   -0.12459048415524351   -0.03099283529190474
-1.4574584759373537   -0.12459048415524351   -0.03099283529190474
-1.4574584759373537   -0.12459048415524351   -0.03099283529190474
-1.530787164012802   -0.26156196107347074   -0.026409916067000126
-1.530787164012802   -0.26156196107347074   -0.026409916067000126
-1.530787164012802   -0.26156196107347074   -0.026409916067000126
-1.530787164012802   -0.26156196107347074   -0.026409916067000126
-0.722306403235158   0.017750690606794073   0.009972383790188208
-0.722306403235158   0.017750690606794073   0.009972383790188208
-0.722306403235158   0.017750690606794073   0.009972383790188208
-0.722306403235158   0.017750690606794073   0.009972383790188208
-1.0946870720281199   -0.10356762989539645   -0.023893840567152533
-1.0946870720281199   -0.10356762989539645   -0.023893840567152533
-1.0946870720281199   -0.10356762989539645   -0.023893840567152533
-1.0946870720281199   -0.10356762989539645   -0.023893840567152533
-1.3244354846550086   0.06250454970857844   0.044935786644122386
-1.3244354846550086   0.06250454970857844   0.044935786644122386
-1.3244354846550086   0.06250454970857844   0.044935786644122386
-1.3244354846550086   0.06250454970857844   0.044935786644122386
-2.053556372711571   -0.1023142851251233   -0.027599575858545916
-2.053556372711571   -0.1023142851251233   -0.027599575858545916
-2.053556372711571   -0.1023142851251233   -0.027599575858545916
-2.053556372711571   -0.1023142851251233   -0.027599575858545916
-2.1040566079825185   -0.10418869003166475   0.046135006021895075
-2.1040566079825185   -0.10418869003166475   0.046135006021895075
-2.1040566079825185   -0.10418869003166475   0.046135006021895075
-2.1040566079825185   -0.10418869003166475   0.046135006021895075
-1.3757317345241908   0.042629187197599505   -0.01101173431385026
-1.3757317345241908   0.042629187197599505   -0.01101173431385026
-1.3757317345241908   0.042629187197599505   -0.01101173431385026
-1.3757317345241908   0.042629187197599505   -0.01101173431385026
-1.6345443533611432   0.0012348222950422927   0.04148827609405949
-1.6345443533611432   0.0012348222950422927   0.04148827609405949
-1.6345443533611432   0.0012348222950422927   0.04148827609405949
-1.6345443533611432   0.0012348222950422927   0.04148827609405949
-1.3614139711451685   0.046461741739321105   0.05674452803953621
-1.3614139711451685   0.046461741739321105   0.05674452803953621
-1.3614139711451685   0.046461741739321105   0.05674452803953621
-1.3614139711451685   0.046461741739321105   0.05674452803953621
-2.117432102543501   -0.10707897575535757   -0.017852181059325553
-2.117432102543501   -0.10707897575535757   -0.017852181059325553
-2.117432102543501   -0.10707897575535757   -0.017852181059325553
-2.117432102543501   -0.10707897575535757   -0.017852181059325553
-2.167805426982554   -0.12146721878910094   0.0627502148103939
-2.167805426982554   -0.12146721878910094   0.0627502148103939
-2.167805426982554   -0.12146721878910094   0.0627502148103939
-2.167805426982554   -0.12146721878910094   0.0627502148103939
-1.4224671734848051   0.030888908884916355   -0.011515716069321794
-1.4224671734848051   0.030888908884916355   -0.011515716069321794
-1.4224671734848051   0.030888908884916355   -0.011515716069321794
-1.4224671734848051   0.030888908884916355   -0.011515716069321794
-1.7167907059888103   -0.018986767561918527   0.02269077146960917
-1.7167907059888103   -0.018986767561918527   0.02269077146960917
-1.7167907059888103   -0.018986767561918527   0.02269077146960917
-1.7167907059888103   -0.018986767561918527   0.02269077146960917
-1.4093787543322496   0.02885927541213995   0.05595601316623247
-1.4093787543322496   0.02885927541213995   0.05595601316623247
-1.4093787543322496   0.02885927541213995   0.05595601316623247
-1.4093787543322496   0.02885927541213995   0.05595601316623247
-2.1833587334144435   -0.12190247259564535   -0.014581063542492015
-2.1833587334144435   -0.12190247259564535   -0.014581063542492015
-2.1833587334144435   -0.12190247259564535   -0.014581063542492015
-2.1833587334144435   -0.12190247259564535   -0.014581063542492015
-2.258434096181571   -0.19120181648152618   0.054503723643274896
-2.258434096181571   -0.19120181648152618   0.054503723643274896
-2.258434096181571   -0.19120181648152618   0.054503723643274896
-2.258434096181571   -0.19120181648152618   0.054503723643274896
-1.4763511259495417   -0.0049486819674060545   -0.010843004856774835
-1.4763511259495417   -0.0049486819674060545   -0.010843004856774835
-1.4763511259495417   -0.0049486819674060545   -0.010843004856774835
-1.4763511259495417   -0.0049486819674060545   -0.010843004856774835
-1.7517983051386041   -0.044450811865802964   0.0061596456760727725
-1.7517983051386041   -0.044450811865802964   0.0061596456760727725
-1.7517983051386041   -0.044450811865802964   0.0061596456760727725
-1.7517983051386041   -0.044450811865802964   0.0061596456760727725
1.3552875779223459   0.07250906017054104   -0.048291466301354585
1.3552875779223459   0.07250906017054104   -0.048291466301354585
1.3552875779223459   0.07250906017054104   -0.048291466301354585
1.3552875779223459   0.07250906017054104   -0.048291466301354585
0.6718454443565851   -0.0007130289258282518   0.017490958911114213
0.6718454443565851   -0.0007130289258282518   0.017490958911114213
0.6718454443565851   -0.0007130289258282518   0.017490958911114213
0.6718454443565851   -0.0007130289258282518   0.017490958911114213
0.6140662466737854   -0.100100823633157   -0.04430413929008234
0.6140662466737854   -0.100100823633157   -0.04430413929008234
0.6140662466737854   -0.100100823633157   -0.04430413929008234
0.6140662466737854   -0.100100823633157   -0.04430413929008234
1.3297765175270415   0.10957899253329595   0.021936859815783444
1.3297765175270415   0.10957899253329595   0.021936859815783444
1.3297765175270415   0.10957899253329595   0.021936859815783444
1.3297765175270415   0.10957899253329595   0.021936859815783444
0.9414203078347064   0.008314253572404312   -0.030983308173487094
0.9414203078347064   0.008314253572404312   -0.030983308173487094
0.9414203078347064   0.008314253572404312   -0.030983308173487094
0.9414203078347064   0.008314253572404312   -0.030983308173487094
1.3015598598590794   0.03695436638647842   -0.04652180237719927
1.3015598598590794   0.03695436638647842   -0.04652180237719927
1.3015598598590794   0.03695436638647842   -0.04652180237719927
1.3015598598590794   0.03695436638647842   -0.04652180237719927
0.6410740553291471   -0.028685046498939687   0.019319126852499813
0.6410740553291471   -0.028685046498939687   0.019319126852499813
0.6410740553291471   -0.028685046498939687   0.019319126852499813
0.6410740553291471   -0.028685046498939687   0.019319126852499813
0.5851679090954913   -0.10845507834115964   -0.03851320971042842
0.5851679090954913   -0.10845507834115964   -0.03851320971042842
0.5851679090954913   -0.10845507834115964   -0.03851320971042842
0.5851679090954913   -0.10845507834115964   -0.03851320971042842
1.2865523783231199   0.0980947748816294   0.029998448318680447
1.2865523783231199   0.0980947748816294   0.029998448318680447
1.2865523783231199   0.0980947748816294   0.029998448318680447
1.2865523783231199   0.0980947748816294   0.029998448318680447
0.9188230328326913   -0.006745983219178825   -0.040690738754886796
0.9188230328326913   -0.006745983219178825   -0.040690738754886796
0.9188230328326913   -0.006745983219178825   -0.040690738754886796
0.9188230328326913   -0.006745983219178825   -0.040690738754886796
1.2589384704647926   0.026672010547114627   -0.03664832663841968
1.2589384704647926   0.026672010547114627   -0.03664832663841968
1.2589384704647926   0.026672010547114627   -0.03664832663841968
1.2589384704647926   0.026672010547114627   -0.03664832663841968
0.611696765045342   -0.038117365915108475   0.02379335761276912
0.611696765045342   -0.038117365915108475   0.02379335761276912
0.611696765045342   -0.038117365915108475   0.02379335761276912
0.611696765045342   -0.038117365915108475   0.02379335761276912
0.5587822229003893   -0.11091173436752744   -0.03146450220457527
0.5587822229003893   -0.11091173436752744   -0.03146450220457527
0.5587822229003893   -0.11091173436752744   -0.03146450220457527
0.5587822229003893   -0.11091173436752744   -0.03146450220457527
1.2378240984587143   0.08804202776001427   0.037337059155795944
1.2378240984587143   0.08804202776001427   0.037337059155795944
1.2378240984587143   0.08804202776001427   0.037337059155795944
1.2378240984587143   0.08804202776001427   0.037337059155795944
0.8661083490948157   -0.017110621515427027   -0.05525969659696904
0.8661083490948157   -0.017110621515427027   -0.05525969659696904
0.8661083490948157   -0.017110621515427027   -0.05525969659696904
0.8661083490948157   -0.017110621515427027   -0.05525969659696904
0.6834042696549064   0.07082368870343275   0.003748367773459424
0.6834042696549064   0.07082368870343275   0.003748367773459424
0.6834042696549064   0.07082368870343275   0.003748367773459424
0.6834042696549064   0.07082368870343275   0.003748367773459424
0.023326642406215486   -0.022409497484360136   -0.0027949393656956844
0.023326642406215486   -0.022409497484360136   -0.0027949393656956844
0.023326642406215486   -0.022409497484360136   -0.0027949393656956844
0.023326642406215486   -0.022409497484360136   -0.0027949393656956844
-0.020225249548890663   -0.0901964606184472   -0.030150998189701836
-0.020225249548890663   -0.0901964606184472   -0.030150998189701836
-0.020225249548890663   -0.0901964606184472   -0.030150998189701836
-0.020225249548890663   -0.0901964606184472   -0.030150998189701836
0.6702260564483344   0.09923699902905561   0.037157086920440834
0.6702260564483344   0.09923699902905561   0.037157086920440834
0.6702260564483344   0.09923699902905561   0.037157086920440834
0.6702260564483344   0.09923699902905561   0.037157086920440834
0.3338980554833417   0.01413628207325851   -0.003818628973574014
0.3338980554833417   0.01413628207325851   -0.003818628973574014
0.3338980554833417   0.01413628207325851   -0.003818628973574014
0.3338980554833417   0.01413628207325851   -0.003818628973574014
0.6549477694726987   0.052390727531729214   0.007611923539590837
0.6549477694726987   0.052390727531729214   0.007611923539590837
0.6549477694726987   0.052390727531729214   0.007611923539590837
0.6549477694726987   0.052390727531729214   0.007611923539590837
-0.004675593700129424   -0.043078820247994906   0.00047964068365206197
-0.004675593700129424   -0.043078820247994906   0.00047964068365206197
-0.004675593700129424   -0.043078820247994906   0.00047964068365206197
-0.004675593700129424   -0.043078820247994906   0.00047964068365206197
-0.047600328731542615   -0.10370553884685482   -0.026064176772805075
-0.047600328731542615   -0.10370553884685482   -0.026064176772805075
-0.047600328731542615   -0.10370553884685482   -0.026064176772805075
-0.047600328731542615   -0.10370553884685482   -0.026064176772805075
0.6392154034742169   0.08215398171727832   0.041115202124757375
0.6392154034742169   0.08215398171727832   0.041115202124757375
0.6392154034742169   0.08215398171727832   0.041115202124757375
0.6392154034742169   0.08215398171727832   0.041115202124757375
0.3004583248455956   -0.002699661702443859   -0.013385299884637089
0.3004583248455956   -0.002699661702443859   -0.013385299884637089
0.3004583248455956   -0.002699661702443859   -0.013385299884637089
0.3004583248455956   -0.002699661702443859   -0.013385299884637089
0.6245097303239174   0.038231226614088926   0.011509591476453633
0.6245097303239174   0.038231226614088926   0.011509591476453633
0.6245097303239174   0.038231226614088926   0.011509591476453633
0.6245097303239174   0.038231226614088926   0.011509591476453633
-0.03286831222891524   -0.059756440391326604   0.0036468072848035733
-0.03286831222891524   -0.059756440391326604   0.0036468072848035733
-0.03286831222891524   -0.059756440391326604   0.0036468072848035733
-0.03286831222891524   -0.059756440391326604   0.0036468072848035733
-0.0746978329474266   -0.11183565741257671   -0.020733496926377944
-0.0746978329474266   -0.11183565741257671   -0.020733496926377944
-0.0746978329474266   -0.11183565741257671   -0.020733496926377944
-0.0746978329474266   -0.11183565741257671   -0.020733496926377944
0.6097213357786919   0.06774798573078505   0.044571342088617814
0.6097213357786919   0.06774798573078505   0.044571342088617814
0.6097213357786919   0.06774798573078505   0.044571342088617814
0.6097213357786919   0.06774798573078505   0.044571342088617814
0.27573498410721253   -0.013466810461167426   -0.02043597974987281
0.27573498410721253   -0.013466810461167426   -0.02043597974987281
0.27573498410721253   -0.013466810461167426   -0.02043597974987281
0.27573498410721253   -0.013466810461167426   -0.02043597974987281
0.045747722847117804   0.07151506411772206   0.015385901236733711
0.045747722847117804   0.07151506411772206   0.015385901236733711
0.045747722847117804   0.07151506411772206   0.015385901236733711
0.045747722847117804   0.07151506411772206   0.015385901236733711
-0.6050796826176974   -0.03918437295505593   -0.02081584452452392
-0.6050796826176974   -0.03918437295505593   -0.02081584452452392
-0.6050796826176974   -0.03918437295505593   -0.02081584452452392
-0.6050796826176974   -0.03918437295505593   -0.02081584452452392
-0.6390578602240008   -0.0826709191083059   -0.019095839029182084
-0.6390578602240008   -0.0826709191083059   -0.019095839029182084
-0.6390578602240008   -0.0826709191083059   -0.019095839029182084
-0.6390578602240008   -0.0826709191083059   -0.019095839029182084
0.02369953103856006   0.08126242189288309   0.01801402223622149
0.02369953103856006   0.08126242189288309   0.01801402223622149
0.02369953103856006   0.08126242189288309   0.01801402223622149
0.02369953103856006   0.08126242189288309   0.01801402223622149
-0.2933044371507585   0.009105600899502589   0.001117708536476223
-0.2933044371507585   0.009105600899502589   0.001117708536476223
-0.2933044371507585   0.009105600899502589   0.001117708536476223
-0.2933044371507585   0.009105600899502589   0.001117708536476223
0.01903716287115602   0.0566334783124823   0.019331124979602075
0.01903716287115602   0.0566334783124823   0.019331124979602075
0.01903716287115602   0.0566334783124823   0.019331124979602075
0.01903716287115602   0.0566334783124823   0.019331124979602075
-0.6336487591191541   -0.057295242590462384   -0.017426010022791778
-0.6336487591191541   -0.057295242590462384   -0.017426010022791778
-0.6336487591191541   -0.057295242590462384   -0.017426010022791778
-0.6336487591191541   -0.057295242590462384   -0.017426010022791778
-0.6684357703615499   -0.09751368160591287   -0.015859016184018714
-0.6684357703615499   -0.09751368160591287   -0.015859016184018714
-0.6684357703615499   -0.09751368160591287   -0.015859016184018714
-0.6684357703615499   -0.09751368160591287   -0.015859016184018714
-0.00453631370104313   0.06368924899980768   0.021861110533029842
-0.00453631370104313   0.06368924899980768   0.021861110533029842
-0.00453631370104313   0.06368924899980768   0.021861110533029842
-0.00453631370104313   0.06368924899980768   0.021861110533029842
-0.3214504929945934   -0.005420705328431363   -0.0060726445904806595
-0.3214504929945934   -0.005420705328431363   -0.0060726445904806595
-0.3214504929945934   -0.005420705328431363   -0.0060726445904806595
-0.3214504929945934   -0.005420705328431363   -0.0060726445904806595
-0.00851862932822749   0.04230775509744875   0.02333102629946697
-0.00851862932822749   0.04230775509744875   0.02333102629946697
-0.00851862932822749   0.04230775509744875   0.02333102629946697
-0.00851862932822749   0.04230775509744875   0.02333102629946697
-0.6638121413824947   -0.07549087435168302   -0.014763678542972131
-0.6638121413824947   -0.07549087435168302   -0.014763678542972131
-0.6638121413824947   -0.07549087435168302   -0.014763678542972131
-0.6638121413824947   -0.07549087435168302   -0.014763678542972131
-0.6976147409837568   -0.10919488613565509   -0.010478399108020587
-0.6976147409837568   -0.10919488613565509   -0.010478399108020587
-0.6976147409837568   -0.10919488613565509   -0.010478399108020587
-0.6976147409837568   -0.10919488613565509   -0.010478399108020587
-0.03378884106959587   0.04713484621272189   0.024840958837477146
-0.03378884106959587   0.04713484621272189   0.024840958837477146
-0.03378884106959587   0.04713484621272189   0.024840958837477146
-0.03378884106959587   0.04713484621272189   0.024840958837477146
-0.3517353347111571   -0.020194047125482284   -0.01392991725983591
-0.3517353347111571   -0.020194047125482284   -0.01392991725983591
-0.3517353347111571   -0.020194047125482284   -0.01392991725983591
-0.3517353347111571   -0.020194047125482284   -0.01392991725983591
-0.5705684771683505   0.08451632363629458   0.028039486130868083
-0.5705684771683505   0.08451632363629458   0.028039486130868083
-0.5705684771683505   0.08451632363629458   0.028039486130868083
-0.5705684771683505   0.08451632363629458   0.028039486130868083
-1.2126455128537454   -0.05388352024120216   -0.03410878289446132
-1.2126455128537454   -0.05388352024120216   -0.03410878289446132
-1.2126455128537454   -0.05388352024120216   -0.03410878289446132
-1.2126455128537454   -0.05388352024120216   -0.03410878289446132
-1.2391371114341256   -0.06624489431098743   -0.005467625997554619
-1.2391371114341256   -0.06624489431098743   -0.005467625997554619
-1.2391371114341256   -0.06624489431098743   -0.005467625997554619
-1.2391371114341256   -0.06624489431098743   -0.005467625997554619
-0.6066087377950783   0.06146969581343076   -0.0009908418063023922
-0.6066087377950783   0.06146969581343076   -0.0009908418063023922
-0.6066087377950783   0.06146969581343076   -0.0009908418063023922
-0.6066087377950783   0.06146969581343076   -0.0009908418063023922
-0.9006870689794889   0.009247255916541408   0.0065656645459841595
-0.9006870689794889   0.009247255916541408   0.0065656645459841595
-0.9006870689794889   0.009247255916541408   0.0065656645459841595
-0.9006870689794889   0.009247255916541408   0.0065656645459841595
-0.5985586408336647   0.06925849397621245   0.03147084483798377
-0.5985586408336647   0.06925849397621245   0.03147084483798377
-0.5985586408336647   0.06925849397621245   0.03147084483798377
-0.5985586408336647   0.06925849397621245   0.03147084483798377
-1.2461730330130938   -0.0730195170913237   -0.03387261111205918
-1.2461730330130938   -0.0730195170913237   -0.03387261111205918
-1.2461730330130938   -0.0730195170913237   -0.03387261111205918
-1.2461730330130938   -0.0730195170913237   -0.03387261111205918
-1.2753164649329294   -0.08293352721162875   -0.004850061578255259
-1.2753164649329294   -0.08293352721162875   -0.004850061578255259
-1.2753164649329294   -0.08293352721162875   -0.004850061578255259
-1.2753164649329294   -0.08293352721162875   -0.004850061578255259
-0.6363340006298952   0.04470013389599453   0.002436016972351379
-0.6363340006298952   0.04470013389599453   0.002436016972351379
-0.6363340006298952   0.04470013389599453   0.002436016972351379
-0.6363340006298952   0.04470013389599453   0.002436016972351379
-0.9260174541859139   -0.004040666474763088   0.0006675187148397904
-0.9260174541859139   -0.004040666474763088   0.0006675187148397904
-0.9260174541859139   -0.004040666474763088   0.0006675187148397904
-0.9260174541859139   -0.004040666474763088   0.0006675187148397904
-0.6275171163354992   0.054867057742967046   0.036353514597354954
-0.6275171163354992   0.054867057742967046   0.036353514597354954
-0.6275171163354992   0.054867057742967046   0.036353514597354954
-0.6275171163354992   0.054867057742967046   0.036353514597354954
-1.282073260912928   -0.09104036274421479   -0.03052720594566241
-1.282073260912928   -0.09104036274421479   -0.03052720594566241
-1.282073260912928   -0.09104036274421479   -0.03052720594566241
-1.282073260912928   -0.09104036274421479   -0.03052720594566241
-1.3086284754450839   -0.10080202944344713   0.0035308557489081155
-1.3086284754450839   -0.10080202944344713   0.0035308557489081155
-1.3086284754450839   -0.10080202944344713   0.0035308557489081155
-1.3086284754450839   -0.10080202944344713   0.0035308557489081155
-0.6678350304673121   0.02474612402345519   0.004479143315092436
-0.6678350304673121   0.02474612402345519   0.004479143315092436
-0.6678350304673121   0.02474612402345519   0.004479143315092436
-0.6678350304673121   0.02474612402345519   0.004479143315092436
-0.9655565459280971   -0.022690191017968486   -0.007262045576318106
-0.9655565459280971   -0.022690191017968486   -0.007262045576318106
-0.9655565459280971   -0.022690191017968486   -0.007262045576318106
-0.9655565459280971   -0.022690191017968486   -0.007262045576318106
-1.1696284803239085   0.08784148368901623   0.03925137582448954
-1.1696284803239085   0.08784148368901623   0.03925137582448954
-1.1696284803239085   0.08784148368901623   0.03925137582448954
-1.1696284803239085   0.08784148368901623   0.03925137582448954
-1.7900522428868806   -0.08280074871856524   -0.03145557243097438
-1.7900522428868806   -0.08280074871856524   -0.03145557243097438
-1.7900522428868806   -0.08280074871856524   -0.03145557243097438
-1.7900522428868806   -0.08280074871856524   -0.03145557243097438
-1.8146227136079816   -0.036267353290572124   0.03339654232908219
-1.8146227136079816   -0.036267353290572124   0.03339654232908219
-1.8146227136079816   -0.036267353290572124   0.03339654232908219
-1.8146227136079816   -0.036267353290572124   0.03339654232908219
-1.2209642188901717   0.03678980205394472   -0.017637859642716816
-1.2209642188901717   0.03678980205394472   -0.017637859642716816
-1.2209642188901717   0.03678980205394472   -0.017637859642716816
-1.2209642188901717   0.03678980205394472   -0.017637859642716816
-1.432583561606811   0.018279575050084818   0.03291442717696701
-1.432583561606811   0.018279575050084818   0.03291442717696701
-1.432583561606811   0.018279575050084818   0.03291442717696701
-1.432583561606811   0.018279575050084818   0.03291442717696701
-1.1978890587982751   0.0894213481497424   0.04510639472094864
-1.1978890587982751   0.0894213481497424   0.04510639472094864
-1.1978890587982751   0.0894213481497424   0.04510639472094864
-1.1978890587982751   0.0894213481497424   0.04510639472094864
-1.8363358976900575   -0.08753692337654956   -0.02389980799530282
-1.8363358976900575   -0.08753692337654956   -0.02389980799530282
-1.8363358976900575   -0.08753692337654956   -0.02389980799530282
-1.8363358976900575   -0.08753692337654956   -0.02389980799530282
-1.8595579195708054   -0.04499834060537755   0.0461387825652088
-1.8595579195708054   -0.04499834060537755   0.0461387825652088
-1.8595579195708054   -0.04499834060537755   0.0461387825652088
-1.8595579195708054   -0.04499834060537755   0.0461387825652088
-1.2554687844914052   0.027152226172661387   -0.015697412754924422
-1.2554687844914052   0.027152226172661387   -0.015697412754924422
-1.2554687844914052   0.027152226172661387   -0.015697412754924422
-1.2554687844914052   0.027152226172661387   -0.015697412754924422
-1.4943941141633106   0.009017779023830275   0.02115151427809213
-1.4943941141633106   0.009017779023830275   0.02115151427809213
-1.4943941141633106   0.009017779023830275   0.02115151427809213
-1.4943941141633106   0.009017779023830275   0.02115151427809213
-1.229982373660404   0.08288865464850798   0.05599821292423511
-1.229982373660404   0.08288865464850798   0.05599821292423511
-1.229982373660404   0.08288865464850798   0.05599821292423511
-1.229982373660404   0.08288865464850798   0.05599821292423511
-1.8837285827847143   -0.09941902146413983   -0.020293852645559746
-1.8837285827847143   -0.09941902146413983   -0.020293852645559746
-1.8837285827847143   -0.09941902146413983   -0.020293852645559746
-1.8837285827847143   -0.09941902146413983   -0.020293852645559746
-1.9205052105370173   -0.08243424041993147   0.04588328746813525
-1.9205052105370173   -0.08243424041993147   0.04588328746813525
-1.9205052105370173   -0.08243424041993147   0.04588328746813525
-1.9205052105370173   -0.08243424041993147   0.04588328746813525
-1.2924711686635992   -0.0017382707001355469   -0.014746369086980404
-1.2924711686635992   -0.0017382707001355469   -0.014746369086980404
-1.2924711686635992   -0.0017382707001355469   -0.014746369086980404
-1.2924711686635992   -0.0017382707001355469   -0.014746369086980404
-1.5124013302060906   -0.004309393022913499   0.017252982370965245
-1.5124013302060906   -0.004309393022913499   0.017252982370965245
-1.5124013302060906   -0.004309393022913499   0.017252982370965245
-1.5124013302060906   -0.004309393022913499   0.017252982370965245
1.027381484430768   0.057087914838291065   -0.04904036234247222
1.027381484430768   0.057087914838291065   -0.04904036234247222
1.027381484430768   0.057087914838291065   -0.04904036234247222
1.027381484430768   0.057087914838291065   -0.04904036234247222
0.4885534382682151   0.009792605965804002   0.01869610898734467
0.4885534382682151   0.009792605965804002   0.01869610898734467
0.4885534382682151   0.009792605965804002   0.01869610898734467
0.4885534382682151   0.009792605965804002   0.01869610898734467
0.4340700837782381   -0.08326454964947849   -0.046574417349285246
0.4340700837782381   -0.08326454964947849   -0.046574417349285246
0.4340700837782381   -0.08326454964947849   -0.046574417349285246
0.4340700837782381   -0.08326454964947849   -0.046574417349285246
1.0051300140604735   0.0944283096154402   0.023119141256715495
1.0051300140604735   0.0944283096154402   0.023119141256715495
1.0051300140604735   0.0944283096154402   0.023119141256715495
1.0051300140604735   0.0944283096154402   0.023119141256715495
0.7006287898559564   0.009474887471050908   -0.020718146197997896
0.7006287898559564   0.009474887471050908   -0.020718146197997896
0.7006287898559564   0.009474887471050908   -0.020718146197997896
0.7006287898559564   0.009474887471050908   -0.020718146197997896
0.9774409528573973   0.025454113839637943   -0.04635196898286234
0.9774409528573973   0.025454113839637943   -0.04635196898286234
0.9774409528573973   0.025454113839637943   -0.04635196898286234
0.9774409528573973   0.025454113839637943   -0.04635196898286234
0.4612135974425175   -0.014835901412473512   0.020714502735102825
0.4612135974425175   -0.014835901412473512   0.020714502735102825
0.4612135974425175   -0.014835901412473512   0.020714502735102825
0.4612135974425175   -0.014835901412473512   0.020714502735102825
0.40861743398955114   -0.09143639715829069   -0.03972246754728959
0.40861743398955114   -0.09143639715829069   -0.03972246754728959
0.40861743398955114   -0.09143639715829069   -0.03972246754728959
0.40861743398955114   -0.09143639715829069   -0.03972246754728959
0.9655536487453412   0.08274823675530804   0.030409108873275255
0.9655536487453412   0.08274823675530804   0.030409108873275255
0.9655536487453412   0.08274823675530804   0.030409108873275255
0.9655536487453412   0.08274823675530804   0.030409108873275255
0.6778475382735036   -0.0046956082329291104   -0.029090481225119293
0.6778475382735036   -0.0046956082329291104   -0.029090481225119293
0.6778475382735036   -0.0046956082329291104   -0.029090481225119293
0.6778475382735036   -0.0046956082329291104   -0.029090481225119293
0.9385103227621666   0.015062347706861684   -0.037121631994143374
0.9385103227621666   0.015062347706861684   -0.037121631994143374
0.9385103227621666   0.015062347706861684   -0.037121631994143374
0.9385103227621666   0.015062347706861684   -0.037121631994143374
0.4349717612665104   -0.024439506816059137   0.025052278495270315
0.4349717612665104   -0.024439506816059137   0.025052278495270315
0.4349717612665104   -0.024439506816059137   0.025052278495270315
0.4349717612665104   -0.024439506816059137   0.025052278495270315
0.38567864870819807   -0.09647065887039144   -0.033080924245716244
0.38567864870819807   -0.09647065887039144   -0.033080924245716244
0.38567864870819807   -0.09647065887039144   -0.033080924245716244
0.38567864870819807   -0.09647065887039144   -0.033080924245716244
0.92092422728642   0.07010230006016385   0.03612647541599286
0.92092422728642   0.07010230006016385   0.03612647541599286
0.92092422728642   0.07010230006016385   0.03612647541599286
0.92092422728642   0.07010230006016385   0.03612647541599286
0.6328062024757859   -0.015403724768741411   -0.04148056936301164
0.6328062024757859   -0.015403724768741411   -0.04148056936301164
0.6328062024757859   -0.015403724768741411   -0.04148056936301164
0.6328062024757859   -0.015403724768741411   -0.04148056936301164
0.4967142830118949   0.07223800520351151   -0.0029450665319555053
0.4967142830118949   0.07223800520351151   -0.0029450665319555053
0.4967142830118949   0.07223800520351151   -0.0029450665319555053
0.4967142830118949   0.07223800520351151   -0.0029450665319555053
-0.032456190471634366   -0.007049927429981547   -0.0002557003517527685
-0.032456190471634366   -0.007049927429981547   -0.0002557003517527685
-0.032456190471634366   -0.007049927429981547   -0.0002557003517527685
-0.032456190471634366   -0.007049927429981547   -0.0002557003517527685
-0.07083708009599564   -0.0623293776434914   -0.029611659897964167
-0.07083708009599564   -0.0623293776434914   -0.029611659897964167
-0.07083708009599564   -0.0623293776434914   -0.029611659897964167
-0.07083708009599564   -0.0623293776434914   -0.029611659897964167
0.48379440996148526   0.08583073482052511   0.03295192909694292
0.48379440996148526   0.08583073482052511   0.03295192909694292
0.48379440996148526   0.08583073482052511   0.03295192909694292
0.48379440996148526   0.08583073482052511   0.03295192909694292
0.21592436465858908   0.02117896025601566   0.0015401045818582313
0.21592436465858908   0.02117896025601566   0.0015401045818582313
0.21592436465858908   0.02117896025601566   0.0015401045818582313
0.21592436465858908   0.02117896025601566   0.0015401045818582313
0.4707647789315882   0.052200189912680696   0.0014343188553124862
0.4707647789315882   0.052200189912680696   0.0014343188553124862
0.4707647789315882   0.052200189912680696   0.0014343188553124862
0.4707647789315882   0.052200189912680696   0.0014343188553124862
-0.057584382049723236   -0.028475765719269894   0.0027982184091763706
-0.057584382049723236   -0.028475765719269894   0.0027982184091763706
-0.057584382049723236   -0.028475765719269894   0.0027982184091763706
-0.057584382049723236   -0.028475765719269894   0.0027982184091763706
-0.09481144870616633   -0.07777164833055084   -0.024486095934066504
-0.09481144870616633   -0.07777164833055084   -0.024486095934066504
-0.09481144870616633   -0.07777164833055084   -0.024486095934066504
-0.09481144870616633   -0.07777164833055084   -0.024486095934066504
0.4555317233044142   0.06738939473229483   0.03602318713643584
0.4555317233044142   0.06738939473229483   0.03602318713643584
0.4555317233044142   0.06738939473229483   0.03602318713643584
0.4555317233044142   0.06738939473229483   0.03602318713643584
0.1863770537492631   0.0029432424479059055   -0.007614980532149304
0.1863770537492631   0.0029432424479059055   -0.007614980532149304
0.1863770537492631   0.0029432424479059055   -0.007614980532149304
0.1863770537492631   0.0029432424479059055   -0.007614980532149304
0.4429339350296908   0.035632813085381264   0.0047908274097368374
0.4429339350296908   0.035632813085381264   0.0047908274097368374
0.4429339350296908   0.035632813085381264   0.0047908274097368374
0.4429339350296908   0.035632813085381264   0.0047908274097368374
-0.08239693079164873   -0.04619833704384234   0.006013182351812965
-0.08239693079164873   -0.04619833704384234   0.006013182351812965
-0.08239693079164873   -0.04619833704384234   0.006013182351812965
-0.08239693079164873   -0.04619833704384234   0.006013182351812965
-0.11847218272958404   -0.09073908555834029   -0.01967049584873292
-0.11847218272958404   -0.09073908555834029   -0.01967049584873292
-0.11847218272958404   -0.09073908555834029   -0.01967049584873292
-0.11847218272958404   -0.09073908555834029   -0.01967049584873292
0.4294372687007261   0.050340196251005276   0.038901320595526354
0.4294372687007261   0.050340196251005276   0.038901320595526354
0.4294372687007261   0.050340196251005276   0.038901320595526354
0.4294372687007261   0.050340196251005276   0.038901320595526354
0.16371598091591577   -0.010876429682499238   -0.015241016173268656
0.16371598091591577   -0.010876429682499238   -0.015241016173268656
0.16371598091591577   -0.010876429682499238   -0.015241016173268656
0.16371598091591577   -0.010876429682499238   -0.015241016173268656
-0.011378859871622845   0.08611263795226377   0.01196838726606143
-0.011378859871622845   0.08611263795226377   0.01196838726606143
-0.011378859871622845   0.08611263795226377   0.01196838726606143
-0.011378859871622845   0.08611263795226377   0.01196838726606143
-0.5423711279108413   -0.023544682694316185   -0.01798954565110535
-0.5423711279108413   -0.023544682694316185   -0.01798954565110535
-0.5423711279108413   -0.023544682694316185   -0.01798954565110535
-0.5423711279108413   -0.023544682694316185   -0.01798954565110535
-0.5671070387320033   -0.04331102577057151   -0.014046646310488218
-0.5671070387320033   -0.04331102577057151   -0.014046646310488218
-0.5671070387320033   -0.04331102577057151   -0.014046646310488218
-0.5671070387320033   -0.04331102577057151   -0.014046646310488218
-0.0357120262101006   0.06931759491789276   0.014366636970128847
-0.0357120262101006   0.06931759491789276   0.014366636970128847
-0.0357120262101006   0.06931759491789276   0.014366636970128847
-0.0357120262101006   0.06931759491789276   0.014366636970128847
-0.2884569876896812   0.02229054871159747   0.005657938834855453
-0.2884569876896812   0.02229054871159747   0.005657938834855453
-0.2884569876896812   0.02229054871159747   0.005657938834855453
-0.2884569876896812   0.02229054871159747   0.005657938834855453
-0.03523479323322666   0.06923902662146643   0.016831370150924882
-0.03523479323322666   0.06923902662146643   0.016831370150924882
-0.03523479323322666   0.06923902662146643   0.016831370150924882
-0.03523479323322666   0.06923902662146643   0.016831370150924882
-0.5671215733151258   -0.042769759080393724   -0.014660585916278418
-0.5671215733151258   -0.042769759080393724   -0.014660585916278418
-0.5671215733151258   -0.042769759080393724   -0.014660585916278418
-0.5671215733151258   -0.042769759080393724   -0.014660585916278418
-0.5916639828544146   -0.060023446028982144   -0.009574695457547844
-0.5916639828544146   -0.060023446028982144   -0.009574695457547844
-0.5916639828544146   -0.060023446028982144   -0.009574695457547844
-0.5916639828544146   -0.060023446028982144   -0.009574695457547844
-0.06070722964834263   0.050328790825995576   0.017934560198505586
-0.06070722964834263   0.050328790825995576   0.017934560198505586
-0.06070722964834263   0.050328790825995576   0.017934560198505586
-0.06070722964834263   0.050328790825995576   0.017934560198505586
-0.3132667200575437   0.005800506158640514   -0.001769159040555808
-0.3132667200575437   0.005800506158640514   -0.001769159040555808
-0.3132667200575437   0.005800506158640514   -0.001769159040555808
-0.3132667200575437   0.005800506158640514   -0.001769159040555808
-0.059734319991863655   0.05241917124701402   0.020708728059882015
-0.059734319991863655   0.05241917124701402   0.020708728059882015
-0.059734319991863655   0.05241917124701402   0.020708728059882015
-0.059734319991863655   0.05241917124701402   0.020708728059882015
-0.592501541063061   -0.06197847500216669   -0.0118074575275873
-0.592501541063061   -0.06197847500216669   -0.0118074575275873
-0.592501541063061   -0.06197847500216669   -0.0118074575275873
-0.592501541063061   -0.06197847500216669   -0.0118074575275873
-0.6159312359082004   -0.07529134274796853   -0.005147591127370376
-0.6159312359082004   -0.07529134274796853   -0.005147591127370376
-0.6159312359082004   -0.07529134274796853   -0.005147591127370376
-0.6159312359082004   -0.07529134274796853   -0.005147591127370376
-0.08580479283446968   0.031963408930401074   0.02096395913809746
-0.08580479283446968   0.031963408930401074   0.02096395913809746
-0.08580479283446968   0.031963408930401074   0.02096395913809746
-0.08580479283446968   0.031963408930401074   0.02096395913809746
-0.33921336238266836   -0.010828213628105932   -0.010040598856828183
-0.33921336238266836   -0.010828213628105932   -0.010040598856828183
-0.33921336238266836   -0.010828213628105932   -0.010040598856828183
-0.33921336238266836   -0.010828213628105932   -0.010040598856828183
-0.5090980065190431   0.0988450111061189   0.025986367507441883
-0.5090980065190431   0.0988450111061189   0.025986367507441883
-0.5090980065190431   0.0988450111061189   0.025986367507441883
-0.5090980065190431   0.0988450111061189   0.025986367507441883
-1.0406408365669018   -0.04039580822569824   -0.032427022866491254
-1.0406408365669018   -0.04039580822569824   -0.032427022866491254
-1.0406408365669018   -0.04039580822569824   -0.032427022866491254
-1.0406408365669018   -0.04039580822569824   -0.032427022866491254
-1.0541581269497666   -0.02725930623888692   0.0029135370867974936
-1.0541581269497666   -0.02725930623888692   0.0029135370867974936
-1.0541581269497666   -0.02725930623888692   0.0029135370867974936
-1.0541581269497666   -0.02725930623888692   0.0029135370867974936
-0.5465094366171244   0.049782174455701156   -0.004151835962358512
-0.5465094366171244   0.049782174455701156   -0.004151835962358512
-0.5465094366171244   0.049782174455701156   -0.004151835962358512
-0.5465094366171244   0.049782174455701156   -0.004151835962358512
-0.7824852595393219   0.02123820807365756   0.009587995934673375
-0.7824852595393219   0.02123820807365756   0.009587995934673375
-0.7824852595393219   0.02123820807365756   0.009587995934673375
-0.7824852595393219   0.02123820807365756   0.009587995934673375
-0.5329971153362054   0.08252381470503287   0.030668130192896596
-0.5329971153362054   0.08252381470503287   0.030668130192896596
-0.5329971153362054   0.08252381470503287   0.030668130192896596
-0.5329971153362054   0.08252381470503287   0.030668130192896596
-1.0675458696257862   -0.05987636788333353   -0.03140811464886991
-1.0675458696257862   -0.05987636788333353   -0.03140811464886991
-1.0675458696257862   -0.05987636788333353   -0.03140811464886991
-1.0675458696257862   -0.05987636788333353   -0.03140811464886991
-1.0827541012618893   -0.044154243639151325   0.004584229928616207
-1.0827541012618893   -0.044154243639151325   0.004584229928616207
-1.0827541012618893   -0.044154243639151325   0.004584229928616207
-1.0827541012618893   -0.044154243639151325   0.004584229928616207
-0.5714103927941614   0.03219517234229213   -0.0005253635275479923
-0.5714103927941614   0.03219517234229213   -0.0005253635275479923
-0.5714103927941614   0.03219517234229213   -0.0005253635275479923
-0.5714103927941614   0.03219517234229213   -0.0005253635275479923
-0.8034613921359753   0.006531004041104349   0.00267557009764767
-0.8034613921359753   0.006531004041104349   0.00267557009764767
-0.8034613921359753   0.006531004041104349   0.00267557009764767
-0.8034613921359753   0.006531004041104349   0.00267557009764767
-0.5573335452769641   0.06701985904354654   0.03503418735718031
-0.5573335452769641   0.06701985904354654   0.03503418735718031
-0.5573335452769641   0.06701985904354654   0.03503418735718031
-0.5573335452769641   0.06701985904354654   0.03503418735718031
-1.096106750311642   -0.07825473187296289   -0.02807852708634269
-1.096106750311642   -0.07825473187296289   -0.02807852708634269
-1.096106750311642   -0.07825473187296289   -0.02807852708634269
-1.096106750311642   -0.07825473187296289   -0.02807852708634269
-1.1086909123063406   -0.06234313931507232   0.009888708461483535
-1.1086909123063406   -0.06234313931507232   0.009888708461483535
-1.1086909123063406   -0.06234313931507232   0.009888708461483535
-1.1086909123063406   -0.06234313931507232   0.009888708461483535
-0.5970091127289738   0.012070799067611798   0.0021008829531858203
-0.5970091127289738   0.012070799067611798   0.0021008829531858203
-0.5970091127289738   0.012070799067611798   0.0021008829531858203
-0.5970091127289738   0.012070799067611798   0.0021008829531858203
-0.8354231933019686   -0.011920554836981873   -0.006103544669771907
-0.8354231933019686   -0.011920554836981873   -0.006103544669771907
-0.8354231933019686   -0.011920554836981873   -0.006103544669771907
-0.8354231933019686   -0.011920554836981873   -0.006103544669771907
-1.0010020120345338   0.08864555854335751   0.036725733026292534
-1.0010020120345338   0.08864555854335751   0.036725733026292534
-1.0010020120345338   0.08864555854335751   0.036725733026292534
-1.0010020120345338   0.08864555854335751   0.036725733026292534
-1.5145341344723493   -0.06988729423650891   -0.035717345691652067
-1.5145341344723493   -0.06988729423650891   -0.035717345691652067
-1.5145341344723493   -0.06988729423650891   -0.035717345691652067
-1.5145341344723493   -0.06988729423650891   -0.035717345691652067
-1.5313666727468935   -0.014994560959071979   0.03384277914892127
-1.5313666727468935   -0.014994560959071979   0.03384277914892127
-1.5313666727468935   -0.014994560959071979   0.03384277914892127
-1.5313666727468935   -0.014994560959071979   0.03384277914892127
-1.0484431196048578   0.025114654501163347   -0.02088538692870981
-1.0484431196048578   0.025114654501163347   -0.02088538692870981
-1.0484431196048578   0.025114654501163347   -0.02088538692870981
-1.0484431196048578   0.025114654501163347   -0.02088538692870981
-1.2174817489336716   0.019922768214556907   0.029822799138046543
-1.2174817489336716   0.019922768214556907   0.029822799138046543
-1.2174817489336716   0.019922768214556907   0.029822799138046543
-1.2174817489336716   0.019922768214556907   0.029822799138046543
-1.0229666043911236   0.08853272134210172   0.04307912229901996
-1.0229666043911236   0.08853272134210172   0.04307912229901996
-1.0229666043911236   0.08853272134210172   0.04307912229901996
-1.0229666043911236   0.08853272134210172   0.04307912229901996
-1.556413817113514   -0.07798325695289471   -0.028404246690344
-1.556413817113514   -0.07798325695289471   -0.028404246690344
-1.556413817113514   -0.07798325695289471   -0.028404246690344
-1.556413817113514   -0.07798325695289471   -0.028404246690344
-1.5688032318622285   -0.02390870706396242   0.04233236843277999
-1.5688032318622285   -0.02390870706396242   0.04233236843277999
-1.5688032318622285   -0.02390870706396242   0.04233236843277999
-1.5688032318622285   -0.02390870706396242   0.04233236843277999
-1.0753243387570854   0.015472778093288897   -0.017893979279805253
-1.0753243387570854   0.015472778093288897   -0.017893979279805253
-1.0753243387570854   0.015472778093288897   -0.017893979279805253
-1.0753243387570854   0.015472778093288897   -0.017893979279805253
-1.2697881353993594   0.009975790047200783   0.01814499373624663
-1.2697881353993594   0.009975790047200783   0.01814499373624663
-1.2697881353993594   0.009975790047200783   0.01814499373624663
-1.2697881353993594   0.009975790047200783   0.01814499373624663
-1.0482998360198466   0.08188813409823442   0.0508131784014437
-1.0482998360198466   0.08188813409823442   0.0508131784014437
-1.0482998360198466   0.08188813409823442   0.0508131784014437
-1.0482998360198466   0.08188813409823442   0.0508131784014437
-1.5951182547522302   -0.08961458322168359   -0.0235368698594923
-1.5951182547522302   -0.08961458322168359   -0.0235368698594923
-1.5951182547522302   -0.08961458322168359   -0.0235368698594923
-1.5951182547522302   -0.08961458322168359   -0.0235368698594923
-1.6182129277882547   -0.05562367935246959   0.04156834677606622
-1.6182129277882547   -0.05562367935246959   0.04156834677606622
-1.6182129277882547   -0.05562367935246959   0.04156834677606622
-1.6182129277882547   -0.05562367935246959   0.04156834677606622
-1.1037111184497022   -0.01133917269252846   -0.016216288877867503
-1.1037111184497022   -0.01133917269252846   -0.016216288877867503
-1.1037111184497022   -0.01133917269252846   -0.016216288877867503
-1.1037111184497022   -0.01133917269252846   -0.016216288877867503
-1.2832606168317102   -0.0024008076132399636   0.014252241642730132
-1.2832606168317102   -0.0024008076132399636   0.014252241642730132
-1.2832606168317102   -0.0024008076132399636   0.014252241642730132
-1.2832606168317102   -0.0024008076132399636   0.014252241642730132
0.7057412582141996   0.0399605143650069   -0.04765216896262535
0.7057412582141996   0.0399605143650069   -0.04765216896262535
0.7057412582141996   0.0399605143650069   -0.04765216896262535
0.7057412582141996   0.0399605143650069   -0.04765216896262535
0.3014505118587437   0.0192440977226684   0.020445571639015135
0.3014505118587437   0.0192440977226684   0.020445571639015135
0.3014505118587437   0.0192440977226684   0.020445571639015135
0.3014505118587437   0.0192440977226684   0.020445571639015135
0.2523390705207878   -0.06964037968218785   -0.04443336169173917
0.2523390705207878   -0.06964037968218785   -0.04443336169173917
0.2523390705207878   -0.06964037968218785   -0.04443336169173917
0.2523390705207878   -0.06964037968218785   -0.04443336169173917
0.6891938727815297   0.08016518257238725   0.024841732013630942
0.6891938727815297   0.08016518257238725   0.024841732013630942
0.6891938727815297   0.08016518257238725   0.024841732013630942
0.6891938727815297   0.08016518257238725   0.024841732013630942
0.4613809017068176   0.010229899770837728   -0.012605571157653067
0.4613809017068176   0.010229899770837728   -0.012605571157653067
0.4613809017068176   0.010229899770837728   -0.012605571157653067
0.4613809017068176   0.010229899770837728   -0.012605571157653067
0.66174921382846   0.012237537734856155   -0.04445391791419137
0.66174921382846   0.012237537734856155   -0.04445391791419137
0.66174921382846   0.012237537734856155   -0.04445391791419137
0.66174921382846   0.012237537734856155   -0.04445391791419137
0.27926807286425126   -0.0022283914542630123   0.022799661797658022
0.27926807286425126   -0.0022283914542630123   0.022799661797658022
0.27926807286425126   -0.0022283914542630123   0.022799661797658022
0.27926807286425126   -0.0022283914542630123   0.022799661797658022
0.23142129047562993   -0.07772438786295738   -0.03782165594837107
0.23142129047562993   -0.07772438786295738   -0.03782165594837107
0.23142129047562993   -0.07772438786295738   -0.03782165594837107
0.23142129047562993   -0.07772438786295738   -0.03782165594837107
0.65477777116654   0.06869437821236465   0.032019307197655805
0.65477777116654   0.06869437821236465   0.032019307197655805
0.65477777116654   0.06869437821236465   0.032019307197655805
0.65477777116654   0.06869437821236465   0.032019307197655805
0.43976021433035384   -0.0031051412090954134   -0.02052489872622397
0.43976021433035384   -0.0031051412090954134   -0.02052489872622397
0.43976021433035384   -0.0031051412090954134   -0.02052489872622397
0.43976021433035384   -0.0031051412090954134   -0.02052489872622397
0.6277824976434486   0.0018830402659934797   -0.03614572247143548
0.6277824976434486   0.0018830402659934797   -0.03614572247143548
0.6277824976434486   0.0018830402659934797   -0.03614572247143548
0.6277824976434486   0.0018830402659934797   -0.03614572247143548
0.25765533379431615   -0.01167428012099192   0.027298452903096834
0.25765533379431615   -0.01167428012099192   0.027298452903096834
0.25765533379431615   -0.01167428012099192   0.027298452903096834
0.25765533379431615   -0.01167428012099192   0.027298452903096834
0.21272415109225185   -0.08506758197618985   -0.03152285857160753
0.21272415109225185   -0.08506758197618985   -0.03152285857160753
0.21272415109225185   -0.08506758197618985   -0.03152285857160753
0.21272415109225185   -0.08506758197618985   -0.03152285857160753
0.6145996489825587   0.0536140154296873   0.03654800525490577
0.6145996489825587   0.0536140154296873   0.03654800525490577
0.6145996489825587   0.0536140154296873   0.03654800525490577
0.6145996489825587   0.0536140154296873   0.03654800525490577
0.4031682157337077   -0.014046440568095314   -0.03140177268528367
0.4031682157337077   -0.014046440568095314   -0.03140177268528367
0.4031682157337077   -0.014046440568095314   -0.03140177268528367
0.4031682157337077   -0.014046440568095314   -0.03140177268528367
0.30349157300579865   0.05847480029604369   -0.008579825199090303
0.30349157300579865   0.05847480029604369   -0.008579825199090303
0.30349157300579865   0.05847480029604369   -0.008579825199090303
0.30349157300579865   0.05847480029604369   -0.008579825199090303
-0.09316470667514286   0.005041301684829077   0.0027678334874975405
-0.09316470667514286   0.005041301684829077   0.0027678334874975405
-0.09316470667514286   0.005041301684829077   0.0027678334874975405
-0.09316470667514286   0.005041301684829077   0.0027678334874975405
-0.12673951978436637   -0.0483405344725983   -0.027370487622822518
-0.12673951978436637   -0.0483405344725983   -0.027370487622822518
-0.12673951978436637   -0.0483405344725983   -0.027370487622822518
-0.12673951978436637   -0.0483405344725983   -0.027370487622822518
0.2950904920625003   0.0702988484995061   0.029384517835133985
0.2950904920625003   0.0702988484995061   0.029384517835133985
0.2950904920625003   0.0702988484995061   0.029384517835133985
0.2950904920625003   0.0702988484995061   0.029384517835133985
0.09259310570542363   0.0203302103975626   0.003551433778429032
0.09259310570542363   0.0203302103975626   0.003551433778429032
0.09259310570542363   0.0203302103975626   0.003551433778429032
0.09259310570542363   0.0203302103975626   0.003551433778429032
0.2818154738111739   0.03792184732222918   -0.004613572244225361
0.2818154738111739   0.03792184732222918   -0.004613572244225361
0.2818154738111739   0.03792184732222918   -0.004613572244225361
0.2818154738111739   0.03792184732222918   -0.004613572244225361
-0.11366115467568788   -0.01616018643797032   0.005840989885940031
-0.11366115467568788   -0.01616018643797032   0.005840989885940031
-0.11366115467568788   -0.01616018643797032   0.005840989885940031
-0.11366115467568788   -0.01616018643797032   0.005840989885940031
-0.14619457382121784   -0.06458982862538798   -0.022146632526346167
-0.14619457382121784   -0.06458982862538798   -0.022146632526346167
-0.14619457382121784   -0.06458982862538798   -0.022146632526346167
-0.14619457382121784   -0.06458982862538798   -0.022146632526346167
0.27122930871699746   0.05154705011370968   0.0319469972818018
0.27122930871699746   0.05154705011370968   0.0319469972818018
0.27122930871699746   0.05154705011370968   0.0319469972818018
0.27122930871699746   0.05154705011370968   0.0319469972818018
0.06859954341610902   0.0019520829261272105   -0.0052768798304896735
0.06859954341610902   0.0019520829261272105   -0.0052768798304896735
0.06859954341610902   0.0019520829261272105   -0.0052768798304896735
0.06859954341610902   0.0019520829261272105   -0.0052768798304896735
0.2583739547780245   0.020497215949881985   -0.0012799382492386293
0.2583739547780245   0.020497215949881985   -0.0012799382492386293
0.2583739547780245   0.020497215949881985   -0.0012799382492386293
0.2583739547780245   0.020497215949881985   -0.0012799382492386293
-0.133836313723488   -0.03403708830280397   0.009091927639719026
-0.133836313723488   -0.03403708830280397   0.009091927639719026
-0.133836313723488   -0.03403708830280397   0.009091927639719026
-0.133836313723488   -0.03403708830280397   0.009091927639719026
-0.165390848620526   -0.07986966468061377   -0.017319866741316775
-0.165390848620526   -0.07986966468061377   -0.017319866741316775
-0.165390848620526   -0.07986966468061377   -0.017319866741316775
-0.165390848620526   -0.07986966468061377   -0.017319866741316775
0.249696701204487   0.03352560633671166   0.03474670367667172
0.249696701204487   0.03352560633671166   0.03474670367667172
0.249696701204487   0.03352560633671166   0.03474670367667172
0.249696701204487   0.03352560633671166   0.03474670367667172
0.04933812999365961   -0.013302984176292793   -0.013074944849702501
0.04933812999365961   -0.013302984176292793   -0.013074944849702501
0.04933812999365961   -0.013302984176292793   -0.013074944849702501
0.04933812999365961   -0.013302984176292793   -0.013074944849702501
-0.07853698877549689   0.07417466599757087   0.006773058672985593
-0.07853698877549689   0.07417466599757087   0.006773058672985593
-0.07853698877549689   0.07417466599757087   0.006773058672985593
-0.07853698877549689   0.07417466599757087   0.006773058672985593
-0.48192421680214953   -0.012179944294587658   -0.014654681745480506
-0.48192421680214953   -0.012179944294587658   -0.014654681745480506
-0.48192421680214953   -0.012179944294587658   -0.014654681745480506
-0.48192421680214953   -0.012179944294587658   -0.014654681745480506
-0.5011204325537003   -0.028795320576057964   -0.010789534156025127
-0.5011204325537003   -0.028795320576057964   -0.010789534156025127
-0.5011204325537003   -0.028795320576057964   -0.010789534156025127
-0.5011204325537003   -0.028795320576057964   -0.010789534156025127
-0.09859847234247678   0.05360116258080022   0.011393052533224986
-0.09859847234247678   0.05360116258080022   0.011393052533224986
-0.09859847234247678   0.05360116258080022   0.011393052533224986
-0.09859847234247678   0.05360116258080022   0.011393052533224986
-0.28933823218594235   0.021361922445923928   0.005722443837801721
-0.28933823218594235   0.021361922445923928   0.005722443837801721
-0.28933823218594235   0.021361922445923928   0.005722443837801721
-0.28933823218594235   0.021361922445923928   0.005722443837801721
-0.09799787242563146   0.05632211768367119   0.01167509701458256
-0.09799787242563146   0.05632211768367119   0.01167509701458256
-0.09799787242563146   0.05632211768367119   0.01167509701458256
-0.09799787242563146   0.05632211768367119   0.01167509701458256
-0.5017764151324057   -0.031571658340793785   -0.011293109284816139
-0.5017764151324057   -0.031571658340793785   -0.011293109284816139
-0.5017764151324057   -0.031571658340793785   -0.011293109284816139
-0.5017764151324057   -0.031571658340793785   -0.011293109284816139
-0.5207767411129647   -0.046499538581857666   -0.006137575376138599
-0.5207767411129647   -0.046499538581857666   -0.006137575376138599
-0.5207767411129647   -0.046499538581857666   -0.006137575376138599
-0.5207767411129647   -0.046499538581857666   -0.006137575376138599
-0.1190140068173065   0.03430326426884344   0.014863109598979058
-0.1190140068173065   0.03430326426884344   0.014863109598979058
-0.1190140068173065   0.03430326426884344   0.014863109598979058
-0.1190140068173065   0.03430326426884344   0.014863109598979058
-0.30954720030535177   0.0041237022830708375   -0.0018666826099946361
-0.30954720030535177   0.0041237022830708375   -0.0018666826099946361
-0.30954720030535177   0.0041237022830708375   -0.0018666826099946361
-0.30954720030535177   0.0041237022830708375   -0.0018666826099946361
-0.11799265714683607   0.038449514775525585   0.015823607444649085
-0.11799265714683607   0.038449514775525585   0.015823607444649085
-0.11799265714683607   0.038449514775525585   0.015823607444649085
-0.11799265714683607   0.038449514775525585   0.015823607444649085
-0.5221129603291003   -0.050960658634204965   -0.008357551404469277
-0.5221129603291003   -0.050960658634204965   -0.008357551404469277
-0.5221129603291003   -0.050960658634204965   -0.008357551404469277
-0.5221129603291003   -0.050960658634204965   -0.008357551404469277
-0.5401011577569823   -0.06341145109886315   -0.0016139760857108703
-0.5401011577569823   -0.06341145109886315   -0.0016139760857108703
-0.5401011577569823   -0.06341145109886315   -0.0016139760857108703
-0.5401011577569823   -0.06341145109886315   -0.0016139760857108703
-0.1392574508501726   0.015551949629076457   0.01792550780075819
-0.1392574508501726   0.015551949629076457   0.01792550780075819
-0.1392574508501726   0.015551949629076457   0.01792550780075819
-0.1392574508501726   0.015551949629076457   0.01792550780075819
-0.33058931581173656   -0.01313344668003772   -0.01009330068609061
-0.33058931581173656   -0.01313344668003772   -0.01009330068609061
-0.33058931581173656   -0.01313344668003772   -0.01009330068609061
-0.33058931581173656   -0.01313344668003772   -0.01009330068609061
-0.45467160729045475   0.08764093875547546   0.021787482762930285
-0.45467160729045475   0.08764093875547546   0.021787482762930285
-0.45467160729045475   0.08764093875547546   0.021787482762930285
-0.45467160729045475   0.08764093875547546   0.021787482762930285
-0.8638318036546717   -0.029313994217854966   -0.029820108918808888
-0.8638318036546717   -0.029313994217854966   -0.029820108918808888
-0.8638318036546717   -0.029313994217854966   -0.029820108918808888
-0.8638318036546717   -0.029313994217854966   -0.029820108918808888
-0.8710435623581472   -0.012895796641616414   0.00699243429207639
-0.8710435623581472   -0.012895796641616414   0.00699243429207639
-0.8710435623581472   -0.012895796641616414   0.00699243429207639
-0.8710435623581472   -0.012895796641616414   0.00699243429207639
-0.48748594771655235   0.03493217376924404   -0.006344604315594728
-0.48748594771655235   0.03493217376924404   -0.006344604315594728
-0.48748594771655235   0.03493217376924404   -0.006344604315594728
-0.48748594771655235   0.03493217376924404   -0.006344604315594728
-0.6652859358228782   0.020286192255049657   0.008307647380795431
-0.6652859358228782   0.020286192255049657   0.008307647380795431
-0.6652859358228782   0.020286192255049657   0.008307647380795431
-0.6652859358228782   0.020286192255049657   0.008307647380795431
-0.4737727046929736   0.07049220412276604   0.026661580448784354
-0.4737727046929736   0.07049220412276604   0.026661580448784354
-0.4737727046929736   0.07049220412276604   0.026661580448784354
-0.4737727046929736   0.07049220412276604   0.026661580448784354
-0.8853569226674779   -0.04905594428088525   -0.02841421961531563
-0.8853569226674779   -0.04905594428088525   -0.02841421961531563
-0.8853569226674779   -0.04905594428088525   -0.02841421961531563
-0.8853569226674779   -0.04905594428088525   -0.02841421961531563
-0.8942158742313542   -0.03043147878989605   0.009146862248704021
-0.8942158742313542   -0.03043147878989605   0.009146862248704021
-0.8942158742313542   -0.03043147878989605   0.009146862248704021
-0.8942158742313542   -0.03043147878989605   0.009146862248704021
-0.5073527870884723   0.01714725681027396   -0.0026646006458159177
-0.5073527870884723   0.01714725681027396   -0.0026646006458159177
-0.5073527870884723   0.01714725681027396   -0.0026646006458159177
-0.5073527870884723   0.01714725681027396   -0.0026646006458159177
-0.6822959271337714   0.004657009776148913   0.0006996015084798704
-0.6822959271337714   0.004657009776148913   0.0006996015084798704
-0.6822959271337714   0.004657009776148913   0.0006996015084798704
-0.6822959271337714   0.004657009776148913   0.0006996015084798704
-0.49314622333149066   0.054213478275174865   0.03130199667419507
-0.49314622333149066   0.054213478275174865   0.03130199667419507
-0.49314622333149066   0.054213478275174865   0.03130199667419507
-0.49314622333149066   0.054213478275174865   0.03130199667419507
-0.9084753124670444   -0.06755057473350612   -0.025031232986144264
-0.9084753124670444   -0.06755057473350612   -0.025031232986144264
-0.9084753124670444   -0.06755057473350612   -0.025031232986144264
-0.9084753124670444   -0.06755057473350612   -0.025031232986144264
-0.9148465306181478   -0.049116633807781584   0.014001136465392736
-0.9148465306181478   -0.049116633807781584   0.014001136465392736
-0.9148465306181478   -0.049116633807781584   0.014001136465392736
-0.9148465306181478   -0.049116633807781584   0.014001136465392736
-0.5275672893459106   -0.002583166373526166   0.00022708124430384155
-0.5275672893459106   -0.002583166373526166   0.00022708124430384155
-0.5275672893459106   -0.002583166373526166   0.00022708124430384155
-0.5275672893459106   -0.002583166373526166   0.00022708124430384155
-0.7078376444347897   -0.013490027214110634   -0.00813332341145255
-0.7078376444347897   -0.013490027214110634   -0.00813332341145255
-0.7078376444347897   -0.013490027214110634   -0.00813332341145255
-0.7078376444347897   -0.013490027214110634   -0.00813332341145255
-0.8289101733947338   0.08122981395828632   0.03424423420473924
-0.8289101733947338   0.08122981395828632   0.03424423420473924
-0.8289101733947338   0.08122981395828632   0.03424423420473924
-0.8289101733947338   0.08122981395828632   0.03424423420473924
-1.2231430879115275   -0.05632859434810544   -0.03870650824824587
-1.2231430879115275   -0.05632859434810544   -0.03870650824824587
-1.2231430879115275   -0.05632859434810544   -0.03870650824824587
-1.2231430879115275   -0.05632859434810544   -0.03870650824824587
-1.2349379155412978   -0.0012201624083444385   0.033935324460191124
-1.2349379155412978   -0.0012201624083444385   0.033935324460191124
-1.2349379155412978   -0.0012201624083444385   0.033935324460191124
-1.2349379155412978   -0.0012201624083444385   0.033935324460191124
-0.872120839530825   0.011937807531270689   -0.023227555744214402
-0.872120839530825   0.011937807531270689   -0.023227555744214402
-0.872120839530825   0.011937807531270689   -0.023227555744214402
-0.872120839530825   0.011937807531270689   -0.023227555744214402
-0.994021621753921   0.018832064572071122   0.025173517111648433
-0.994021621753921   0.018832064572071122   0.025173517111648433
-0.994021621753921   0.018832064572071122   0.025173517111648433
-0.994021621753921   0.018832064572071122   0.025173517111648433
-0.8462207974700333   0.07781524061006223   0.040395221480959864
-0.8462207974700333   0.07781524061006223   0.040395221480959864
-0.8462207974700333   0.07781524061006223   0.040395221480959864
-0.8462207974700333   0.07781524061006223   0.040395221480959864
-1.2613506453601586   -0.06761028324520238   -0.031738203797246074
-1.2613506453601586   -0.06761028324520238   -0.031738203797246074
-1.2613506453601586   -0.06761028324520238   -0.031738203797246074
-1.2613506453601586   -0.06761028324520238   -0.031738203797246074
-1.2676794466216557   -0.010866241524940479   0.042766030493618115
-1.2676794466216557   -0.010866241524940479   0.042766030493618115
-1.2676794466216557   -0.010866241524940479   0.042766030493618115
-1.2676794466216557   -0.010866241524940479   0.042766030493618115
-0.8934799832529259   0.002185401022635758   -0.019790562671701442
-0.8934799832529259   0.002185401022635758   -0.019790562671701442
-0.8934799832529259   0.002185401022635758   -0.019790562671701442
-0.8934799832529259   0.002185401022635758   -0.019790562671701442
-1.038196231339134   0.007746381888628667   0.013198620693399159
-1.038196231339134   0.007746381888628667   0.013198620693399159
-1.038196231339134   0.007746381888628667   0.013198620693399159
-1.038196231339134   0.007746381888628667   0.013198620693399159
-0.8663682201781161   0.0703612736750299   0.047592380049961
-0.8663682201781161   0.0703612736750299   0.047592380049961
-0.8663682201781161   0.0703612736750299   0.047592380049961
-0.8663682201781161   0.0703612736750299   0.047592380049961
-1.2951613859191713   -0.07941229040004288   -0.02609761711884924
-1.2951613859191713   -0.07941229040004288   -0.02609761711884924
-1.2951613859191713   -0.07941229040004288   -0.02609761711884924
-1.2951613859191713   -0.07941229040004288   -0.02609761711884924
-1.3114806635808234   -0.041069907228493935   0.04289958357342657
-1.3114806635808234   -0.041069907228493935   0.04289958357342657
-1.3114806635808234   -0.041069907228493935   0.04289958357342657
-1.3114806635808234   -0.041069907228493935   0.04289958357342657
-0.915830597869258   -0.022536382065064198   -0.017499451532898606
-0.915830597869258   -0.022536382065064198   -0.017499451532898606
-0.915830597869258   -0.022536382065064198   -0.017499451532898606
-0.915830597869258   -0.022536382065064198   -0.017499451532898606
-1.0506696802075544   -0.004906934531321433   0.007506950434863879
-1.0506696802075544   -0.004906934531321433   0.007506950434863879
-1.0506696802075544   -0.004906934531321433   0.007506950434863879
-1.0506696802075544   -0.004906934531321433   0.007506950434863879
0.38864113389629673   0.023263268069580595   -0.04664919866397696
0.38864113389629673   0.023263268069580595   -0.04664919866397696
0.38864113389629673   0.023263268069580595   -0.04664919866397696
0.38864113389629673   0.023263268069580595   -0.04664919866397696
0.11311636198828742   0.02801470399873183   0.022304550085205842
0.11311636198828742   0.02801470399873183   0.022304550085205842
0.11311636198828742   0.02801470399873183   0.022304550085205842
0.11311636198828742   0.02801470399873183   0.022304550085205842
0.06969799988498922   -0.05693030048927817   -0.04113981039812509
0.06969799988498922   -0.05693030048927817   -0.04113981039812509
0.06969799988498922   -0.05693030048927817   -0.04113981039812509
0.06969799988498922   -0.05693030048927817   -0.04113981039812509
0.37795495748331115   0.06619627347118467   0.026836200620611456
0.37795495748331115   0.06619627347118467   0.026836200620611456
0.37795495748331115   0.06619627347118467   0.026836200620611456
0.37795495748331115   0.06619627347118467   0.026836200620611456
0.22349374216817347   0.011042037554932112   -0.005166692202248538
0.22349374216817347   0.011042037554932112   -0.005166692202248538
0.22349374216817347   0.011042037554932112   -0.005166692202248538
0.22349374216817347   0.011042037554932112   -0.005166692202248538
0.3505768859986237   -0.0010817815443688733   -0.042776101787274354
0.3505768859986237   -0.0010817815443688733   -0.042776101787274354
0.3505768859986237   -0.0010817815443688733   -0.042776101787274354
0.3505768859986237   -0.0010817815443688733   -0.042776101787274354
0.09622172894355148   0.00949341210016021   0.02505512230524876
0.09622172894355148   0.00949341210016021   0.02505512230524876
0.09622172894355148   0.00949341210016021   0.02505512230524876
0.09622172894355148   0.00949341210016021   0.02505512230524876
0.05330845206577357   -0.0649923581891281   -0.03494505570901073
0.05330845206577357   -0.0649923581891281   -0.03494505570901073
0.05330845206577357   -0.0649923581891281   -0.03494505570901073
0.05330845206577357   -0.0649923581891281   -0.03494505570901073
0.348494151822266   0.05507195251244381   0.034480982125185175
0.348494151822266   0.05507195251244381   0.034480982125185175
0.348494151822266   0.05507195251244381   0.034480982125185175
0.348494151822266   0.05507195251244381   0.034480982125185175
0.20293628711484948   -0.00155344208126542   -0.01333509550718474
0.20293628711484948   -0.00155344208126542   -0.01333509550718474
0.20293628711484948   -0.00155344208126542   -0.01333509550718474
0.20293628711484948   -0.00155344208126542   -0.01333509550718474
0.3212706929141499   -0.011436475715201469   -0.035127884187753936
0.3212706929141499   -0.011436475715201469   -0.035127884187753936
0.3212706929141499   -0.011436475715201469   -0.035127884187753936
0.3212706929141499   -0.011436475715201469   -0.035127884187753936
0.07938727658285837   0.0003714356474854713   0.030085273039801158
0.07938727658285837   0.0003714356474854713   0.030085273039801158
0.07938727658285837   0.0003714356474854713   0.030085273039801158
0.07938727658285837   0.0003714356474854713   0.030085273039801158
0.038655187218986614   -0.07470606463704423   -0.029107933315179732
0.038655187218986614   -0.07470606463704423   -0.029107933315179732
0.038655187218986614   -0.07470606463704423   -0.029107933315179732
0.038655187218986614   -0.07470606463704423   -0.029107933315179732
0.3120097561193727   0.03728340888516743   0.038287425973820594
0.3120097561193727   0.03728340888516743   0.038287425973820594
0.3120097561193727   0.03728340888516743   0.038287425973820594
0.3120097561193727   0.03728340888516743   0.038287425973820594
0.17449118886481982   -0.01276591500384349   -0.0233269516455637
0.17449118886481982   -0.01276591500384349   -0.0233269516455637
0.17449118886481982   -0.01276591500384349   -0.0233269516455637
0.17449118886481982   -0.01276591500384349   -0.0233269516455637
0.10878815853641427   0.04217829616212932   -0.013500059337558382
0.10878815853641427   0.04217829616212932   -0.013500059337558382
0.10878815853641427   0.04217829616212932   -0.013500059337558382
0.10878815853641427   0.04217829616212932   -0.013500059337558382
-0.15756434531640215   0.013557921895311145   0.005408383627119245
-0.15756434531640215   0.013557921895311145   0.005408383627119245
-0.15756434531640215   0.013557921895311145   0.005408383627119245
-0.15756434531640215   0.013557921895311145   0.005408383627119245
-0.1855339534152755   -0.03650604104434237   -0.02401548440636328
-0.1855339534152755   -0.03650604104434237   -0.02401548440636328
-0.1855339534152755   -0.03650604104434237   -0.02401548440636328
-0.1855339534152755   -0.03650604104434237   -0.02401548440636328
0.10488594477499008   0.05234507309983502   0.02552454046276701
0.10488594477499008   0.05234507309983502   0.02552454046276701
0.10488594477499008   0.05234507309983502   0.02552454046276701
0.10488594477499008   0.05234507309983502   0.02552454046276701
-0.03328664128239679   0.017138022384228752   0.004355942451656016
-0.03328664128239679   0.017138022384228752   0.004355942451656016
-0.03328664128239679   0.017138022384228752   0.004355942451656016
-0.03328664128239679   0.017138022384228752   0.004355942451656016
0.09167879452375505   0.02175531490501302   -0.009921452598586206
0.09167879452375505   0.02175531490501302   -0.009921452598586206
0.09167879452375505   0.02175531490501302   -0.009921452598586206
0.09167879452375505   0.02175531490501302   -0.009921452598586206
-0.17305599695712398   -0.006645476642609005   0.00851373348266096
-0.17305599695712398   -0.006645476642609005   0.00851373348266096
-0.17305599695712398   -0.006645476642609005   0.00851373348266096
-0.17305599695712398   -0.006645476642609005   0.00851373348266096
-0.20019501672852286   -0.05288954529079305   -0.018811654295191507
-0.20019501672852286   -0.05288954529079305   -0.018811654295191507
-0.20019501672852286   -0.05288954529079305   -0.018811654295191507
-0.20019501672852286   -0.05288954529079305   -0.018811654295191507
0.08565022409160362   0.03394108943015475   0.027830356800858096
0.08565022409160362   0.03394108943015475   0.027830356800858096
0.08565022409160362   0.03394108943015475   0.027830356800858096
0.08565022409160362   0.03394108943015475   0.027830356800858096
-0.05140458926755943   -0.0005398444327179321   -0.004115769336313123
-0.05140458926755943   -0.0005398444327179321   -0.004115769336313123
-0.05140458926755943   -0.0005398444327179321   -0.004115769336313123
-0.05140458926755943   -0.0005398444327179321   -0.004115769336313123
0.07283271401777415   0.004179259074897889   -0.006495363213033801
0.07283271401777415   0.004179259074897889   -0.006495363213033801
0.07283271401777415   0.004179259074897889   -0.006495363213033801
0.07283271401777415   0.004179259074897889   -0.006495363213033801
-0.188321440594129   -0.02407164887497685   0.011738329960963374
-0.188321440594129   -0.02407164887497685   0.011738329960963374
-0.188321440594129   -0.02407164887497685   0.011738329960963374
-0.188321440594129   -0.02407164887497685   0.011738329960963374
-0.21474366482238894   -0.06913357561239371   -0.014108840041979112
-0.21474366482238894   -0.06913357561239371   -0.014108840041979112
-0.21474366482238894   -0.06913357561239371   -0.014108840041979112
-0.21474366482238894   -0.06913357561239371   -0.014108840041979112
0.06880810514197037   0.015879533367140757   0.031071058295554607
0.06880810514197037   0.015879533367140757   0.031071058295554607
0.06880810514197037   0.015879533367140757   0.031071058295554607
0.06880810514197037   0.015879533367140757   0.031071058295554607
-0.06707812005816578   -0.01636006703634646   -0.01211360110614098
-0.06707812005816578   -0.01636006703634646   -0.01211360110614098
-0.06707812005816578   -0.01636006703634646   -0.01211360110614098
-0.06707812005816578   -0.01636006703634646   -0.01211360110614098
-0.14941724327307065   0.05766062492345152   0.0020411908156364733
-0.14941724327307065   0.05766062492345152   0.0020411908156364733
-0.14941724327307065   0.05766062492345152   0.0020411908156364733
-0.14941724327307065   0.05766062492345152   0.0020411908156364733
-0.42462586648503176   -0.005105331234082897   -0.011680977895001703
-0.42462586648503176   -0.005105331234082897   -0.011680977895001703
-0.42462586648503176   -0.005105331234082897   -0.011680977895001703
-0.42462586648503176   -0.005105331234082897   -0.011680977895001703
-0.4378340832501631   -0.017921565981897133   -0.006984979372544744
-0.4378340832501631   -0.017921565981897133   -0.006984979372544744
-0.4378340832501631   -0.017921565981897133   -0.006984979372544744
-0.4378340832501631   -0.017921565981897133   -0.006984979372544744
-0.1649139365961726   0.034459731377251834   0.008118827267553294
-0.1649139365961726   0.034459731377251834   0.008118827267553294
-0.1649139365961726   0.034459731377251834   0.008118827267553294
-0.1649139365961726   0.034459731377251834   0.008118827267553294
-0.29349894060550397   0.016907699699343443   0.004512558588434277
-0.29349894060550397   0.016907699699343443   0.004512558588434277
-0.29349894060550397   0.016907699699343443   0.004512558588434277
-0.29349894060550397   0.016907699699343443   0.004512558588434277
-0.16413085795811705   0.039595721098365295   0.006898230736721318
-0.16413085795811705   0.039595721098365295   0.006898230736721318
-0.16413085795811705   0.039595721098365295   0.006898230736721318
-0.16413085795811705   0.039595721098365295   0.006898230736721318
-0.43925606261954864   -0.02369645643434054   -0.008319985767032585
-0.43925606261954864   -0.02369645643434054   -0.008319985767032585
-0.43925606261954864   -0.02369645643434054   -0.008319985767032585
-0.43925606261954864   -0.02369645643434054   -0.008319985767032585
-0.45243202276815675   -0.03580722986445605   -0.0022713451166988096
-0.45243202276815675   -0.03580722986445605   -0.0022713451166988096
-0.45243202276815675   -0.03580722986445605   -0.0022713451166988096
-0.45243202276815675   -0.03580722986445605   -0.0022713451166988096
-0.18038883664751687   0.015794533288282717   0.011535167530760533
-0.18038883664751687   0.015794533288282717   0.011535167530760533
-0.18038883664751687   0.015794533288282717   0.011535167530760533
-0.18038883664751687   0.015794533288282717   0.011535167530760533
-0.30872873768675624   -8.139408550501825e-05   -0.0030812409011795987
-0.30872873768675624   -8.139408550501825e-05   -0.0030812409011795987
-0.30872873768675624   -8.139408550501825e-05   -0.0030812409011795987
-0.30872873768675624   -8.139408550501825e-05   -0.0030812409011795987
-0.17933862652439236   0.021484890578808764   0.011095860855860883
-0.17933862652439236   0.021484890578808764   0.011095860855860883
-0.17933862652439236   0.021484890578808764   0.011095860855860883
-0.17933862652439236   0.021484890578808764   0.011095860855860883
-0.4543903549424473   -0.04240570920614816   -0.005464526646463462
-0.4543903549424473   -0.04240570920614816   -0.005464526646463462
-0.4543903549424473   -0.04240570920614816   -0.005464526646463462
-0.4543903549424473   -0.04240570920614816   -0.005464526646463462
-0.46674867572801165   -0.05307282235221362   0.002292872772146898
-0.46674867572801165   -0.05307282235221362   0.002292872772146898
-0.46674867572801165   -0.05307282235221362   0.002292872772146898
-0.46674867572801165   -0.05307282235221362   0.002292872772146898
-0.1956001221489744   -0.002184688093574777   0.014659985806274709
-0.1956001221489744   -0.002184688093574777   0.014659985806274709
-0.1956001221489744   -0.002184688093574777   0.014659985806274709
-0.1956001221489744   -0.002184688093574777   0.014659985806274709
-0.32475399560842505   -0.01711042339542667   -0.011326718039596914
-0.32475399560842505   -0.01711042339542667   -0.011326718039596914
-0.32475399560842505   -0.01711042339542667   -0.011326718039596914
-0.32475399560842505   -0.01711042339542667   -0.011326718039596914
-0.40319218885170865   0.07237863861167132   0.018003440425859454
-0.40319218885170865   0.07237863861167132   0.018003440425859454
-0.40319218885170865   0.07237863861167132   0.018003440425859454
-0.40319218885170865   0.07237863861167132   0.018003440425859454
-0.6858915056741023   -0.02043685098953535   -0.02663798635026049
-0.6858915056741023   -0.02043685098953535   -0.02663798635026049
-0.6858915056741023   -0.02043685098953535   -0.02663798635026049
-0.6858915056741023   -0.02043685098953535   -0.02663798635026049
-0.6871971003330887   -0.0015283435136755064   0.011063961886343975
-0.6871971003330887   -0.0015283435136755064   0.011063961886343975
-0.6871971003330887   -0.0015283435136755064   0.011063961886343975
-0.6871971003330887   -0.0015283435136755064   0.011063961886343975
-0.43098629640393266   0.01772032209055703   -0.008387933213853897
-0.43098629640393266   0.01772032209055703   -0.008387933213853897
-0.43098629640393266   0.01772032209055703   -0.008387933213853897
-0.43098629640393266   0.01772032209055703   -0.008387933213853897
-0.549000207789677   0.016998548820413184   0.005934891061972425
-0.549000207789677   0.016998548820413184   0.005934891061972425
-0.549000207789677   0.016998548820413184   0.005934891061972425
-0.549000207789677   0.016998548820413184   0.005934891061972425
-0.4173156408698894   0.054810241092567435   0.022875425454359354
-0.4173156408698894   0.054810241092567435   0.022875425454359354
-0.4173156408698894   0.054810241092567435   0.022875425454359354
-0.4173156408698894   0.054810241092567435   0.022875425454359354
-0.702093881193416   -0.03984438784196487   -0.025103898087010683
-0.702093881193416   -0.03984438784196487   -0.025103898087010683
-0.702093881193416   -0.03984438784196487   -0.025103898087010683
-0.702093881193416   -0.03984438784196487   -0.025103898087010683
-0.705169778775656   -0.01916285603558393   0.013601826812109016
-0.705169778775656   -0.01916285603558393   0.013601826812109016
-0.705169778775656   -0.01916285603558393   0.013601826812109016
-0.705169778775656   -0.01916285603558393   0.013601826812109016
-0.44566096141955597   0.0005320050016726224   -0.0047552732398314194
-0.44566096141955597   0.0005320050016726224   -0.0047552732398314194
-0.44566096141955597   0.0005320050016726224   -0.0047552732398314194
-0.44566096141955597   0.0005320050016726224   -0.0047552732398314194
-0.5619377241351626   0.0011686009064769687   -0.002025627377225961
-0.5619377241351626   0.0011686009064769687   -0.002025627377225961
-0.5619377241351626   0.0011686009064769687   -0.002025627377225961
-0.5619377241351626   0.0011686009064769687   -0.002025627377225961
-0.4316270345395508   0.038345500567991186   0.027600865593879448
-0.4316270345395508   0.038345500567991186   0.027600865593879448
-0.4316270345395508   0.038345500567991186   0.027600865593879448
-0.4316270345395508   0.038345500567991186   0.027600865593879448
-0.719968305444023   -0.05774095139026507   -0.021812711175052717
-0.719968305444023   -0.05774095139026507   -0.021812711175052717
-0.719968305444023   -0.05774095139026507   -0.021812711175052717
-0.719968305444023   -0.05774095139026507   -0.021812711175052717
-0.7206921602285049   -0.03754838991381129   0.018525834425503332
-0.7206921602285049   -0.03754838991381129   0.018525834425503332
-0.7206921602285049   -0.03754838991381129   0.018525834425503332
-0.7206921602285049   -0.03754838991381129   0.018525834425503332
-0.46051994335986757   -0.017855821042196907   -0.0017804666971574581
-0.46051994335986757   -0.017855821042196907   -0.0017804666971574581
-0.46051994335986757   -0.017855821042196907   -0.0017804666971574581
-0.46051994335986757   -0.017855821042196907   -0.0017804666971574581
-0.58119623127399   -0.01608885172271761   -0.010705098949883331
-0.58119623127399   -0.01608885172271761   -0.010705098949883331
-0.58119623127399   -0.01608885172271761   -0.010705098949883331
-0.58119623127399   -0.01608885172271761   -0.010705098949883331
-0.6558488270236185   0.07124939221804186   0.0318891636945815
-0.6558488270236185   0.07124939221804186   0.0318891636945815
-0.6558488270236185   0.07124939221804186   0.0318891636945815
-0.6558488270236185   0.07124939221804186   0.0318891636945815
-0.9232927059066495   -0.04251689950446283   -0.04039798247618274
-0.9232927059066495   -0.04251689950446283   -0.04039798247618274
-0.9232927059066495   -0.04251689950446283   -0.04039798247618274
-0.9232927059066495   -0.04251689950446283   -0.04039798247618274
-0.9300402694675163   0.011703528702927846   0.033520480050762656
-0.9300402694675163   0.011703528702927846   0.033520480050762656
-0.9300402694675163   0.011703528702927846   0.033520480050762656
-0.9300402694675163   0.011703528702927846   0.033520480050762656
-0.694447007914722   -0.002043502445863238   -0.024670417089650017
-0.694447007914722   -0.002043502445863238   -0.024670417089650017
-0.694447007914722   -0.002043502445863238   -0.024670417089650017
-0.694447007914722   -0.002043502445863238   -0.024670417089650017
-0.7664756969754258   0.017059856568318127   0.01858197936763694
-0.7664756969754258   0.017059856568318127   0.01858197936763694
-0.7664756969754258   0.017059856568318127   0.01858197936763694
-0.7664756969754258   0.017059856568318127   0.01858197936763694
-0.6685947376860655   0.06483168780885457   0.0377157437989148
-0.6685947376860655   0.06483168780885457   0.0377157437989148
-0.6685947376860655   0.06483168780885457   0.0377157437989148
-0.6685947376860655   0.06483168780885457   0.0377157437989148
-0.9571979972150255   -0.05647711907063627   -0.03408751091321175
-0.9571979972150255   -0.05647711907063627   -0.03408751091321175
-0.9571979972150255   -0.05647711907063627   -0.03408751091321175
-0.9571979972150255   -0.05647711907063627   -0.03408751091321175
-0.958036624560747   0.0017932465601532277   0.04280530632370698
-0.958036624560747   0.0017932465601532277   0.04280530632370698
-0.958036624560747   0.0017932465601532277   0.04280530632370698
-0.958036624560747   0.0017932465601532277   0.04280530632370698
-0.710617785040608   -0.01163438271682174   -0.021166677831420642
-0.710617785040608   -0.01163438271682174   -0.021166677831420642
-0.710617785040608   -0.01163438271682174   -0.021166677831420642
-0.710617785040608   -0.01163438271682174   -0.021166677831420642
-0.8022815571673583   0.005342509695960063   0.0067275144208436
-0.8022815571673583   0.005342509695960063   0.0067275144208436
-0.8022815571673583   0.005342509695960063   0.0067275144208436
-0.8022815571673583   0.005342509695960063   0.0067275144208436
-0.6836713436284195   0.057076225653681034   0.0448549208590185
-0.6836713436284195   0.057076225653681034   0.0448549208590185
-0.6836713436284195   0.057076225653681034   0.0448549208590185
-0.6836713436284195   0.057076225653681034   0.0448549208590185
-0.9862175350969921   -0.06815183093439975   -0.02815416886295717
-0.9862175350969921   -0.06815183093439975   -0.02815416886295717
-0.9862175350969921   -0.06815183093439975   -0.02815416886295717
-0.9862175350969921   -0.06815183093439975   -0.02815416886295717
-0.9967480635990927   -0.02638175397855877   0.044191154629463304
-0.9967480635990927   -0.02638175397855877   0.044191154629463304
-0.9967480635990927   -0.02638175397855877   0.044191154629463304
-0.9967480635990927   -0.02638175397855877   0.044191154629463304
-0.7273061291536493   -0.033633595395926696   -0.018458804718110462
-0.7273061291536493   -0.033633595395926696   -0.018458804718110462
-0.7273061291536493   -0.033633595395926696   -0.018458804718110462
-0.7273061291536493   -0.033633595395926696   -0.018458804718110462
-0.8139205596463077   -0.007126538429036516   -0.00031614012324773094
-0.8139205596463077   -0.007126538429036516   -0.00031614012324773094
-0.8139205596463077   -0.007126538429036516   -0.00031614012324773094
-0.8139205596463077   -0.007126538429036516   -0.00031614012324773094
0.07120337016626142   0.005854709697789935   -0.046582429597477625
0.07120337016626142   0.005854709697789935   -0.046582429597477625
0.07120337016626142   0.005854709697789935   -0.046582429597477625
0.07120337016626142   0.005854709697789935   -0.046582429597477625
-0.07516512124015491   0.034899200155580755   0.023805366091029623
-0.07516512124015491   0.034899200155580755   0.023805366091029623
-0.07516512124015491   0.034899200155580755   0.023805366091029623
-0.07516512124015491   0.034899200155580755   0.023805366091029623
-0.11312934046070058   -0.0448930546693829   -0.03752614213821471
-0.11312934046070058   -0.0448930546693829   -0.03752614213821471
-0.11312934046070058   -0.0448930546693829   -0.03752614213821471
-0.11312934046070058   -0.0448930546693829   -0.03752614213821471
0.0654514711467365   0.04946567191724356   0.029219344664741055
0.0654514711467365   0.04946567191724356   0.029219344664741055
0.0654514711467365   0.04946567191724356   0.029219344664741055
0.0654514711467365   0.04946567191724356   0.029219344664741055
-0.014550561899528594   0.010857549370451195   0.0040401776173081124
-0.014550561899528594   0.010857549370451195   0.0040401776173081124
-0.014550561899528594   0.010857549370451195   0.0040401776173081124
-0.014550561899528594   0.010857549370451195   0.0040401776173081124
0.03829546511944279   -0.015434889863844838   -0.04166012369063711
0.03829546511944279   -0.015434889863844838   -0.04166012369063711
0.03829546511944279   -0.015434889863844838   -0.04166012369063711
0.03829546511944279   -0.015434889863844838   -0.04166012369063711
-0.0875754506666041   0.018405390878503486   0.026944861284381283
-0.0875754506666041   0.018405390878503486   0.026944861284381283
-0.0875754506666041   0.018405390878503486   0.026944861284381283
-0.0875754506666041   0.018405390878503486   0.026944861284381283
-0.12564549677603642   -0.05301622362915391   -0.031820249984531646
-0.12564549677603642   -0.05301622362915391   -0.031820249984531646
-0.12564549677603642   -0.05301622362915391   -0.031820249984531646
-0.12564549677603642   -0.05301622362915391   -0.031820249984531646
0.03970085174527381   0.03843730569931074   0.04008787047736166
0.03970085174527381   0.03843730569931074   0.04008787047736166
0.03970085174527381   0.03843730569931074   0.04008787047736166
0.03970085174527381   0.03843730569931074   0.04008787047736166
-0.03484598849945926   -0.0013144882608734027   -0.005337124448694125
-0.03484598849945926   -0.0013144882608734027   -0.005337124448694125
-0.03484598849945926   -0.0013144882608734027   -0.005337124448694125
-0.03484598849945926   -0.0013144882608734027   -0.005337124448694125
0.01191360687100865   -0.026018802118141365   -0.03439224607651398
0.01191360687100865   -0.026018802118141365   -0.03439224607651398
0.01191360687100865   -0.026018802118141365   -0.03439224607651398
0.01191360687100865   -0.026018802118141365   -0.03439224607651398
-0.10008289213214329   0.009215243957925764   0.033761305647853894
-0.10008289213214329   0.009215243957925764   0.033761305647853894
-0.10008289213214329   0.009215243957925764   0.033761305647853894
-0.10008289213214329   0.009215243957925764   0.033761305647853894
-0.1371083952369719   -0.06547430861624154   -0.026383010176910308
-0.1371083952369719   -0.06547430861624154   -0.026383010176910308
-0.1371083952369719   -0.06547430861624154   -0.026383010176910308
-0.1371083952369719   -0.06547430861624154   -0.026383010176910308
0.003938331848725003   0.01533903163016551   0.045716090633421254
0.003938331848725003   0.01533903163016551   0.045716090633421254
0.003938331848725003   0.01533903163016551   0.045716090633421254
0.003938331848725003   0.01533903163016551   0.045716090633421254
-0.05670037395789696   -0.013558022547222723   -0.016161060812322138
-0.05670037395789696   -0.013558022547222723   -0.016161060812322138
-0.05670037395789696   -0.013558022547222723   -0.016161060812322138
-0.05670037395789696   -0.013558022547222723   -0.016161060812322138
-0.08598796856581617   0.02309132203638775   -0.018500992418083693
-0.08598796856581617   0.02309132203638775   -0.018500992418083693
-0.08598796856581617   0.02309132203638775   -0.018500992418083693
-0.08598796856581617   0.02309132203638775   -0.018500992418083693
-0.2229335041844002   0.009383800040406946   0.006200688004624741
-0.2229335041844002   0.009383800040406946   0.006200688004624741
-0.2229335041844002   0.009383800040406946   0.006200688004624741
-0.2229335041844002   0.009383800040406946   0.006200688004624741
-0.24253346370063825   -0.026149084972502172   -0.019526841423290635
-0.24253346370063825   -0.026149084972502172   -0.019526841423290635
-0.24253346370063825   -0.026149084972502172   -0.019526841423290635
-0.24253346370063825   -0.026149084972502172   -0.019526841423290635
-0.0884272875679857   0.022431645718024605   0.018659421937952232
-0.0884272875679857   0.022431645718024605   0.018659421937952232
-0.0884272875679857   0.022431645718024605   0.018659421937952232
-0.0884272875679857   0.022431645718024605   0.018659421937952232
-0.1596491488638085   0.006731680114052195   0.0035965681961180433
-0.1596491488638085   0.006731680114052195   0.0035965681961180433
-0.1596491488638085   0.006731680114052195   0.0035965681961180433
-0.1596491488638085   0.006731680114052195   0.0035965681961180433
-0.09900192617998152   0.0034218047795722094   -0.015203930183575439
-0.09900192617998152   0.0034218047795722094   -0.015203930183575439
-0.09900192617998152   0.0034218047795722094   -0.015203930183575439
-0.09900192617998152   0.0034218047795722094   -0.015203930183575439
-0.23327634135060965   -0.008456760296017808   0.009066445650364087
-0.23327634135060965   -0.008456760296017808   0.009066445650364087
-0.23327634135060965   -0.008456760296017808   0.009066445650364087
-0.23327634135060965   -0.008456760296017808   0.009066445650364087
-0.25228094391807565   -0.04209546630016704   -0.014421253841040971
-0.25228094391807565   -0.04209546630016704   -0.014421253841040971
-0.25228094391807565   -0.04209546630016704   -0.014421253841040971
-0.25228094391807565   -0.04209546630016704   -0.014421253841040971
-0.1035086586244352   0.004808813022671405   0.021038904121648643
-0.1035086586244352   0.004808813022671405   0.021038904121648643
-0.1035086586244352   0.004808813022671405   0.021038904121648643
-0.1035086586244352   0.004808813022671405   0.021038904121648643
-0.17196203370041385   -0.00927957757878433   -0.004439789581313268
-0.17196203370041385   -0.00927957757878433   -0.004439789581313268
-0.17196203370041385   -0.00927957757878433   -0.004439789581313268
-0.17196203370041385   -0.00927957757878433   -0.004439789581313268
-0.1137039734355006   -0.013767994014699247   -0.01136086289630768
-0.1137039734355006   -0.013767994014699247   -0.01136086289630768
-0.1137039734355006   -0.013767994014699247   -0.01136086289630768
-0.1137039734355006   -0.013767994014699247   -0.01136086289630768
-0.24350040200887835   -0.02493343216465976   0.012319421569435988
-0.24350040200887835   -0.02493343216465976   0.012319421569435988
-0.24350040200887835   -0.02493343216465976   0.012319421569435988
-0.24350040200887835   -0.02493343216465976   0.012319421569435988
-0.2620926644856797   -0.05849494711039229   -0.009900574464429854
-0.2620926644856797   -0.05849494711039229   -0.009900574464429854
-0.2620926644856797   -0.05849494711039229   -0.009900574464429854
-0.2620926644856797   -0.05849494711039229   -0.009900574464429854
-0.11612339537939743   -0.013035396426749366   0.026103076921468037
-0.11612339537939743   -0.013035396426749366   0.026103076921468037
-0.11612339537939743   -0.013035396426749366   0.026103076921468037
-0.11612339537939743   -0.013035396426749366   0.026103076921468037
-0.1842533974742634   -0.025103238853317226   -0.012609385814356163
-0.1842533974742634   -0.025103238853317226   -0.012609385814356163
-0.1842533974742634   -0.025103238853317226   -0.012609385814356163
-0.1842533974742634   -0.025103238853317226   -0.012609385814356163
-0.2188433058945458   0.03799539363489614   -0.0019599141405924857
-0.2188433058945458   0.03799539363489614   -0.0019599141405924857
-0.2188433058945458   0.03799539363489614   -0.0019599141405924857
-0.2188433058945458   0.03799539363489614   -0.0019599141405924857
-0.3693138219301848   -0.01268229375693819   -0.010454505989397157
-0.3693138219301848   -0.01268229375693819   -0.010454505989397157
-0.3693138219301848   -0.01268229375693819   -0.010454505989397157
-0.3693138219301848   -0.01268229375693819   -0.010454505989397157
-0.37320684608658855   -0.00926858071670969   -0.0022298237118384204
-0.37320684608658855   -0.00926858071670969   -0.0022298237118384204
-0.37320684608658855   -0.00926858071670969   -0.0022298237118384204
-0.37320684608658855   -0.00926858071670969   -0.0022298237118384204
-0.23237601560647786   0.0022299069690644435   0.0028814071059407084
-0.23237601560647786   0.0022299069690644435   0.0028814071059407084
-0.23237601560647786   0.0022299069690644435   0.0028814071059407084
-0.23237601560647786   0.0022299069690644435   0.0028814071059407084
-0.2978092741312999   0.004274566707738181   0.0012423089759065892
-0.2978092741312999   0.004274566707738181   0.0012423089759065892
-0.2978092741312999   0.004274566707738181   0.0012423089759065892
-0.2978092741312999   0.004274566707738181   0.0012423089759065892
-0.22870009228898122   0.020647434098064243   0.002843496564423967
-0.22870009228898122   0.020647434098064243   0.002843496564423967
-0.22870009228898122   0.020647434098064243   0.002843496564423967
-0.22870009228898122   0.020647434098064243   0.002843496564423967
-0.37815092063067424   -0.028954259072298573   -0.0072645180766780105
-0.37815092063067424   -0.028954259072298573   -0.0072645180766780105
-0.37815092063067424   -0.028954259072298573   -0.0072645180766780105
-0.37815092063067424   -0.028954259072298573   -0.0072645180766780105
-0.3823482229680629   -0.0264002112416167   0.0025208312018095164
-0.3823482229680629   -0.0264002112416167   0.0025208312018095164
-0.3823482229680629   -0.0264002112416167   0.0025208312018095164
-0.3823482229680629   -0.0264002112416167   0.0025208312018095164
-0.2427105901405218   -0.014613249337521707   0.005948298084080877
-0.2427105901405218   -0.014613249337521707   0.005948298084080877
-0.2427105901405218   -0.014613249337521707   0.005948298084080877
-0.2427105901405218   -0.014613249337521707   0.005948298084080877
-0.30771659474966473   -0.011306244688834365   -0.006137989634941389
-0.30771659474966473   -0.011306244688834365   -0.006137989634941389
-0.30771659474966473   -0.011306244688834365   -0.006137989634941389
-0.30771659474966473   -0.011306244688834365   -0.006137989634941389
-0.23892449572025443   0.0031945601143019142   0.0070709607335940425
-0.23892449572025443   0.0031945601143019142   0.0070709607335940425
-0.23892449572025443   0.0031945601143019142   0.0070709607335940425
-0.23892449572025443   0.0031945601143019142   0.0070709607335940425
-0.3876634006807624   -0.045737103985872433   -0.004718164617432125
-0.3876634006807624   -0.045737103985872433   -0.004718164617432125
-0.3876634006807624   -0.045737103985872433   -0.004718164617432125
-0.3876634006807624   -0.045737103985872433   -0.004718164617432125
-0.3912504943082045   -0.04283108564827773   0.0070783701919593794
-0.3912504943082045   -0.04283108564827773   0.0070783701919593794
-0.3912504943082045   -0.04283108564827773   0.0070783701919593794
-0.3912504943082045   -0.04283108564827773   0.0070783701919593794
-0.25263776953751166   -0.03049973444218597   0.009378687608204091
-0.25263776953751166   -0.03049973444218597   0.009378687608204091
-0.25263776953751166   -0.03049973444218597   0.009378687608204091
-0.25263776953751166   -0.03049973444218597   0.009378687608204091
-0.3183776122820387   -0.02698231380394161   -0.014157756890815396
-0.3183776122820387   -0.02698231380394161   -0.014157756890815396
-0.3183776122820387   -0.02698231380394161   -0.014157756890815396
-0.3183776122820387   -0.02698231380394161   -0.014157756890815396
-0.3506698719054202   0.05495971925812562   0.015123231119362313
-0.3506698719054202   0.05495971925812562   0.015123231119362313
-0.3506698719054202   0.05495971925812562   0.015123231119362313
-0.3506698719054202   0.05495971925812562   0.015123231119362313
-0.509967656243712   -0.021120990309889787   -0.0234417678771461
-0.509967656243712   -0.021120990309889787   -0.0234417678771461
-0.509967656243712   -0.021120990309889787   -0.0234417678771461
-0.509967656243712   -0.021120990309889787   -0.0234417678771461
-0.503150213696424   0.00808818096194383   0.015615278435571419
-0.503150213696424   0.00808818096194383   0.015615278435571419
-0.503150213696424   0.00808818096194383   0.015615278435571419
-0.503150213696424   0.00808818096194383   0.015615278435571419
-0.3744593719520936   -0.007344897094735292   -0.010416136661338338
-0.3744593719520936   -0.007344897094735292   -0.010416136661338338
-0.3744593719520936   -0.007344897094735292   -0.010416136661338338
-0.3744593719520936   -0.007344897094735292   -0.010416136661338338
-0.4330494848831939   0.008703387264595602   0.002103805078774841
-0.4330494848831939   0.008703387264595602   0.002103805078774841
-0.4330494848831939   0.008703387264595602   0.002103805078774841
-0.4330494848831939   0.008703387264595602   0.002103805078774841
-0.35937860409601374   0.037706673583152384   0.019936131941173364
-0.35937860409601374   0.037706673583152384   0.019936131941173364
-0.35937860409601374   0.037706673583152384   0.019936131941173364
-0.35937860409601374   0.037706673583152384   0.019936131941173364
-0.5200831053429346   -0.03881551350636692   -0.022145485328670857
-0.5200831053429346   -0.03881551350636692   -0.022145485328670857
-0.5200831053429346   -0.03881551350636692   -0.022145485328670857
-0.5200831053429346   -0.03881551350636692   -0.022145485328670857
-0.5153987576916307   -0.008774686217112637   0.01844906693831701
-0.5153987576916307   -0.008774686217112637   0.01844906693831701
-0.5153987576916307   -0.008774686217112637   0.01844906693831701
-0.5153987576916307   -0.008774686217112637   0.01844906693831701
-0.3835213929359996   -0.022664557630172576   -0.007080672249317984
-0.3835213929359996   -0.022664557630172576   -0.007080672249317984
-0.3835213929359996   -0.022664557630172576   -0.007080672249317984
-0.3835213929359996   -0.022664557630172576   -0.007080672249317984
-0.44136763113626454   -0.00630964073809305   -0.005896252595156529
-0.44136763113626454   -0.00630964073809305   -0.005896252595156529
-0.44136763113626454   -0.00630964073809305   -0.005896252595156529
-0.44136763113626454   -0.00630964073809305   -0.005896252595156529
-0.3682720693676658   0.021884263043709856   0.02461712491846463
-0.3682720693676658   0.021884263043709856   0.02461712491846463
-0.3682720693676658   0.021884263043709856   0.02461712491846463
-0.3682720693676658   0.021884263043709856   0.02461712491846463
-0.5321106433773758   -0.054786069008408385   -0.019098978699120812
-0.5321106433773758   -0.054786069008408385   -0.019098978699120812
-0.5321106433773758   -0.054786069008408385   -0.019098978699120812
-0.5321106433773758   -0.054786069008408385   -0.019098978699120812
-0.5253547960383909   -0.025765689626719573   0.023505043058783034
-0.5253547960383909   -0.025765689626719573   0.023505043058783034
-0.5253547960383909   -0.025765689626719573   0.023505043058783034
-0.5253547960383909   -0.025765689626719573   0.023505043058783034
-0.39261763599216276   -0.0383556941613131   -0.004232729714800425
-0.39261763599216276   -0.0383556941613131   -0.004232729714800425
-0.39261763599216276   -0.0383556941613131   -0.004232729714800425
-0.39261763599216276   -0.0383556941613131   -0.004232729714800425
-0.4538956619750895   -0.021630561997152298   -0.014098654826078388
-0.4538956619750895   -0.021630561997152298   -0.014098654826078388
-0.4538956619750895   -0.021630561997152298   -0.014098654826078388
-0.4538956619750895   -0.021630561997152298   -0.014098654826078388
-0.48315874868629133   0.05957153696238242   0.029910242637685262
-0.48315874868629133   0.05957153696238242   0.029910242637685262
-0.48315874868629133   0.05957153696238242   0.029910242637685262
-0.48315874868629133   0.05957153696238242   0.029910242637685262
-0.6222748682738651   -0.03115892793936567   -0.039167742315030944
-0.6222748682738651   -0.03115892793936567   -0.039167742315030944
-0.6222748682738651   -0.03115892793936567   -0.039167742315030944
-0.6222748682738651   -0.03115892793936567   -0.039167742315030944
-0.6227775218362073   0.02381892191200971   0.03297221862119983
-0.6227775218362073   0.02381892191200971   0.03297221862119983
-0.6227775218362073   0.02381892191200971   0.03297221862119983
-0.6227775218362073   0.02381892191200971   0.03297221862119983
-0.5161828250990254   -0.017499161691050827   -0.023960435924441168
-0.5161828250990254   -0.017499161691050827   -0.023960435924441168
-0.5161828250990254   -0.017499161691050827   -0.023960435924441168
-0.5161828250990254   -0.017499161691050827   -0.023960435924441168
-0.5383828833990263   0.014102425752873585   0.01044573064261467
-0.5383828833990263   0.014102425752873585   0.01044573064261467
-0.5383828833990263   0.014102425752873585   0.01044573064261467
-0.5383828833990263   0.014102425752873585   0.01044573064261467
-0.49069441223017535   0.05069799454560647   0.03528447218315172
-0.49069441223017535   0.05069799454560647   0.03528447218315172
-0.49069441223017535   0.05069799454560647   0.03528447218315172
-0.49069441223017535   0.05069799454560647   0.03528447218315172
-0.6501910055517235   -0.046303305171313744   -0.033972972873057714
-0.6501910055517235   -0.046303305171313744   -0.033972972873057714
-0.6501910055517235   -0.046303305171313744   -0.033972972873057714
-0.6501910055517235   -0.046303305171313744   -0.033972972873057714
-0.645054412800574   0.014207242973162976   0.04247807837843841
-0.645054412800574   0.014207242973162976   0.04247807837843841
-0.645054412800574   0.014207242973162976   0.04247807837843841
-0.645054412800574   0.014207242973162976   0.04247807837843841
-0.5267921071774951   -0.02630681976151386   -0.020985546946612168
-0.5267921071774951   -0.02630681976151386   -0.020985546946612168
-0.5267921071774951   -0.02630681976151386   -0.020985546946612168
-0.5267921071774951   -0.02630681976151386   -0.020985546946612168
-0.564913965492679   0.002419522654083406   -0.0006621939198730095
-0.564913965492679   0.002419522654083406   -0.0006621939198730095
-0.564913965492679   0.002419522654083406   -0.0006621939198730095
-0.564913965492679   0.002419522654083406   -0.0006621939198730095
-0.5002452459150235   0.04313487382952648   0.042307065774705485
-0.5002452459150235   0.04313487382952648   0.042307065774705485
-0.5002452459150235   0.04313487382952648   0.042307065774705485
-0.5002452459150235   0.04313487382952648   0.042307065774705485
-0.6735615045801961   -0.05719468113502789   -0.02865545641148141
-0.6735615045801961   -0.05719468113502789   -0.02865545641148141
-0.6735615045801961   -0.05719468113502789   -0.02865545641148141
-0.6735615045801961   -0.05719468113502789   -0.02865545641148141
-0.6779600093504181   -0.011090697913553077   0.044909562890526576
-0.6779600093504181   -0.011090697913553077   0.044909562890526576
-0.6779600093504181   -0.011090697913553077   0.044909562890526576
-0.6779600093504181   -0.011090697913553077   0.044909562890526576
-0.5374458110107305   -0.044589102504610525   -0.01812661892503218
-0.5374458110107305   -0.044589102504610525   -0.01812661892503218
-0.5374458110107305   -0.044589102504610525   -0.01812661892503218
-0.5374458110107305   -0.044589102504610525   -0.01812661892503218
-0.5750790250022142   -0.009161583554206806   -0.008539841994308944
-0.5750790250022142   -0.009161583554206806   -0.008539841994308944
-0.5750790250022142   -0.009161583554206806   -0.008539841994308944
-0.5750790250022142   -0.009161583554206806   -0.008539841994308944
-0.2616407012392394   -0.01705774364752357   -0.04950377292540754
-0.2616407012392394   -0.01705774364752357   -0.04950377292540754
-0.2616407012392394   -0.01705774364752357   -0.04950377292540754
-0.2616407012392394   -0.01705774364752357   -0.04950377292540754
-0.259835062912528   0.03785483541155845   0.02225584326464953
-0.259835062912528   0.03785483541155845   0.02225584326464953
-0.259835062912528   0.03785483541155845   0.02225584326464953
-0.259835062912528   0.03785483541155845   0.02225584326464953
-0.2925175895791142   -0.03468854446088592   -0.033582676500055586
-0.2925175895791142   -0.03468854446088592   -0.033582676500055586
-0.2925175895791142   -0.03468854446088592   -0.033582676500055586
-0.2925175895791142   -0.03468854446088592   -0.033582676500055586
-0.2671149733544268   0.01994462671957925   0.033403739867232884
-0.2671149733544268   0.01994462671957925   0.033403739867232884
-0.2671149733544268   0.01994462671957925   0.033403739867232884
-0.2671149733544268   0.01994462671957925   0.033403739867232884
-0.25670556865347255   0.006416459310319436   0.0227066755388241
-0.25670556865347255   0.006416459310319436   0.0227066755388241
-0.25670556865347255   0.006416459310319436   0.0227066755388241
-0.25670556865347255   0.006416459310319436   0.0227066755388241
-0.2933741219288229   -0.03644399240653898   -0.04150338387862758
-0.2933741219288229   -0.03644399240653898   -0.04150338387862758
-0.2933741219288229   -0.03644399240653898   -0.04150338387862758
-0.2933741219288229   -0.03644399240653898   -0.04150338387862758
-0.2695108734458964   0.018447642224056912   0.028314717481090823
-0.2695108734458964   0.018447642224056912   0.028314717481090823
-0.2695108734458964   0.018447642224056912   0.028314717481090823
-0.2695108734458964   0.018447642224056912   0.028314717481090823
-0.30237940354202864   -0.043683042653023904   -0.028433615997009106
-0.30237940354202864   -0.043683042653023904   -0.028433615997009106
-0.30237940354202864   -0.043683042653023904   -0.028433615997009106
-0.30237940354202864   -0.043683042653023904   -0.028433615997009106
-0.2924670110229164   0.00770956500769706   0.06213999838888107
-0.2924670110229164   0.00770956500769706   0.06213999838888107
-0.2924670110229164   0.00770956500769706   0.06213999838888107
-0.2924670110229164   0.00770956500769706   0.06213999838888107
-0.2800488559895497   -0.00903226103251311   0.009093895608920625
-0.2800488559895497   -0.00903226103251311   0.009093895608920625
-0.2800488559895497   -0.00903226103251311   0.009093895608920625
-0.2800488559895497   -0.00903226103251311   0.009093895608920625
-0.3226131987823622   -0.0485161279848486   -0.03236524741579894
-0.3226131987823622   -0.0485161279848486   -0.03236524741579894
-0.3226131987823622   -0.0485161279848486   -0.03236524741579894
-0.3226131987823622   -0.0485161279848486   -0.03236524741579894
-0.27994487428025233   0.00483099184185283   0.03522499581699587
-0.27994487428025233   0.00483099184185283   0.03522499581699587
-0.27994487428025233   0.00483099184185283   0.03522499581699587
-0.27994487428025233   0.00483099184185283   0.03522499581699587
-0.31045864449768024   -0.06116141717621934   -0.02238917705208242
-0.31045864449768024   -0.06116141717621934   -0.02238917705208242
-0.31045864449768024   -0.06116141717621934   -0.02238917705208242
-0.31045864449768024   -0.06116141717621934   -0.02238917705208242
-0.33186130185924884   -0.03272372455567485   0.05814636008240295
-0.33186130185924884   -0.03272372455567485   0.05814636008240295
-0.33186130185924884   -0.03272372455567485   0.05814636008240295
-0.33186130185924884   -0.03272372455567485   0.05814636008240295
-0.3003308562272059   -0.027290058696481524   -0.012495049267208147
-0.3003308562272059   -0.027290058696481524   -0.012495049267208147
-0.3003308562272059   -0.027290058696481524   -0.012495049267208147
-0.3003308562272059   -0.027290058696481524   -0.012495049267208147
-0.27856663361299216   -0.008076998676215835   -0.025470176149897154
-0.27856663361299216   -0.008076998676215835   -0.025470176149897154
-0.27856663361299216   -0.008076998676215835   -0.025470176149897154
-0.27856663361299216   -0.008076998676215835   -0.025470176149897154
-0.28299721169380715   -0.034796606540759806   -0.0014859280901782937
-0.28299721169380715   -0.034796606540759806   -0.0014859280901782937
-0.28299721169380715   -0.034796606540759806   -0.0014859280901782937
-0.28299721169380715   -0.034796606540759806   -0.0014859280901782937
-0.28510025235669406   -0.0231840791196777   -0.012746237461850963
-0.28510025235669406   -0.0231840791196777   -0.012746237461850963
-0.28510025235669406   -0.0231840791196777   -0.012746237461850963
-0.28510025235669406   -0.0231840791196777   -0.012746237461850963
-0.2883938698417238   -0.04718811422540682   -0.0004645080485826984
-0.2883938698417238   -0.04718811422540682   -0.0004645080485826984
-0.2883938698417238   -0.04718811422540682   -0.0004645080485826984
-0.2883938698417238   -0.04718811422540682   -0.0004645080485826984
-0.2813543803467475   -0.02954217441062601   -0.0009670227049717196
-0.2813543803467475   -0.02954217441062601   -0.0009670227049717196
-0.2813543803467475   -0.02954217441062601   -0.0009670227049717196
-0.2813543803467475   -0.02954217441062601   -0.0009670227049717196
-0.28841369151713203   -0.025706554658003283   -0.022045175993025565
-0.28841369151713203   -0.025706554658003283   -0.022045175993025565
-0.28841369151713203   -0.025706554658003283   -0.022045175993025565
-0.28841369151713203   -0.025706554658003283   -0.022045175993025565
-0.28689755673734857   -0.04648276474314625   0.0015659262583449353
-0.28689755673734857   -0.04648276474314625   0.0015659262583449353
-0.28689755673734857   -0.04648276474314625   0.0015659262583449353
-0.28689755673734857   -0.04648276474314625   0.0015659262583449353
-0.2899186174021027   -0.038328219851393744   -0.008236301471009629
-0.2899186174021027   -0.038328219851393744   -0.008236301471009629
-0.2899186174021027   -0.038328219851393744   -0.008236301471009629
-0.2899186174021027   -0.038328219851393744   -0.008236301471009629
-0.2989044190609942   -0.061240180131767366   0.006498443886906402
-0.2989044190609942   -0.061240180131767366   0.006498443886906402
-0.2989044190609942   -0.061240180131767366   0.006498443886906402
-0.2989044190609942   -0.061240180131767366   0.006498443886906402
-0.2878688070128538   -0.041782907117413476   -0.007988881480461344
-0.2878688070128538   -0.041782907117413476   -0.007988881480461344
-0.2878688070128538   -0.041782907117413476   -0.007988881480461344
-0.2878688070128538   -0.041782907117413476   -0.007988881480461344
-0.29960741334504587   -0.041891716899006115   -0.016364990766113
-0.29960741334504587   -0.041891716899006115   -0.016364990766113
-0.29960741334504587   -0.041891716899006115   -0.016364990766113
-0.29960741334504587   -0.041891716899006115   -0.016364990766113
-0.2915389601404862   -0.060000020106593305   0.005333785092268645
-0.2915389601404862   -0.060000020106593305   0.005333785092268645
-0.2915389601404862   -0.060000020106593305   0.005333785092268645
-0.2915389601404862   -0.060000020106593305   0.005333785092268645
-0.29424935676773484   -0.05463535487352919   -0.0037707539241089915
-0.29424935676773484   -0.05463535487352919   -0.0037707539241089915
-0.29424935676773484   -0.05463535487352919   -0.0037707539241089915
-0.29424935676773484   -0.05463535487352919   -0.0037707539241089915
-0.3069531665879918   -0.0790669530557838   0.013043748375920643
-0.3069531665879918   -0.0790669530557838   0.013043748375920643
-0.3069531665879918   -0.0790669530557838   0.013043748375920643
-0.3069531665879918   -0.0790669530557838   0.013043748375920643
-0.2968086038996109   -0.056551835074634925   -0.016912633089640135
-0.2968086038996109   -0.056551835074634925   -0.016912633089640135
-0.2968086038996109   -0.056551835074634925   -0.016912633089640135
-0.2968086038996109   -0.056551835074634925   -0.016912633089640135
-0.27521689400279986   0.007293169826032231   -0.0046741160019300385
-0.27521689400279986   0.007293169826032231   -0.0046741160019300385
-0.27521689400279986   0.007293169826032231   -0.0046741160019300385
-0.27521689400279986   0.007293169826032231   -0.0046741160019300385
-0.3119303872276626   -0.05922658269729289   -0.014965397846014174
-0.3119303872276626   -0.05922658269729289   -0.014965397846014174
-0.3119303872276626   -0.05922658269729289   -0.014965397846014174
-0.3119303872276626   -0.05922658269729289   -0.014965397846014174
-0.2992334440848025   -0.01093568175164087   0.003910891980738766
-0.2992334440848025   -0.01093568175164087   0.003910891980738766
-0.2992334440848025   -0.01093568175164087   0.003910891980738766
-0.2992334440848025   -0.01093568175164087   0.003910891980738766
-0.29254227242036634   -0.06392066497712669   -0.009219751922763472
-0.29254227242036634   -0.06392066497712669   -0.009219751922763472
-0.29254227242036634   -0.06392066497712669   -0.009219751922763472
-0.29254227242036634   -0.06392066497712669   -0.009219751922763472
-0.29452441576854205   -0.032702818731146444   -0.0066448875318092715
-0.29452441576854205   -0.032702818731146444   -0.0066448875318092715
-0.29452441576854205   -0.032702818731146444   -0.0066448875318092715
-0.29452441576854205   -0.032702818731146444   -0.0066448875318092715
-0.27947635042019214   -0.007773835662225323   -3.697123679383303e-05
-0.27947635042019214   -0.007773835662225323   -3.697123679383303e-05
-0.27947635042019214   -0.007773835662225323   -3.697123679383303e-05
-0.27947635042019214   -0.007773835662225323   -3.697123679383303e-05
-0.313949989644357   -0.06873313462592252   -0.011874382942752029
-0.313949989644357   -0.06873313462592252   -0.011874382942752029
-0.313949989644357   -0.06873313462592252   -0.011874382942752029
-0.313949989644357   -0.06873313462592252   -0.011874382942752029
-0.3027068731836305   -0.026124100955751607   0.008390323036040126
-0.3027068731836305   -0.026124100955751607   0.008390323036040126
-0.3027068731836305   -0.026124100955751607   0.008390323036040126
-0.3027068731836305   -0.026124100955751607   0.008390323036040126
-0.29705249309254494   -0.07588782642546109   -0.006346073349157308
-0.29705249309254494   -0.07588782642546109   -0.006346073349157308
-0.29705249309254494   -0.07588782642546109   -0.006346073349157308
-0.29705249309254494   -0.07588782642546109   -0.006346073349157308
-0.2982096699910528   -0.04426938301694983   -0.012666373640356563
-0.2982096699910528   -0.04426938301694983   -0.012666373640356563
-0.2982096699910528   -0.04426938301694983   -0.012666373640356563
-0.2982096699910528   -0.04426938301694983   -0.012666373640356563
-0.2843548486312699   -0.023234080121777592   0.004488402653534309
-0.2843548486312699   -0.023234080121777592   0.004488402653534309
-0.2843548486312699   -0.023234080121777592   0.004488402653534309
-0.2843548486312699   -0.023234080121777592   0.004488402653534309
-0.3172484320136308   -0.0806217616281578   -0.009819810441555069
-0.3172484320136308   -0.0806217616281578   -0.009819810441555069
-0.3172484320136308   -0.0806217616281578   -0.009819810441555069
-0.3172484320136308   -0.0806217616281578   -0.009819810441555069
-0.30554144590216636   -0.040401539385071294   0.012773339258447512
-0.30554144590216636   -0.040401539385071294   0.012773339258447512
-0.30554144590216636   -0.040401539385071294   0.012773339258447512
-0.30554144590216636   -0.040401539385071294   0.012773339258447512
-0.3004229954412878   -0.08735940351569173   -0.0019148986497113636
-0.3004229954412878   -0.08735940351569173   -0.0019148986497113636
-0.3004229954412878   -0.08735940351569173   -0.0019148986497113636
-0.3004229954412878   -0.08735940351569173   -0.0019148986497113636
-0.3025966560596376   -0.05636443313270465   -0.019281826740931665
-0.3025966560596376   -0.05636443313270465   -0.019281826740931665
-0.3025966560596376   -0.05636443313270465   -0.019281826740931665
-0.3025966560596376   -0.05636443313270465   -0.019281826740931665
-0.2880173202260265   0.030860084468376014   0.014513269996497345
-0.2880173202260265   0.030860084468376014   0.014513269996497345
-0.2880173202260265   0.030860084468376014   0.014513269996497345
-0.2880173202260265   0.030860084468376014   0.014513269996497345
-0.3409038561087979   -0.04424734711576745   -0.020876471827408212
-0.3409038561087979   -0.04424734711576745   -0.020876471827408212
-0.3409038561087979   -0.04424734711576745   -0.020876471827408212
-0.3409038561087979   -0.04424734711576745   -0.020876471827408212
-0.3225839771017219   0.009130460844013241   0.020085258182032537
-0.3225839771017219   0.009130460844013241   0.020085258182032537
-0.3225839771017219   0.009130460844013241   0.020085258182032537
-0.3225839771017219   0.009130460844013241   0.020085258182032537
-0.3102079560535796   -0.04926812878587368   -0.01262922082891373
-0.3102079560535796   -0.04926812878587368   -0.01262922082891373
-0.3102079560535796   -0.04926812878587368   -0.01262922082891373
-0.3102079560535796   -0.04926812878587368   -0.01262922082891373
-0.3153932955285353   -0.013051807654107121   -0.003967947682358258
-0.3153932955285353   -0.013051807654107121   -0.003967947682358258
-0.3153932955285353   -0.013051807654107121   -0.003967947682358258
-0.3153932955285353   -0.013051807654107121   -0.003967947682358258
-0.29097978389739465   0.015235791734749662   0.019007719431387446
-0.29097978389739465   0.015235791734749662   0.019007719431387446
-0.29097978389739465   0.015235791734749662   0.019007719431387446
-0.29097978389739465   0.015235791734749662   0.019007719431387446
-0.3440050987632655   -0.05756640918196883   -0.020323480099703518
-0.3440050987632655   -0.05756640918196883   -0.020323480099703518
-0.3440050987632655   -0.05756640918196883   -0.020323480099703518
-0.3440050987632655   -0.05756640918196883   -0.020323480099703518
-0.32858178593068843   -0.005705130758579542   0.02277685510333604
-0.32858178593068843   -0.005705130758579542   0.02277685510333604
-0.32858178593068843   -0.005705130758579542   0.02277685510333604
-0.32858178593068843   -0.005705130758579542   0.02277685510333604
-0.31323572059931326   -0.06032759399130519   -0.010050421006819906
-0.31323572059931326   -0.06032759399130519   -0.010050421006819906
-0.31323572059931326   -0.06032759399130519   -0.010050421006819906
-0.31323572059931326   -0.06032759399130519   -0.010050421006819906
-0.31843180669910054   -0.025592302222127328   -0.01103105793972094
-0.31843180669910054   -0.025592302222127328   -0.01103105793972094
-0.31843180669910054   -0.025592302222127328   -0.01103105793972094
-0.31843180669910054   -0.025592302222127328   -0.01103105793972094
-0.2942285218544353   0.0012847889843806345   0.023373189741883814
-0.2942285218544353   0.0012847889843806345   0.023373189741883814
-0.2942285218544353   0.0012847889843806345   0.023373189741883814
-0.2942285218544353   0.0012847889843806345   0.023373189741883814
-0.34948905180314693   -0.06921758086184342   -0.01824702415569262
-0.34948905180314693   -0.06921758086184342   -0.01824702415569262
-0.34948905180314693   -0.06921758086184342   -0.01824702415569262
-0.34948905180314693   -0.06921758086184342   -0.01824702415569262
-0.33255861448981566   -0.019941266397776984   0.02778038760051768
-0.33255861448981566   -0.019941266397776984   0.02778038760051768
-0.33255861448981566   -0.019941266397776984   0.02778038760051768
-0.33255861448981566   -0.019941266397776984   0.02778038760051768
-0.3158439696816128   -0.07143854447861359   -0.007702274545242724
-0.3158439696816128   -0.07143854447861359   -0.007702274545242724
-0.3158439696816128   -0.07143854447861359   -0.007702274545242724
-0.3158439696816128   -0.07143854447861359   -0.007702274545242724
-0.3237358375195608   -0.03742011821954479   -0.01787754813294305
-0.3237358375195608   -0.03742011821954479   -0.01787754813294305
-0.3237358375195608   -0.03742011821954479   -0.01787754813294305
-0.3237358375195608   -0.03742011821954479   -0.01787754813294305
-0.31322522601907316   0.04428201272974046   0.028987318775707725
-0.31322522601907316   0.04428201272974046   0.028987318775707725
-0.31322522601907316   0.04428201272974046   0.028987318775707725
-0.31322522601907316   0.04428201272974046   0.028987318775707725
-0.33536539589637926   -0.026774016543540682   -0.030233812224155842
-0.33536539589637926   -0.026774016543540682   -0.030233812224155842
-0.33536539589637926   -0.026774016543540682   -0.030233812224155842
-0.33536539589637926   -0.026774016543540682   -0.030233812224155842
-0.3279014569743485   0.031392650234707095   0.03221725557968694
-0.3279014569743485   0.031392650234707095   0.03221725557968694
-0.3279014569743485   0.031392650234707095   0.03221725557968694
-0.3279014569743485   0.031392650234707095   0.03221725557968694
-0.33896564169066684   -0.03421103699837531   -0.018481566920303564
-0.33896564169066684   -0.03421103699837531   -0.018481566920303564
-0.33896564169066684   -0.03421103699837531   -0.018481566920303564
-0.33896564169066684   -0.03421103699837531   -0.018481566920303564
-0.3176617371141775   0.007878711966518834   0.0012804024994104678
-0.3176617371141775   0.007878711966518834   0.0012804024994104678
-0.3176617371141775   0.007878711966518834   0.0012804024994104678
-0.3176617371141775   0.007878711966518834   0.0012804024994104678
-0.3148735429646931   0.034256966552448906   0.03351092315874059
-0.3148735429646931   0.034256966552448906   0.03351092315874059
-0.3148735429646931   0.034256966552448906   0.03351092315874059
-0.3148735429646931   0.034256966552448906   0.03351092315874059
-0.3537829388222511   -0.038864736438044695   -0.026932766987066186
-0.3537829388222511   -0.038864736438044695   -0.026932766987066186
-0.3537829388222511   -0.038864736438044695   -0.026932766987066186
-0.3537829388222511   -0.038864736438044695   -0.026932766987066186
-0.3423414509792581   0.02307493821103708   0.04147258671790552
-0.3423414509792581   0.02307493821103708   0.04147258671790552
-0.3423414509792581   0.02307493821103708   0.04147258671790552
-0.3423414509792581   0.02307493821103708   0.04147258671790552
-0.34351214030937327   -0.04072370081344696   -0.016856346735220698
-0.34351214030937327   -0.04072370081344696   -0.016856346735220698
-0.34351214030937327   -0.04072370081344696   -0.016856346735220698
-0.34351214030937327   -0.04072370081344696   -0.016856346735220698
-0.3332223777704703   -0.00219553523081617   -0.007067464690783776
-0.3332223777704703   -0.00219553523081617   -0.007067464690783776
-0.3332223777704703   -0.00219553523081617   -0.007067464690783776
-0.3332223777704703   -0.00219553523081617   -0.007067464690783776
-0.31845984676589306   0.027577521453229698   0.04010389871550353
-0.31845984676589306   0.027577521453229698   0.04010389871550353
-0.31845984676589306   0.027577521453229698   0.04010389871550353
-0.31845984676589306   0.027577521453229698   0.04010389871550353
-0.36972199320268717   -0.04755453273558722   -0.024800653452608026
-0.36972199320268717   -0.04755453273558722   -0.024800653452608026
-0.36972199320268717   -0.04755453273558722   -0.024800653452608026
-0.36972199320268717   -0.04755453273558722   -0.024800653452608026
-0.36776312513618303   0.001834780829344504   0.04431011187019549
-0.36776312513618303   0.001834780829344504   0.04431011187019549
-0.36776312513618303   0.001834780829344504   0.04431011187019549
-0.36776312513618303   0.001834780829344504   0.04431011187019549
-0.3476643443734685   -0.05304246809844583   -0.01464706011707751
-0.3476643443734685   -0.05304246809844583   -0.01464706011707751
-0.3476643443734685   -0.05304246809844583   -0.01464706011707751
-0.3476643443734685   -0.05304246809844583   -0.01464706011707751
-0.3405980712380852   -0.01147257172144675   -0.014588858306338083
-0.3405980712380852   -0.01147257172144675   -0.014588858306338083
-0.3405980712380852   -0.01147257172144675   -0.014588858306338083
-0.3405980712380852   -0.01147257172144675   -0.014588858306338083
-0.6696005285056718   -0.06121446423061426   -0.06332518935305491
-0.6696005285056718   -0.06121446423061426   -0.06332518935305491
-0.6696005285056718   -0.06121446423061426   -0.06332518935305491
-0.6696005285056718   -0.06121446423061426   -0.06332518935305491
-0.4250779482569392   0.03617292418882041   0.014918784266896884
-0.4250779482569392   0.03617292418882041   0.014918784266896884
-0.4250779482569392   0.03617292418882041   0.014918784266896884
-0.4250779482569392   0.03617292418882041   0.014918784266896884
-0.4463961223260209   -0.02824772727943571   -0.02827688115624781
-0.4463961223260209   -0.02824772727943571   -0.02827688115624781
-0.4463961223260209   -0.02824772727943571   -0.02827688115624781
-0.4463961223260209   -0.02824772727943571   -0.02827688115624781
-0.712047209938418   -0.08035648695172407   0.07090210114837517
-0.712047209938418   -0.08035648695172407   0.07090210114837517
-0.712047209938418   -0.08035648695172407   0.07090210114837517
-0.712047209938418   -0.08035648695172407   0.07090210114837517
-0.5177934022657814   -0.019756358028306317   0.06879520758656704
-0.5177934022657814   -0.019756358028306317   0.06879520758656704
-0.5177934022657814   -0.019756358028306317   0.06879520758656704
-0.5177934022657814   -0.019756358028306317   0.06879520758656704
-0.7374574916950155   -0.09008815319937569   -0.0464176413869532
-0.7374574916950155   -0.09008815319937569   -0.0464176413869532
-0.7374574916950155   -0.09008815319937569   -0.0464176413869532
-0.7374574916950155   -0.09008815319937569   -0.0464176413869532
-0.4388608145277941   -0.036391034990153975   0.017542965545601648
-0.4388608145277941   -0.036391034990153975   0.017542965545601648
-0.4388608145277941   -0.036391034990153975   0.017542965545601648
-0.4388608145277941   -0.036391034990153975   0.017542965545601648
-0.4532870349925075   -0.04094630012354783   -0.020319303297752254
-0.4532870349925075   -0.04094630012354783   -0.020319303297752254
-0.4532870349925075   -0.04094630012354783   -0.020319303297752254
-0.4532870349925075   -0.04094630012354783   -0.020319303297752254
-0.7347719045647885   -0.11226336186757752   0.001716399185601224
-0.7347719045647885   -0.11226336186757752   0.001716399185601224
-0.7347719045647885   -0.11226336186757752   0.001716399185601224
-0.7347719045647885   -0.11226336186757752   0.001716399185601224
-0.5733722664811345   -0.06773852176126131   0.015908048871839903
-0.5733722664811345   -0.06773852176126131   0.015908048871839903
-0.5733722664811345   -0.06773852176126131   0.015908048871839903
-0.5733722664811345   -0.06773852176126131   0.015908048871839903
-0.7405032542260238   -0.10180535459027502   -0.03739835639787194
-0.7405032542260238   -0.10180535459027502   -0.03739835639787194
-0.7405032542260238   -0.10180535459027502   -0.03739835639787194
-0.7405032542260238   -0.10180535459027502   -0.03739835639787194
-0.4529665192025836   -0.056815141272161356   -0.0028478831995229475
-0.4529665192025836   -0.056815141272161356   -0.0028478831995229475
-0.4529665192025836   -0.056815141272161356   -0.0028478831995229475
-0.4529665192025836   -0.056815141272161356   -0.0028478831995229475
-0.4536295793546732   -0.07166904248384591   -0.014811952063027996
-0.4536295793546732   -0.07166904248384591   -0.014811952063027996
-0.4536295793546732   -0.07166904248384591   -0.014811952063027996
-0.4536295793546732   -0.07166904248384591   -0.014811952063027996
-0.752430544197715   -0.171416959458504   0.01120006071782079
-0.752430544197715   -0.171416959458504   0.01120006071782079
-0.752430544197715   -0.171416959458504   0.01120006071782079
-0.752430544197715   -0.171416959458504   0.01120006071782079
-0.5728001496124526   -0.09310605939725125   0.0012094637500185742
-0.5728001496124526   -0.09310605939725125   0.0012094637500185742
-0.5728001496124526   -0.09310605939725125   0.0012094637500185742
-0.5728001496124526   -0.09310605939725125   0.0012094637500185742
-0.45900923600318133   -0.0778456431997474   -0.04071908707574218
-0.45900923600318133   -0.0778456431997474   -0.04071908707574218
-0.45900923600318133   -0.0778456431997474   -0.04071908707574218
-0.45900923600318133   -0.0778456431997474   -0.04071908707574218
-0.31563883252778835   -0.20430625294229823   -0.03828895873493807
-0.31563883252778835   -0.20430625294229823   -0.03828895873493807
-0.31563883252778835   -0.20430625294229823   -0.03828895873493807
-0.31563883252778835   -0.20430625294229823   -0.03828895873493807
-0.27722577522252917   -0.045350059988964034   -0.0024423314855634036
-0.27722577522252917   -0.045350059988964034   -0.0024423314855634036
-0.27722577522252917   -0.045350059988964034   -0.0024423314855634036
-0.27722577522252917   -0.045350059988964034   -0.0024423314855634036
-0.48806197160861614   -0.21661770800621682   -0.04823614684244597
-0.48806197160861614   -0.21661770800621682   -0.04823614684244597
-0.48806197160861614   -0.21661770800621682   -0.04823614684244597
-0.48806197160861614   -0.21661770800621682   -0.04823614684244597
-0.38052363697889846   -0.14435635069570174   -0.011100287777750188
-0.38052363697889846   -0.14435635069570174   -0.011100287777750188
-0.38052363697889846   -0.14435635069570174   -0.011100287777750188
-0.38052363697889846   -0.14435635069570174   -0.011100287777750188
-0.4586816326326172   -0.08728599763966861   -0.030666162328998273
-0.4586816326326172   -0.08728599763966861   -0.030666162328998273
-0.4586816326326172   -0.08728599763966861   -0.030666162328998273
-0.4586816326326172   -0.08728599763966861   -0.030666162328998273
-0.30846425596806254   -0.17653991212504652   -0.02744488307714794
-0.30846425596806254   -0.17653991212504652   -0.02744488307714794
-0.30846425596806254   -0.17653991212504652   -0.02744488307714794
-0.30846425596806254   -0.17653991212504652   -0.02744488307714794
-0.2803972536716082   -0.058756174861715624   0.000411304847779126
-0.2803972536716082   -0.058756174861715624   0.000411304847779126
-0.2803972536716082   -0.058756174861715624   0.000411304847779126
-0.2803972536716082   -0.058756174861715624   0.000411304847779126
-0.4898252766383428   -0.21548757647666916   -0.028469235173811124
-0.4898252766383428   -0.21548757647666916   -0.028469235173811124
-0.4898252766383428   -0.21548757647666916   -0.028469235173811124
-0.4898252766383428   -0.21548757647666916   -0.028469235173811124
-0.37631032425063465   -0.13531276322535427   -0.011793562923189563
-0.37631032425063465   -0.13531276322535427   -0.011793562923189563
-0.37631032425063465   -0.13531276322535427   -0.011793562923189563
-0.37631032425063465   -0.13531276322535427   -0.011793562923189563
-0.46573524167368435   -0.10050613399760298   -0.023000502829581562
-0.46573524167368435   -0.10050613399760298   -0.023000502829581562
-0.46573524167368435   -0.10050613399760298   -0.023000502829581562
-0.46573524167368435   -0.10050613399760298   -0.023000502829581562
-0.30833829199052   -0.17758862069503512   -0.02046144091346377
-0.30833829199052   -0.17758862069503512   -0.02046144091346377
-0.30833829199052   -0.17758862069503512   -0.02046144091346377
-0.30833829199052   -0.17758862069503512   -0.02046144091346377
-0.2803083791079673   -0.07544871267806749   0.004490162784477691
-0.2803083791079673   -0.07544871267806749   0.004490162784477691
-0.2803083791079673   -0.07544871267806749   0.004490162784477691
-0.2803083791079673   -0.07544871267806749   0.004490162784477691
-0.48862296698988184   -0.21902649018364292   -0.04242144253927891
-0.48862296698988184   -0.21902649018364292   -0.04242144253927891
-0.48862296698988184   -0.21902649018364292   -0.04242144253927891
-0.48862296698988184   -0.21902649018364292   -0.04242144253927891
-0.38200444506791686   -0.1455426432557812   -0.02191016913038744
-0.38200444506791686   -0.1455426432557812   -0.02191016913038744
-0.38200444506791686   -0.1455426432557812   -0.02191016913038744
-0.38200444506791686   -0.1455426432557812   -0.02191016913038744
-0.2778482641375518   -0.05012129371273222   -0.0035210760133215285
-0.2778482641375518   -0.05012129371273222   -0.0035210760133215285
-0.2778482641375518   -0.05012129371273222   -0.0035210760133215285
-0.2778482641375518   -0.05012129371273222   -0.0035210760133215285
-0.23329104639691445   -0.1563655181694712   -0.02699243189406307
-0.23329104639691445   -0.1563655181694712   -0.02699243189406307
-0.23329104639691445   -0.1563655181694712   -0.02699243189406307
-0.23329104639691445   -0.1563655181694712   -0.02699243189406307
-0.2010572867831229   -0.041634176779848805   0.01072770342638248
-0.2010572867831229   -0.041634176779848805   0.01072770342638248
-0.2010572867831229   -0.041634176779848805   0.01072770342638248
-0.2010572867831229   -0.041634176779848805   0.01072770342638248
-0.30761463800902505   -0.1699281968035674   -0.02980850860343941
-0.30761463800902505   -0.1699281968035674   -0.02980850860343941
-0.30761463800902505   -0.1699281968035674   -0.02980850860343941
-0.30761463800902505   -0.1699281968035674   -0.02980850860343941
-0.25383255259987697   -0.10596490265737374   -0.01244948239880159
-0.25383255259987697   -0.10596490265737374   -0.01244948239880159
-0.25383255259987697   -0.10596490265737374   -0.01244948239880159
-0.25383255259987697   -0.10596490265737374   -0.01244948239880159
-0.27944318257348655   -0.05936065189088409   0.00048122366156972264
-0.27944318257348655   -0.05936065189088409   0.00048122366156972264
-0.27944318257348655   -0.05936065189088409   0.00048122366156972264
-0.27944318257348655   -0.05936065189088409   0.00048122366156972264
-0.23087709876820375   -0.15385007824207447   -0.02615545503679603
-0.23087709876820375   -0.15385007824207447   -0.02615545503679603
-0.23087709876820375   -0.15385007824207447   -0.02615545503679603
-0.23087709876820375   -0.15385007824207447   -0.02615545503679603
-0.20113492239392117   -0.052654214718125966   0.013904414488894457
-0.20113492239392117   -0.052654214718125966   0.013904414488894457
-0.20113492239392117   -0.052654214718125966   0.013904414488894457
-0.20113492239392117   -0.052654214718125966   0.013904414488894457
-0.30858979630747146   -0.17262131206102976   -0.026686271132226436
-0.30858979630747146   -0.17262131206102976   -0.026686271132226436
-0.30858979630747146   -0.17262131206102976   -0.026686271132226436
-0.30858979630747146   -0.17262131206102976   -0.026686271132226436
-0.25338440505964244   -0.11010863986096694   -0.016155642120649565
-0.25338440505964244   -0.11010863986096694   -0.016155642120649565
-0.25338440505964244   -0.11010863986096694   -0.016155642120649565
-0.25338440505964244   -0.11010863986096694   -0.016155642120649565
-0.281799902964088   -0.07053309752100505   0.0051749810446659605
-0.281799902964088   -0.07053309752100505   0.0051749810446659605
-0.281799902964088   -0.07053309752100505   0.0051749810446659605
-0.281799902964088   -0.07053309752100505   0.0051749810446659605
-0.2288314731811838   -0.15564908670202993   -0.021583467463514888
-0.2288314731811838   -0.15564908670202993   -0.021583467463514888
-0.2288314731811838   -0.15564908670202993   -0.021583467463514888
-0.2288314731811838   -0.15564908670202993   -0.021583467463514888
-0.19877355933822344   -0.06317357633469273   0.01736480115221928
-0.19877355933822344   -0.06317357633469273   0.01736480115221928
-0.19877355933822344   -0.06317357633469273   0.01736480115221928
-0.19877355933822344   -0.06317357633469273   0.01736480115221928
-0.3049231512025524   -0.17480976812471336   -0.019222642241805976
-0.3049231512025524   -0.17480976812471336   -0.019222642241805976
-0.3049231512025524   -0.17480976812471336   -0.019222642241805976
-0.3049231512025524   -0.17480976812471336   -0.019222642241805976
-0.25263319598312717   -0.1155697711269272   -0.01872960995752127
-0.25263319598312717   -0.1155697711269272   -0.01872960995752127
-0.25263319598312717   -0.1155697711269272   -0.01872960995752127
-0.25263319598312717   -0.1155697711269272   -0.01872960995752127
-0.19419530859066103   -0.0069218295442598846   0.019042568511992743
-0.19419530859066103   -0.0069218295442598846   0.019042568511992743
-0.19419530859066103   -0.0069218295442598846   0.019042568511992743
-0.19419530859066103   -0.0069218295442598846   0.019042568511992743
-0.18384811338612034   -0.08281709944201318   -0.01617940116428977
-0.18384811338612034   -0.08281709944201318   -0.01617940116428977
-0.18384811338612034   -0.08281709944201318   -0.01617940116428977
-0.18384811338612034   -0.08281709944201318   -0.01617940116428977
-0.1585302796088729   -0.011997090366670373   0.022048294822396116
-0.1585302796088729   -0.011997090366670373   0.022048294822396116
-0.1585302796088729   -0.011997090366670373   0.022048294822396116
-0.1585302796088729   -0.011997090366670373   0.022048294822396116
-0.2162973982173969   -0.0956553599171424   -0.011451670607693951
-0.2162973982173969   -0.0956553599171424   -0.011451670607693951
-0.2162973982173969   -0.0956553599171424   -0.011451670607693951
-0.2162973982173969   -0.0956553599171424   -0.011451670607693951
-0.18884418124240024   -0.04888820166749461   -0.006754986154693699
-0.18884418124240024   -0.04888820166749461   -0.006754986154693699
-0.18884418124240024   -0.04888820166749461   -0.006754986154693699
-0.18884418124240024   -0.04888820166749461   -0.006754986154693699
-0.19431733887438604   -0.01917125662184051   0.02196452281205857
-0.19431733887438604   -0.01917125662184051   0.02196452281205857
-0.19431733887438604   -0.01917125662184051   0.02196452281205857
-0.19431733887438604   -0.01917125662184051   0.02196452281205857
-0.18226627215638594   -0.09023712686647442   -0.018391631415365064
-0.18226627215638594   -0.09023712686647442   -0.018391631415365064
-0.18226627215638594   -0.09023712686647442   -0.018391631415365064
-0.18226627215638594   -0.09023712686647442   -0.018391631415365064
-0.15876573167079078   -0.02268330934708301   0.023701013285768586
-0.15876573167079078   -0.02268330934708301   0.023701013285768586
-0.15876573167079078   -0.02268330934708301   0.023701013285768586
-0.15876573167079078   -0.02268330934708301   0.023701013285768586
-0.21623312970936234   -0.10148682602485383   -0.012754010781583672
-0.21623312970936234   -0.10148682602485383   -0.012754010781583672
-0.21623312970936234   -0.10148682602485383   -0.012754010781583672
-0.21623312970936234   -0.10148682602485383   -0.012754010781583672
-0.18802322664451504   -0.05746796671528971   -0.011467428012779605
-0.18802322664451504   -0.05746796671528971   -0.011467428012779605
-0.18802322664451504   -0.05746796671528971   -0.011467428012779605
-0.18802322664451504   -0.05746796671528971   -0.011467428012779605
-0.19429332965988202   -0.029531165761551795   0.024989329202515887
-0.19429332965988202   -0.029531165761551795   0.024989329202515887
-0.19429332965988202   -0.029531165761551795   0.024989329202515887
-0.19429332965988202   -0.029531165761551795   0.024989329202515887
-0.18176894825022116   -0.0957023861403351   -0.018295992818123524
-0.18176894825022116   -0.0957023861403351   -0.018295992818123524
-0.18176894825022116   -0.0957023861403351   -0.018295992818123524
-0.18176894825022116   -0.0957023861403351   -0.018295992818123524
-0.15741432274044617   -0.0327186173078005   0.027467714367656017
-0.15741432274044617   -0.0327186173078005   0.027467714367656017
-0.15741432274044617   -0.0327186173078005   0.027467714367656017
-0.15741432274044617   -0.0327186173078005   0.027467714367656017
-0.2128180239500181   -0.10731678163714248   -0.008714316604304335
-0.2128180239500181   -0.10731678163714248   -0.008714316604304335
-0.2128180239500181   -0.10731678163714248   -0.008714316604304335
-0.2128180239500181   -0.10731678163714248   -0.008714316604304335
-0.18746429990019142   -0.0648507163507055   -0.01474634234490452
-0.18746429990019142   -0.0648507163507055   -0.01474634234490452
-0.18746429990019142   -0.0648507163507055   -0.01474634234490452
-0.18746429990019142   -0.0648507163507055   -0.01474634234490452
-0.15380434976704666   0.02152451552080844   0.029697801968257127
-0.15380434976704666   0.02152451552080844   0.029697801968257127
-0.15380434976704666   0.02152451552080844   0.029697801968257127
-0.15380434976704666   0.02152451552080844   0.029697801968257127
-0.10250599980602848   -0.02726948681123907   -0.009966382716563901
-0.10250599980602848   -0.02726948681123907   -0.009966382716563901
-0.10250599980602848   -0.02726948681123907   -0.009966382716563901
-0.10250599980602848   -0.02726948681123907   -0.009966382716563901
-0.08955775601797086   0.025232663887782687   0.029329051837790512
-0.08955775601797086   0.025232663887782687   0.029329051837790512
-0.08955775601797086   0.025232663887782687   0.029329051837790512
-0.08955775601797086   0.025232663887782687   0.029329051837790512
-0.16990904328992143   -0.04167870557739123   -0.005163908372125793
-0.16990904328992143   -0.04167870557739123   -0.005163908372125793
-0.16990904328992143   -0.04167870557739123   -0.005163908372125793
-0.16990904328992143   -0.04167870557739123   -0.005163908372125793
-0.12716148025953297   -0.002673003262182949   -0.005346694553229522
-0.12716148025953297   -0.002673003262182949   -0.005346694553229522
-0.12716148025953297   -0.002673003262182949   -0.005346694553229522
-0.12716148025953297   -0.002673003262182949   -0.005346694553229522
-0.15135912660747236   0.013489977745726207   0.032416991716994296
-0.15135912660747236   0.013489977745726207   0.032416991716994296
-0.15135912660747236   0.013489977745726207   0.032416991716994296
-0.15135912660747236   0.013489977745726207   0.032416991716994296
-0.10828828430899928   -0.030116631043914134   -0.008974294685654792
-0.10828828430899928   -0.030116631043914134   -0.008974294685654792
-0.10828828430899928   -0.030116631043914134   -0.008974294685654792
-0.10828828430899928   -0.030116631043914134   -0.008974294685654792
-0.09352986153576538   0.02002310774988201   0.036895417307816286
-0.09352986153576538   0.02002310774988201   0.036895417307816286
-0.09352986153576538   0.02002310774988201   0.036895417307816286
-0.09352986153576538   0.02002310774988201   0.036895417307816286
-0.16916314647876862   -0.04437149099554735   -0.006597879105656189
-0.16916314647876862   -0.04437149099554735   -0.006597879105656189
-0.16916314647876862   -0.04437149099554735   -0.006597879105656189
-0.16916314647876862   -0.04437149099554735   -0.006597879105656189
-0.13097371293333268   -0.008361449273976754   -0.007571931185795053
-0.13097371293333268   -0.008361449273976754   -0.007571931185795053
-0.13097371293333268   -0.008361449273976754   -0.007571931185795053
-0.13097371293333268   -0.008361449273976754   -0.007571931185795053
-0.1497313307948168   0.008868060083517593   0.037321648235045614
-0.1497313307948168   0.008868060083517593   0.037321648235045614
-0.1497313307948168   0.008868060083517593   0.037321648235045614
-0.1497313307948168   0.008868060083517593   0.037321648235045614
-0.11429207146010335   -0.03454683756956655   -0.012345686994425075
-0.11429207146010335   -0.03454683756956655   -0.012345686994425075
-0.11429207146010335   -0.03454683756956655   -0.012345686994425075
-0.11429207146010335   -0.03454683756956655   -0.012345686994425075
-0.10700335138917084   0.0056978529304913955   0.03839355204331096
-0.10700335138917084   0.0056978529304913955   0.03839355204331096
-0.10700335138917084   0.0056978529304913955   0.03839355204331096
-0.10700335138917084   0.0056978529304913955   0.03839355204331096
-0.16682934608691846   -0.04679868709592483   -0.005527332576581028
-0.16682934608691846   -0.04679868709592483   -0.005527332576581028
-0.16682934608691846   -0.04679868709592483   -0.005527332576581028
-0.16682934608691846   -0.04679868709592483   -0.005527332576581028
-0.13282158002967948   -0.012484395195976654   -0.011160803422157292
-0.13282158002967948   -0.012484395195976654   -0.011160803422157292
-0.13282158002967948   -0.012484395195976654   -0.011160803422157292
-0.13282158002967948   -0.012484395195976654   -0.011160803422157292
-1.5816910477893795   -0.22450471497639563   -0.1318563120267507
-1.5816910477893795   -0.22450471497639563   -0.1318563120267507
-1.5816910477893795   -0.22450471497639563   -0.1318563120267507
-1.5816910477893795   -0.22450471497639563   -0.1318563120267507
-0.5494357486240083   -0.8686847561811697   -0.10312638863522494
-0.5494357486240083   -0.8686847561811697   -0.10312638863522494
-0.5494357486240083   -0.8686847561811697   -0.10312638863522494
-0.5494357486240083   -0.8686847561811697   -0.10312638863522494
-0.4240325243181077   -0.036828451264538736   0.0005275939639914559
-0.4240325243181077   -0.036828451264538736   0.0005275939639914559
-0.4240325243181077   -0.036828451264538736   0.0005275939639914559
-0.4240325243181077   -0.036828451264538736   0.0005275939639914559
-1.6899839609664133   -1.0201619131963793   -0.5420291748325585
-1.6899839609664133   -1.0201619131963793   -0.5420291748325585
-1.6899839609664133   -1.0201619131963793   -0.5420291748325585
-1.6899839609664133   -1.0201619131963793   -0.5420291748325585
-1.034736932835451   -0.5073825335697266   -0.07394983841807787
-1.034736932835451   -0.5073825335697266   -0.07394983841807787
-1.034736932835451   -0.5073825335697266   -0.07394983841807787
-1.034736932835451   -0.5073825335697266   -0.07394983841807787
-1.4697741628233707   -0.2819255976842807   -0.1792164996294556
-1.4697741628233707   -0.2819255976842807   -0.1792164996294556
-1.4697741628233707   -0.2819255976842807   -0.1792164996294556
-1.4697741628233707   -0.2819255976842807   -0.1792164996294556
-0.5935090939234847   -0.7243315382389731   -0.1593521670884565
-0.5935090939234847   -0.7243315382389731   -0.1593521670884565
-0.5935090939234847   -0.7243315382389731   -0.1593521670884565
-0.5935090939234847   -0.7243315382389731   -0.1593521670884565
-0.43273831609163455   -0.04894873912905633   0.01625592440505315
-0.43273831609163455   -0.04894873912905633   0.01625592440505315
-0.43273831609163455   -0.04894873912905633   0.01625592440505315
-0.43273831609163455   -0.04894873912905633   0.01625592440505315
-1.581541998876713   -0.9105292816645351   -0.49841425610824963
-1.581541998876713   -0.9105292816645351   -0.49841425610824963
-1.581541998876713   -0.9105292816645351   -0.49841425610824963
-1.581541998876713   -0.9105292816645351   -0.49841425610824963
-0.974676529408728   -0.45769240689662316   0.03932007896968186
-0.974676529408728   -0.45769240689662316   0.03932007896968186
-0.974676529408728   -0.45769240689662316   0.03932007896968186
-0.974676529408728   -0.45769240689662316   0.03932007896968186
-1.380193295730914   -0.26844243695556924   -0.13375758508823168
-1.380193295730914   -0.26844243695556924   -0.13375758508823168
-1.380193295730914   -0.26844243695556924   -0.13375758508823168
-1.380193295730914   -0.26844243695556924   -0.13375758508823168
-0.5776972448632999   -0.6346458094638897   -0.12284164911843606
-0.5776972448632999   -0.6346458094638897   -0.12284164911843606
-0.5776972448632999   -0.6346458094638897   -0.12284164911843606
-0.5776972448632999   -0.6346458094638897   -0.12284164911843606
-0.4976409652330482   -0.12789896316601196   -0.02599953678438589
-0.4976409652330482   -0.12789896316601196   -0.02599953678438589
-0.4976409652330482   -0.12789896316601196   -0.02599953678438589
-0.4976409652330482   -0.12789896316601196   -0.02599953678438589
-1.4415195815297324   -0.7659334509463227   -0.441490606495211
-1.4415195815297324   -0.7659334509463227   -0.441490606495211
-1.4415195815297324   -0.7659334509463227   -0.441490606495211
-1.4415195815297324   -0.7659334509463227   -0.441490606495211
-0.9029397742062767   -0.3969321078008736   0.1673210837027596
-0.9029397742062767   -0.3969321078008736   0.1673210837027596
-0.9029397742062767   -0.3969321078008736   0.1673210837027596
-0.9029397742062767   -0.3969321078008736   0.1673210837027596
-0.405865273403374   -0.2212379192608943   -0.03272084945233293
-0.405865273403374   -0.2212379192608943   -0.03272084945233293
-0.405865273403374   -0.2212379192608943   -0.03272084945233293
-0.405865273403374   -0.2212379192608943   -0.03272084945233293
-0.1881441540597621   -0.27579094120049297   -0.04651030240988261
-0.1881441540597621   -0.27579094120049297   -0.04651030240988261
-0.1881441540597621   -0.27579094120049297   -0.04651030240988261
-0.1881441540597621   -0.27579094120049297   -0.04651030240988261
-0.16565118650117241   -0.14163995562965623   0.004241829932913412
-0.16565118650117241   -0.14163995562965623   0.004241829932913412
-0.16565118650117241   -0.14163995562965623   0.004241829932913412
-0.16565118650117241   -0.14163995562965623   0.004241829932913412
-0.49722473319387955   -0.40276222280536556   0.000500321125961628
-0.49722473319387955   -0.40276222280536556   0.000500321125961628
-0.49722473319387955   -0.40276222280536556   0.000500321125961628
-0.49722473319387955   -0.40276222280536556   0.000500321125961628
-0.26685455742616637   -0.19520034535816433   0.08567433012669062
-0.26685455742616637   -0.19520034535816433   0.08567433012669062
-0.26685455742616637   -0.19520034535816433   0.08567433012669062
-0.26685455742616637   -0.19520034535816433   0.08567433012669062
-0.4621817111941119   -0.2060031540757844   -0.02104363760478793
-0.4621817111941119   -0.2060031540757844   -0.02104363760478793
-0.4621817111941119   -0.2060031540757844   -0.02104363760478793
-0.4621817111941119   -0.2060031540757844   -0.02104363760478793
-0.21478207066791455   -0.35248688652621296   -0.03056566000424054
-0.21478207066791455   -0.35248688652621296   -0.03056566000424054
-0.21478207066791455   -0.35248688652621296   -0.03056566000424054
-0.21478207066791455   -0.35248688652621296   -0.03056566000424054
-0.17905817667448823   -0.14676192334148153   0.004391930538280041
-0.17905817667448823   -0.14676192334148153   0.004391930538280041
-0.17905817667448823   -0.14676192334148153   0.004391930538280041
-0.17905817667448823   -0.14676192334148153   0.004391930538280041
-0.5216907621537575   -0.39777737662324786   -0.07967766841136602
-0.5216907621537575   -0.39777737662324786   -0.07967766841136602
-0.5216907621537575   -0.39777737662324786   -0.07967766841136602
-0.5216907621537575   -0.39777737662324786   -0.07967766841136602
-0.31846831877233855   -0.2502429120380485   0.03898491262092279
-0.31846831877233855   -0.2502429120380485   0.03898491262092279
-0.31846831877233855   -0.2502429120380485   0.03898491262092279
-0.31846831877233855   -0.2502429120380485   0.03898491262092279
-0.4770886771683757   -0.21511277797454667   -0.03933184213315815
-0.4770886771683757   -0.21511277797454667   -0.03933184213315815
-0.4770886771683757   -0.21511277797454667   -0.03933184213315815
-0.4770886771683757   -0.21511277797454667   -0.03933184213315815
-0.22235331392608845   -0.32811957425640115   -0.030726104804801604
-0.22235331392608845   -0.32811957425640115   -0.030726104804801604
-0.22235331392608845   -0.32811957425640115   -0.030726104804801604
-0.22235331392608845   -0.32811957425640115   -0.030726104804801604
-0.19977722318824156   -0.15147849324818832   0.006472798336361392
-0.19977722318824156   -0.15147849324818832   0.006472798336361392
-0.19977722318824156   -0.15147849324818832   0.006472798336361392
-0.19977722318824156   -0.15147849324818832   0.006472798336361392
-0.5580490308588187   -0.38662998637873963   -0.06930884170050981
-0.5580490308588187   -0.38662998637873963   -0.06930884170050981
-0.5580490308588187   -0.38662998637873963   -0.06930884170050981
-0.5580490308588187   -0.38662998637873963   -0.06930884170050981
-0.33340324614216693   -0.23588365844692863   0.04122228378598795
-0.33340324614216693   -0.23588365844692863   0.04122228378598795
-0.33340324614216693   -0.23588365844692863   0.04122228378598795
-0.33340324614216693   -0.23588365844692863   0.04122228378598795
-0.14815121819526234   -0.13200531583991956   0.009668751552042873
-0.14815121819526234   -0.13200531583991956   0.009668751552042873
-0.14815121819526234   -0.13200531583991956   0.009668751552042873
-0.14815121819526234   -0.13200531583991956   0.009668751552042873
-0.09089225618932532   -0.08668151026396173   -0.02273910510476919
-0.09089225618932532   -0.08668151026396173   -0.02273910510476919
-0.09089225618932532   -0.08668151026396173   -0.02273910510476919
-0.09089225618932532   -0.08668151026396173   -0.02273910510476919
-0.08801090681931913   -0.11810250928527946   0.00971619779829434
-0.08801090681931913   -0.11810250928527946   0.00971619779829434
-0.08801090681931913   -0.11810250928527946   0.00971619779829434
-0.08801090681931913   -0.11810250928527946   0.00971619779829434
-0.16392196557824576   -0.11853695384052408   -0.010215067241585444
-0.16392196557824576   -0.11853695384052408   -0.010215067241585444
-0.16392196557824576   -0.11853695384052408   -0.010215067241585444
-0.16392196557824576   -0.11853695384052408   -0.010215067241585444
-0.10361449014948566   -0.09598894333146177   0.04299186189668744
-0.10361449014948566   -0.09598894333146177   0.04299186189668744
-0.10361449014948566   -0.09598894333146177   0.04299186189668744
-0.10361449014948566   -0.09598894333146177   0.04299186189668744
-0.16265940621858224   -0.13288607798462446   0.01044685370083254
-0.16265940621858224   -0.13288607798462446   0.01044685370083254
-0.16265940621858224   -0.13288607798462446   0.01044685370083254
-0.16265940621858224   -0.13288607798462446   0.01044685370083254
-0.0907218706469839   -0.10520178960918018   -0.016739341016128777
-0.0907218706469839   -0.10520178960918018   -0.016739341016128777
-0.0907218706469839   -0.10520178960918018   -0.016739341016128777
-0.0907218706469839   -0.10520178960918018   -0.016739341016128777
-0.08905847121156735   -0.12164805790709833   0.008648674541526569
-0.08905847121156735   -0.12164805790709833   0.008648674541526569
-0.08905847121156735   -0.12164805790709833   0.008648674541526569
-0.08905847121156735   -0.12164805790709833   0.008648674541526569
-0.17415176478663155   -0.1382464265343141   0.020408493170395912
-0.17415176478663155   -0.1382464265343141   0.020408493170395912
-0.17415176478663155   -0.1382464265343141   0.020408493170395912
-0.17415176478663155   -0.1382464265343141   0.020408493170395912
-0.11276845437268854   -0.10697628993768352   0.03635647168840031
-0.11276845437268854   -0.10697628993768352   0.03635647168840031
-0.11276845437268854   -0.10697628993768352   0.03635647168840031
-0.11276845437268854   -0.10697628993768352   0.03635647168840031
-0.17532746372356556   -0.13781239743960205   0.01409596939101385
-0.17532746372356556   -0.13781239743960205   0.01409596939101385
-0.17532746372356556   -0.13781239743960205   0.01409596939101385
-0.17532746372356556   -0.13781239743960205   0.01409596939101385
-0.09545394186792899   -0.1296532565951073   -0.015323480052272694
-0.09545394186792899   -0.1296532565951073   -0.015323480052272694
-0.09545394186792899   -0.1296532565951073   -0.015323480052272694
-0.09545394186792899   -0.1296532565951073   -0.015323480052272694
-0.09017738548774226   -0.12558401359403565   0.012160364696772313
-0.09017738548774226   -0.12558401359403565   0.012160364696772313
-0.09017738548774226   -0.12558401359403565   0.012160364696772313
-0.09017738548774226   -0.12558401359403565   0.012160364696772313
-0.20384423432800128   -0.16995031381393158   0.0046095632033098105
-0.20384423432800128   -0.16995031381393158   0.0046095632033098105
-0.20384423432800128   -0.16995031381393158   0.0046095632033098105
-0.20384423432800128   -0.16995031381393158   0.0046095632033098105
-0.1260244233707639   -0.12190828564082447   0.01709077348022572
-0.1260244233707639   -0.12190828564082447   0.01709077348022572
-0.1260244233707639   -0.12190828564082447   0.01709077348022572
-0.1260244233707639   -0.12190828564082447   0.01709077348022572
-0.07441812443750938   -0.052587677284469385   0.02553772067481821
-0.07441812443750938   -0.052587677284469385   0.02553772067481821
-0.07441812443750938   -0.052587677284469385   0.02553772067481821
-0.07441812443750938   -0.052587677284469385   0.02553772067481821
-0.052395229248134154   -0.0005158993209589419   -0.005119018355881175
-0.052395229248134154   -0.0005158993209589419   -0.005119018355881175
-0.052395229248134154   -0.0005158993209589419   -0.005119018355881175
-0.052395229248134154   -0.0005158993209589419   -0.005119018355881175
-0.049708544421528444   -0.056880071388566336   0.01583591823931788
-0.049708544421528444   -0.056880071388566336   0.01583591823931788
-0.049708544421528444   -0.056880071388566336   0.01583591823931788
-0.049708544421528444   -0.056880071388566336   0.01583591823931788
-0.06907080398551846   -0.010539403922305235   -0.0031463933956765383
-0.06907080398551846   -0.010539403922305235   -0.0031463933956765383
-0.06907080398551846   -0.010539403922305235   -0.0031463933956765383
-0.06907080398551846   -0.010539403922305235   -0.0031463933956765383
-0.056761368413219104   -0.028937810899757915   0.012666291048390796
-0.056761368413219104   -0.028937810899757915   0.012666291048390796
-0.056761368413219104   -0.028937810899757915   0.012666291048390796
-0.056761368413219104   -0.028937810899757915   0.012666291048390796
-0.0735139288540425   -0.059990513545877595   0.02408909188527564
-0.0735139288540425   -0.059990513545877595   0.02408909188527564
-0.0735139288540425   -0.059990513545877595   0.02408909188527564
-0.0735139288540425   -0.059990513545877595   0.02408909188527564
-0.043980726368475095   -0.00614426858046467   -0.006260794303517079
-0.043980726368475095   -0.00614426858046467   -0.006260794303517079
-0.043980726368475095   -0.00614426858046467   -0.006260794303517079
-0.043980726368475095   -0.00614426858046467   -0.006260794303517079
-0.045602151184832525   -0.06188760888873393   0.014611096374493718
-0.045602151184832525   -0.06188760888873393   0.014611096374493718
-0.045602151184832525   -0.06188760888873393   0.014611096374493718
-0.045602151184832525   -0.06188760888873393   0.014611096374493718
-0.0696401750093148   -0.020354381989625053   0.004446479635316095
-0.0696401750093148   -0.020354381989625053   0.004446479635316095
-0.0696401750093148   -0.020354381989625053   0.004446479635316095
-0.0696401750093148   -0.020354381989625053   0.004446479635316095
-0.05213963940932511   -0.03318381618654942   0.015053883523964065
-0.05213963940932511   -0.03318381618654942   0.015053883523964065
-0.05213963940932511   -0.03318381618654942   0.015053883523964065
-0.05213963940932511   -0.03318381618654942   0.015053883523964065
-0.0739475365464862   -0.06497320603666383   0.027528495996497877
-0.0739475365464862   -0.06497320603666383   0.027528495996497877
-0.0739475365464862   -0.06497320603666383   0.027528495996497877
-0.0739475365464862   -0.06497320603666383   0.027528495996497877
-0.04170408846868964   -0.01767808366272367   -0.010108115270802132
-0.04170408846868964   -0.01767808366272367   -0.010108115270802132
-0.04170408846868964   -0.01767808366272367   -0.010108115270802132
-0.04170408846868964   -0.01767808366272367   -0.010108115270802132
-0.03821140921708574   -0.06743895513164691   0.016068201190241098
-0.03821140921708574   -0.06743895513164691   0.016068201190241098
-0.03821140921708574   -0.06743895513164691   0.016068201190241098
-0.03821140921708574   -0.06743895513164691   0.016068201190241098
-0.07517260722359109   -0.04421932981010322   0.005819572233595685
-0.07517260722359109   -0.04421932981010322   0.005819572233595685
-0.07517260722359109   -0.04421932981010322   0.005819572233595685
-0.07517260722359109   -0.04421932981010322   0.005819572233595685
-0.050230192639343654   -0.04185448342607624   0.012964901552203704
-0.050230192639343654   -0.04185448342607624   0.012964901552203704
-0.050230192639343654   -0.04185448342607624   0.012964901552203704
-0.050230192639343654   -0.04185448342607624   0.012964901552203704
-0.047970653265680056   -0.009226290427308773   0.02571425266273917
-0.047970653265680056   -0.009226290427308773   0.02571425266273917
-0.047970653265680056   -0.009226290427308773   0.02571425266273917
-0.047970653265680056   -0.009226290427308773   0.02571425266273917
-0.008561480155585612   0.005515088409810576   -0.000519377238613027
-0.008561480155585612   0.005515088409810576   -0.000519377238613027
-0.008561480155585612   0.005515088409810576   -0.000519377238613027
-0.008561480155585612   0.005515088409810576   -0.000519377238613027
0.0026245540887730387   -0.0029546659815607437   0.015922692228332164
0.0026245540887730387   -0.0029546659815607437   0.015922692228332164
0.0026245540887730387   -0.0029546659815607437   0.015922692228332164
0.0026245540887730387   -0.0029546659815607437   0.015922692228332164
-0.04107115600070182   0.004078177330906322   -0.001935388376021655
-0.04107115600070182   0.004078177330906322   -0.001935388376021655
-0.04107115600070182   0.004078177330906322   -0.001935388376021655
-0.04107115600070182   0.004078177330906322   -0.001935388376021655
-0.02413809551029113   -0.0018303818169631836   -0.001977516070090283
-0.02413809551029113   -0.0018303818169631836   -0.001977516070090283
-0.02413809551029113   -0.0018303818169631836   -0.001977516070090283
-0.02413809551029113   -0.0018303818169631836   -0.001977516070090283
-0.03793164500624588   -0.008901979550667634   0.026742323477824303
-0.03793164500624588   -0.008901979550667634   0.026742323477824303
-0.03793164500624588   -0.008901979550667634   0.026742323477824303
-0.03793164500624588   -0.008901979550667634   0.026742323477824303
0.0009144091274679153   0.011454856933160187   -0.0070375554929220565
0.0009144091274679153   0.011454856933160187   -0.0070375554929220565
0.0009144091274679153   0.011454856933160187   -0.0070375554929220565
0.0009144091274679153   0.011454856933160187   -0.0070375554929220565
0.008243565406383076   -0.003645304691816004   0.01962634052784121
0.008243565406383076   -0.003645304691816004   0.01962634052784121
0.008243565406383076   -0.003645304691816004   0.01962634052784121
0.008243565406383076   -0.003645304691816004   0.01962634052784121
-0.0361061168091872   0.0030505650329608284   -0.0028469056689743987
-0.0361061168091872   0.0030505650329608284   -0.0028469056689743987
-0.0361061168091872   0.0030505650329608284   -0.0028469056689743987
-0.0361061168091872   0.0030505650329608284   -0.0028469056689743987
-0.015880703792655892   -0.000457310354727348   0.0025214354255501197
-0.015880703792655892   -0.000457310354727348   0.0025214354255501197
-0.015880703792655892   -0.000457310354727348   0.0025214354255501197
-0.015880703792655892   -0.000457310354727348   0.0025214354255501197
-0.032391224040725294   -0.009951588371288945   0.02872971157758488
-0.032391224040725294   -0.009951588371288945   0.02872971157758488
-0.032391224040725294   -0.009951588371288945   0.02872971157758488
-0.032391224040725294   -0.009951588371288945   0.02872971157758488
0.005809219130930807   0.010637395205443401   -0.00682809074667954
0.005809219130930807   0.010637395205443401   -0.00682809074667954
0.005809219130930807   0.010637395205443401   -0.00682809074667954
0.005809219130930807   0.010637395205443401   -0.00682809074667954
0.013953507527663864   -0.005723011035712336   0.019068194109899118
0.013953507527663864   -0.005723011035712336   0.019068194109899118
0.013953507527663864   -0.005723011035712336   0.019068194109899118
0.013953507527663864   -0.005723011035712336   0.019068194109899118
-0.027975847627360374   0.0030282536476771227   -0.0032211996404561205
-0.027975847627360374   0.0030282536476771227   -0.0032211996404561205
-0.027975847627360374   0.0030282536476771227   -0.0032211996404561205
-0.027975847627360374   0.0030282536476771227   -0.0032211996404561205
-0.008516593277066116   0.00037558710956957047   0.006465820708944699
-0.008516593277066116   0.00037558710956957047   0.006465820708944699
-0.008516593277066116   0.00037558710956957047   0.006465820708944699
-0.008516593277066116   0.00037558710956957047   0.006465820708944699
              </DataArray>   
             <DataArray type="Float64" NumberOfComponents="3" Name="Displacements" format="ascii">   
0.0   0.0   0.0
-0.004405735388641398   -0.0028923810056727603   -0.0014759884374642728
0.0   0.0   0.0
0.0   0.0   0.0
-0.004405735388641398   -0.0028923810056727603   -0.0014759884374642728
-0.002803366843305094   -0.002599609190832847   -0.0010844378686965385
0.0   0.0   0.0
-0.0027478725150555843   -0.002729954154857182   -0.0009085514639417087
0.0   0.0   0.0
0.0   0.0   0.0
-0.0027478725150555843   -0.002729954154857182   -0.0009085514639417087
0.0   0.0   0.0
0.0   0.0   0.0
-0.0027478725150555843   -0.002729954154857182   -0.0009085514639417087
-0.004610745293984641   -0.0030813290160395124   -0.001185049490167566
-0.004405735388641398   -0.0028923810056727603   -0.0014759884374642728
0.0   0.0   0.0
-0.0027478725150555843   -0.002729954154857182   -0.0009085514639417087
-0.004405735388641398   -0.0028923810056727603   -0.0014759884374642728
0.0   0.0   0.0
0.0   0.0   0.0
-0.004610745293984641   -0.0030813290160395124   -0.001185049490167566
0.0   0.0   0.0
0.0   0.0   0.0
-0.004610745293984641   -0.0030813290160395124   -0.001185049490167566
-0.0027478725150555843   -0.002729954154857182   -0.0009085514639417087
0.0   0.0   0.0
-0.002755564903117728   -0.002796758471691057   -0.0007329249306885497
0.0   0.0   0.0
0.0   0.0   0.0
-0.002755564903117728   -0.002796758471691057   -0.0007329249306885497
0.0   0.0   0.0
0.0   0.0   0.0
-0.002755564903117728   -0.002796758471691057   -0.0007329249306885497
-0.004754695528893989   -0.0031732128617576617   -0.0009062971012111759
-0.004610745293984641   -0.0030813290160395124   -0.001185049490167566
0.0   0.0   0.0
-0.002755564903117728   -0.002796758471691057   -0.0007329249306885497
-0.004610745293984641   -0.0030813290160395124   -0.001185049490167566
0.0   0.0   0.0
0.0   0.0   0.0
-0.004754695528893989   -0.0031732128617576617   -0.0009062971012111759
0.0   0.0   0.0
0.0   0.0   0.0
-0.004754695528893989   -0.0031732128617576617   -0.0009062971012111759
-0.002755564903117728   -0.002796758471691057   -0.0007329249306885497
0.0   0.0   0.0
-0.0027540521511830378   -0.0028139335206445286   -0.0005513328894104887
0.0   0.0   0.0
0.0   0.0   0.0
-0.0027540521511830378   -0.0028139335206445286   -0.0005513328894104887
0.0   0.0   0.0
0.0   0.0   0.0
-0.0027540521511830378   -0.0028139335206445286   -0.0005513328894104887
-0.0050648606563271645   -0.003242820907541404   -0.0005829127153730912
-0.004754695528893989   -0.0031732128617576617   -0.0009062971012111759
0.0   0.0   0.0
-0.0027540521511830378   -0.0028139335206445286   -0.0005513328894104887
-0.004754695528893989   -0.0031732128617576617   -0.0009062971012111759
0.0   0.0   0.0
0.0   0.0   0.0
-0.002803366843305094   -0.002599609190832847   -0.0010844378686965385
0.0   0.0   0.0
0.0   0.0   0.0
-0.002803366843305094   -0.002599609190832847   -0.0010844378686965385
-0.0012767344503459713   -0.0024922456582692197   -0.0008248702840582108
0.0   0.0   0.0
-0.0012278894814983067   -0.0025770784245757097   -0.0007418291580788298
0.0   0.0   0.0
0.0   0.0   0.0
-0.0012278894814983067   -0.0025770784245757097   -0.0007418291580788298
0.0   0.0   0.0
0.0   0.0   0.0
-0.0012278894814983067   -0.0025770784245757097   -0.0007418291580788298
-0.0027478725150555843   -0.002729954154857182   -0.0009085514639417087
-0.002803366843305094   -0.002599609190832847   -0.0010844378686965385
0.0   0.0   0.0
-0.0012278894814983067   -0.0025770784245757097   -0.0007418291580788298
-0.002803366843305094   -0.002599609190832847   -0.0010844378686965385
0.0   0.0   0.0
0.0   0.0   0.0
-0.0027478725150555843   -0.002729954154857182   -0.0009085514639417087
0.0   0.0   0.0
0.0   0.0   0.0
-0.0027478725150555843   -0.002729954154857182   -0.0009085514639417087
-0.0012278894814983067   -0.0025770784245757097   -0.0007418291580788298
0.0   0.0   0.0
-0.0012004333025696786   -0.0026094159032896895   -0.0006609630206728588
0.0   0.0   0.0
0.0   0.0   0.0
-0.0012004333025696786   -0.0026094159032896895   -0.0006609630206728588
0.0   0.0   0.0
0.0   0.0   0.0
-0.0012004333025696786   -0.0026094159032896895   -0.0006609630206728588
-0.002755564903117728   -0.002796758471691057   -0.0007329249306885497
-0.0027478725150555843   -0.002729954154857182   -0.0009085514639417087
0.0   0.0   0.0
-0.0012004333025696786   -0.0026094159032896895   -0.0006609630206728588
-0.0027478725150555843   -0.002729954154857182   -0.0009085514639417087
0.0   0.0   0.0
0.0   0.0   0.0
-0.002755564903117728   -0.002796758471691057   -0.0007329249306885497
0.0   0.0   0.0
0.0   0.0   0.0
-0.002755564903117728   -0.002796758471691057   -0.0007329249306885497
-0.0012004333025696786   -0.0026094159032896895   -0.0006609630206728588
0.0   0.0   0.0
-0.0011754228686811702   -0.0025959304512368554   -0.0005773687986611309
0.0   0.0   0.0
0.0   0.0   0.0
-0.0011754228686811702   -0.0025959304512368554   -0.0005773687986611309
0.0   0.0   0.0
0.0   0.0   0.0
-0.0011754228686811702   -0.0025959304512368554   -0.0005773687986611309
-0.0027540521511830378   -0.0028139335206445286   -0.0005513328894104887
-0.002755564903117728   -0.002796758471691057   -0.0007329249306885497
0.0   0.0   0.0
-0.0011754228686811702   -0.0025959304512368554   -0.0005773687986611309
-0.002755564903117728   -0.002796758471691057   -0.0007329249306885497
0.0   0.0   0.0
0.0   0.0   0.0
-0.0012767344503459713   -0.0024922456582692197   -0.0008248702840582108
0.0   0.0   0.0
0.0   0.0   0.0
-0.0012767344503459713   -0.0024922456582692197   -0.0008248702840582108
0.00016559757602232637   -0.002506010783201377   -0.0006594923615677446
0.0   0.0   0.0
0.00019680170751957337   -0.0025499712257229675   -0.0006709662280900481
0.0   0.0   0.0
0.0   0.0   0.0
0.00019680170751957337   -0.0025499712257229675   -0.0006709662280900481
0.0   0.0   0.0
0.0   0.0   0.0
0.00019680170751957337   -0.0025499712257229675   -0.0006709662280900481
-0.0012278894814983067   -0.0025770784245757097   -0.0007418291580788298
-0.0012767344503459713   -0.0024922456582692197   -0.0008248702840582108
0.0   0.0   0.0
0.00019680170751957337   -0.0025499712257229675   -0.0006709662280900481
-0.0012767344503459713   -0.0024922456582692197   -0.0008248702840582108
0.0   0.0   0.0
0.0   0.0   0.0
-0.0012278894814983067   -0.0025770784245757097   -0.0007418291580788298
0.0   0.0   0.0
0.0   0.0   0.0
-0.0012278894814983067   -0.0025770784245757097   -0.0007418291580788298
0.00019680170751957337   -0.0025499712257229675   -0.0006709662280900481
0.0   0.0   0.0
0.0002214375330454633   -0.002546318722473391   -0.0006813360233861034
0.0   0.0   0.0
0.0   0.0   0.0
0.0002214375330454633   -0.002546318722473391   -0.0006813360233861034
0.0   0.0   0.0
0.0   0.0   0.0
0.0002214375330454633   -0.002546318722473391   -0.0006813360233861034
-0.0012004333025696786   -0.0026094159032896895   -0.0006609630206728588
-0.0012278894814983067   -0.0025770784245757097   -0.0007418291580788298
0.0   0.0   0.0
0.0002214375330454633   -0.002546318722473391   -0.0006813360233861034
-0.0012278894814983067   -0.0025770784245757097   -0.0007418291580788298
0.0   0.0   0.0
0.0   0.0   0.0
-0.0012004333025696786   -0.0026094159032896895   -0.0006609630206728588
0.0   0.0   0.0
0.0   0.0   0.0
-0.0012004333025696786   -0.0026094159032896895   -0.0006609630206728588
0.0002214375330454633   -0.002546318722473391   -0.0006813360233861034
0.0   0.0   0.0
0.0002545661997387579   -0.0024911497358016334   -0.0006920005248113513
0.0   0.0   0.0
0.0   0.0   0.0
0.0002545661997387579   -0.0024911497358016334   -0.0006920005248113513
0.0   0.0   0.0
0.0   0.0   0.0
0.0002545661997387579   -0.0024911497358016334   -0.0006920005248113513
-0.0011754228686811702   -0.0025959304512368554   -0.0005773687986611309
-0.0012004333025696786   -0.0026094159032896895   -0.0006609630206728588
0.0   0.0   0.0
0.0002545661997387579   -0.0024911497358016334   -0.0006920005248113513
-0.0012004333025696786   -0.0026094159032896895   -0.0006609630206728588
0.0   0.0   0.0
0.0   0.0   0.0
0.00016559757602232637   -0.002506010783201377   -0.0006594923615677446
0.0   0.0   0.0
0.0   0.0   0.0
0.00016559757602232637   -0.002506010783201377   -0.0006594923615677446
0.0017312757451772049   -0.002627847540623546   -0.0005777428512299688
0.0   0.0   0.0
0.0017343995133992146   -0.0026418103612120963   -0.0006886681745356284
0.0   0.0   0.0
0.0   0.0   0.0
0.0017343995133992146   -0.0026418103612120963   -0.0006886681745356284
0.0   0.0   0.0
0.0   0.0   0.0
0.0017343995133992146   -0.0026418103612120963   -0.0006886681745356284
0.00019680170751957337   -0.0025499712257229675   -0.0006709662280900481
0.00016559757602232637   -0.002506010783201377   -0.0006594923615677446
0.0   0.0   0.0
0.0017343995133992146   -0.0026418103612120963   -0.0006886681745356284
0.00016559757602232637   -0.002506010783201377   -0.0006594923615677446
0.0   0.0   0.0
0.0   0.0   0.0
0.00019680170751957337   -0.0025499712257229675   -0.0006709662280900481
0.0   0.0   0.0
0.0   0.0   0.0
0.00019680170751957337   -0.0025499712257229675   -0.0006709662280900481
0.0017343995133992146   -0.0026418103612120963   -0.0006886681745356284
0.0   0.0   0.0
0.001727010343498908   -0.0026040866310244985   -0.0007950931852818024
0.0   0.0   0.0
0.0   0.0   0.0
0.001727010343498908   -0.0026040866310244985   -0.0007950931852818024
0.0   0.0   0.0
0.0   0.0   0.0
0.001727010343498908   -0.0026040866310244985   -0.0007950931852818024
0.0002214375330454633   -0.002546318722473391   -0.0006813360233861034
0.00019680170751957337   -0.0025499712257229675   -0.0006709662280900481
0.0   0.0   0.0
0.001727010343498908   -0.0026040866310244985   -0.0007950931852818024
0.00019680170751957337   -0.0025499712257229675   -0.0006709662280900481
0.0   0.0   0.0
0.0   0.0   0.0
0.0002214375330454633   -0.002546318722473391   -0.0006813360233861034
0.0   0.0   0.0
0.0   0.0   0.0
0.0002214375330454633   -0.002546318722473391   -0.0006813360233861034
0.001727010343498908   -0.0026040866310244985   -0.0007950931852818024
0.0   0.0   0.0
0.0017604948222538115   -0.0025031349491999415   -0.0008995013175315879
0.0   0.0   0.0
0.0   0.0   0.0
0.0017604948222538115   -0.0025031349491999415   -0.0008995013175315879
0.0   0.0   0.0
0.0   0.0   0.0
0.0017604948222538115   -0.0025031349491999415   -0.0008995013175315879
0.0002545661997387579   -0.0024911497358016334   -0.0006920005248113513
0.0002214375330454633   -0.002546318722473391   -0.0006813360233861034
0.0   0.0   0.0
0.0017604948222538115   -0.0025031349491999415   -0.0008995013175315879
0.0002214375330454633   -0.002546318722473391   -0.0006813360233861034
0.0   0.0   0.0
0.0   0.0   0.0
0.0017312757451772049   -0.002627847540623546   -0.0005777428512299688
0.0   0.0   0.0
0.0   0.0   0.0
0.0017312757451772049   -0.002627847540623546   -0.0005777428512299688
0.003908841569843076   -0.0029367214306788665   -0.0005452314576937965
0.0   0.0   0.0
0.0036710918380026677   -0.0029045985456672735   -0.0007967532701712215
0.0   0.0   0.0
0.0   0.0   0.0
0.0036710918380026677   -0.0029045985456672735   -0.0007967532701712215
0.0   0.0   0.0
0.0   0.0   0.0
0.0036710918380026677   -0.0029045985456672735   -0.0007967532701712215
0.0017343995133992146   -0.0026418103612120963   -0.0006886681745356284
0.0017312757451772049   -0.002627847540623546   -0.0005777428512299688
0.0   0.0   0.0
0.0036710918380026677   -0.0029045985456672735   -0.0007967532701712215
0.0017312757451772049   -0.002627847540623546   -0.0005777428512299688
0.0   0.0   0.0
0.0   0.0   0.0
0.0017343995133992146   -0.0026418103612120963   -0.0006886681745356284
0.0   0.0   0.0
0.0   0.0   0.0
0.0017343995133992146   -0.0026418103612120963   -0.0006886681745356284
0.0036710918380026677   -0.0029045985456672735   -0.0007967532701712215
0.0   0.0   0.0
0.0035614735515203926   -0.00284421077997786   -0.0010094569616137118
0.0   0.0   0.0
0.0   0.0   0.0
0.0035614735515203926   -0.00284421077997786   -0.0010094569616137118
0.0   0.0   0.0
0.0   0.0   0.0
0.0035614735515203926   -0.00284421077997786   -0.0010094569616137118
0.001727010343498908   -0.0026040866310244985   -0.0007950931852818024
0.0017343995133992146   -0.0026418103612120963   -0.0006886681745356284
0.0   0.0   0.0
0.0035614735515203926   -0.00284421077997786   -0.0010094569616137118
0.0017343995133992146   -0.0026418103612120963   -0.0006886681745356284
0.0   0.0   0.0
0.0   0.0   0.0
0.001727010343498908   -0.0026040866310244985   -0.0007950931852818024
0.0   0.0   0.0
0.0   0.0   0.0
0.001727010343498908   -0.0026040866310244985   -0.0007950931852818024
0.0035614735515203926   -0.00284421077997786   -0.0010094569616137118
0.0   0.0   0.0
0.0033982554894506655   -0.002689748362477949   -0.0012345653532352576
0.0   0.0   0.0
0.0   0.0   0.0
0.0033982554894506655   -0.002689748362477949   -0.0012345653532352576
0.0   0.0   0.0
0.0   0.0   0.0
0.0033982554894506655   -0.002689748362477949   -0.0012345653532352576
0.0017604948222538115   -0.0025031349491999415   -0.0008995013175315879
0.001727010343498908   -0.0026040866310244985   -0.0007950931852818024
0.0   0.0   0.0
0.0033982554894506655   -0.002689748362477949   -0.0012345653532352576
0.001727010343498908   -0.0026040866310244985   -0.0007950931852818024
0.0   0.0   0.0
-0.004405735388641398   -0.0028923810056727603   -0.0014759884374642728
-0.008227678802220601   -0.008071275122060887   -0.001988607738030188
-0.002803366843305094   -0.002599609190832847   -0.0010844378686965385
-0.004610745293984641   -0.0030813290160395124   -0.001185049490167566
-0.008227678802220601   -0.008071275122060887   -0.001988607738030188
-0.005251349594142994   -0.0078080143605346345   -0.001636990682056154
-0.002803366843305094   -0.002599609190832847   -0.0010844378686965385
-0.005257425653543232   -0.007941350457979154   -0.0014743482817100124
-0.004610745293984641   -0.0030813290160395124   -0.001185049490167566
-0.0027478725150555843   -0.002729954154857182   -0.0009085514639417087
-0.005257425653543232   -0.007941350457979154   -0.0014743482817100124
-0.002803366843305094   -0.002599609190832847   -0.0010844378686965385
-0.004610745293984641   -0.0030813290160395124   -0.001185049490167566
-0.005257425653543232   -0.007941350457979154   -0.0014743482817100124
-0.008474015793541992   -0.008257344971833901   -0.0017245219196044942
-0.008227678802220601   -0.008071275122060887   -0.001988607738030188
-0.004610745293984641   -0.0030813290160395124   -0.001185049490167566
-0.005257425653543232   -0.007941350457979154   -0.0014743482817100124
-0.008227678802220601   -0.008071275122060887   -0.001988607738030188
-0.002803366843305094   -0.002599609190832847   -0.0010844378686965385
-0.004610745293984641   -0.0030813290160395124   -0.001185049490167566
-0.008474015793541992   -0.008257344971833901   -0.0017245219196044942
-0.0027478725150555843   -0.002729954154857182   -0.0009085514639417087
-0.004754695528893989   -0.0031732128617576617   -0.0009062971012111759
-0.008474015793541992   -0.008257344971833901   -0.0017245219196044942
-0.005257425653543232   -0.007941350457979154   -0.0014743482817100124
-0.0027478725150555843   -0.002729954154857182   -0.0009085514639417087
-0.005277993929079175   -0.008022645338644187   -0.0013180640609990416
-0.004754695528893989   -0.0031732128617576617   -0.0009062971012111759
-0.002755564903117728   -0.002796758471691057   -0.0007329249306885497
-0.005277993929079175   -0.008022645338644187   -0.0013180640609990416
-0.0027478725150555843   -0.002729954154857182   -0.0009085514639417087
-0.004754695528893989   -0.0031732128617576617   -0.0009062971012111759
-0.005277993929079175   -0.008022645338644187   -0.0013180640609990416
-0.008645114803276057   -0.008362440883530073   -0.0014659484860308188
-0.008474015793541992   -0.008257344971833901   -0.0017245219196044942
-0.004754695528893989   -0.0031732128617576617   -0.0009062971012111759
-0.005277993929079175   -0.008022645338644187   -0.0013180640609990416
-0.008474015793541992   -0.008257344971833901   -0.0017245219196044942
-0.0027478725150555843   -0.002729954154857182   -0.0009085514639417087
-0.004754695528893989   -0.0031732128617576617   -0.0009062971012111759
-0.008645114803276057   -0.008362440883530073   -0.0014659484860308188
-0.002755564903117728   -0.002796758471691057   -0.0007329249306885497
-0.0050648606563271645   -0.003242820907541404   -0.0005829127153730912
-0.008645114803276057   -0.008362440883530073   -0.0014659484860308188
-0.005277993929079175   -0.008022645338644187   -0.0013180640609990416
-0.002755564903117728   -0.002796758471691057   -0.0007329249306885497
-0.005262126620083647   -0.008064852130672904   -0.0011717851589349657
-0.0050648606563271645   -0.003242820907541404   -0.0005829127153730912
-0.0027540521511830378   -0.0028139335206445286   -0.0005513328894104887
-0.005262126620083647   -0.008064852130672904   -0.0011717851589349657
-0.002755564903117728   -0.002796758471691057   -0.0007329249306885497
-0.0050648606563271645   -0.003242820907541404   -0.0005829127153730912
-0.005262126620083647   -0.008064852130672904   -0.0011717851589349657
-0.008847341154503736   -0.008423585243134992   -0.0012307135372041725
-0.008645114803276057   -0.008362440883530073   -0.0014659484860308188
-0.0050648606563271645   -0.003242820907541404   -0.0005829127153730912
-0.005262126620083647   -0.008064852130672904   -0.0011717851589349657
-0.008645114803276057   -0.008362440883530073   -0.0014659484860308188
-0.002755564903117728   -0.002796758471691057   -0.0007329249306885497
-0.002803366843305094   -0.002599609190832847   -0.0010844378686965385
-0.005251349594142994   -0.0078080143605346345   -0.001636990682056154
-0.0012767344503459713   -0.0024922456582692197   -0.0008248702840582108
-0.0027478725150555843   -0.002729954154857182   -0.0009085514639417087
-0.005251349594142994   -0.0078080143605346345   -0.001636990682056154
-0.002436833082375216   -0.007685514323015497   -0.0013969790743290403
-0.0012767344503459713   -0.0024922456582692197   -0.0008248702840582108
-0.0024156817615469334   -0.007770358822222084   -0.0013136213231774105
-0.0027478725150555843   -0.002729954154857182   -0.0009085514639417087
-0.0012278894814983067   -0.0025770784245757097   -0.0007418291580788298
-0.0024156817615469334   -0.007770358822222084   -0.0013136213231774105
-0.0012767344503459713   -0.0024922456582692197   -0.0008248702840582108
-0.0027478725150555843   -0.002729954154857182   -0.0009085514639417087
-0.0024156817615469334   -0.007770358822222084   -0.0013136213231774105
-0.005257425653543232   -0.007941350457979154   -0.0014743482817100124
-0.005251349594142994   -0.0078080143605346345   -0.001636990682056154
-0.0027478725150555843   -0.002729954154857182   -0.0009085514639417087
-0.0024156817615469334   -0.007770358822222084   -0.0013136213231774105
-0.005251349594142994   -0.0078080143605346345   -0.001636990682056154
-0.0012767344503459713   -0.0024922456582692197   -0.0008248702840582108
-0.0027478725150555843   -0.002729954154857182   -0.0009085514639417087
-0.005257425653543232   -0.007941350457979154   -0.0014743482817100124
-0.0012278894814983067   -0.0025770784245757097   -0.0007418291580788298
-0.002755564903117728   -0.002796758471691057   -0.0007329249306885497
-0.005257425653543232   -0.007941350457979154   -0.0014743482817100124
-0.0024156817615469334   -0.007770358822222084   -0.0013136213231774105
-0.0012278894814983067   -0.0025770784245757097   -0.0007418291580788298
-0.002396923864902153   -0.007811513228199474   -0.0012380616754662267
-0.002755564903117728   -0.002796758471691057   -0.0007329249306885497
-0.0012004333025696786   -0.0026094159032896895   -0.0006609630206728588
-0.002396923864902153   -0.007811513228199474   -0.0012380616754662267
-0.0012278894814983067   -0.0025770784245757097   -0.0007418291580788298
-0.002755564903117728   -0.002796758471691057   -0.0007329249306885497
-0.002396923864902153   -0.007811513228199474   -0.0012380616754662267
-0.005277993929079175   -0.008022645338644187   -0.0013180640609990416
-0.005257425653543232   -0.007941350457979154   -0.0014743482817100124
-0.002755564903117728   -0.002796758471691057   -0.0007329249306885497
-0.002396923864902153   -0.007811513228199474   -0.0012380616754662267
-0.005257425653543232   -0.007941350457979154   -0.0014743482817100124
-0.0012278894814983067   -0.0025770784245757097   -0.0007418291580788298
-0.002755564903117728   -0.002796758471691057   -0.0007329249306885497
-0.005277993929079175   -0.008022645338644187   -0.0013180640609990416
-0.0012004333025696786   -0.0026094159032896895   -0.0006609630206728588
-0.0027540521511830378   -0.0028139335206445286   -0.0005513328894104887
-0.005277993929079175   -0.008022645338644187   -0.0013180640609990416
-0.002396923864902153   -0.007811513228199474   -0.0012380616754662267
-0.0012004333025696786   -0.0026094159032896895   -0.0006609630206728588
-0.002368991162468458   -0.007810528507064049   -0.0011722849617196924
-0.0027540521511830378   -0.0028139335206445286   -0.0005513328894104887
-0.0011754228686811702   -0.0025959304512368554   -0.0005773687986611309
-0.002368991162468458   -0.007810528507064049   -0.0011722849617196924
-0.0012004333025696786   -0.0026094159032896895   -0.0006609630206728588
-0.0027540521511830378   -0.0028139335206445286   -0.0005513328894104887
-0.002368991162468458   -0.007810528507064049   -0.0011722849617196924
-0.005262126620083647   -0.008064852130672904   -0.0011717851589349657
-0.005277993929079175   -0.008022645338644187   -0.0013180640609990416
-0.0027540521511830378   -0.0028139335206445286   -0.0005513328894104887
-0.002368991162468458   -0.007810528507064049   -0.0011722849617196924
-0.005277993929079175   -0.008022645338644187   -0.0013180640609990416
-0.0012004333025696786   -0.0026094159032896895   -0.0006609630206728588
-0.0012767344503459713   -0.0024922456582692197   -0.0008248702840582108
-0.002436833082375216   -0.007685514323015497   -0.0013969790743290403
0.00016559757602232637   -0.002506010783201377   -0.0006594923615677446
-0.0012278894814983067   -0.0025770784245757097   -0.0007418291580788298
-0.002436833082375216   -0.007685514323015497   -0.0013969790743290403
0.000277133314070069   -0.0076891692921544465   -0.0012452808537493064
0.00016559757602232637   -0.002506010783201377   -0.0006594923615677446
0.00030310900602924777   -0.007729334625276859   -0.0012397376804332298
-0.0012278894814983067   -0.0025770784245757097   -0.0007418291580788298
0.00019680170751957337   -0.0025499712257229675   -0.0006709662280900481
0.00030310900602924777   -0.007729334625276859   -0.0012397376804332298
0.00016559757602232637   -0.002506010783201377   -0.0006594923615677446
-0.0012278894814983067   -0.0025770784245757097   -0.0007418291580788298
0.00030310900602924777   -0.007729334625276859   -0.0012397376804332298
-0.0024156817615469334   -0.007770358822222084   -0.0013136213231774105
-0.002436833082375216   -0.007685514323015497   -0.0013969790743290403
-0.0012278894814983067   -0.0025770784245757097   -0.0007418291580788298
0.00030310900602924777   -0.007729334625276859   -0.0012397376804332298
-0.002436833082375216   -0.007685514323015497   -0.0013969790743290403
0.00016559757602232637   -0.002506010783201377   -0.0006594923615677446
-0.0012278894814983067   -0.0025770784245757097   -0.0007418291580788298
-0.0024156817615469334   -0.007770358822222084   -0.0013136213231774105
0.00019680170751957337   -0.0025499712257229675   -0.0006709662280900481
-0.0012004333025696786   -0.0026094159032896895   -0.0006609630206728588
-0.0024156817615469334   -0.007770358822222084   -0.0013136213231774105
0.00030310900602924777   -0.007729334625276859   -0.0012397376804332298
0.00019680170751957337   -0.0025499712257229675   -0.0006709662280900481
0.0003206274615731829   -0.007726833590227092   -0.0012430447422451482
-0.0012004333025696786   -0.0026094159032896895   -0.0006609630206728588
0.0002214375330454633   -0.002546318722473391   -0.0006813360233861034
0.0003206274615731829   -0.007726833590227092   -0.0012430447422451482
0.00019680170751957337   -0.0025499712257229675   -0.0006709662280900481
-0.0012004333025696786   -0.0026094159032896895   -0.0006609630206728588
0.0003206274615731829   -0.007726833590227092   -0.0012430447422451482
-0.002396923864902153   -0.007811513228199474   -0.0012380616754662267
-0.0024156817615469334   -0.007770358822222084   -0.0013136213231774105
-0.0012004333025696786   -0.0026094159032896895   -0.0006609630206728588
0.0003206274615731829   -0.007726833590227092   -0.0012430447422451482
-0.0024156817615469334   -0.007770358822222084   -0.0013136213231774105
0.00019680170751957337   -0.0025499712257229675   -0.0006709662280900481
-0.0012004333025696786   -0.0026094159032896895   -0.0006609630206728588
-0.002396923864902153   -0.007811513228199474   -0.0012380616754662267
0.0002214375330454633   -0.002546318722473391   -0.0006813360233861034
-0.0011754228686811702   -0.0025959304512368554   -0.0005773687986611309
-0.002396923864902153   -0.007811513228199474   -0.0012380616754662267
0.0003206274615731829   -0.007726833590227092   -0.0012430447422451482
0.0002214375330454633   -0.002546318722473391   -0.0006813360233861034
0.00033941262129451473   -0.007680364833916961   -0.0012553418195793411
-0.0011754228686811702   -0.0025959304512368554   -0.0005773687986611309
0.0002545661997387579   -0.0024911497358016334   -0.0006920005248113513
0.00033941262129451473   -0.007680364833916961   -0.0012553418195793411
0.0002214375330454633   -0.002546318722473391   -0.0006813360233861034
-0.0011754228686811702   -0.0025959304512368554   -0.0005773687986611309
0.00033941262129451473   -0.007680364833916961   -0.0012553418195793411
-0.002368991162468458   -0.007810528507064049   -0.0011722849617196924
-0.002396923864902153   -0.007811513228199474   -0.0012380616754662267
-0.0011754228686811702   -0.0025959304512368554   -0.0005773687986611309
0.00033941262129451473   -0.007680364833916961   -0.0012553418195793411
-0.002396923864902153   -0.007811513228199474   -0.0012380616754662267
0.0002214375330454633   -0.002546318722473391   -0.0006813360233861034
0.00016559757602232637   -0.002506010783201377   -0.0006594923615677446
0.000277133314070069   -0.0076891692921544465   -0.0012452808537493064
0.0017312757451772049   -0.002627847540623546   -0.0005777428512299688
0.00019680170751957337   -0.0025499712257229675   -0.0006709662280900481
0.000277133314070069   -0.0076891692921544465   -0.0012452808537493064
0.003153249055952189   -0.007814428103407585   -0.0011745900376770309
0.0017312757451772049   -0.002627847540623546   -0.0005777428512299688
0.003168033076052935   -0.007813992943276803   -0.0012493839472165374
0.00019680170751957337   -0.0025499712257229675   -0.0006709662280900481
0.0017343995133992146   -0.0026418103612120963   -0.0006886681745356284
0.003168033076052935   -0.007813992943276803   -0.0012493839472165374
0.0017312757451772049   -0.002627847540623546   -0.0005777428512299688
0.00019680170751957337   -0.0025499712257229675   -0.0006709662280900481
0.003168033076052935   -0.007813992943276803   -0.0012493839472165374
0.00030310900602924777   -0.007729334625276859   -0.0012397376804332298
0.000277133314070069   -0.0076891692921544465   -0.0012452808537493064
0.00019680170751957337   -0.0025499712257229675   -0.0006709662280900481
0.003168033076052935   -0.007813992943276803   -0.0012493839472165374
0.000277133314070069   -0.0076891692921544465   -0.0012452808537493064
0.0017312757451772049   -0.002627847540623546   -0.0005777428512299688
0.00019680170751957337   -0.0025499712257229675   -0.0006709662280900481
0.00030310900602924777   -0.007729334625276859   -0.0012397376804332298
0.0017343995133992146   -0.0026418103612120963   -0.0006886681745356284
0.0002214375330454633   -0.002546318722473391   -0.0006813360233861034
0.00030310900602924777   -0.007729334625276859   -0.0012397376804332298
0.003168033076052935   -0.007813992943276803   -0.0012493839472165374
0.0017343995133992146   -0.0026418103612120963   -0.0006886681745356284
0.0031535615400468437   -0.0077717248783249855   -0.0013341908097924062
0.0002214375330454633   -0.002546318722473391   -0.0006813360233861034
0.001727010343498908   -0.0026040866310244985   -0.0007950931852818024
0.0031535615400468437   -0.0077717248783249855   -0.0013341908097924062
0.0017343995133992146   -0.0026418103612120963   -0.0006886681745356284
0.0002214375330454633   -0.002546318722473391   -0.0006813360233861034
0.0031535615400468437   -0.0077717248783249855   -0.0013341908097924062
0.0003206274615731829   -0.007726833590227092   -0.0012430447422451482
0.00030310900602924777   -0.007729334625276859   -0.0012397376804332298
0.0002214375330454633   -0.002546318722473391   -0.0006813360233861034
0.0031535615400468437   -0.0077717248783249855   -0.0013341908097924062
0.00030310900602924777   -0.007729334625276859   -0.0012397376804332298
0.0017343995133992146   -0.0026418103612120963   -0.0006886681745356284
0.0002214375330454633   -0.002546318722473391   -0.0006813360233861034
0.0003206274615731829   -0.007726833590227092   -0.0012430447422451482
0.001727010343498908   -0.0026040866310244985   -0.0007950931852818024
0.0002545661997387579   -0.0024911497358016334   -0.0006920005248113513
0.0003206274615731829   -0.007726833590227092   -0.0012430447422451482
0.0031535615400468437   -0.0077717248783249855   -0.0013341908097924062
0.001727010343498908   -0.0026040866310244985   -0.0007950931852818024
0.003145329349705081   -0.007676073146512785   -0.0014258723355859552
0.0002545661997387579   -0.0024911497358016334   -0.0006920005248113513
0.0017604948222538115   -0.0025031349491999415   -0.0008995013175315879
0.003145329349705081   -0.007676073146512785   -0.0014258723355859552
0.001727010343498908   -0.0026040866310244985   -0.0007950931852818024
0.0002545661997387579   -0.0024911497358016334   -0.0006920005248113513
0.003145329349705081   -0.007676073146512785   -0.0014258723355859552
0.00033941262129451473   -0.007680364833916961   -0.0012553418195793411
0.0003206274615731829   -0.007726833590227092   -0.0012430447422451482
0.0002545661997387579   -0.0024911497358016334   -0.0006920005248113513
0.003145329349705081   -0.007676073146512785   -0.0014258723355859552
0.0003206274615731829   -0.007726833590227092   -0.0012430447422451482
0.001727010343498908   -0.0026040866310244985   -0.0007950931852818024
0.0017312757451772049   -0.002627847540623546   -0.0005777428512299688
0.003153249055952189   -0.007814428103407585   -0.0011745900376770309
0.003908841569843076   -0.0029367214306788665   -0.0005452314576937965
0.0017343995133992146   -0.0026418103612120963   -0.0006886681745356284
0.003153249055952189   -0.007814428103407585   -0.0011745900376770309
0.006624119129272752   -0.008047223290467741   -0.001155736675185041
0.003908841569843076   -0.0029367214306788665   -0.0005452314576937965
0.006489614831580981   -0.008025166274309397   -0.0013240273124258816
0.0017343995133992146   -0.0026418103612120963   -0.0006886681745356284
0.0036710918380026677   -0.0029045985456672735   -0.0007967532701712215
0.006489614831580981   -0.008025166274309397   -0.0013240273124258816
0.003908841569843076   -0.0029367214306788665   -0.0005452314576937965
0.0017343995133992146   -0.0026418103612120963   -0.0006886681745356284
0.006489614831580981   -0.008025166274309397   -0.0013240273124258816
0.003168033076052935   -0.007813992943276803   -0.0012493839472165374
0.003153249055952189   -0.007814428103407585   -0.0011745900376770309
0.0017343995133992146   -0.0026418103612120963   -0.0006886681745356284
0.006489614831580981   -0.008025166274309397   -0.0013240273124258816
0.003153249055952189   -0.007814428103407585   -0.0011745900376770309
0.003908841569843076   -0.0029367214306788665   -0.0005452314576937965
0.0017343995133992146   -0.0026418103612120963   -0.0006886681745356284
0.003168033076052935   -0.007813992943276803   -0.0012493839472165374
0.0036710918380026677   -0.0029045985456672735   -0.0007967532701712215
0.001727010343498908   -0.0026040866310244985   -0.0007950931852818024
0.003168033076052935   -0.007813992943276803   -0.0012493839472165374
0.006489614831580981   -0.008025166274309397   -0.0013240273124258816
0.0036710918380026677   -0.0029045985456672735   -0.0007967532701712215
0.0063693884155670705   -0.00796001379746104   -0.0015133837620846912
0.001727010343498908   -0.0026040866310244985   -0.0007950931852818024
0.0035614735515203926   -0.00284421077997786   -0.0010094569616137118
0.0063693884155670705   -0.00796001379746104   -0.0015133837620846912
0.0036710918380026677   -0.0029045985456672735   -0.0007967532701712215
0.001727010343498908   -0.0026040866310244985   -0.0007950931852818024
0.0063693884155670705   -0.00796001379746104   -0.0015133837620846912
0.0031535615400468437   -0.0077717248783249855   -0.0013341908097924062
0.003168033076052935   -0.007813992943276803   -0.0012493839472165374
0.001727010343498908   -0.0026040866310244985   -0.0007950931852818024
0.0063693884155670705   -0.00796001379746104   -0.0015133837620846912
0.003168033076052935   -0.007813992943276803   -0.0012493839472165374
0.0036710918380026677   -0.0029045985456672735   -0.0007967532701712215
0.001727010343498908   -0.0026040866310244985   -0.0007950931852818024
0.0031535615400468437   -0.0077717248783249855   -0.0013341908097924062
0.0035614735515203926   -0.00284421077997786   -0.0010094569616137118
0.0017604948222538115   -0.0025031349491999415   -0.0008995013175315879
0.0031535615400468437   -0.0077717248783249855   -0.0013341908097924062
0.0063693884155670705   -0.00796001379746104   -0.0015133837620846912
0.0035614735515203926   -0.00284421077997786   -0.0010094569616137118
0.006189122369874692   -0.007815117335514172   -0.0017105169883012855
0.0017604948222538115   -0.0025031349491999415   -0.0008995013175315879
0.0033982554894506655   -0.002689748362477949   -0.0012345653532352576
0.006189122369874692   -0.007815117335514172   -0.0017105169883012855
0.0035614735515203926   -0.00284421077997786   -0.0010094569616137118
0.0017604948222538115   -0.0025031349491999415   -0.0008995013175315879
0.006189122369874692   -0.007815117335514172   -0.0017105169883012855
0.003145329349705081   -0.007676073146512785   -0.0014258723355859552
0.0031535615400468437   -0.0077717248783249855   -0.0013341908097924062
0.0017604948222538115   -0.0025031349491999415   -0.0008995013175315879
0.006189122369874692   -0.007815117335514172   -0.0017105169883012855
0.0031535615400468437   -0.0077717248783249855   -0.0013341908097924062
0.0035614735515203926   -0.00284421077997786   -0.0010094569616137118
-0.008227678802220601   -0.008071275122060887   -0.001988607738030188
-0.01127166154511444   -0.015133295933137588   -0.0022652190213216165
-0.005251349594142994   -0.0078080143605346345   -0.001636990682056154
-0.008474015793541992   -0.008257344971833901   -0.0017245219196044942
-0.01127166154511444   -0.015133295933137588   -0.0022652190213216165
-0.007247089176389974   -0.014932166642479388   -0.0019801423978745626
-0.005251349594142994   -0.0078080143605346345   -0.001636990682056154
-0.007262808952711694   -0.015047216041729523   -0.0018539909316332881
-0.008474015793541992   -0.008257344971833901   -0.0017245219196044942
-0.005257425653543232   -0.007941350457979154   -0.0014743482817100124
-0.007262808952711694   -0.015047216041729523   -0.0018539909316332881
-0.005251349594142994   -0.0078080143605346345   -0.001636990682056154
-0.008474015793541992   -0.008257344971833901   -0.0017245219196044942
-0.007262808952711694   -0.015047216041729523   -0.0018539909316332881
-0.011471861141002113   -0.015290540277549699   -0.002068348073560223
-0.01127166154511444   -0.015133295933137588   -0.0022652190213216165
-0.008474015793541992   -0.008257344971833901   -0.0017245219196044942
-0.007262808952711694   -0.015047216041729523   -0.0018539909316332881
-0.01127166154511444   -0.015133295933137588   -0.0022652190213216165
-0.005251349594142994   -0.0078080143605346345   -0.001636990682056154
-0.008474015793541992   -0.008257344971833901   -0.0017245219196044942
-0.011471861141002113   -0.015290540277549699   -0.002068348073560223
-0.005257425653543232   -0.007941350457979154   -0.0014743482817100124
-0.008645114803276057   -0.008362440883530073   -0.0014659484860308188
-0.011471861141002113   -0.015290540277549699   -0.002068348073560223
-0.007262808952711694   -0.015047216041729523   -0.0018539909316332881
-0.005257425653543232   -0.007941350457979154   -0.0014743482817100124
-0.007281340955291273   -0.015127299238571184   -0.0017369754968226314
-0.008645114803276057   -0.008362440883530073   -0.0014659484860308188
-0.005277993929079175   -0.008022645338644187   -0.0013180640609990416
-0.007281340955291273   -0.015127299238571184   -0.0017369754968226314
-0.005257425653543232   -0.007941350457979154   -0.0014743482817100124
-0.008645114803276057   -0.008362440883530073   -0.0014659484860308188
-0.007281340955291273   -0.015127299238571184   -0.0017369754968226314
-0.011597991424086474   -0.01538916496513261   -0.0018848686242328842
-0.011471861141002113   -0.015290540277549699   -0.002068348073560223
-0.008645114803276057   -0.008362440883530073   -0.0014659484860308188
-0.007281340955291273   -0.015127299238571184   -0.0017369754968226314
-0.011471861141002113   -0.015290540277549699   -0.002068348073560223
-0.005257425653543232   -0.007941350457979154   -0.0014743482817100124
-0.008645114803276057   -0.008362440883530073   -0.0014659484860308188
-0.011597991424086474   -0.01538916496513261   -0.0018848686242328842
-0.005277993929079175   -0.008022645338644187   -0.0013180640609990416
-0.008847341154503736   -0.008423585243134992   -0.0012307135372041725
-0.011597991424086474   -0.01538916496513261   -0.0018848686242328842
-0.007281340955291273   -0.015127299238571184   -0.0017369754968226314
-0.005277993929079175   -0.008022645338644187   -0.0013180640609990416
-0.007267511915052697   -0.015180015624994025   -0.0016271492635237686
-0.008847341154503736   -0.008423585243134992   -0.0012307135372041725
-0.005262126620083647   -0.008064852130672904   -0.0011717851589349657
-0.007267511915052697   -0.015180015624994025   -0.0016271492635237686
-0.005277993929079175   -0.008022645338644187   -0.0013180640609990416
-0.008847341154503736   -0.008423585243134992   -0.0012307135372041725
-0.007267511915052697   -0.015180015624994025   -0.0016271492635237686
-0.011741501985630893   -0.015460141058667097   -0.0017160331738109923
-0.011597991424086474   -0.01538916496513261   -0.0018848686242328842
-0.008847341154503736   -0.008423585243134992   -0.0012307135372041725
-0.007267511915052697   -0.015180015624994025   -0.0016271492635237686
-0.011597991424086474   -0.01538916496513261   -0.0018848686242328842
-0.005277993929079175   -0.008022645338644187   -0.0013180640609990416
-0.005251349594142994   -0.0078080143605346345   -0.001636990682056154
-0.007247089176389974   -0.014932166642479388   -0.0019801423978745626
-0.002436833082375216   -0.007685514323015497   -0.0013969790743290403
-0.005257425653543232   -0.007941350457979154   -0.0014743482817100124
-0.007247089176389974   -0.014932166642479388   -0.0019801423978745626
-0.0034527350709483012   -0.014831866542153618   -0.0017820935155389351
-0.002436833082375216   -0.007685514323015497   -0.0013969790743290403
-0.0034439214963983326   -0.014905415235220973   -0.0017107796148175508
-0.005257425653543232   -0.007941350457979154   -0.0014743482817100124
-0.0024156817615469334   -0.007770358822222084   -0.0013136213231774105
-0.0034439214963983326   -0.014905415235220973   -0.0017107796148175508
-0.002436833082375216   -0.007685514323015497   -0.0013969790743290403
-0.005257425653543232   -0.007941350457979154   -0.0014743482817100124
-0.0034439214963983326   -0.014905415235220973   -0.0017107796148175508
-0.007262808952711694   -0.015047216041729523   -0.0018539909316332881
-0.007247089176389974   -0.014932166642479388   -0.0019801423978745626
-0.005257425653543232   -0.007941350457979154   -0.0014743482817100124
-0.0034439214963983326   -0.014905415235220973   -0.0017107796148175508
-0.007247089176389974   -0.014932166642479388   -0.0019801423978745626
-0.002436833082375216   -0.007685514323015497   -0.0013969790743290403
-0.005257425653543232   -0.007941350457979154   -0.0014743482817100124
-0.007262808952711694   -0.015047216041729523   -0.0018539909316332881
-0.0024156817615469334   -0.007770358822222084   -0.0013136213231774105
-0.005277993929079175   -0.008022645338644187   -0.0013180640609990416
-0.007262808952711694   -0.015047216041729523   -0.0018539909316332881
-0.0034439214963983326   -0.014905415235220973   -0.0017107796148175508
-0.0024156817615469334   -0.007770358822222084   -0.0013136213231774105
-0.0034331639899156277   -0.014948624883581486   -0.0016481641661969981
-0.005277993929079175   -0.008022645338644187   -0.0013180640609990416
-0.002396923864902153   -0.007811513228199474   -0.0012380616754662267
-0.0034331639899156277   -0.014948624883581486   -0.0016481641661969981
-0.0024156817615469334   -0.007770358822222084   -0.0013136213231774105
-0.005277993929079175   -0.008022645338644187   -0.0013180640609990416
-0.0034331639899156277   -0.014948624883581486   -0.0016481641661969981
-0.007281340955291273   -0.015127299238571184   -0.0017369754968226314
-0.007262808952711694   -0.015047216041729523   -0.0018539909316332881
-0.005277993929079175   -0.008022645338644187   -0.0013180640609990416
-0.0034331639899156277   -0.014948624883581486   -0.0016481641661969981
-0.007262808952711694   -0.015047216041729523   -0.0018539909316332881
-0.0024156817615469334   -0.007770358822222084   -0.0013136213231774105
-0.005277993929079175   -0.008022645338644187   -0.0013180640609990416
-0.007281340955291273   -0.015127299238571184   -0.0017369754968226314
-0.002396923864902153   -0.007811513228199474   -0.0012380616754662267
-0.005262126620083647   -0.008064852130672904   -0.0011717851589349657
-0.007281340955291273   -0.015127299238571184   -0.0017369754968226314
-0.0034331639899156277   -0.014948624883581486   -0.0016481641661969981
-0.002396923864902153   -0.007811513228199474   -0.0012380616754662267
-0.0034155841212506104   -0.014962113171164452   -0.0015942217988620902
-0.005262126620083647   -0.008064852130672904   -0.0011717851589349657
-0.002368991162468458   -0.007810528507064049   -0.0011722849617196924
-0.0034155841212506104   -0.014962113171164452   -0.0015942217988620902
-0.002396923864902153   -0.007811513228199474   -0.0012380616754662267
-0.005262126620083647   -0.008064852130672904   -0.0011717851589349657
-0.0034155841212506104   -0.014962113171164452   -0.0015942217988620902
-0.007267511915052697   -0.015180015624994025   -0.0016271492635237686
-0.007281340955291273   -0.015127299238571184   -0.0017369754968226314
-0.005262126620083647   -0.008064852130672904   -0.0011717851589349657
-0.0034155841212506104   -0.014962113171164452   -0.0015942217988620902
-0.007281340955291273   -0.015127299238571184   -0.0017369754968226314
-0.002396923864902153   -0.007811513228199474   -0.0012380616754662267
-0.002436833082375216   -0.007685514323015497   -0.0013969790743290403
-0.0034527350709483012   -0.014831866542153618   -0.0017820935155389351
0.000277133314070069   -0.0076891692921544465   -0.0012452808537493064
-0.0024156817615469334   -0.007770358822222084   -0.0013136213231774105
-0.0034527350709483012   -0.014831866542153618   -0.0017820935155389351
0.0002301089076166041   -0.014826524426642533   -0.0016593505801858384
0.000277133314070069   -0.0076891692921544465   -0.0012452808537493064
0.00024618534428447956   -0.01485921833132712   -0.0016425816221015094
-0.0024156817615469334   -0.007770358822222084   -0.0013136213231774105
0.00030310900602924777   -0.007729334625276859   -0.0012397376804332298
0.00024618534428447956   -0.01485921833132712   -0.0016425816221015094
0.000277133314070069   -0.0076891692921544465   -0.0012452808537493064
-0.0024156817615469334   -0.007770358822222084   -0.0013136213231774105
0.00024618534428447956   -0.01485921833132712   -0.0016425816221015094
-0.0034439214963983326   -0.014905415235220973   -0.0017107796148175508
-0.0034527350709483012   -0.014831866542153618   -0.0017820935155389351
-0.0024156817615469334   -0.007770358822222084   -0.0013136213231774105
0.00024618534428447956   -0.01485921833132712   -0.0016425816221015094
-0.0034527350709483012   -0.014831866542153618   -0.0017820935155389351
0.000277133314070069   -0.0076891692921544465   -0.0012452808537493064
-0.0024156817615469334   -0.007770358822222084   -0.0013136213231774105
-0.0034439214963983326   -0.014905415235220973   -0.0017107796148175508
0.00030310900602924777   -0.007729334625276859   -0.0012397376804332298
-0.002396923864902153   -0.007811513228199474   -0.0012380616754662267
-0.0034439214963983326   -0.014905415235220973   -0.0017107796148175508
0.00024618534428447956   -0.01485921833132712   -0.0016425816221015094
0.00030310900602924777   -0.007729334625276859   -0.0012397376804332298
0.0002565511404584853   -0.014861694600510856   -0.0016342845166895839
-0.002396923864902153   -0.007811513228199474   -0.0012380616754662267
0.0003206274615731829   -0.007726833590227092   -0.0012430447422451482
0.0002565511404584853   -0.014861694600510856   -0.0016342845166895839
0.00030310900602924777   -0.007729334625276859   -0.0012397376804332298
-0.002396923864902153   -0.007811513228199474   -0.0012380616754662267
0.0002565511404584853   -0.014861694600510856   -0.0016342845166895839
-0.0034331639899156277   -0.014948624883581486   -0.0016481641661969981
-0.0034439214963983326   -0.014905415235220973   -0.0017107796148175508
-0.002396923864902153   -0.007811513228199474   -0.0012380616754662267
0.0002565511404584853   -0.014861694600510856   -0.0016342845166895839
-0.0034439214963983326   -0.014905415235220973   -0.0017107796148175508
0.00030310900602924777   -0.007729334625276859   -0.0012397376804332298
-0.002396923864902153   -0.007811513228199474   -0.0012380616754662267
-0.0034331639899156277   -0.014948624883581486   -0.0016481641661969981
0.0003206274615731829   -0.007726833590227092   -0.0012430447422451482
-0.002368991162468458   -0.007810528507064049   -0.0011722849617196924
-0.0034331639899156277   -0.014948624883581486   -0.0016481641661969981
0.0002565511404584853   -0.014861694600510856   -0.0016342845166895839
0.0003206274615731829   -0.007726833590227092   -0.0012430447422451482
0.0002640973862797156   -0.01483350296685495   -0.0016349734177790666
-0.002368991162468458   -0.007810528507064049   -0.0011722849617196924
0.00033941262129451473   -0.007680364833916961   -0.0012553418195793411
0.0002640973862797156   -0.01483350296685495   -0.0016349734177790666
0.0003206274615731829   -0.007726833590227092   -0.0012430447422451482
-0.002368991162468458   -0.007810528507064049   -0.0011722849617196924
0.0002640973862797156   -0.01483350296685495   -0.0016349734177790666
-0.0034155841212506104   -0.014962113171164452   -0.0015942217988620902
-0.0034331639899156277   -0.014948624883581486   -0.0016481641661969981
-0.002368991162468458   -0.007810528507064049   -0.0011722849617196924
0.0002640973862797156   -0.01483350296685495   -0.0016349734177790666
-0.0034331639899156277   -0.014948624883581486   -0.0016481641661969981
0.0003206274615731829   -0.007726833590227092   -0.0012430447422451482
0.000277133314070069   -0.0076891692921544465   -0.0012452808537493064
0.0002301089076166041   -0.014826524426642533   -0.0016593505801858384
0.003153249055952189   -0.007814428103407585   -0.0011745900376770309
0.00030310900602924777   -0.007729334625276859   -0.0012397376804332298
0.0002301089076166041   -0.014826524426642533   -0.0016593505801858384
0.004070188490015026   -0.014910494182724809   -0.0016098218554261882
0.003153249055952189   -0.007814428103407585   -0.0011745900376770309
0.004084270062482468   -0.014905734386620618   -0.0016487290966048956
0.00030310900602924777   -0.007729334625276859   -0.0012397376804332298
0.003168033076052935   -0.007813992943276803   -0.0012493839472165374
0.004084270062482468   -0.014905734386620618   -0.0016487290966048956
0.003153249055952189   -0.007814428103407585   -0.0011745900376770309
0.00030310900602924777   -0.007729334625276859   -0.0012397376804332298
0.004084270062482468   -0.014905734386620618   -0.0016487290966048956
0.00024618534428447956   -0.01485921833132712   -0.0016425816221015094
0.0002301089076166041   -0.014826524426642533   -0.0016593505801858384
0.00030310900602924777   -0.007729334625276859   -0.0012397376804332298
0.004084270062482468   -0.014905734386620618   -0.0016487290966048956
0.0002301089076166041   -0.014826524426642533   -0.0016593505801858384
0.003153249055952189   -0.007814428103407585   -0.0011745900376770309
0.00030310900602924777   -0.007729334625276859   -0.0012397376804332298
0.00024618534428447956   -0.01485921833132712   -0.0016425816221015094
0.003168033076052935   -0.007813992943276803   -0.0012493839472165374
0.0003206274615731829   -0.007726833590227092   -0.0012430447422451482
0.00024618534428447956   -0.01485921833132712   -0.0016425816221015094
0.004084270062482468   -0.014905734386620618   -0.0016487290966048956
0.003168033076052935   -0.007813992943276803   -0.0012493839472165374
0.004074135513550299   -0.014871412010866409   -0.0016954856859199758
0.0003206274615731829   -0.007726833590227092   -0.0012430447422451482
0.0031535615400468437   -0.0077717248783249855   -0.0013341908097924062
0.004074135513550299   -0.014871412010866409   -0.0016954856859199758
0.003168033076052935   -0.007813992943276803   -0.0012493839472165374
0.0003206274615731829   -0.007726833590227092   -0.0012430447422451482
0.004074135513550299   -0.014871412010866409   -0.0016954856859199758
0.0002565511404584853   -0.014861694600510856   -0.0016342845166895839
0.00024618534428447956   -0.01485921833132712   -0.0016425816221015094
0.0003206274615731829   -0.007726833590227092   -0.0012430447422451482
0.004074135513550299   -0.014871412010866409   -0.0016954856859199758
0.00024618534428447956   -0.01485921833132712   -0.0016425816221015094
0.003168033076052935   -0.007813992943276803   -0.0012493839472165374
0.0003206274615731829   -0.007726833590227092   -0.0012430447422451482
0.0002565511404584853   -0.014861694600510856   -0.0016342845166895839
0.0031535615400468437   -0.0077717248783249855   -0.0013341908097924062
0.00033941262129451473   -0.007680364833916961   -0.0012553418195793411
0.0002565511404584853   -0.014861694600510856   -0.0016342845166895839
0.004074135513550299   -0.014871412010866409   -0.0016954856859199758
0.0031535615400468437   -0.0077717248783249855   -0.0013341908097924062
0.004058837188247617   -0.014800199044123302   -0.0017510221591047145
0.00033941262129451473   -0.007680364833916961   -0.0012553418195793411
0.003145329349705081   -0.007676073146512785   -0.0014258723355859552
0.004058837188247617   -0.014800199044123302   -0.0017510221591047145
0.0031535615400468437   -0.0077717248783249855   -0.0013341908097924062
0.00033941262129451473   -0.007680364833916961   -0.0012553418195793411
0.004058837188247617   -0.014800199044123302   -0.0017510221591047145
0.0002640973862797156   -0.01483350296685495   -0.0016349734177790666
0.0002565511404584853   -0.014861694600510856   -0.0016342845166895839
0.00033941262129451473   -0.007680364833916961   -0.0012553418195793411
0.004058837188247617   -0.014800199044123302   -0.0017510221591047145
0.0002565511404584853   -0.014861694600510856   -0.0016342845166895839
0.0031535615400468437   -0.0077717248783249855   -0.0013341908097924062
0.003153249055952189   -0.007814428103407585   -0.0011745900376770309
0.004070188490015026   -0.014910494182724809   -0.0016098218554261882
0.006624119129272752   -0.008047223290467741   -0.001155736675185041
0.003168033076052935   -0.007813992943276803   -0.0012493839472165374
0.004070188490015026   -0.014910494182724809   -0.0016098218554261882
0.008443573145057328   -0.015062753678850363   -0.001610999688213368
0.006624119129272752   -0.008047223290467741   -0.001155736675185041
0.008370454229388105   -0.015036402496396576   -0.0017127261358404029
0.003168033076052935   -0.007813992943276803   -0.0012493839472165374
0.006489614831580981   -0.008025166274309397   -0.0013240273124258816
0.008370454229388105   -0.015036402496396576   -0.0017127261358404029
0.006624119129272752   -0.008047223290467741   -0.001155736675185041
0.003168033076052935   -0.007813992943276803   -0.0012493839472165374
0.008370454229388105   -0.015036402496396576   -0.0017127261358404029
0.004084270062482468   -0.014905734386620618   -0.0016487290966048956
0.004070188490015026   -0.014910494182724809   -0.0016098218554261882
0.003168033076052935   -0.007813992943276803   -0.0012493839472165374
0.008370454229388105   -0.015036402496396576   -0.0017127261358404029
0.004070188490015026   -0.014910494182724809   -0.0016098218554261882
0.006624119129272752   -0.008047223290467741   -0.001155736675185041
0.003168033076052935   -0.007813992943276803   -0.0012493839472165374
0.004084270062482468   -0.014905734386620618   -0.0016487290966048956
0.006489614831580981   -0.008025166274309397   -0.0013240273124258816
0.0031535615400468437   -0.0077717248783249855   -0.0013341908097924062
0.004084270062482468   -0.014905734386620618   -0.0016487290966048956
0.008370454229388105   -0.015036402496396576   -0.0017127261358404029
0.006489614831580981   -0.008025166274309397   -0.0013240273124258816
0.008297419303369713   -0.014983572377645731   -0.0018286071029786992
0.0031535615400468437   -0.0077717248783249855   -0.0013341908097924062
0.0063693884155670705   -0.00796001379746104   -0.0015133837620846912
0.008297419303369713   -0.014983572377645731   -0.0018286071029786992
0.006489614831580981   -0.008025166274309397   -0.0013240273124258816
0.0031535615400468437   -0.0077717248783249855   -0.0013341908097924062
0.008297419303369713   -0.014983572377645731   -0.0018286071029786992
0.004074135513550299   -0.014871412010866409   -0.0016954856859199758
0.004084270062482468   -0.014905734386620618   -0.0016487290966048956
0.0031535615400468437   -0.0077717248783249855   -0.0013341908097924062
0.008297419303369713   -0.014983572377645731   -0.0018286071029786992
0.004084270062482468   -0.014905734386620618   -0.0016487290966048956
0.006489614831580981   -0.008025166274309397   -0.0013240273124258816
0.0031535615400468437   -0.0077717248783249855   -0.0013341908097924062
0.004074135513550299   -0.014871412010866409   -0.0016954856859199758
0.0063693884155670705   -0.00796001379746104   -0.0015133837620846912
0.003145329349705081   -0.007676073146512785   -0.0014258723355859552
0.004074135513550299   -0.014871412010866409   -0.0016954856859199758
0.008297419303369713   -0.014983572377645731   -0.0018286071029786992
0.0063693884155670705   -0.00796001379746104   -0.0015133837620846912
0.008167450668984649   -0.014872832225416365   -0.001958657729841886
0.003145329349705081   -0.007676073146512785   -0.0014258723355859552
0.006189122369874692   -0.007815117335514172   -0.0017105169883012855
0.008167450668984649   -0.014872832225416365   -0.001958657729841886
0.0063693884155670705   -0.00796001379746104   -0.0015133837620846912
0.003145329349705081   -0.007676073146512785   -0.0014258723355859552
0.008167450668984649   -0.014872832225416365   -0.001958657729841886
0.004058837188247617   -0.014800199044123302   -0.0017510221591047145
0.004074135513550299   -0.014871412010866409   -0.0016954856859199758
0.003145329349705081   -0.007676073146512785   -0.0014258723355859552
0.008167450668984649   -0.014872832225416365   -0.001958657729841886
0.004074135513550299   -0.014871412010866409   -0.0016954856859199758
0.0063693884155670705   -0.00796001379746104   -0.0015133837620846912
-0.01127166154511444   -0.015133295933137588   -0.0022652190213216165
-0.013458585269918227   -0.0235050626421167   -0.002416083422326816
-0.007247089176389974   -0.014932166642479388   -0.0019801423978745626
-0.011471861141002113   -0.015290540277549699   -0.002068348073560223
-0.013458585269918227   -0.0235050626421167   -0.002416083422326816
-0.008736376873219596   -0.02337714740698961   -0.002183750258397695
-0.007247089176389974   -0.014932166642479388   -0.0019801423978745626
-0.008746671276378733   -0.023476074090146036   -0.002093481794724387
-0.011471861141002113   -0.015290540277549699   -0.002068348073560223
-0.007262808952711694   -0.015047216041729523   -0.0018539909316332881
-0.008746671276378733   -0.023476074090146036   -0.002093481794724387
-0.007247089176389974   -0.014932166642479388   -0.0019801423978745626
-0.011471861141002113   -0.015290540277549699   -0.002068348073560223
-0.008746671276378733   -0.023476074090146036   -0.002093481794724387
-0.013593322403198473   -0.023638908589088983   -0.002285422129087661
-0.013458585269918227   -0.0235050626421167   -0.002416083422326816
-0.011471861141002113   -0.015290540277549699   -0.002068348073560223
-0.008746671276378733   -0.023476074090146036   -0.002093481794724387
-0.013458585269918227   -0.0235050626421167   -0.002416083422326816
-0.007247089176389974   -0.014932166642479388   -0.0019801423978745626
-0.011471861141002113   -0.015290540277549699   -0.002068348073560223
-0.013593322403198473   -0.023638908589088983   -0.002285422129087661
-0.007262808952711694   -0.015047216041729523   -0.0018539909316332881
-0.011597991424086474   -0.01538916496513261   -0.0018848686242328842
-0.013593322403198473   -0.023638908589088983   -0.002285422129087661
-0.008746671276378733   -0.023476074090146036   -0.002093481794724387
-0.007262808952711694   -0.015047216041729523   -0.0018539909316332881
-0.008753947115278157   -0.023554523443545833   -0.002012212462672537
-0.011597991424086474   -0.01538916496513261   -0.0018848686242328842
-0.007281340955291273   -0.015127299238571184   -0.0017369754968226314
-0.008753947115278157   -0.023554523443545833   -0.002012212462672537
-0.007262808952711694   -0.015047216041729523   -0.0018539909316332881
-0.011597991424086474   -0.01538916496513261   -0.0018848686242328842
-0.008753947115278157   -0.023554523443545833   -0.002012212462672537
-0.013670527285544555   -0.02373363297711694   -0.0021673081441787928
-0.013593322403198473   -0.023638908589088983   -0.002285422129087661
-0.011597991424086474   -0.01538916496513261   -0.0018848686242328842
-0.008753947115278157   -0.023554523443545833   -0.002012212462672537
-0.013593322403198473   -0.023638908589088983   -0.002285422129087661
-0.007262808952711694   -0.015047216041729523   -0.0018539909316332881
-0.011597991424086474   -0.01538916496513261   -0.0018848686242328842
-0.013670527285544555   -0.02373363297711694   -0.0021673081441787928
-0.007281340955291273   -0.015127299238571184   -0.0017369754968226314
-0.011741501985630893   -0.015460141058667097   -0.0017160331738109923
-0.013670527285544555   -0.02373363297711694   -0.0021673081441787928
-0.008753947115278157   -0.023554523443545833   -0.002012212462672537
-0.007281340955291273   -0.015127299238571184   -0.0017369754968226314
-0.008735618434398197   -0.02361900356406509   -0.0019387446081342177
-0.011741501985630893   -0.015460141058667097   -0.0017160331738109923
-0.007267511915052697   -0.015180015624994025   -0.0016271492635237686
-0.008735618434398197   -0.02361900356406509   -0.0019387446081342177
-0.007281340955291273   -0.015127299238571184   -0.0017369754968226314
-0.011741501985630893   -0.015460141058667097   -0.0017160331738109923
-0.008735618434398197   -0.02361900356406509   -0.0019387446081342177
-0.013750034123270543   -0.023818586740915096   -0.0020632341982259822
-0.013670527285544555   -0.02373363297711694   -0.0021673081441787928
-0.011741501985630893   -0.015460141058667097   -0.0017160331738109923
-0.008735618434398197   -0.02361900356406509   -0.0019387446081342177
-0.013670527285544555   -0.02373363297711694   -0.0021673081441787928
-0.007281340955291273   -0.015127299238571184   -0.0017369754968226314
-0.007247089176389974   -0.014932166642479388   -0.0019801423978745626
-0.008736376873219596   -0.02337714740698961   -0.002183750258397695
-0.0034527350709483012   -0.014831866542153618   -0.0017820935155389351
-0.007262808952711694   -0.015047216041729523   -0.0018539909316332881
-0.008736376873219596   -0.02337714740698961   -0.002183750258397695
-0.004309612190315346   -0.023310992714368886   -0.0020228804050337716
-0.0034527350709483012   -0.014831866542153618   -0.0017820935155389351
-0.0043012169627463116   -0.023373050535466684   -0.0019632563891176535
-0.007262808952711694   -0.015047216041729523   -0.0018539909316332881
-0.0034439214963983326   -0.014905415235220973   -0.0017107796148175508
-0.0043012169627463116   -0.023373050535466684   -0.0019632563891176535
-0.0034527350709483012   -0.014831866542153618   -0.0017820935155389351
-0.007262808952711694   -0.015047216041729523   -0.0018539909316332881
-0.0043012169627463116   -0.023373050535466684   -0.0019632563891176535
-0.008746671276378733   -0.023476074090146036   -0.002093481794724387
-0.008736376873219596   -0.02337714740698961   -0.002183750258397695
-0.007262808952711694   -0.015047216041729523   -0.0018539909316332881
-0.0043012169627463116   -0.023373050535466684   -0.0019632563891176535
-0.008736376873219596   -0.02337714740698961   -0.002183750258397695
-0.0034527350709483012   -0.014831866542153618   -0.0017820935155389351
-0.007262808952711694   -0.015047216041729523   -0.0018539909316332881
-0.008746671276378733   -0.023476074090146036   -0.002093481794724387
-0.0034439214963983326   -0.014905415235220973   -0.0017107796148175508
-0.007281340955291273   -0.015127299238571184   -0.0017369754968226314
-0.008746671276378733   -0.023476074090146036   -0.002093481794724387
-0.0043012169627463116   -0.023373050535466684   -0.0019632563891176535
-0.0034439214963983326   -0.014905415235220973   -0.0017107796148175508
-0.004289827854203498   -0.023417946452657573   -0.0019124951047600502
-0.007281340955291273   -0.015127299238571184   -0.0017369754968226314
-0.0034331639899156277   -0.014948624883581486   -0.0016481641661969981
-0.004289827854203498   -0.023417946452657573   -0.0019124951047600502
-0.0034439214963983326   -0.014905415235220973   -0.0017107796148175508
-0.007281340955291273   -0.015127299238571184   -0.0017369754968226314
-0.004289827854203498   -0.023417946452657573   -0.0019124951047600502
-0.008753947115278157   -0.023554523443545833   -0.002012212462672537
-0.008746671276378733   -0.023476074090146036   -0.002093481794724387
-0.007281340955291273   -0.015127299238571184   -0.0017369754968226314
-0.004289827854203498   -0.023417946452657573   -0.0019124951047600502
-0.008746671276378733   -0.023476074090146036   -0.002093481794724387
-0.0034439214963983326   -0.014905415235220973   -0.0017107796148175508
-0.007281340955291273   -0.015127299238571184   -0.0017369754968226314
-0.008753947115278157   -0.023554523443545833   -0.002012212462672537
-0.0034331639899156277   -0.014948624883581486   -0.0016481641661969981
-0.007267511915052697   -0.015180015624994025   -0.0016271492635237686
-0.008753947115278157   -0.023554523443545833   -0.002012212462672537
-0.004289827854203498   -0.023417946452657573   -0.0019124951047600502
-0.0034331639899156277   -0.014948624883581486   -0.0016481641661969981
-0.004272936660440204   -0.02344597500099864   -0.0018707442440928127
-0.007267511915052697   -0.015180015624994025   -0.0016271492635237686
-0.0034155841212506104   -0.014962113171164452   -0.0015942217988620902
-0.004272936660440204   -0.02344597500099864   -0.0018707442440928127
-0.0034331639899156277   -0.014948624883581486   -0.0016481641661969981
-0.007267511915052697   -0.015180015624994025   -0.0016271492635237686
-0.004272936660440204   -0.02344597500099864   -0.0018707442440928127
-0.008735618434398197   -0.02361900356406509   -0.0019387446081342177
-0.008753947115278157   -0.023554523443545833   -0.002012212462672537
-0.007267511915052697   -0.015180015624994025   -0.0016271492635237686
-0.004272936660440204   -0.02344597500099864   -0.0018707442440928127
-0.008753947115278157   -0.023554523443545833   -0.002012212462672537
-0.0034331639899156277   -0.014948624883581486   -0.0016481641661969981
-0.0034527350709483012   -0.014831866542153618   -0.0017820935155389351
-0.004309612190315346   -0.023310992714368886   -0.0020228804050337716
0.0002301089076166041   -0.014826524426642533   -0.0016593505801858384
-0.0034439214963983326   -0.014905415235220973   -0.0017107796148175508
-0.004309612190315346   -0.023310992714368886   -0.0020228804050337716
-3.111057610990478e-06   -0.023299589413744135   -0.0019292435162473322
0.0002301089076166041   -0.014826524426642533   -0.0016593505801858384
1.2519038612936069e-05   -0.023324572837340584   -0.0019005048046889833
-0.0034439214963983326   -0.014905415235220973   -0.0017107796148175508
0.00024618534428447956   -0.01485921833132712   -0.0016425816221015094
1.2519038612936069e-05   -0.023324572837340584   -0.0019005048046889833
0.0002301089076166041   -0.014826524426642533   -0.0016593505801858384
-0.0034439214963983326   -0.014905415235220973   -0.0017107796148175508
1.2519038612936069e-05   -0.023324572837340584   -0.0019005048046889833
-0.0043012169627463116   -0.023373050535466684   -0.0019632563891176535
-0.004309612190315346   -0.023310992714368886   -0.0020228804050337716
-0.0034439214963983326   -0.014905415235220973   -0.0017107796148175508
1.2519038612936069e-05   -0.023324572837340584   -0.0019005048046889833
-0.004309612190315346   -0.023310992714368886   -0.0020228804050337716
0.0002301089076166041   -0.014826524426642533   -0.0016593505801858384
-0.0034439214963983326   -0.014905415235220973   -0.0017107796148175508
-0.0043012169627463116   -0.023373050535466684   -0.0019632563891176535
0.00024618534428447956   -0.01485921833132712   -0.0016425816221015094
-0.0034331639899156277   -0.014948624883581486   -0.0016481641661969981
-0.0043012169627463116   -0.023373050535466684   -0.0019632563891176535
1.2519038612936069e-05   -0.023324572837340584   -0.0019005048046889833
0.00024618534428447956   -0.01485921833132712   -0.0016425816221015094
2.3704264011482844e-05   -0.02333227574899256   -0.0018805172835817446
-0.0034331639899156277   -0.014948624883581486   -0.0016481641661969981
0.0002565511404584853   -0.014861694600510856   -0.0016342845166895839
2.3704264011482844e-05   -0.02333227574899256   -0.0018805172835817446
0.00024618534428447956   -0.01485921833132712   -0.0016425816221015094
-0.0034331639899156277   -0.014948624883581486   -0.0016481641661969981
2.3704264011482844e-05   -0.02333227574899256   -0.0018805172835817446
-0.004289827854203498   -0.023417946452657573   -0.0019124951047600502
-0.0043012169627463116   -0.023373050535466684   -0.0019632563891176535
-0.0034331639899156277   -0.014948624883581486   -0.0016481641661969981
2.3704264011482844e-05   -0.02333227574899256   -0.0018805172835817446
-0.0043012169627463116   -0.023373050535466684   -0.0019632563891176535
0.00024618534428447956   -0.01485921833132712   -0.0016425816221015094
-0.0034331639899156277   -0.014948624883581486   -0.0016481641661969981
-0.004289827854203498   -0.023417946452657573   -0.0019124951047600502
0.0002565511404584853   -0.014861694600510856   -0.0016342845166895839
-0.0034155841212506104   -0.014962113171164452   -0.0015942217988620902
-0.004289827854203498   -0.023417946452657573   -0.0019124951047600502
2.3704264011482844e-05   -0.02333227574899256   -0.0018805172835817446
0.0002565511404584853   -0.014861694600510856   -0.0016342845166895839
3.088405171787065e-05   -0.02332246101219408   -0.0018696675479414236
-0.0034155841212506104   -0.014962113171164452   -0.0015942217988620902
0.0002640973862797156   -0.01483350296685495   -0.0016349734177790666
3.088405171787065e-05   -0.02332246101219408   -0.0018696675479414236
0.0002565511404584853   -0.014861694600510856   -0.0016342845166895839
-0.0034155841212506104   -0.014962113171164452   -0.0015942217988620902
3.088405171787065e-05   -0.02332246101219408   -0.0018696675479414236
-0.004272936660440204   -0.02344597500099864   -0.0018707442440928127
-0.004289827854203498   -0.023417946452657573   -0.0019124951047600502
-0.0034155841212506104   -0.014962113171164452   -0.0015942217988620902
3.088405171787065e-05   -0.02332246101219408   -0.0018696675479414236
-0.004289827854203498   -0.023417946452657573   -0.0019124951047600502
0.0002565511404584853   -0.014861694600510856   -0.0016342845166895839
0.0002301089076166041   -0.014826524426642533   -0.0016593505801858384
-3.111057610990478e-06   -0.023299589413744135   -0.0019292435162473322
0.004070188490015026   -0.014910494182724809   -0.0016098218554261882
0.00024618534428447956   -0.01485921833132712   -0.0016425816221015094
-3.111057610990478e-06   -0.023299589413744135   -0.0019292435162473322
0.00445149454935683   -0.023338254855124693   -0.0019024699937974581
0.004070188490015026   -0.014910494182724809   -0.0016098218554261882
0.004470591719396001   -0.02332831241629819   -0.0019052658378595272
0.00024618534428447956   -0.01485921833132712   -0.0016425816221015094
0.004084270062482468   -0.014905734386620618   -0.0016487290966048956
0.004470591719396001   -0.02332831241629819   -0.0019052658378595272
0.004070188490015026   -0.014910494182724809   -0.0016098218554261882
0.00024618534428447956   -0.01485921833132712   -0.0016425816221015094
0.004470591719396001   -0.02332831241629819   -0.0019052658378595272
1.2519038612936069e-05   -0.023324572837340584   -0.0019005048046889833
-3.111057610990478e-06   -0.023299589413744135   -0.0019292435162473322
0.00024618534428447956   -0.01485921833132712   -0.0016425816221015094
0.004470591719396001   -0.02332831241629819   -0.0019052658378595272
-3.111057610990478e-06   -0.023299589413744135   -0.0019292435162473322
0.004070188490015026   -0.014910494182724809   -0.0016098218554261882
0.00024618534428447956   -0.01485921833132712   -0.0016425816221015094
1.2519038612936069e-05   -0.023324572837340584   -0.0019005048046889833
0.004084270062482468   -0.014905734386620618   -0.0016487290966048956
0.0002565511404584853   -0.014861694600510856   -0.0016342845166895839
1.2519038612936069e-05   -0.023324572837340584   -0.0019005048046889833
0.004470591719396001   -0.02332831241629819   -0.0019052658378595272
0.004084270062482468   -0.014905734386620618   -0.0016487290966048956
0.004472292305345911   -0.023302420493676316   -0.001916341188525093
0.0002565511404584853   -0.014861694600510856   -0.0016342845166895839
0.004074135513550299   -0.014871412010866409   -0.0016954856859199758
0.004472292305345911   -0.023302420493676316   -0.001916341188525093
0.004084270062482468   -0.014905734386620618   -0.0016487290966048956
0.0002565511404584853   -0.014861694600510856   -0.0016342845166895839
0.004472292305345911   -0.023302420493676316   -0.001916341188525093
2.3704264011482844e-05   -0.02333227574899256   -0.0018805172835817446
1.2519038612936069e-05   -0.023324572837340584   -0.0019005048046889833
0.0002565511404584853   -0.014861694600510856   -0.0016342845166895839
0.004472292305345911   -0.023302420493676316   -0.001916341188525093
1.2519038612936069e-05   -0.023324572837340584   -0.0019005048046889833
0.004084270062482468   -0.014905734386620618   -0.0016487290966048956
0.0002565511404584853   -0.014861694600510856   -0.0016342845166895839
2.3704264011482844e-05   -0.02333227574899256   -0.0018805172835817446
0.004074135513550299   -0.014871412010866409   -0.0016954856859199758
0.0002640973862797156   -0.01483350296685495   -0.0016349734177790666
2.3704264011482844e-05   -0.02333227574899256   -0.0018805172835817446
0.004472292305345911   -0.023302420493676316   -0.001916341188525093
0.004074135513550299   -0.014871412010866409   -0.0016954856859199758
0.004462789918418174   -0.023254107046258052   -0.0019360121312293787
0.0002640973862797156   -0.01483350296685495   -0.0016349734177790666
0.004058837188247617   -0.014800199044123302   -0.0017510221591047145
0.004462789918418174   -0.023254107046258052   -0.0019360121312293787
0.004074135513550299   -0.014871412010866409   -0.0016954856859199758
0.0002640973862797156   -0.01483350296685495   -0.0016349734177790666
0.004462789918418174   -0.023254107046258052   -0.0019360121312293787
3.088405171787065e-05   -0.02332246101219408   -0.0018696675479414236
2.3704264011482844e-05   -0.02333227574899256   -0.0018805172835817446
0.0002640973862797156   -0.01483350296685495   -0.0016349734177790666
0.004462789918418174   -0.023254107046258052   -0.0019360121312293787
2.3704264011482844e-05   -0.02333227574899256   -0.0018805172835817446
0.004074135513550299   -0.014871412010866409   -0.0016954856859199758
0.004070188490015026   -0.014910494182724809   -0.0016098218554261882
0.00445149454935683   -0.023338254855124693   -0.0019024699937974581
0.008443573145057328   -0.015062753678850363   -0.001610999688213368
0.004084270062482468   -0.014905734386620618   -0.0016487290966048956
0.00445149454935683   -0.023338254855124693   -0.0019024699937974581
0.009370452874163366   -0.023409273845290502   -0.0019279981752449078
0.008443573145057328   -0.015062753678850363   -0.001610999688213368
0.009362210621110575   -0.02337566829041344   -0.00196479447594453
0.004084270062482468   -0.014905734386620618   -0.0016487290966048956
0.008370454229388105   -0.015036402496396576   -0.0017127261358404029
0.009362210621110575   -0.02337566829041344   -0.00196479447594453
0.008443573145057328   -0.015062753678850363   -0.001610999688213368
0.004084270062482468   -0.014905734386620618   -0.0016487290966048956
0.009362210621110575   -0.02337566829041344   -0.00196479447594453
0.004470591719396001   -0.02332831241629819   -0.0019052658378595272
0.00445149454935683   -0.023338254855124693   -0.0019024699937974581
0.004084270062482468   -0.014905734386620618   -0.0016487290966048956
0.009362210621110575   -0.02337566829041344   -0.00196479447594453
0.00445149454935683   -0.023338254855124693   -0.0019024699937974581
0.008443573145057328   -0.015062753678850363   -0.001610999688213368
0.004084270062482468   -0.014905734386620618   -0.0016487290966048956
0.004470591719396001   -0.02332831241629819   -0.0019052658378595272
0.008370454229388105   -0.015036402496396576   -0.0017127261358404029
0.004074135513550299   -0.014871412010866409   -0.0016954856859199758
0.004470591719396001   -0.02332831241629819   -0.0019052658378595272
0.009362210621110575   -0.02337566829041344   -0.00196479447594453
0.008370454229388105   -0.015036402496396576   -0.0017127261358404029
0.009339122545244232   -0.02333344641064712   -0.002015025300217292
0.004074135513550299   -0.014871412010866409   -0.0016954856859199758
0.008297419303369713   -0.014983572377645731   -0.0018286071029786992
0.009339122545244232   -0.02333344641064712   -0.002015025300217292
0.008370454229388105   -0.015036402496396576   -0.0017127261358404029
0.004074135513550299   -0.014871412010866409   -0.0016954856859199758
0.009339122545244232   -0.02333344641064712   -0.002015025300217292
0.004472292305345911   -0.023302420493676316   -0.001916341188525093
0.004470591719396001   -0.02332831241629819   -0.0019052658378595272
0.004074135513550299   -0.014871412010866409   -0.0016954856859199758
0.009339122545244232   -0.02333344641064712   -0.002015025300217292
0.004470591719396001   -0.02332831241629819   -0.0019052658378595272
0.008370454229388105   -0.015036402496396576   -0.0017127261358404029
0.004074135513550299   -0.014871412010866409   -0.0016954856859199758
0.004472292305345911   -0.023302420493676316   -0.001916341188525093
0.008297419303369713   -0.014983572377645731   -0.0018286071029786992
0.004058837188247617   -0.014800199044123302   -0.0017510221591047145
0.004472292305345911   -0.023302420493676316   -0.001916341188525093
0.009339122545244232   -0.02333344641064712   -0.002015025300217292
0.008297419303369713   -0.014983572377645731   -0.0018286071029786992
0.009275545124410877   -0.02325304264813889   -0.0020785931991193795
0.004058837188247617   -0.014800199044123302   -0.0017510221591047145
0.008167450668984649   -0.014872832225416365   -0.001958657729841886
0.009275545124410877   -0.02325304264813889   -0.0020785931991193795
0.008297419303369713   -0.014983572377645731   -0.0018286071029786992
0.004058837188247617   -0.014800199044123302   -0.0017510221591047145
0.009275545124410877   -0.02325304264813889   -0.0020785931991193795
0.004462789918418174   -0.023254107046258052   -0.0019360121312293787
0.004472292305345911   -0.023302420493676316   -0.001916341188525093
0.004058837188247617   -0.014800199044123302   -0.0017510221591047145
0.009275545124410877   -0.02325304264813889   -0.0020785931991193795
0.004472292305345911   -0.023302420493676316   -0.001916341188525093
0.008297419303369713   -0.014983572377645731   -0.0018286071029786992
-0.013458585269918227   -0.0235050626421167   -0.002416083422326816
-0.014781849440581007   -0.03261589194935784   -0.0024606450099555195
-0.008736376873219596   -0.02337714740698961   -0.002183750258397695
-0.013593322403198473   -0.023638908589088983   -0.002285422129087661
-0.014781849440581007   -0.03261589194935784   -0.0024606450099555195
-0.009713828387682833   -0.032563813251345504   -0.002275670919781488
-0.008736376873219596   -0.02337714740698961   -0.002183750258397695
-0.009709767639789304   -0.03264815773865527   -0.002220324618086716
-0.013593322403198473   -0.023638908589088983   -0.002285422129087661
-0.008746671276378733   -0.023476074090146036   -0.002093481794724387
-0.009709767639789304   -0.03264815773865527   -0.002220324618086716
-0.008736376873219596   -0.02337714740698961   -0.002183750258397695
-0.013593322403198473   -0.023638908589088983   -0.002285422129087661
-0.009709767639789304   -0.03264815773865527   -0.002220324618086716
-0.014844637202981638   -0.03272928469710584   -0.0023933280904005127
-0.014781849440581007   -0.03261589194935784   -0.0024606450099555195
-0.013593322403198473   -0.023638908589088983   -0.002285422129087661
-0.009709767639789304   -0.03264815773865527   -0.002220324618086716
-0.014781849440581007   -0.03261589194935784   -0.0024606450099555195
-0.008736376873219596   -0.02337714740698961   -0.002183750258397695
-0.013593322403198473   -0.023638908589088983   -0.002285422129087661
-0.014844637202981638   -0.03272928469710584   -0.0023933280904005127
-0.008746671276378733   -0.023476074090146036   -0.002093481794724387
-0.013670527285544555   -0.02373363297711694   -0.0021673081441787928
-0.014844637202981638   -0.03272928469710584   -0.0023933280904005127
-0.009709767639789304   -0.03264815773865527   -0.002220324618086716
-0.008746671276378733   -0.023476074090146036   -0.002093481794724387
-0.009696548801316244   -0.03272599373518741   -0.0021741692220393813
-0.013670527285544555   -0.02373363297711694   -0.0021673081441787928
-0.008753947115278157   -0.023554523443545833   -0.002012212462672537
-0.009696548801316244   -0.03272599373518741   -0.0021741692220393813
-0.008746671276378733   -0.023476074090146036   -0.002093481794724387
-0.013670527285544555   -0.02373363297711694   -0.0021673081441787928
-0.009696548801316244   -0.03272599373518741   -0.0021741692220393813
-0.014864469736748718   -0.032821804766491255   -0.0023392390555863236
-0.014844637202981638   -0.03272928469710584   -0.0023933280904005127
-0.013670527285544555   -0.02373363297711694   -0.0021673081441787928
-0.009696548801316244   -0.03272599373518741   -0.0021741692220393813
-0.014844637202981638   -0.03272928469710584   -0.0023933280904005127
-0.008746671276378733   -0.023476074090146036   -0.002093481794724387
-0.013670527285544555   -0.02373363297711694   -0.0021673081441787928
-0.014864469736748718   -0.032821804766491255   -0.0023392390555863236
-0.008753947115278157   -0.023554523443545833   -0.002012212462672537
-0.013750034123270543   -0.023818586740915096   -0.0020632341982259822
-0.014864469736748718   -0.032821804766491255   -0.0023392390555863236
-0.009696548801316244   -0.03272599373518741   -0.0021741692220393813
-0.008753947115278157   -0.023554523443545833   -0.002012212462672537
-0.009664274527572635   -0.032803257012508996   -0.002136558296597696
-0.013750034123270543   -0.023818586740915096   -0.0020632341982259822
-0.008735618434398197   -0.02361900356406509   -0.0019387446081342177
-0.009664274527572635   -0.032803257012508996   -0.002136558296597696
-0.008753947115278157   -0.023554523443545833   -0.002012212462672537
-0.013750034123270543   -0.023818586740915096   -0.0020632341982259822
-0.009664274527572635   -0.032803257012508996   -0.002136558296597696
-0.014870925780607698   -0.032922331938222776   -0.002299516752763153
-0.014864469736748718   -0.032821804766491255   -0.0023392390555863236
-0.013750034123270543   -0.023818586740915096   -0.0020632341982259822
-0.009664274527572635   -0.032803257012508996   -0.002136558296597696
-0.014864469736748718   -0.032821804766491255   -0.0023392390555863236
-0.008753947115278157   -0.023554523443545833   -0.002012212462672537
-0.008736376873219596   -0.02337714740698961   -0.002183750258397695
-0.009713828387682833   -0.032563813251345504   -0.002275670919781488
-0.004309612190315346   -0.023310992714368886   -0.0020228804050337716
-0.008746671276378733   -0.023476074090146036   -0.002093481794724387
-0.009713828387682833   -0.032563813251345504   -0.002275670919781488
-0.005006038431263042   -0.03253387388601819   -0.002149749467487169
-0.004309612190315346   -0.023310992714368886   -0.0020228804050337716
-0.004988258780027167   -0.032584905964880666   -0.002101460334895391
-0.008746671276378733   -0.023476074090146036   -0.002093481794724387
-0.0043012169627463116   -0.023373050535466684   -0.0019632563891176535
-0.004988258780027167   -0.032584905964880666   -0.002101460334895391
-0.004309612190315346   -0.023310992714368886   -0.0020228804050337716
-0.008746671276378733   -0.023476074090146036   -0.002093481794724387
-0.004988258780027167   -0.032584905964880666   -0.002101460334895391
-0.009709767639789304   -0.03264815773865527   -0.002220324618086716
-0.009713828387682833   -0.032563813251345504   -0.002275670919781488
-0.008746671276378733   -0.023476074090146036   -0.002093481794724387
-0.004988258780027167   -0.032584905964880666   -0.002101460334895391
-0.009713828387682833   -0.032563813251345504   -0.002275670919781488
-0.004309612190315346   -0.023310992714368886   -0.0020228804050337716
-0.008746671276378733   -0.023476074090146036   -0.002093481794724387
-0.009709767639789304   -0.03264815773865527   -0.002220324618086716
-0.0043012169627463116   -0.023373050535466684   -0.0019632563891176535
-0.008753947115278157   -0.023554523443545833   -0.002012212462672537
-0.009709767639789304   -0.03264815773865527   -0.002220324618086716
-0.004988258780027167   -0.032584905964880666   -0.002101460334895391
-0.0043012169627463116   -0.023373050535466684   -0.0019632563891176535
-0.004966503407961923   -0.032631760415426404   -0.002062368448739833
-0.008753947115278157   -0.023554523443545833   -0.002012212462672537
-0.004289827854203498   -0.023417946452657573   -0.0019124951047600502
-0.004966503407961923   -0.032631760415426404   -0.002062368448739833
-0.0043012169627463116   -0.023373050535466684   -0.0019632563891176535
-0.008753947115278157   -0.023554523443545833   -0.002012212462672537
-0.004966503407961923   -0.032631760415426404   -0.002062368448739833
-0.009696548801316244   -0.03272599373518741   -0.0021741692220393813
-0.009709767639789304   -0.03264815773865527   -0.002220324618086716
-0.008753947115278157   -0.023554523443545833   -0.002012212462672537
-0.004966503407961923   -0.032631760415426404   -0.002062368448739833
-0.009709767639789304   -0.03264815773865527   -0.002220324618086716
-0.0043012169627463116   -0.023373050535466684   -0.0019632563891176535
-0.008753947115278157   -0.023554523443545833   -0.002012212462672537
-0.009696548801316244   -0.03272599373518741   -0.0021741692220393813
-0.004289827854203498   -0.023417946452657573   -0.0019124951047600502
-0.008735618434398197   -0.02361900356406509   -0.0019387446081342177
-0.009696548801316244   -0.03272599373518741   -0.0021741692220393813
-0.004966503407961923   -0.032631760415426404   -0.002062368448739833
-0.004289827854203498   -0.023417946452657573   -0.0019124951047600502
-0.0049403990888137565   -0.03267459176303818   -0.002032696082397548
-0.008735618434398197   -0.02361900356406509   -0.0019387446081342177
-0.004272936660440204   -0.02344597500099864   -0.0018707442440928127
-0.0049403990888137565   -0.03267459176303818   -0.002032696082397548
-0.004289827854203498   -0.023417946452657573   -0.0019124951047600502
-0.008735618434398197   -0.02361900356406509   -0.0019387446081342177
-0.0049403990888137565   -0.03267459176303818   -0.002032696082397548
-0.009664274527572635   -0.032803257012508996   -0.002136558296597696
-0.009696548801316244   -0.03272599373518741   -0.0021741692220393813
-0.008735618434398197   -0.02361900356406509   -0.0019387446081342177
-0.0049403990888137565   -0.03267459176303818   -0.002032696082397548
-0.009696548801316244   -0.03272599373518741   -0.0021741692220393813
-0.004289827854203498   -0.023417946452657573   -0.0019124951047600502
-0.004309612190315346   -0.023310992714368886   -0.0020228804050337716
-0.005006038431263042   -0.03253387388601819   -0.002149749467487169
-3.111057610990478e-06   -0.023299589413744135   -0.0019292435162473322
-0.0043012169627463116   -0.023373050535466684   -0.0019632563891176535
-0.005006038431263042   -0.03253387388601819   -0.002149749467487169
-0.0004256506249703841   -0.03251668842942109   -0.0020846789623953413
-3.111057610990478e-06   -0.023299589413744135   -0.0019292435162473322
-0.0004008782997392531   -0.032533784210278104   -0.0020439323092849102
-0.0043012169627463116   -0.023373050535466684   -0.0019632563891176535
1.2519038612936069e-05   -0.023324572837340584   -0.0019005048046889833
-0.0004008782997392531   -0.032533784210278104   -0.0020439323092849102
-3.111057610990478e-06   -0.023299589413744135   -0.0019292435162473322
-0.0043012169627463116   -0.023373050535466684   -0.0019632563891176535
-0.0004008782997392531   -0.032533784210278104   -0.0020439323092849102
-0.004988258780027167   -0.032584905964880666   -0.002101460334895391
-0.005006038431263042   -0.03253387388601819   -0.002149749467487169
-0.0043012169627463116   -0.023373050535466684   -0.0019632563891176535
-0.0004008782997392531   -0.032533784210278104   -0.0020439323092849102
-0.005006038431263042   -0.03253387388601819   -0.002149749467487169
-3.111057610990478e-06   -0.023299589413744135   -0.0019292435162473322
-0.0043012169627463116   -0.023373050535466684   -0.0019632563891176535
-0.004988258780027167   -0.032584905964880666   -0.002101460334895391
1.2519038612936069e-05   -0.023324572837340584   -0.0019005048046889833
-0.004289827854203498   -0.023417946452657573   -0.0019124951047600502
-0.004988258780027167   -0.032584905964880666   -0.002101460334895391
-0.0004008782997392531   -0.032533784210278104   -0.0020439323092849102
1.2519038612936069e-05   -0.023324572837340584   -0.0019005048046889833
-0.0003794006289981888   -0.032546405385530885   -0.002012304570063736
-0.004289827854203498   -0.023417946452657573   -0.0019124951047600502
2.3704264011482844e-05   -0.02333227574899256   -0.0018805172835817446
-0.0003794006289981888   -0.032546405385530885   -0.002012304570063736
1.2519038612936069e-05   -0.023324572837340584   -0.0019005048046889833
-0.004289827854203498   -0.023417946452657573   -0.0019124951047600502
-0.0003794006289981888   -0.032546405385530885   -0.002012304570063736
-0.004966503407961923   -0.032631760415426404   -0.002062368448739833
-0.004988258780027167   -0.032584905964880666   -0.002101460334895391
-0.004289827854203498   -0.023417946452657573   -0.0019124951047600502
-0.0003794006289981888   -0.032546405385530885   -0.002012304570063736
-0.004988258780027167   -0.032584905964880666   -0.002101460334895391
1.2519038612936069e-05   -0.023324572837340584   -0.0019005048046889833
-0.004289827854203498   -0.023417946452657573   -0.0019124951047600502
-0.004966503407961923   -0.032631760415426404   -0.002062368448739833
2.3704264011482844e-05   -0.02333227574899256   -0.0018805172835817446
-0.004272936660440204   -0.02344597500099864   -0.0018707442440928127
-0.004966503407961923   -0.032631760415426404   -0.002062368448739833
-0.0003794006289981888   -0.032546405385530885   -0.002012304570063736
2.3704264011482844e-05   -0.02333227574899256   -0.0018805172835817446
-0.000362975810019671   -0.03255448645162968   -0.0019901275707235786
-0.004272936660440204   -0.02344597500099864   -0.0018707442440928127
3.088405171787065e-05   -0.02332246101219408   -0.0018696675479414236
-0.000362975810019671   -0.03255448645162968   -0.0019901275707235786
2.3704264011482844e-05   -0.02333227574899256   -0.0018805172835817446
-0.004272936660440204   -0.02344597500099864   -0.0018707442440928127
-0.000362975810019671   -0.03255448645162968   -0.0019901275707235786
-0.0049403990888137565   -0.03267459176303818   -0.002032696082397548
-0.004966503407961923   -0.032631760415426404   -0.002062368448739833
-0.004272936660440204   -0.02344597500099864   -0.0018707442440928127
-0.000362975810019671   -0.03255448645162968   -0.0019901275707235786
-0.004966503407961923   -0.032631760415426404   -0.002062368448739833
2.3704264011482844e-05   -0.02333227574899256   -0.0018805172835817446
-3.111057610990478e-06   -0.023299589413744135   -0.0019292435162473322
-0.0004256506249703841   -0.03251668842942109   -0.0020846789623953413
0.00445149454935683   -0.023338254855124693   -0.0019024699937974581
1.2519038612936069e-05   -0.023324572837340584   -0.0019005048046889833
-0.0004256506249703841   -0.03251668842942109   -0.0020846789623953413
0.004294489799892317   -0.03250929457441698   -0.0020810408440568996
0.00445149454935683   -0.023338254855124693   -0.0019024699937974581
0.00432726299213293   -0.03249351209117507   -0.0020482138212607353
1.2519038612936069e-05   -0.023324572837340584   -0.0019005048046889833
0.004470591719396001   -0.02332831241629819   -0.0019052658378595272
0.00432726299213293   -0.03249351209117507   -0.0020482138212607353
0.00445149454935683   -0.023338254855124693   -0.0019024699937974581
1.2519038612936069e-05   -0.023324572837340584   -0.0019005048046889833
0.00432726299213293   -0.03249351209117507   -0.0020482138212607353
-0.0004008782997392531   -0.032533784210278104   -0.0020439323092849102
-0.0004256506249703841   -0.03251668842942109   -0.0020846789623953413
1.2519038612936069e-05   -0.023324572837340584   -0.0019005048046889833
0.00432726299213293   -0.03249351209117507   -0.0020482138212607353
-0.0004256506249703841   -0.03251668842942109   -0.0020846789623953413
0.00445149454935683   -0.023338254855124693   -0.0019024699937974581
1.2519038612936069e-05   -0.023324572837340584   -0.0019005048046889833
-0.0004008782997392531   -0.032533784210278104   -0.0020439323092849102
0.004470591719396001   -0.02332831241629819   -0.0019052658378595272
2.3704264011482844e-05   -0.02333227574899256   -0.0018805172835817446
-0.0004008782997392531   -0.032533784210278104   -0.0020439323092849102
0.00432726299213293   -0.03249351209117507   -0.0020482138212607353
0.004470591719396001   -0.02332831241629819   -0.0019052658378595272
0.004349295014859164   -0.03247515575652867   -0.0020242435745486446
2.3704264011482844e-05   -0.02333227574899256   -0.0018805172835817446
0.004472292305345911   -0.023302420493676316   -0.001916341188525093
0.004349295014859164   -0.03247515575652867   -0.0020242435745486446
0.004470591719396001   -0.02332831241629819   -0.0019052658378595272
2.3704264011482844e-05   -0.02333227574899256   -0.0018805172835817446
0.004349295014859164   -0.03247515575652867   -0.0020242435745486446
-0.0003794006289981888   -0.032546405385530885   -0.002012304570063736
-0.0004008782997392531   -0.032533784210278104   -0.0020439323092849102
2.3704264011482844e-05   -0.02333227574899256   -0.0018805172835817446
0.004349295014859164   -0.03247515575652867   -0.0020242435745486446
-0.0004008782997392531   -0.032533784210278104   -0.0020439323092849102
0.004470591719396001   -0.02332831241629819   -0.0019052658378595272
2.3704264011482844e-05   -0.02333227574899256   -0.0018805172835817446
-0.0003794006289981888   -0.032546405385530885   -0.002012304570063736
0.004472292305345911   -0.023302420493676316   -0.001916341188525093
3.088405171787065e-05   -0.02332246101219408   -0.0018696675479414236
-0.0003794006289981888   -0.032546405385530885   -0.002012304570063736
0.004349295014859164   -0.03247515575652867   -0.0020242435745486446
0.004472292305345911   -0.023302420493676316   -0.001916341188525093
0.00435398351674268   -0.03244821627127792   -0.002008949052195809
3.088405171787065e-05   -0.02332246101219408   -0.0018696675479414236
0.004462789918418174   -0.023254107046258052   -0.0019360121312293787
0.00435398351674268   -0.03244821627127792   -0.002008949052195809
0.004472292305345911   -0.023302420493676316   -0.001916341188525093
3.088405171787065e-05   -0.02332246101219408   -0.0018696675479414236
0.00435398351674268   -0.03244821627127792   -0.002008949052195809
-0.000362975810019671   -0.03255448645162968   -0.0019901275707235786
-0.0003794006289981888   -0.032546405385530885   -0.002012304570063736
3.088405171787065e-05   -0.02332246101219408   -0.0018696675479414236
0.00435398351674268   -0.03244821627127792   -0.002008949052195809
-0.0003794006289981888   -0.032546405385530885   -0.002012304570063736
0.004472292305345911   -0.023302420493676316   -0.001916341188525093
0.00445149454935683   -0.023338254855124693   -0.0019024699937974581
0.004294489799892317   -0.03250929457441698   -0.0020810408440568996
0.009370452874163366   -0.023409273845290502   -0.0019279981752449078
0.004470591719396001   -0.02332831241629819   -0.0019052658378595272
0.004294489799892317   -0.03250929457441698   -0.0020810408440568996
0.009409518382169978   -0.03249898795258682   -0.002132713033789587
0.009370452874163366   -0.023409273845290502   -0.0019279981752449078
0.009473609264259828   -0.03245721219870368   -0.0021057251706383243
0.004470591719396001   -0.02332831241629819   -0.0019052658378595272
0.009362210621110575   -0.02337566829041344   -0.00196479447594453
0.009473609264259828   -0.03245721219870368   -0.0021057251706383243
0.009370452874163366   -0.023409273845290502   -0.0019279981752449078
0.004470591719396001   -0.02332831241629819   -0.0019052658378595272
0.009473609264259828   -0.03245721219870368   -0.0021057251706383243
0.00432726299213293   -0.03249351209117507   -0.0020482138212607353
0.004294489799892317   -0.03250929457441698   -0.0020810408440568996
0.004470591719396001   -0.02332831241629819   -0.0019052658378595272
0.009473609264259828   -0.03245721219870368   -0.0021057251706383243
0.004294489799892317   -0.03250929457441698   -0.0020810408440568996
0.009370452874163366   -0.023409273845290502   -0.0019279981752449078
0.004470591719396001   -0.02332831241629819   -0.0019052658378595272
0.00432726299213293   -0.03249351209117507   -0.0020482138212607353
0.009362210621110575   -0.02337566829041344   -0.00196479447594453
0.004472292305345911   -0.023302420493676316   -0.001916341188525093
0.00432726299213293   -0.03249351209117507   -0.0020482138212607353
0.009473609264259828   -0.03245721219870368   -0.0021057251706383243
0.009362210621110575   -0.02337566829041344   -0.00196479447594453
0.009507639154783799   -0.03242424059521809   -0.0020921972689159456
0.004472292305345911   -0.023302420493676316   -0.001916341188525093
0.009339122545244232   -0.02333344641064712   -0.002015025300217292
0.009507639154783799   -0.03242424059521809   -0.0020921972689159456
0.009362210621110575   -0.02337566829041344   -0.00196479447594453
0.004472292305345911   -0.023302420493676316   -0.001916341188525093
0.009507639154783799   -0.03242424059521809   -0.0020921972689159456
0.004349295014859164   -0.03247515575652867   -0.0020242435745486446
0.00432726299213293   -0.03249351209117507   -0.0020482138212607353
0.004472292305345911   -0.023302420493676316   -0.001916341188525093
0.009507639154783799   -0.03242424059521809   -0.0020921972689159456
0.00432726299213293   -0.03249351209117507   -0.0020482138212607353
0.009362210621110575   -0.02337566829041344   -0.00196479447594453
0.004472292305345911   -0.023302420493676316   -0.001916341188525093
0.004349295014859164   -0.03247515575652867   -0.0020242435745486446
0.009339122545244232   -0.02333344641064712   -0.002015025300217292
0.004462789918418174   -0.023254107046258052   -0.0019360121312293787
0.004349295014859164   -0.03247515575652867   -0.0020242435745486446
0.009507639154783799   -0.03242424059521809   -0.0020921972689159456
0.009339122545244232   -0.02333344641064712   -0.002015025300217292
0.009516157132032998   -0.03237139816647434   -0.002092358797300301
0.004462789918418174   -0.023254107046258052   -0.0019360121312293787
0.009275545124410877   -0.02325304264813889   -0.0020785931991193795
0.009516157132032998   -0.03237139816647434   -0.002092358797300301
0.009339122545244232   -0.02333344641064712   -0.002015025300217292
0.004462789918418174   -0.023254107046258052   -0.0019360121312293787
0.009516157132032998   -0.03237139816647434   -0.002092358797300301
0.00435398351674268   -0.03244821627127792   -0.002008949052195809
0.004349295014859164   -0.03247515575652867   -0.0020242435745486446
0.004462789918418174   -0.023254107046258052   -0.0019360121312293787
0.009516157132032998   -0.03237139816647434   -0.002092358797300301
0.004349295014859164   -0.03247515575652867   -0.0020242435745486446
0.009339122545244232   -0.02333344641064712   -0.002015025300217292
-0.014781849440581007   -0.03261589194935784   -0.0024606450099555195
-0.015242193015822752   -0.04188894279632318   -0.002419389423352434
-0.009713828387682833   -0.032563813251345504   -0.002275670919781488
-0.014844637202981638   -0.03272928469710584   -0.0023933280904005127
-0.015242193015822752   -0.04188894279632318   -0.002419389423352434
-0.0101809908308581   -0.04191322190996013   -0.0022826939906688483
-0.009713828387682833   -0.032563813251345504   -0.002275670919781488
-0.010153567433699145   -0.0419827043565295   -0.002261717605405466
-0.014844637202981638   -0.03272928469710584   -0.0023933280904005127
-0.009709767639789304   -0.03264815773865527   -0.002220324618086716
-0.010153567433699145   -0.0419827043565295   -0.002261717605405466
-0.009713828387682833   -0.032563813251345504   -0.002275670919781488
-0.014844637202981638   -0.03272928469710584   -0.0023933280904005127
-0.010153567433699145   -0.0419827043565295   -0.002261717605405466
-0.015224449196112507   -0.04198191669949007   -0.0024151111889737296
-0.015242193015822752   -0.04188894279632318   -0.002419389423352434
-0.014844637202981638   -0.03272928469710584   -0.0023933280904005127
-0.010153567433699145   -0.0419827043565295   -0.002261717605405466
-0.015242193015822752   -0.04188894279632318   -0.002419389423352434
-0.009713828387682833   -0.032563813251345504   -0.002275670919781488
-0.014844637202981638   -0.03272928469710584   -0.0023933280904005127
-0.015224449196112507   -0.04198191669949007   -0.0024151111889737296
-0.009709767639789304   -0.03264815773865527   -0.002220324618086716
-0.014864469736748718   -0.032821804766491255   -0.0023392390555863236
-0.015224449196112507   -0.04198191669949007   -0.0024151111889737296
-0.010153567433699145   -0.0419827043565295   -0.002261717605405466
-0.009709767639789304   -0.03264815773865527   -0.002220324618086716
-0.01011087031829683   -0.042059722892681645   -0.002250207616377191
-0.014864469736748718   -0.032821804766491255   -0.0023392390555863236
-0.009696548801316244   -0.03272599373518741   -0.0021741692220393813
-0.01011087031829683   -0.042059722892681645   -0.002250207616377191
-0.009709767639789304   -0.03264815773865527   -0.002220324618086716
-0.014864469736748718   -0.032821804766491255   -0.0023392390555863236
-0.01011087031829683   -0.042059722892681645   -0.002250207616377191
-0.015177707733944766   -0.042072232598202176   -0.0024249785599029326
-0.015224449196112507   -0.04198191669949007   -0.0024151111889737296
-0.014864469736748718   -0.032821804766491255   -0.0023392390555863236
-0.01011087031829683   -0.042059722892681645   -0.002250207616377191
-0.015224449196112507   -0.04198191669949007   -0.0024151111889737296
-0.009709767639789304   -0.03264815773865527   -0.002220324618086716
-0.014864469736748718   -0.032821804766491255   -0.0023392390555863236
-0.015177707733944766   -0.042072232598202176   -0.0024249785599029326
-0.009696548801316244   -0.03272599373518741   -0.0021741692220393813
-0.014870925780607698   -0.032922331938222776   -0.002299516752763153
-0.015177707733944766   -0.042072232598202176   -0.0024249785599029326
-0.01011087031829683   -0.042059722892681645   -0.002250207616377191
-0.009696548801316244   -0.03272599373518741   -0.0021741692220393813
-0.010055621825929223   -0.04214958310419883   -0.00224800798412683
-0.014870925780607698   -0.032922331938222776   -0.002299516752763153
-0.009664274527572635   -0.032803257012508996   -0.002136558296597696
-0.010055621825929223   -0.04214958310419883   -0.00224800798412683
-0.009696548801316244   -0.03272599373518741   -0.0021741692220393813
-0.014870925780607698   -0.032922331938222776   -0.002299516752763153
-0.010055621825929223   -0.04214958310419883   -0.00224800798412683
-0.015101966245692785   -0.04218861055855141   -0.002449709868849047
-0.015177707733944766   -0.042072232598202176   -0.0024249785599029326
-0.014870925780607698   -0.032922331938222776   -0.002299516752763153
-0.010055621825929223   -0.04214958310419883   -0.00224800798412683
-0.015177707733944766   -0.042072232598202176   -0.0024249785599029326
-0.009696548801316244   -0.03272599373518741   -0.0021741692220393813
-0.009713828387682833   -0.032563813251345504   -0.002275670919781488
-0.0101809908308581   -0.04191322190996013   -0.0022826939906688483
-0.005006038431263042   -0.03253387388601819   -0.002149749467487169
-0.009709767639789304   -0.03264815773865527   -0.002220324618086716
-0.0101809908308581   -0.04191322190996013   -0.0022826939906688483
-0.005544793713589856   -0.04191845342530819   -0.0021918465211815657
-0.005006038431263042   -0.03253387388601819   -0.002149749467487169
-0.005508152152454478   -0.041958290043072936   -0.0021545556442366985
-0.009709767639789304   -0.03264815773865527   -0.002220324618086716
-0.004988258780027167   -0.032584905964880666   -0.002101460334895391
-0.005508152152454478   -0.041958290043072936   -0.0021545556442366985
-0.005006038431263042   -0.03253387388601819   -0.002149749467487169
-0.009709767639789304   -0.03264815773865527   -0.002220324618086716
-0.005508152152454478   -0.041958290043072936   -0.0021545556442366985
-0.010153567433699145   -0.0419827043565295   -0.002261717605405466
-0.0101809908308581   -0.04191322190996013   -0.0022826939906688483
-0.009709767639789304   -0.03264815773865527   -0.002220324618086716
-0.005508152152454478   -0.041958290043072936   -0.0021545556442366985
-0.0101809908308581   -0.04191322190996013   -0.0022826939906688483
-0.005006038431263042   -0.03253387388601819   -0.002149749467487169
-0.009709767639789304   -0.03264815773865527   -0.002220324618086716
-0.010153567433699145   -0.0419827043565295   -0.002261717605405466
-0.004988258780027167   -0.032584905964880666   -0.002101460334895391
-0.009696548801316244   -0.03272599373518741   -0.0021741692220393813
-0.010153567433699145   -0.0419827043565295   -0.002261717605405466
-0.005508152152454478   -0.041958290043072936   -0.0021545556442366985
-0.004988258780027167   -0.032584905964880666   -0.002101460334895391
-0.005466778248357862   -0.0420067606230401   -0.002126766000751023
-0.009696548801316244   -0.03272599373518741   -0.0021741692220393813
-0.004966503407961923   -0.032631760415426404   -0.002062368448739833
-0.005466778248357862   -0.0420067606230401   -0.002126766000751023
-0.004988258780027167   -0.032584905964880666   -0.002101460334895391
-0.009696548801316244   -0.03272599373518741   -0.0021741692220393813
-0.005466778248357862   -0.0420067606230401   -0.002126766000751023
-0.01011087031829683   -0.042059722892681645   -0.002250207616377191
-0.010153567433699145   -0.0419827043565295   -0.002261717605405466
-0.009696548801316244   -0.03272599373518741   -0.0021741692220393813
-0.005466778248357862   -0.0420067606230401   -0.002126766000751023
-0.010153567433699145   -0.0419827043565295   -0.002261717605405466
-0.004988258780027167   -0.032584905964880666   -0.002101460334895391
-0.009696548801316244   -0.03272599373518741   -0.0021741692220393813
-0.01011087031829683   -0.042059722892681645   -0.002250207616377191
-0.004966503407961923   -0.032631760415426404   -0.002062368448739833
-0.009664274527572635   -0.032803257012508996   -0.002136558296597696
-0.01011087031829683   -0.042059722892681645   -0.002250207616377191
-0.005466778248357862   -0.0420067606230401   -0.002126766000751023
-0.004966503407961923   -0.032631760415426404   -0.002062368448739833
-0.005422201937758283   -0.042064016351341264   -0.0021087870650916586
-0.009664274527572635   -0.032803257012508996   -0.002136558296597696
-0.0049403990888137565   -0.03267459176303818   -0.002032696082397548
-0.005422201937758283   -0.042064016351341264   -0.0021087870650916586
-0.004966503407961923   -0.032631760415426404   -0.002062368448739833
-0.009664274527572635   -0.032803257012508996   -0.002136558296597696
-0.005422201937758283   -0.042064016351341264   -0.0021087870650916586
-0.010055621825929223   -0.04214958310419883   -0.00224800798412683
-0.01011087031829683   -0.042059722892681645   -0.002250207616377191
-0.009664274527572635   -0.032803257012508996   -0.002136558296597696
-0.005422201937758283   -0.042064016351341264   -0.0021087870650916586
-0.01011087031829683   -0.042059722892681645   -0.002250207616377191
-0.004966503407961923   -0.032631760415426404   -0.002062368448739833
-0.005006038431263042   -0.03253387388601819   -0.002149749467487169
-0.005544793713589856   -0.04191845342530819   -0.0021918465211815657
-0.0004256506249703841   -0.03251668842942109   -0.0020846789623953413
-0.004988258780027167   -0.032584905964880666   -0.002101460334895391
-0.005544793713589856   -0.04191845342530819   -0.0021918465211815657
-0.0010397268631603658   -0.04189382985368754   -0.0021547812539786495
-0.0004256506249703841   -0.03251668842942109   -0.0020846789623953413
-0.0009964212533191753   -0.041903017779218225   -0.0021019883726945913
-0.004988258780027167   -0.032584905964880666   -0.002101460334895391
-0.0004008782997392531   -0.032533784210278104   -0.0020439323092849102
-0.0009964212533191753   -0.041903017779218225   -0.0021019883726945913
-0.0004256506249703841   -0.03251668842942109   -0.0020846789623953413
-0.004988258780027167   -0.032584905964880666   -0.002101460334895391
-0.0009964212533191753   -0.041903017779218225   -0.0021019883726945913
-0.005508152152454478   -0.041958290043072936   -0.0021545556442366985
-0.005544793713589856   -0.04191845342530819   -0.0021918465211815657
-0.004988258780027167   -0.032584905964880666   -0.002101460334895391
-0.0009964212533191753   -0.041903017779218225   -0.0021019883726945913
-0.005544793713589856   -0.04191845342530819   -0.0021918465211815657
-0.0004256506249703841   -0.03251668842942109   -0.0020846789623953413
-0.004988258780027167   -0.032584905964880666   -0.002101460334895391
-0.005508152152454478   -0.041958290043072936   -0.0021545556442366985
-0.0004008782997392531   -0.032533784210278104   -0.0020439323092849102
-0.004966503407961923   -0.032631760415426404   -0.002062368448739833
-0.005508152152454478   -0.041958290043072936   -0.0021545556442366985
-0.0009964212533191753   -0.041903017779218225   -0.0021019883726945913
-0.0004008782997392531   -0.032533784210278104   -0.0020439323092849102
-0.0009554454150514171   -0.04192016706549009   -0.0020586306834246026
-0.004966503407961923   -0.032631760415426404   -0.002062368448739833
-0.0003794006289981888   -0.032546405385530885   -0.002012304570063736
-0.0009554454150514171   -0.04192016706549009   -0.0020586306834246026
-0.0004008782997392531   -0.032533784210278104   -0.0020439323092849102
-0.004966503407961923   -0.032631760415426404   -0.002062368448739833
-0.0009554454150514171   -0.04192016706549009   -0.0020586306834246026
-0.005466778248357862   -0.0420067606230401   -0.002126766000751023
-0.005508152152454478   -0.041958290043072936   -0.0021545556442366985
-0.004966503407961923   -0.032631760415426404   -0.002062368448739833
-0.0009554454150514171   -0.04192016706549009   -0.0020586306834246026
-0.005508152152454478   -0.041958290043072936   -0.0021545556442366985
-0.0004008782997392531   -0.032533784210278104   -0.0020439323092849102
-0.004966503407961923   -0.032631760415426404   -0.002062368448739833
-0.005466778248357862   -0.0420067606230401   -0.002126766000751023
-0.0003794006289981888   -0.032546405385530885   -0.002012304570063736
-0.0049403990888137565   -0.03267459176303818   -0.002032696082397548
-0.005466778248357862   -0.0420067606230401   -0.002126766000751023
-0.0009554454150514171   -0.04192016706549009   -0.0020586306834246026
-0.0003794006289981888   -0.032546405385530885   -0.002012304570063736
-0.0009206325725658713   -0.04194566746873476   -0.0020250370874557388
-0.0049403990888137565   -0.03267459176303818   -0.002032696082397548
-0.000362975810019671   -0.03255448645162968   -0.0019901275707235786
-0.0009206325725658713   -0.04194566746873476   -0.0020250370874557388
-0.0003794006289981888   -0.032546405385530885   -0.002012304570063736
-0.0049403990888137565   -0.03267459176303818   -0.002032696082397548
-0.0009206325725658713   -0.04194566746873476   -0.0020250370874557388
-0.005422201937758283   -0.042064016351341264   -0.0021087870650916586
-0.005466778248357862   -0.0420067606230401   -0.002126766000751023
-0.0049403990888137565   -0.03267459176303818   -0.002032696082397548
-0.0009206325725658713   -0.04194566746873476   -0.0020250370874557388
-0.005466778248357862   -0.0420067606230401   -0.002126766000751023
-0.0003794006289981888   -0.032546405385530885   -0.002012304570063736
-0.0004256506249703841   -0.03251668842942109   -0.0020846789623953413
-0.0010397268631603658   -0.04189382985368754   -0.0021547812539786495
0.004294489799892317   -0.03250929457441698   -0.0020810408440568996
-0.0004008782997392531   -0.032533784210278104   -0.0020439323092849102
-0.0010397268631603658   -0.04189382985368754   -0.0021547812539786495
0.003600831111678259   -0.04183911651406788   -0.0021732801952803306
0.004294489799892317   -0.03250929457441698   -0.0020810408440568996
0.0036560397346848228   -0.0418175484315006   -0.0021052555784321055
-0.0004008782997392531   -0.032533784210278104   -0.0020439323092849102
0.00432726299213293   -0.03249351209117507   -0.0020482138212607353
0.0036560397346848228   -0.0418175484315006   -0.0021052555784321055
0.004294489799892317   -0.03250929457441698   -0.0020810408440568996
-0.0004008782997392531   -0.032533784210278104   -0.0020439323092849102
0.0036560397346848228   -0.0418175484315006   -0.0021052555784321055
-0.0009964212533191753   -0.041903017779218225   -0.0021019883726945913
-0.0010397268631603658   -0.04189382985368754   -0.0021547812539786495
-0.0004008782997392531   -0.032533784210278104   -0.0020439323092849102
0.0036560397346848228   -0.0418175484315006   -0.0021052555784321055
-0.0010397268631603658   -0.04189382985368754   -0.0021547812539786495
0.004294489799892317   -0.03250929457441698   -0.0020810408440568996
-0.0004008782997392531   -0.032533784210278104   -0.0020439323092849102
-0.0009964212533191753   -0.041903017779218225   -0.0021019883726945913
0.00432726299213293   -0.03249351209117507   -0.0020482138212607353
-0.0003794006289981888   -0.032546405385530885   -0.002012304570063736
-0.0009964212533191753   -0.041903017779218225   -0.0021019883726945913
0.0036560397346848228   -0.0418175484315006   -0.0021052555784321055
0.00432726299213293   -0.03249351209117507   -0.0020482138212607353
0.0037070895689672143   -0.04180632943817548   -0.002046637171831245
-0.0003794006289981888   -0.032546405385530885   -0.002012304570063736
0.004349295014859164   -0.03247515575652867   -0.0020242435745486446
0.0037070895689672143   -0.04180632943817548   -0.002046637171831245
0.00432726299213293   -0.03249351209117507   -0.0020482138212607353
-0.0003794006289981888   -0.032546405385530885   -0.002012304570063736
0.0037070895689672143   -0.04180632943817548   -0.002046637171831245
-0.0009554454150514171   -0.04192016706549009   -0.0020586306834246026
-0.0009964212533191753   -0.041903017779218225   -0.0021019883726945913
-0.0003794006289981888   -0.032546405385530885   -0.002012304570063736
0.0037070895689672143   -0.04180632943817548   -0.002046637171831245
-0.0009964212533191753   -0.041903017779218225   -0.0021019883726945913
0.00432726299213293   -0.03249351209117507   -0.0020482138212607353
-0.0003794006289981888   -0.032546405385530885   -0.002012304570063736
-0.0009554454150514171   -0.04192016706549009   -0.0020586306834246026
0.004349295014859164   -0.03247515575652867   -0.0020242435745486446
-0.000362975810019671   -0.03255448645162968   -0.0019901275707235786
-0.0009554454150514171   -0.04192016706549009   -0.0020586306834246026
0.0037070895689672143   -0.04180632943817548   -0.002046637171831245
0.004349295014859164   -0.03247515575652867   -0.0020242435745486446
0.0037345680974215454   -0.04180004497447099   -0.0019968108784405186
-0.000362975810019671   -0.03255448645162968   -0.0019901275707235786
0.00435398351674268   -0.03244821627127792   -0.002008949052195809
0.0037345680974215454   -0.04180004497447099   -0.0019968108784405186
0.004349295014859164   -0.03247515575652867   -0.0020242435745486446
-0.000362975810019671   -0.03255448645162968   -0.0019901275707235786
0.0037345680974215454   -0.04180004497447099   -0.0019968108784405186
-0.0009206325725658713   -0.04194566746873476   -0.0020250370874557388
-0.0009554454150514171   -0.04192016706549009   -0.0020586306834246026
-0.000362975810019671   -0.03255448645162968   -0.0019901275707235786
0.0037345680974215454   -0.04180004497447099   -0.0019968108784405186
-0.0009554454150514171   -0.04192016706549009   -0.0020586306834246026
0.004349295014859164   -0.03247515575652867   -0.0020242435745486446
0.004294489799892317   -0.03250929457441698   -0.0020810408440568996
0.003600831111678259   -0.04183911651406788   -0.0021732801952803306
0.009409518382169978   -0.03249898795258682   -0.002132713033789587
0.00432726299213293   -0.03249351209117507   -0.0020482138212607353
0.003600831111678259   -0.04183911651406788   -0.0021732801952803306
0.00856897115637306   -0.041747145915796674   -0.0022502796176797355
0.009409518382169978   -0.03249898795258682   -0.002132713033789587
0.00871290346425692   -0.04169768818670875   -0.0021609484311762663
0.00432726299213293   -0.03249351209117507   -0.0020482138212607353
0.009473609264259828   -0.03245721219870368   -0.0021057251706383243
0.00871290346425692   -0.04169768818670875   -0.0021609484311762663
0.009409518382169978   -0.03249898795258682   -0.002132713033789587
0.00432726299213293   -0.03249351209117507   -0.0020482138212607353
0.00871290346425692   -0.04169768818670875   -0.0021609484311762663
0.0036560397346848228   -0.0418175484315006   -0.0021052555784321055
0.003600831111678259   -0.04183911651406788   -0.0021732801952803306
0.00432726299213293   -0.03249351209117507   -0.0020482138212607353
0.00871290346425692   -0.04169768818670875   -0.0021609484311762663
0.003600831111678259   -0.04183911651406788   -0.0021732801952803306
0.009409518382169978   -0.03249898795258682   -0.002132713033789587
0.00432726299213293   -0.03249351209117507   -0.0020482138212607353
0.0036560397346848228   -0.0418175484315006   -0.0021052555784321055
0.009473609264259828   -0.03245721219870368   -0.0021057251706383243
0.004349295014859164   -0.03247515575652867   -0.0020242435745486446
0.0036560397346848228   -0.0418175484315006   -0.0021052555784321055
0.00871290346425692   -0.04169768818670875   -0.0021609484311762663
0.009473609264259828   -0.03245721219870368   -0.0021057251706383243
0.00881187316784121   -0.041673699916292155   -0.002085015867657627
0.004349295014859164   -0.03247515575652867   -0.0020242435745486446
0.009507639154783799   -0.03242424059521809   -0.0020921972689159456
0.00881187316784121   -0.041673699916292155   -0.002085015867657627
0.009473609264259828   -0.03245721219870368   -0.0021057251706383243
0.004349295014859164   -0.03247515575652867   -0.0020242435745486446
0.00881187316784121   -0.041673699916292155   -0.002085015867657627
0.0037070895689672143   -0.04180632943817548   -0.002046637171831245
0.0036560397346848228   -0.0418175484315006   -0.0021052555784321055
0.004349295014859164   -0.03247515575652867   -0.0020242435745486446
0.00881187316784121   -0.041673699916292155   -0.002085015867657627
0.0036560397346848228   -0.0418175484315006   -0.0021052555784321055
0.009473609264259828   -0.03245721219870368   -0.0021057251706383243
0.004349295014859164   -0.03247515575652867   -0.0020242435745486446
0.0037070895689672143   -0.04180632943817548   -0.002046637171831245
0.009507639154783799   -0.03242424059521809   -0.0020921972689159456
0.00435398351674268   -0.03244821627127792   -0.002008949052195809
0.0037070895689672143   -0.04180632943817548   -0.002046637171831245
0.00881187316784121   -0.041673699916292155   -0.002085015867657627
0.009507639154783799   -0.03242424059521809   -0.0020921972689159456
0.008899842614699076   -0.0416476469448036   -0.002023038873140922
0.00435398351674268   -0.03244821627127792   -0.002008949052195809
0.009516157132032998   -0.03237139816647434   -0.002092358797300301
0.008899842614699076   -0.0416476469448036   -0.002023038873140922
0.009507639154783799   -0.03242424059521809   -0.0020921972689159456
0.00435398351674268   -0.03244821627127792   -0.002008949052195809
0.008899842614699076   -0.0416476469448036   -0.002023038873140922
0.0037345680974215454   -0.04180004497447099   -0.0019968108784405186
0.0037070895689672143   -0.04180632943817548   -0.002046637171831245
0.00435398351674268   -0.03244821627127792   -0.002008949052195809
0.008899842614699076   -0.0416476469448036   -0.002023038873140922
0.0037070895689672143   -0.04180632943817548   -0.002046637171831245
0.009507639154783799   -0.03242424059521809   -0.0020921972689159456
-0.015242193015822752   -0.04188894279632318   -0.002419389423352434
-0.014833024297917234   -0.05074209050225317   -0.002313423804481421
-0.0101809908308581   -0.04191322190996013   -0.0022826939906688483
-0.015224449196112507   -0.04198191669949007   -0.0024151111889737296
-0.014833024297917234   -0.05074209050225317   -0.002313423804481421
-0.010138892036851511   -0.05084405328864212   -0.0022311484345293327
-0.0101809908308581   -0.04191322190996013   -0.0022826939906688483
-0.010079447847336925   -0.05089590549926173   -0.002243612853505272
-0.015224449196112507   -0.04198191669949007   -0.0024151111889737296
-0.010153567433699145   -0.0419827043565295   -0.002261717605405466
-0.010079447847336925   -0.05089590549926173   -0.002243612853505272
-0.0101809908308581   -0.04191322190996013   -0.0022826939906688483
-0.015224449196112507   -0.04198191669949007   -0.0024151111889737296
-0.010079447847336925   -0.05089590549926173   -0.002243612853505272
-0.01472570703792296   -0.05081210470055348   -0.002372281003725158
-0.014833024297917234   -0.05074209050225317   -0.002313423804481421
-0.015224449196112507   -0.04198191669949007   -0.0024151111889737296
-0.010079447847336925   -0.05089590549926173   -0.002243612853505272
-0.014833024297917234   -0.05074209050225317   -0.002313423804481421
-0.0101809908308581   -0.04191322190996013   -0.0022826939906688483
-0.015224449196112507   -0.04198191669949007   -0.0024151111889737296
-0.01472570703792296   -0.05081210470055348   -0.002372281003725158
-0.010153567433699145   -0.0419827043565295   -0.002261717605405466
-0.015177707733944766   -0.042072232598202176   -0.0024249785599029326
-0.01472570703792296   -0.05081210470055348   -0.002372281003725158
-0.010079447847336925   -0.05089590549926173   -0.002243612853505272
-0.010153567433699145   -0.0419827043565295   -0.002261717605405466
-0.009998996635827899   -0.05096976793474053   -0.0022657773437031554
-0.015177707733944766   -0.042072232598202176   -0.0024249785599029326
-0.01011087031829683   -0.042059722892681645   -0.002250207616377191
-0.009998996635827899   -0.05096976793474053   -0.0022657773437031554
-0.010153567433699145   -0.0419827043565295   -0.002261717605405466
-0.015177707733944766   -0.042072232598202176   -0.0024249785599029326
-0.009998996635827899   -0.05096976793474053   -0.0022657773437031554
-0.01460327585251103   -0.05089808511530694   -0.002446392667369237
-0.01472570703792296   -0.05081210470055348   -0.002372281003725158
-0.015177707733944766   -0.042072232598202176   -0.0024249785599029326
-0.009998996635827899   -0.05096976793474053   -0.0022657773437031554
-0.01472570703792296   -0.05081210470055348   -0.002372281003725158
-0.010153567433699145   -0.0419827043565295   -0.002261717605405466
-0.015177707733944766   -0.042072232598202176   -0.0024249785599029326
-0.01460327585251103   -0.05089808511530694   -0.002446392667369237
-0.01011087031829683   -0.042059722892681645   -0.002250207616377191
-0.015101966245692785   -0.04218861055855141   -0.002449709868849047
-0.01460327585251103   -0.05089808511530694   -0.002446392667369237
-0.009998996635827899   -0.05096976793474053   -0.0022657773437031554
-0.01011087031829683   -0.042059722892681645   -0.002250207616377191
-0.009912687009593482   -0.05107014830049251   -0.0022979258515744925
-0.015101966245692785   -0.04218861055855141   -0.002449709868849047
-0.010055621825929223   -0.04214958310419883   -0.00224800798412683
-0.009912687009593482   -0.05107014830049251   -0.0022979258515744925
-0.01011087031829683   -0.042059722892681645   -0.002250207616377191
-0.015101966245692785   -0.04218861055855141   -0.002449709868849047
-0.009912687009593482   -0.05107014830049251   -0.0022979258515744925
-0.014436609982951739   -0.05102899029266053   -0.0025360435980428557
-0.01460327585251103   -0.05089808511530694   -0.002446392667369237
-0.015101966245692785   -0.04218861055855141   -0.002449709868849047
-0.009912687009593482   -0.05107014830049251   -0.0022979258515744925
-0.01460327585251103   -0.05089808511530694   -0.002446392667369237
-0.01011087031829683   -0.042059722892681645   -0.002250207616377191
-0.0101809908308581   -0.04191322190996013   -0.0022826939906688483
-0.010138892036851511   -0.05084405328864212   -0.0022311484345293327
-0.005544793713589856   -0.04191845342530819   -0.0021918465211815657
-0.010153567433699145   -0.0419827043565295   -0.002261717605405466
-0.010138892036851511   -0.05084405328864212   -0.0022311484345293327
-0.005930766619367231   -0.050884344747684204   -0.002178501803494475
-0.005544793713589856   -0.04191845342530819   -0.0021918465211815657
-0.005866050874257621   -0.050911285835326135   -0.0021513464347915033
-0.010153567433699145   -0.0419827043565295   -0.002261717605405466
-0.005508152152454478   -0.041958290043072936   -0.0021545556442366985
-0.005866050874257621   -0.050911285835326135   -0.0021513464347915033
-0.005544793713589856   -0.04191845342530819   -0.0021918465211815657
-0.010153567433699145   -0.0419827043565295   -0.002261717605405466
-0.005866050874257621   -0.050911285835326135   -0.0021513464347915033
-0.010079447847336925   -0.05089590549926173   -0.002243612853505272
-0.010138892036851511   -0.05084405328864212   -0.0022311484345293327
-0.010153567433699145   -0.0419827043565295   -0.002261717605405466
-0.005866050874257621   -0.050911285835326135   -0.0021513464347915033
-0.010138892036851511   -0.05084405328864212   -0.0022311484345293327
-0.005544793713589856   -0.04191845342530819   -0.0021918465211815657
-0.010153567433699145   -0.0419827043565295   -0.002261717605405466
-0.010079447847336925   -0.05089590549926173   -0.002243612853505272
-0.005508152152454478   -0.041958290043072936   -0.0021545556442366985
-0.01011087031829683   -0.042059722892681645   -0.002250207616377191
-0.010079447847336925   -0.05089590549926173   -0.002243612853505272
-0.005866050874257621   -0.050911285835326135   -0.0021513464347915033
-0.005508152152454478   -0.041958290043072936   -0.0021545556442366985
-0.005796442090996183   -0.050959386207146184   -0.002133772550712651
-0.01011087031829683   -0.042059722892681645   -0.002250207616377191
-0.005466778248357862   -0.0420067606230401   -0.002126766000751023
-0.005796442090996183   -0.050959386207146184   -0.002133772550712651
-0.005508152152454478   -0.041958290043072936   -0.0021545556442366985
-0.01011087031829683   -0.042059722892681645   -0.002250207616377191
-0.005796442090996183   -0.050959386207146184   -0.002133772550712651
-0.009998996635827899   -0.05096976793474053   -0.0022657773437031554
-0.010079447847336925   -0.05089590549926173   -0.002243612853505272
-0.01011087031829683   -0.042059722892681645   -0.002250207616377191
-0.005796442090996183   -0.050959386207146184   -0.002133772550712651
-0.010079447847336925   -0.05089590549926173   -0.002243612853505272
-0.005508152152454478   -0.041958290043072936   -0.0021545556442366985
-0.01011087031829683   -0.042059722892681645   -0.002250207616377191
-0.009998996635827899   -0.05096976793474053   -0.0022657773437031554
-0.005466778248357862   -0.0420067606230401   -0.002126766000751023
-0.010055621825929223   -0.04214958310419883   -0.00224800798412683
-0.009998996635827899   -0.05096976793474053   -0.0022657773437031554
-0.005796442090996183   -0.050959386207146184   -0.002133772550712651
-0.005466778248357862   -0.0420067606230401   -0.002126766000751023
-0.0057248928733724894   -0.051029252496052155   -0.0021262501402202374
-0.010055621825929223   -0.04214958310419883   -0.00224800798412683
-0.005422201937758283   -0.042064016351341264   -0.0021087870650916586
-0.0057248928733724894   -0.051029252496052155   -0.0021262501402202374
-0.005466778248357862   -0.0420067606230401   -0.002126766000751023
-0.010055621825929223   -0.04214958310419883   -0.00224800798412683
-0.0057248928733724894   -0.051029252496052155   -0.0021262501402202374
-0.009912687009593482   -0.05107014830049251   -0.0022979258515744925
-0.009998996635827899   -0.05096976793474053   -0.0022657773437031554
-0.010055621825929223   -0.04214958310419883   -0.00224800798412683
-0.0057248928733724894   -0.051029252496052155   -0.0021262501402202374
-0.009998996635827899   -0.05096976793474053   -0.0022657773437031554
-0.005466778248357862   -0.0420067606230401   -0.002126766000751023
-0.005544793713589856   -0.04191845342530819   -0.0021918465211815657
-0.005930766619367231   -0.050884344747684204   -0.002178501803494475
-0.0010397268631603658   -0.04189382985368754   -0.0021547812539786495
-0.005508152152454478   -0.041958290043072936   -0.0021545556442366985
-0.005930766619367231   -0.050884344747684204   -0.002178501803494475
-0.0018500291350542724   -0.050853307338039076   -0.0021698803731720643
-0.0010397268631603658   -0.04189382985368754   -0.0021547812539786495
-0.0017784529908937427   -0.05085388510321553   -0.0021044642113415618
-0.005508152152454478   -0.041958290043072936   -0.0021545556442366985
-0.0009964212533191753   -0.041903017779218225   -0.0021019883726945913
-0.0017784529908937427   -0.05085388510321553   -0.0021044642113415618
-0.0010397268631603658   -0.04189382985368754   -0.0021547812539786495
-0.005508152152454478   -0.041958290043072936   -0.0021545556442366985
-0.0017784529908937427   -0.05085388510321553   -0.0021044642113415618
-0.005866050874257621   -0.050911285835326135   -0.0021513464347915033
-0.005930766619367231   -0.050884344747684204   -0.002178501803494475
-0.005508152152454478   -0.041958290043072936   -0.0021545556442366985
-0.0017784529908937427   -0.05085388510321553   -0.0021044642113415618
-0.005930766619367231   -0.050884344747684204   -0.002178501803494475
-0.0010397268631603658   -0.04189382985368754   -0.0021547812539786495
-0.005508152152454478   -0.041958290043072936   -0.0021545556442366985
-0.005866050874257621   -0.050911285835326135   -0.0021513464347915033
-0.0009964212533191753   -0.041903017779218225   -0.0021019883726945913
-0.005466778248357862   -0.0420067606230401   -0.002126766000751023
-0.005866050874257621   -0.050911285835326135   -0.0021513464347915033
-0.0017784529908937427   -0.05085388510321553   -0.0021044642113415618
-0.0009964212533191753   -0.041903017779218225   -0.0021019883726945913
-0.001708747902410853   -0.050874077106803625   -0.0020486541855949903
-0.005466778248357862   -0.0420067606230401   -0.002126766000751023
-0.0009554454150514171   -0.04192016706549009   -0.0020586306834246026
-0.001708747902410853   -0.050874077106803625   -0.0020486541855949903
-0.0009964212533191753   -0.041903017779218225   -0.0021019883726945913
-0.005466778248357862   -0.0420067606230401   -0.002126766000751023
-0.001708747902410853   -0.050874077106803625   -0.0020486541855949903
-0.005796442090996183   -0.050959386207146184   -0.002133772550712651
-0.005866050874257621   -0.050911285835326135   -0.0021513464347915033
-0.005466778248357862   -0.0420067606230401   -0.002126766000751023
-0.001708747902410853   -0.050874077106803625   -0.0020486541855949903
-0.005866050874257621   -0.050911285835326135   -0.0021513464347915033
-0.0009964212533191753   -0.041903017779218225   -0.0021019883726945913
-0.005466778248357862   -0.0420067606230401   -0.002126766000751023
-0.005796442090996183   -0.050959386207146184   -0.002133772550712651
-0.0009554454150514171   -0.04192016706549009   -0.0020586306834246026
-0.005422201937758283   -0.042064016351341264   -0.0021087870650916586
-0.005796442090996183   -0.050959386207146184   -0.002133772550712651
-0.001708747902410853   -0.050874077106803625   -0.0020486541855949903
-0.0009554454150514171   -0.04192016706549009   -0.0020586306834246026
-0.0016465408639080655   -0.050915552294228575   -0.0020027838169103264
-0.005422201937758283   -0.042064016351341264   -0.0021087870650916586
-0.0009206325725658713   -0.04194566746873476   -0.0020250370874557388
-0.0016465408639080655   -0.050915552294228575   -0.0020027838169103264
-0.0009554454150514171   -0.04192016706549009   -0.0020586306834246026
-0.005422201937758283   -0.042064016351341264   -0.0021087870650916586
-0.0016465408639080655   -0.050915552294228575   -0.0020027838169103264
-0.0057248928733724894   -0.051029252496052155   -0.0021262501402202374
-0.005796442090996183   -0.050959386207146184   -0.002133772550712651
-0.005422201937758283   -0.042064016351341264   -0.0021087870650916586
-0.0016465408639080655   -0.050915552294228575   -0.0020027838169103264
-0.005796442090996183   -0.050959386207146184   -0.002133772550712651
-0.0009554454150514171   -0.04192016706549009   -0.0020586306834246026
-0.0010397268631603658   -0.04189382985368754   -0.0021547812539786495
-0.0018500291350542724   -0.050853307338039076   -0.0021698803731720643
0.003600831111678259   -0.04183911651406788   -0.0021732801952803306
-0.0009964212533191753   -0.041903017779218225   -0.0021019883726945913
-0.0018500291350542724   -0.050853307338039076   -0.0021698803731720643
0.002371149455651522   -0.050753021471271746   -0.0022087383464772033
0.003600831111678259   -0.04183911651406788   -0.0021732801952803306
0.002458667908441861   -0.05072545840271293   -0.0021054172356298607
-0.0009964212533191753   -0.041903017779218225   -0.0021019883726945913
0.0036560397346848228   -0.0418175484315006   -0.0021052555784321055
0.002458667908441861   -0.05072545840271293   -0.0021054172356298607
0.003600831111678259   -0.04183911651406788   -0.0021732801952803306
-0.0009964212533191753   -0.041903017779218225   -0.0021019883726945913
0.002458667908441861   -0.05072545840271293   -0.0021054172356298607
-0.0017784529908937427   -0.05085388510321553   -0.0021044642113415618
-0.0018500291350542724   -0.050853307338039076   -0.0021698803731720643
-0.0009964212533191753   -0.041903017779218225   -0.0021019883726945913
0.002458667908441861   -0.05072545840271293   -0.0021054172356298607
-0.0018500291350542724   -0.050853307338039076   -0.0021698803731720643
0.003600831111678259   -0.04183911651406788   -0.0021732801952803306
-0.0009964212533191753   -0.041903017779218225   -0.0021019883726945913
-0.0017784529908937427   -0.05085388510321553   -0.0021044642113415618
0.0036560397346848228   -0.0418175484315006   -0.0021052555784321055
-0.0009554454150514171   -0.04192016706549009   -0.0020586306834246026
-0.0017784529908937427   -0.05085388510321553   -0.0021044642113415618
0.002458667908441861   -0.05072545840271293   -0.0021054172356298607
0.0036560397346848228   -0.0418175484315006   -0.0021052555784321055
0.0025484247941293518   -0.05072030608966351   -0.002012316323237909
-0.0009554454150514171   -0.04192016706549009   -0.0020586306834246026
0.0037070895689672143   -0.04180632943817548   -0.002046637171831245
0.0025484247941293518   -0.05072030608966351   -0.002012316323237909
0.0036560397346848228   -0.0418175484315006   -0.0021052555784321055
-0.0009554454150514171   -0.04192016706549009   -0.0020586306834246026
0.0025484247941293518   -0.05072030608966351   -0.002012316323237909
-0.001708747902410853   -0.050874077106803625   -0.0020486541855949903
-0.0017784529908937427   -0.05085388510321553   -0.0021044642113415618
-0.0009554454150514171   -0.04192016706549009   -0.0020586306834246026
0.0025484247941293518   -0.05072030608966351   -0.002012316323237909
-0.0017784529908937427   -0.05085388510321553   -0.0021044642113415618
0.0036560397346848228   -0.0418175484315006   -0.0021052555784321055
-0.0009554454150514171   -0.04192016706549009   -0.0020586306834246026
-0.001708747902410853   -0.050874077106803625   -0.0020486541855949903
0.0037070895689672143   -0.04180632943817548   -0.002046637171831245
-0.0009206325725658713   -0.04194566746873476   -0.0020250370874557388
-0.001708747902410853   -0.050874077106803625   -0.0020486541855949903
0.0025484247941293518   -0.05072030608966351   -0.002012316323237909
0.0037070895689672143   -0.04180632943817548   -0.002046637171831245
0.0026081454603711423   -0.050733432945661135   -0.0019280874861654518
-0.0009206325725658713   -0.04194566746873476   -0.0020250370874557388
0.0037345680974215454   -0.04180004497447099   -0.0019968108784405186
0.0026081454603711423   -0.050733432945661135   -0.0019280874861654518
0.0037070895689672143   -0.04180632943817548   -0.002046637171831245
-0.0009206325725658713   -0.04194566746873476   -0.0020250370874557388
0.0026081454603711423   -0.050733432945661135   -0.0019280874861654518
-0.0016465408639080655   -0.050915552294228575   -0.0020027838169103264
-0.001708747902410853   -0.050874077106803625   -0.0020486541855949903
-0.0009206325725658713   -0.04194566746873476   -0.0020250370874557388
0.0026081454603711423   -0.050733432945661135   -0.0019280874861654518
-0.001708747902410853   -0.050874077106803625   -0.0020486541855949903
0.0037070895689672143   -0.04180632943817548   -0.002046637171831245
0.003600831111678259   -0.04183911651406788   -0.0021732801952803306
0.002371149455651522   -0.050753021471271746   -0.0022087383464772033
0.00856897115637306   -0.041747145915796674   -0.0022502796176797355
0.0036560397346848228   -0.0418175484315006   -0.0021052555784321055
0.002371149455651522   -0.050753021471271746   -0.0022087383464772033
0.006861214656892698   -0.050580594078519496   -0.002308879898525854
0.00856897115637306   -0.041747145915796674   -0.0022502796176797355
0.007094078519008863   -0.05052380822410116   -0.002158513686110778
0.0036560397346848228   -0.0418175484315006   -0.0021052555784321055
0.00871290346425692   -0.04169768818670875   -0.0021609484311762663
0.007094078519008863   -0.05052380822410116   -0.002158513686110778
0.00856897115637306   -0.041747145915796674   -0.0022502796176797355
0.0036560397346848228   -0.0418175484315006   -0.0021052555784321055
0.007094078519008863   -0.05052380822410116   -0.002158513686110778
0.002458667908441861   -0.05072545840271293   -0.0021054172356298607
0.002371149455651522   -0.050753021471271746   -0.0022087383464772033
0.0036560397346848228   -0.0418175484315006   -0.0021052555784321055
0.007094078519008863   -0.05052380822410116   -0.002158513686110778
0.002371149455651522   -0.050753021471271746   -0.0022087383464772033
0.00856897115637306   -0.041747145915796674   -0.0022502796176797355
0.0036560397346848228   -0.0418175484315006   -0.0021052555784321055
0.002458667908441861   -0.05072545840271293   -0.0021054172356298607
0.00871290346425692   -0.04169768818670875   -0.0021609484311762663
0.0037070895689672143   -0.04180632943817548   -0.002046637171831245
0.002458667908441861   -0.05072545840271293   -0.0021054172356298607
0.007094078519008863   -0.05052380822410116   -0.002158513686110778
0.00871290346425692   -0.04169768818670875   -0.0021609484311762663
0.007266549997418705   -0.050508182877615916   -0.0020217414951114636
0.0037070895689672143   -0.04180632943817548   -0.002046637171831245
0.00881187316784121   -0.041673699916292155   -0.002085015867657627
0.007266549997418705   -0.050508182877615916   -0.0020217414951114636
0.00871290346425692   -0.04169768818670875   -0.0021609484311762663
0.0037070895689672143   -0.04180632943817548   -0.002046637171831245
0.007266549997418705   -0.050508182877615916   -0.0020217414951114636
0.0025484247941293518   -0.05072030608966351   -0.002012316323237909
0.002458667908441861   -0.05072545840271293   -0.0021054172356298607
0.0037070895689672143   -0.04180632943817548   -0.002046637171831245
0.007266549997418705   -0.050508182877615916   -0.0020217414951114636
0.002458667908441861   -0.05072545840271293   -0.0021054172356298607
0.00871290346425692   -0.04169768818670875   -0.0021609484311762663
0.0037070895689672143   -0.04180632943817548   -0.002046637171831245
0.0025484247941293518   -0.05072030608966351   -0.002012316323237909
0.00881187316784121   -0.041673699916292155   -0.002085015867657627
0.0037345680974215454   -0.04180004497447099   -0.0019968108784405186
0.0025484247941293518   -0.05072030608966351   -0.002012316323237909
0.007266549997418705   -0.050508182877615916   -0.0020217414951114636
0.00881187316784121   -0.041673699916292155   -0.002085015867657627
0.007441471546733909   -0.050508047084459495   -0.0018991846340599124
0.0037345680974215454   -0.04180004497447099   -0.0019968108784405186
0.008899842614699076   -0.0416476469448036   -0.002023038873140922
0.007441471546733909   -0.050508047084459495   -0.0018991846340599124
0.00881187316784121   -0.041673699916292155   -0.002085015867657627
0.0037345680974215454   -0.04180004497447099   -0.0019968108784405186
0.007441471546733909   -0.050508047084459495   -0.0018991846340599124
0.0026081454603711423   -0.050733432945661135   -0.0019280874861654518
0.0025484247941293518   -0.05072030608966351   -0.002012316323237909
0.0037345680974215454   -0.04180004497447099   -0.0019968108784405186
0.007441471546733909   -0.050508047084459495   -0.0018991846340599124
0.0025484247941293518   -0.05072030608966351   -0.002012316323237909
0.00881187316784121   -0.041673699916292155   -0.002085015867657627
-0.014833024297917234   -0.05074209050225317   -0.002313423804481421
-0.013537210965961824   -0.0585744842996755   -0.0021575477924530954
-0.010138892036851511   -0.05084405328864212   -0.0022311484345293327
-0.01472570703792296   -0.05081210470055348   -0.002372281003725158
-0.013537210965961824   -0.0585744842996755   -0.0021575477924530954
-0.009586803497908898   -0.058758336907479926   -0.0021443199508827757
-0.010138892036851511   -0.05084405328864212   -0.0022311484345293327
-0.009488310155939744   -0.058784922959076266   -0.0021878079465094845
-0.01472570703792296   -0.05081210470055348   -0.002372281003725158
-0.010079447847336925   -0.05089590549926173   -0.002243612853505272
-0.009488310155939744   -0.058784922959076266   -0.0021878079465094845
-0.010138892036851511   -0.05084405328864212   -0.0022311484345293327
-0.01472570703792296   -0.05081210470055348   -0.002372281003725158
-0.009488310155939744   -0.058784922959076266   -0.0021878079465094845
-0.013331995295300192   -0.05861393066939104   -0.002279325171096552
-0.013537210965961824   -0.0585744842996755   -0.0021575477924530954
-0.01472570703792296   -0.05081210470055348   -0.002372281003725158
-0.009488310155939744   -0.058784922959076266   -0.0021878079465094845
-0.013537210965961824   -0.0585744842996755   -0.0021575477924530954
-0.010138892036851511   -0.05084405328864212   -0.0022311484345293327
-0.01472570703792296   -0.05081210470055348   -0.002372281003725158
-0.013331995295300192   -0.05861393066939104   -0.002279325171096552
-0.010079447847336925   -0.05089590549926173   -0.002243612853505272
-0.01460327585251103   -0.05089808511530694   -0.002446392667369237
-0.013331995295300192   -0.05861393066939104   -0.002279325171096552
-0.009488310155939744   -0.058784922959076266   -0.0021878079465094845
-0.010079447847336925   -0.05089590549926173   -0.002243612853505272
-0.009364597102031302   -0.0588486482563792   -0.0022411344306943687
-0.01460327585251103   -0.05089808511530694   -0.002446392667369237
-0.009998996635827899   -0.05096976793474053   -0.0022657773437031554
-0.009364597102031302   -0.0588486482563792   -0.0022411344306943687
-0.010079447847336925   -0.05089590549926173   -0.002243612853505272
-0.01460327585251103   -0.05089808511530694   -0.002446392667369237
-0.009364597102031302   -0.0588486482563792   -0.0022411344306943687
-0.013127339147633463   -0.0586887181150704   -0.002417122062041082
-0.013331995295300192   -0.05861393066939104   -0.002279325171096552
-0.01460327585251103   -0.05089808511530694   -0.002446392667369237
-0.009364597102031302   -0.0588486482563792   -0.0022411344306943687
-0.013331995295300192   -0.05861393066939104   -0.002279325171096552
-0.010079447847336925   -0.05089590549926173   -0.002243612853505272
-0.01460327585251103   -0.05089808511530694   -0.002446392667369237
-0.013127339147633463   -0.0586887181150704   -0.002417122062041082
-0.009998996635827899   -0.05096976793474053   -0.0022657773437031554
-0.014436609982951739   -0.05102899029266053   -0.0025360435980428557
-0.013127339147633463   -0.0586887181150704   -0.002417122062041082
-0.009364597102031302   -0.0588486482563792   -0.0022411344306943687
-0.009998996635827899   -0.05096976793474053   -0.0022657773437031554
-0.009242539009774576   -0.0589531329635662   -0.0023042069139109756
-0.014436609982951739   -0.05102899029266053   -0.0025360435980428557
-0.009912687009593482   -0.05107014830049251   -0.0022979258515744925
-0.009242539009774576   -0.0589531329635662   -0.0023042069139109756
-0.009998996635827899   -0.05096976793474053   -0.0022657773437031554
-0.014436609982951739   -0.05102899029266053   -0.0025360435980428557
-0.009242539009774576   -0.0589531329635662   -0.0023042069139109756
-0.012865198741118663   -0.05882817479873539   -0.0025706462625415347
-0.013127339147633463   -0.0586887181150704   -0.002417122062041082
-0.014436609982951739   -0.05102899029266053   -0.0025360435980428557
-0.009242539009774576   -0.0589531329635662   -0.0023042069139109756
-0.013127339147633463   -0.0586887181150704   -0.002417122062041082
-0.009998996635827899   -0.05096976793474053   -0.0022657773437031554
-0.010138892036851511   -0.05084405328864212   -0.0022311484345293327
-0.009586803497908898   -0.058758336907479926   -0.0021443199508827757
-0.005930766619367231   -0.050884344747684204   -0.002178501803494475
-0.010079447847336925   -0.05089590549926173   -0.002243612853505272
-0.009586803497908898   -0.058758336907479926   -0.0021443199508827757
-0.006165773784791054   -0.058844385338150715   -0.0021390931154692634
-0.005930766619367231   -0.050884344747684204   -0.002178501803494475
-0.0060647344117022075   -0.05885309259817254   -0.0021196149425985514
-0.010079447847336925   -0.05089590549926173   -0.002243612853505272
-0.005866050874257621   -0.050911285835326135   -0.0021513464347915033
-0.0060647344117022075   -0.05885309259817254   -0.0021196149425985514
-0.005930766619367231   -0.050884344747684204   -0.002178501803494475
-0.010079447847336925   -0.05089590549926173   -0.002243612853505272
-0.0060647344117022075   -0.05885309259817254   -0.0021196149425985514
-0.009488310155939744   -0.058784922959076266   -0.0021878079465094845
-0.009586803497908898   -0.058758336907479926   -0.0021443199508827757
-0.010079447847336925   -0.05089590549926173   -0.002243612853505272
-0.0060647344117022075   -0.05885309259817254   -0.0021196149425985514
-0.009586803497908898   -0.058758336907479926   -0.0021443199508827757
-0.005930766619367231   -0.050884344747684204   -0.002178501803494475
-0.010079447847336925   -0.05089590549926173   -0.002243612853505272
-0.009488310155939744   -0.058784922959076266   -0.0021878079465094845
-0.005866050874257621   -0.050911285835326135   -0.0021513464347915033
-0.009998996635827899   -0.05096976793474053   -0.0022657773437031554
-0.009488310155939744   -0.058784922959076266   -0.0021878079465094845
-0.0060647344117022075   -0.05885309259817254   -0.0021196149425985514
-0.005866050874257621   -0.050911285835326135   -0.0021513464347915033
-0.005960444371345353   -0.05889496504883399   -0.0021096838934614847
-0.009998996635827899   -0.05096976793474053   -0.0022657773437031554
-0.005796442090996183   -0.050959386207146184   -0.002133772550712651
-0.005960444371345353   -0.05889496504883399   -0.0021096838934614847
-0.005866050874257621   -0.050911285835326135   -0.0021513464347915033
-0.009998996635827899   -0.05096976793474053   -0.0022657773437031554
-0.005960444371345353   -0.05889496504883399   -0.0021096838934614847
-0.009364597102031302   -0.0588486482563792   -0.0022411344306943687
-0.009488310155939744   -0.058784922959076266   -0.0021878079465094845
-0.009998996635827899   -0.05096976793474053   -0.0022657773437031554
-0.005960444371345353   -0.05889496504883399   -0.0021096838934614847
-0.009488310155939744   -0.058784922959076266   -0.0021878079465094845
-0.005866050874257621   -0.050911285835326135   -0.0021513464347915033
-0.009998996635827899   -0.05096976793474053   -0.0022657773437031554
-0.009364597102031302   -0.0588486482563792   -0.0022411344306943687
-0.005796442090996183   -0.050959386207146184   -0.002133772550712651
-0.009912687009593482   -0.05107014830049251   -0.0022979258515744925
-0.009364597102031302   -0.0588486482563792   -0.0022411344306943687
-0.005960444371345353   -0.05889496504883399   -0.0021096838934614847
-0.005796442090996183   -0.050959386207146184   -0.002133772550712651
-0.0058563220729145465   -0.05897195033425802   -0.0021091797331814093
-0.009912687009593482   -0.05107014830049251   -0.0022979258515744925
-0.0057248928733724894   -0.051029252496052155   -0.0021262501402202374
-0.0058563220729145465   -0.05897195033425802   -0.0021091797331814093
-0.005796442090996183   -0.050959386207146184   -0.002133772550712651
-0.009912687009593482   -0.05107014830049251   -0.0022979258515744925
-0.0058563220729145465   -0.05897195033425802   -0.0021091797331814093
-0.009242539009774576   -0.0589531329635662   -0.0023042069139109756
-0.009364597102031302   -0.0588486482563792   -0.0022411344306943687
-0.009912687009593482   -0.05107014830049251   -0.0022979258515744925
-0.0058563220729145465   -0.05897195033425802   -0.0021091797331814093
-0.009364597102031302   -0.0588486482563792   -0.0022411344306943687
-0.005796442090996183   -0.050959386207146184   -0.002133772550712651
-0.005930766619367231   -0.050884344747684204   -0.002178501803494475
-0.006165773784791054   -0.058844385338150715   -0.0021390931154692634
-0.0018500291350542724   -0.050853307338039076   -0.0021698803731720643
-0.005866050874257621   -0.050911285835326135   -0.0021513464347915033
-0.006165773784791054   -0.058844385338150715   -0.0021390931154692634
-0.00285826759909094   -0.05882862243520801   -0.002163690881772697
-0.0018500291350542724   -0.050853307338039076   -0.0021698803731720643
-0.0027475956558671057   -0.05881724477921909   -0.0020834543546927584
-0.005866050874257621   -0.050911285835326135   -0.0021513464347915033
-0.0017784529908937427   -0.05085388510321553   -0.0021044642113415618
-0.0027475956558671057   -0.05881724477921909   -0.0020834543546927584
-0.0018500291350542724   -0.050853307338039076   -0.0021698803731720643
-0.005866050874257621   -0.050911285835326135   -0.0021513464347915033
-0.0027475956558671057   -0.05881724477921909   -0.0020834543546927584
-0.0060647344117022075   -0.05885309259817254   -0.0021196149425985514
-0.006165773784791054   -0.058844385338150715   -0.0021390931154692634
-0.005866050874257621   -0.050911285835326135   -0.0021513464347915033
-0.0027475956558671057   -0.05881724477921909   -0.0020834543546927584
-0.006165773784791054   -0.058844385338150715   -0.0021390931154692634
-0.0018500291350542724   -0.050853307338039076   -0.0021698803731720643
-0.005866050874257621   -0.050911285835326135   -0.0021513464347915033
-0.0060647344117022075   -0.05885309259817254   -0.0021196149425985514
-0.0017784529908937427   -0.05085388510321553   -0.0021044642113415618
-0.005796442090996183   -0.050959386207146184   -0.002133772550712651
-0.0060647344117022075   -0.05885309259817254   -0.0021196149425985514
-0.0027475956558671057   -0.05881724477921909   -0.0020834543546927584
-0.0017784529908937427   -0.05085388510321553   -0.0021044642113415618
-0.002640179621751897   -0.05883586481897364   -0.0020133949214716463
-0.005796442090996183   -0.050959386207146184   -0.002133772550712651
-0.001708747902410853   -0.050874077106803625   -0.0020486541855949903
-0.002640179621751897   -0.05883586481897364   -0.0020133949214716463
-0.0017784529908937427   -0.05085388510321553   -0.0021044642113415618
-0.005796442090996183   -0.050959386207146184   -0.002133772550712651
-0.002640179621751897   -0.05883586481897364   -0.0020133949214716463
-0.005960444371345353   -0.05889496504883399   -0.0021096838934614847
-0.0060647344117022075   -0.05885309259817254   -0.0021196149425985514
-0.005796442090996183   -0.050959386207146184   -0.002133772550712651
-0.002640179621751897   -0.05883586481897364   -0.0020133949214716463
-0.0060647344117022075   -0.05885309259817254   -0.0021196149425985514
-0.0017784529908937427   -0.05085388510321553   -0.0021044642113415618
-0.005796442090996183   -0.050959386207146184   -0.002133772550712651
-0.005960444371345353   -0.05889496504883399   -0.0021096838934614847
-0.001708747902410853   -0.050874077106803625   -0.0020486541855949903
-0.0057248928733724894   -0.051029252496052155   -0.0021262501402202374
-0.005960444371345353   -0.05889496504883399   -0.0021096838934614847
-0.002640179621751897   -0.05883586481897364   -0.0020133949214716463
-0.001708747902410853   -0.050874077106803625   -0.0020486541855949903
-0.0025431260408070133   -0.058888820705967876   -0.0019526323917441666
-0.0057248928733724894   -0.051029252496052155   -0.0021262501402202374
-0.0016465408639080655   -0.050915552294228575   -0.0020027838169103264
-0.0025431260408070133   -0.058888820705967876   -0.0019526323917441666
-0.001708747902410853   -0.050874077106803625   -0.0020486541855949903
-0.0057248928733724894   -0.051029252496052155   -0.0021262501402202374
-0.0025431260408070133   -0.058888820705967876   -0.0019526323917441666
-0.0058563220729145465   -0.05897195033425802   -0.0021091797331814093
-0.005960444371345353   -0.05889496504883399   -0.0021096838934614847
-0.0057248928733724894   -0.051029252496052155   -0.0021262501402202374
-0.0025431260408070133   -0.058888820705967876   -0.0019526323917441666
-0.005960444371345353   -0.05889496504883399   -0.0021096838934614847
-0.001708747902410853   -0.050874077106803625   -0.0020486541855949903
-0.0018500291350542724   -0.050853307338039076   -0.0021698803731720643
-0.00285826759909094   -0.05882862243520801   -0.002163690881772697
0.002371149455651522   -0.050753021471271746   -0.0022087383464772033
-0.0017784529908937427   -0.05085388510321553   -0.0021044642113415618
-0.00285826759909094   -0.05882862243520801   -0.002163690881772697
0.0006039027740966036   -0.05870740319692918   -0.002223491300924763
0.002371149455651522   -0.050753021471271746   -0.0022087383464772033
0.0007385502791815852   -0.0586705278540217   -0.0020827008367589757
-0.0017784529908937427   -0.05085388510321553   -0.0021044642113415618
0.002458667908441861   -0.05072545840271293   -0.0021054172356298607
0.0007385502791815852   -0.0586705278540217   -0.0020827008367589757
0.002371149455651522   -0.050753021471271746   -0.0022087383464772033
-0.0017784529908937427   -0.05085388510321553   -0.0021044642113415618
0.0007385502791815852   -0.0586705278540217   -0.0020827008367589757
-0.0027475956558671057   -0.05881724477921909   -0.0020834543546927584
-0.00285826759909094   -0.05882862243520801   -0.002163690881772697
-0.0017784529908937427   -0.05085388510321553   -0.0021044642113415618
0.0007385502791815852   -0.0586705278540217   -0.0020827008367589757
-0.00285826759909094   -0.05882862243520801   -0.002163690881772697
0.002371149455651522   -0.050753021471271746   -0.0022087383464772033
-0.0017784529908937427   -0.05085388510321553   -0.0021044642113415618
-0.0027475956558671057   -0.05881724477921909   -0.0020834543546927584
0.002458667908441861   -0.05072545840271293   -0.0021054172356298607
-0.001708747902410853   -0.050874077106803625   -0.0020486541855949903
-0.0027475956558671057   -0.05881724477921909   -0.0020834543546927584
0.0007385502791815852   -0.0586705278540217   -0.0020827008367589757
0.002458667908441861   -0.05072545840271293   -0.0021054172356298607
0.0008804717432539209   -0.058667190516291906   -0.001954809144907002
-0.001708747902410853   -0.050874077106803625   -0.0020486541855949903
0.0025484247941293518   -0.05072030608966351   -0.002012316323237909
0.0008804717432539209   -0.058667190516291906   -0.001954809144907002
0.002458667908441861   -0.05072545840271293   -0.0021054172356298607
-0.001708747902410853   -0.050874077106803625   -0.0020486541855949903
0.0008804717432539209   -0.058667190516291906   -0.001954809144907002
-0.002640179621751897   -0.05883586481897364   -0.0020133949214716463
-0.0027475956558671057   -0.05881724477921909   -0.0020834543546927584
-0.001708747902410853   -0.050874077106803625   -0.0020486541855949903
0.0008804717432539209   -0.058667190516291906   -0.001954809144907002
-0.0027475956558671057   -0.05881724477921909   -0.0020834543546927584
0.002458667908441861   -0.05072545840271293   -0.0021054172356298607
-0.001708747902410853   -0.050874077106803625   -0.0020486541855949903
-0.002640179621751897   -0.05883586481897364   -0.0020133949214716463
0.0025484247941293518   -0.05072030608966351   -0.002012316323237909
-0.0016465408639080655   -0.050915552294228575   -0.0020027838169103264
-0.002640179621751897   -0.05883586481897364   -0.0020133949214716463
0.0008804717432539209   -0.058667190516291906   -0.001954809144907002
0.0025484247941293518   -0.05072030608966351   -0.002012316323237909
0.0009842676823555053   -0.058695861642236065   -0.0018357980280390347
-0.0016465408639080655   -0.050915552294228575   -0.0020027838169103264
0.0026081454603711423   -0.050733432945661135   -0.0019280874861654518
0.0009842676823555053   -0.058695861642236065   -0.0018357980280390347
0.0025484247941293518   -0.05072030608966351   -0.002012316323237909
-0.0016465408639080655   -0.050915552294228575   -0.0020027838169103264
0.0009842676823555053   -0.058695861642236065   -0.0018357980280390347
-0.0025431260408070133   -0.058888820705967876   -0.0019526323917441666
-0.002640179621751897   -0.05883586481897364   -0.0020133949214716463
-0.0016465408639080655   -0.050915552294228575   -0.0020027838169103264
0.0009842676823555053   -0.058695861642236065   -0.0018357980280390347
-0.002640179621751897   -0.05883586481897364   -0.0020133949214716463
0.0025484247941293518   -0.05072030608966351   -0.002012316323237909
0.002371149455651522   -0.050753021471271746   -0.0022087383464772033
0.0006039027740966036   -0.05870740319692918   -0.002223491300924763
0.006861214656892698   -0.050580594078519496   -0.002308879898525854
0.002458667908441861   -0.05072545840271293   -0.0021054172356298607
0.0006039027740966036   -0.05870740319692918   -0.002223491300924763
0.004294353991750708   -0.05846924382211653   -0.0023512352542629784
0.006861214656892698   -0.050580594078519496   -0.002308879898525854
0.004635566641399627   -0.058398489074791116   -0.0021357491313844183
0.002458667908441861   -0.05072545840271293   -0.0021054172356298607
0.007094078519008863   -0.05052380822410116   -0.002158513686110778
0.004635566641399627   -0.058398489074791116   -0.0021357491313844183
0.006861214656892698   -0.050580594078519496   -0.002308879898525854
0.002458667908441861   -0.05072545840271293   -0.0021054172356298607
0.004635566641399627   -0.058398489074791116   -0.0021357491313844183
0.0007385502791815852   -0.0586705278540217   -0.0020827008367589757
0.0006039027740966036   -0.05870740319692918   -0.002223491300924763
0.002458667908441861   -0.05072545840271293   -0.0021054172356298607
0.004635566641399627   -0.058398489074791116   -0.0021357491313844183
0.0006039027740966036   -0.05870740319692918   -0.002223491300924763
0.006861214656892698   -0.050580594078519496   -0.002308879898525854
0.002458667908441861   -0.05072545840271293   -0.0021054172356298607
0.0007385502791815852   -0.0586705278540217   -0.0020827008367589757
0.007094078519008863   -0.05052380822410116   -0.002158513686110778
0.0025484247941293518   -0.05072030608966351   -0.002012316323237909
0.0007385502791815852   -0.0586705278540217   -0.0020827008367589757
0.004635566641399627   -0.058398489074791116   -0.0021357491313844183
0.007094078519008863   -0.05052380822410116   -0.002158513686110778
0.0048971954019764756   -0.05838623673274721   -0.0019362594414632922
0.0025484247941293518   -0.05072030608966351   -0.002012316323237909
0.007266549997418705   -0.050508182877615916   -0.0020217414951114636
0.0048971954019764756   -0.05838623673274721   -0.0019362594414632922
0.007094078519008863   -0.05052380822410116   -0.002158513686110778
0.0025484247941293518   -0.05072030608966351   -0.002012316323237909
0.0048971954019764756   -0.05838623673274721   -0.0019362594414632922
0.0008804717432539209   -0.058667190516291906   -0.001954809144907002
0.0007385502791815852   -0.0586705278540217   -0.0020827008367589757
0.0025484247941293518   -0.05072030608966351   -0.002012316323237909
0.0048971954019764756   -0.05838623673274721   -0.0019362594414632922
0.0007385502791815852   -0.0586705278540217   -0.0020827008367589757
0.007094078519008863   -0.05052380822410116   -0.002158513686110778
0.0025484247941293518   -0.05072030608966351   -0.002012316323237909
0.0008804717432539209   -0.058667190516291906   -0.001954809144907002
0.007266549997418705   -0.050508182877615916   -0.0020217414951114636
0.0026081454603711423   -0.050733432945661135   -0.0019280874861654518
0.0008804717432539209   -0.058667190516291906   -0.001954809144907002
0.0048971954019764756   -0.05838623673274721   -0.0019362594414632922
0.007266549997418705   -0.050508182877615916   -0.0020217414951114636
0.005168328196071277   -0.058407247980990756   -0.0017543947263365404
0.0026081454603711423   -0.050733432945661135   -0.0019280874861654518
0.007441471546733909   -0.050508047084459495   -0.0018991846340599124
0.005168328196071277   -0.058407247980990756   -0.0017543947263365404
0.007266549997418705   -0.050508182877615916   -0.0020217414951114636
0.0026081454603711423   -0.050733432945661135   -0.0019280874861654518
0.005168328196071277   -0.058407247980990756   -0.0017543947263365404
0.0009842676823555053   -0.058695861642236065   -0.0018357980280390347
0.0008804717432539209   -0.058667190516291906   -0.001954809144907002
0.0026081454603711423   -0.050733432945661135   -0.0019280874861654518
0.005168328196071277   -0.058407247980990756   -0.0017543947263365404
0.0008804717432539209   -0.058667190516291906   -0.001954809144907002
0.007266549997418705   -0.050508182877615916   -0.0020217414951114636
-0.013537210965961824   -0.0585744842996755   -0.0021575477924530954
-0.011339366297530462   -0.06472189741339386   -0.0019576604889980503
-0.009586803497908898   -0.058758336907479926   -0.0021443199508827757
-0.013331995295300192   -0.05861393066939104   -0.002279325171096552
-0.011339366297530462   -0.06472189741339386   -0.0019576604889980503
-0.008527822073386758   -0.06499405126594653   -0.0020392712847463945
-0.009586803497908898   -0.058758336907479926   -0.0021443199508827757
-0.008386057594237216   -0.06498006494761156   -0.0021061928900145614
-0.013331995295300192   -0.05861393066939104   -0.002279325171096552
-0.009488310155939744   -0.058784922959076266   -0.0021878079465094845
-0.008386057594237216   -0.06498006494761156   -0.0021061928900145614
-0.009586803497908898   -0.058758336907479926   -0.0021443199508827757
-0.013331995295300192   -0.05861393066939104   -0.002279325171096552
-0.008386057594237216   -0.06498006494761156   -0.0021061928900145614
-0.011033618697736936   -0.06471425770002134   -0.002138091309735542
-0.011339366297530462   -0.06472189741339386   -0.0019576604889980503
-0.013331995295300192   -0.05861393066939104   -0.002279325171096552
-0.008386057594237216   -0.06498006494761156   -0.0021061928900145614
-0.011339366297530462   -0.06472189741339386   -0.0019576604889980503
-0.009586803497908898   -0.058758336907479926   -0.0021443199508827757
-0.013331995295300192   -0.05861393066939104   -0.002279325171096552
-0.011033618697736936   -0.06471425770002134   -0.002138091309735542
-0.009488310155939744   -0.058784922959076266   -0.0021878079465094845
-0.013127339147633463   -0.0586887181150704   -0.002417122062041082
-0.011033618697736936   -0.06471425770002134   -0.002138091309735542
-0.008386057594237216   -0.06498006494761156   -0.0021061928900145614
-0.009488310155939744   -0.058784922959076266   -0.0021878079465094845
-0.008219297092992352   -0.06501929306136409   -0.0021831619343365043
-0.013127339147633463   -0.0586887181150704   -0.002417122062041082
-0.009364597102031302   -0.0588486482563792   -0.0022411344306943687
-0.008219297092992352   -0.06501929306136409   -0.0021831619343365043
-0.009488310155939744   -0.058784922959076266   -0.0021878079465094845
-0.013127339147633463   -0.0586887181150704   -0.002417122062041082
-0.008219297092992352   -0.06501929306136409   -0.0021831619343365043
-0.010751808053964572   -0.06476271696800961   -0.002332674229923306
-0.011033618697736936   -0.06471425770002134   -0.002138091309735542
-0.013127339147633463   -0.0586887181150704   -0.002417122062041082
-0.008219297092992352   -0.06501929306136409   -0.0021831619343365043
-0.011033618697736936   -0.06471425770002134   -0.002138091309735542
-0.009488310155939744   -0.058784922959076266   -0.0021878079465094845
-0.013127339147633463   -0.0586887181150704   -0.002417122062041082
-0.010751808053964572   -0.06476271696800961   -0.002332674229923306
-0.009364597102031302   -0.0588486482563792   -0.0022411344306943687
-0.012865198741118663   -0.05882817479873539   -0.0025706462625415347
-0.010751808053964572   -0.06476271696800961   -0.002332674229923306
-0.008219297092992352   -0.06501929306136409   -0.0021831619343365043
-0.009364597102031302   -0.0588486482563792   -0.0022411344306943687
-0.008068013890681215   -0.06511263292879102   -0.0022695362643384534
-0.012865198741118663   -0.05882817479873539   -0.0025706462625415347
-0.009242539009774576   -0.0589531329635662   -0.0023042069139109756
-0.008068013890681215   -0.06511263292879102   -0.0022695362643384534
-0.009364597102031302   -0.0588486482563792   -0.0022411344306943687
-0.012865198741118663   -0.05882817479873539   -0.0025706462625415347
-0.008068013890681215   -0.06511263292879102   -0.0022695362643384534
-0.010408077570451089   -0.06489205150736406   -0.002540578210263961
-0.010751808053964572   -0.06476271696800961   -0.002332674229923306
-0.012865198741118663   -0.05882817479873539   -0.0025706462625415347
-0.008068013890681215   -0.06511263292879102   -0.0022695362643384534
-0.010751808053964572   -0.06476271696800961   -0.002332674229923306
-0.009364597102031302   -0.0588486482563792   -0.0022411344306943687
-0.009586803497908898   -0.058758336907479926   -0.0021443199508827757
-0.008527822073386758   -0.06499405126594653   -0.0020392712847463945
-0.006165773784791054   -0.058844385338150715   -0.0021390931154692634
-0.009488310155939744   -0.058784922959076266   -0.0021878079465094845
-0.008527822073386758   -0.06499405126594653   -0.0020392712847463945
-0.006230188175657589   -0.06517030744071478   -0.0021031447045324614
-0.006165773784791054   -0.058844385338150715   -0.0021390931154692634
-0.006084738234264012   -0.06514786763359566   -0.0020826774796206316
-0.009488310155939744   -0.058784922959076266   -0.0021878079465094845
-0.0060647344117022075   -0.05885309259817254   -0.0021196149425985514
-0.006084738234264012   -0.06514786763359566   -0.0020826774796206316
-0.006165773784791054   -0.058844385338150715   -0.0021390931154692634
-0.009488310155939744   -0.058784922959076266   -0.0021878079465094845
-0.006084738234264012   -0.06514786763359566   -0.0020826774796206316
-0.008386057594237216   -0.06498006494761156   -0.0021061928900145614
-0.008527822073386758   -0.06499405126594653   -0.0020392712847463945
-0.009488310155939744   -0.058784922959076266   -0.0021878079465094845
-0.006084738234264012   -0.06514786763359566   -0.0020826774796206316
-0.008527822073386758   -0.06499405126594653   -0.0020392712847463945
-0.006165773784791054   -0.058844385338150715   -0.0021390931154692634
-0.009488310155939744   -0.058784922959076266   -0.0021878079465094845
-0.008386057594237216   -0.06498006494761156   -0.0021061928900145614
-0.0060647344117022075   -0.05885309259817254   -0.0021196149425985514
-0.009364597102031302   -0.0588486482563792   -0.0022411344306943687
-0.008386057594237216   -0.06498006494761156   -0.0021061928900145614
-0.006084738234264012   -0.06514786763359566   -0.0020826774796206316
-0.0060647344117022075   -0.05885309259817254   -0.0021196149425985514
-0.005941321032011367   -0.06517136848650905   -0.0020719706075110053
-0.009364597102031302   -0.0588486482563792   -0.0022411344306943687
-0.005960444371345353   -0.05889496504883399   -0.0021096838934614847
-0.005941321032011367   -0.06517136848650905   -0.0020719706075110053
-0.0060647344117022075   -0.05885309259817254   -0.0021196149425985514
-0.009364597102031302   -0.0588486482563792   -0.0022411344306943687
-0.005941321032011367   -0.06517136848650905   -0.0020719706075110053
-0.008219297092992352   -0.06501929306136409   -0.0021831619343365043
-0.008386057594237216   -0.06498006494761156   -0.0021061928900145614
-0.009364597102031302   -0.0588486482563792   -0.0022411344306943687
-0.005941321032011367   -0.06517136848650905   -0.0020719706075110053
-0.008386057594237216   -0.06498006494761156   -0.0021061928900145614
-0.0060647344117022075   -0.05885309259817254   -0.0021196149425985514
-0.009364597102031302   -0.0588486482563792   -0.0022411344306943687
-0.008219297092992352   -0.06501929306136409   -0.0021831619343365043
-0.005960444371345353   -0.05889496504883399   -0.0021096838934614847
-0.009242539009774576   -0.0589531329635662   -0.0023042069139109756
-0.008219297092992352   -0.06501929306136409   -0.0021831619343365043
-0.005941321032011367   -0.06517136848650905   -0.0020719706075110053
-0.005960444371345353   -0.05889496504883399   -0.0021096838934614847
-0.005809346106689739   -0.06524233114447697   -0.0020730664381192
-0.009242539009774576   -0.0589531329635662   -0.0023042069139109756
-0.0058563220729145465   -0.05897195033425802   -0.0021091797331814093
-0.005809346106689739   -0.06524233114447697   -0.0020730664381192
-0.005960444371345353   -0.05889496504883399   -0.0021096838934614847
-0.009242539009774576   -0.0589531329635662   -0.0023042069139109756
-0.005809346106689739   -0.06524233114447697   -0.0020730664381192
-0.008068013890681215   -0.06511263292879102   -0.0022695362643384534
-0.008219297092992352   -0.06501929306136409   -0.0021831619343365043
-0.009242539009774576   -0.0589531329635662   -0.0023042069139109756
-0.005809346106689739   -0.06524233114447697   -0.0020730664381192
-0.008219297092992352   -0.06501929306136409   -0.0021831619343365043
-0.005960444371345353   -0.05889496504883399   -0.0021096838934614847
-0.006165773784791054   -0.058844385338150715   -0.0021390931154692634
-0.006230188175657589   -0.06517030744071478   -0.0021031447045324614
-0.00285826759909094   -0.05882862243520801   -0.002163690881772697
-0.0060647344117022075   -0.05885309259817254   -0.0021196149425985514
-0.006230188175657589   -0.06517030744071478   -0.0021031447045324614
-0.004029483560377342   -0.06526268988992577   -0.0021786722296845995
-0.00285826759909094   -0.05882862243520801   -0.002163690881772697
-0.0038655247386339717   -0.06523028496149881   -0.0020757831904476987
-0.0060647344117022075   -0.05885309259817254   -0.0021196149425985514
-0.0027475956558671057   -0.05881724477921909   -0.0020834543546927584
-0.0038655247386339717   -0.06523028496149881   -0.0020757831904476987
-0.00285826759909094   -0.05882862243520801   -0.002163690881772697
-0.0060647344117022075   -0.05885309259817254   -0.0021196149425985514
-0.0038655247386339717   -0.06523028496149881   -0.0020757831904476987
-0.006084738234264012   -0.06514786763359566   -0.0020826774796206316
-0.006230188175657589   -0.06517030744071478   -0.0021031447045324614
-0.0060647344117022075   -0.05885309259817254   -0.0021196149425985514
-0.0038655247386339717   -0.06523028496149881   -0.0020757831904476987
-0.006230188175657589   -0.06517030744071478   -0.0021031447045324614
-0.00285826759909094   -0.05882862243520801   -0.002163690881772697
-0.0060647344117022075   -0.05885309259817254   -0.0021196149425985514
-0.006084738234264012   -0.06514786763359566   -0.0020826774796206316
-0.0027475956558671057   -0.05881724477921909   -0.0020834543546927584
-0.005960444371345353   -0.05889496504883399   -0.0021096838934614847
-0.006084738234264012   -0.06514786763359566   -0.0020826774796206316
-0.0038655247386339717   -0.06523028496149881   -0.0020757831904476987
-0.0027475956558671057   -0.05881724477921909   -0.0020834543546927584
-0.0037092210238133844   -0.06523828871417606   -0.0019815267304291754
-0.005960444371345353   -0.05889496504883399   -0.0021096838934614847
-0.002640179621751897   -0.05883586481897364   -0.0020133949214716463
-0.0037092210238133844   -0.06523828871417606   -0.0019815267304291754
-0.0027475956558671057   -0.05881724477921909   -0.0020834543546927584
-0.005960444371345353   -0.05889496504883399   -0.0021096838934614847
-0.0037092210238133844   -0.06523828871417606   -0.0019815267304291754
-0.005941321032011367   -0.06517136848650905   -0.0020719706075110053
-0.006084738234264012   -0.06514786763359566   -0.0020826774796206316
-0.005960444371345353   -0.05889496504883399   -0.0021096838934614847
-0.0037092210238133844   -0.06523828871417606   -0.0019815267304291754
-0.006084738234264012   -0.06514786763359566   -0.0020826774796206316
-0.0027475956558671057   -0.05881724477921909   -0.0020834543546927584
-0.005960444371345353   -0.05889496504883399   -0.0021096838934614847
-0.005941321032011367   -0.06517136848650905   -0.0020719706075110053
-0.002640179621751897   -0.05883586481897364   -0.0020133949214716463
-0.0058563220729145465   -0.05897195033425802   -0.0021091797331814093
-0.005941321032011367   -0.06517136848650905   -0.0020719706075110053
-0.0037092210238133844   -0.06523828871417606   -0.0019815267304291754
-0.002640179621751897   -0.05883586481897364   -0.0020133949214716463
-0.003579206977288744   -0.06529455332255117   -0.0019012850753709922
-0.0058563220729145465   -0.05897195033425802   -0.0021091797331814093
-0.0025431260408070133   -0.058888820705967876   -0.0019526323917441666
-0.003579206977288744   -0.06529455332255117   -0.0019012850753709922
-0.002640179621751897   -0.05883586481897364   -0.0020133949214716463
-0.0058563220729145465   -0.05897195033425802   -0.0021091797331814093
-0.003579206977288744   -0.06529455332255117   -0.0019012850753709922
-0.005809346106689739   -0.06524233114447697   -0.0020730664381192
-0.005941321032011367   -0.06517136848650905   -0.0020719706075110053
-0.0058563220729145465   -0.05897195033425802   -0.0021091797331814093
-0.003579206977288744   -0.06529455332255117   -0.0019012850753709922
-0.005941321032011367   -0.06517136848650905   -0.0020719706075110053
-0.002640179621751897   -0.05883586481897364   -0.0020133949214716463
-0.00285826759909094   -0.05882862243520801   -0.002163690881772697
-0.004029483560377342   -0.06526268988992577   -0.0021786722296845995
0.0006039027740966036   -0.05870740319692918   -0.002223491300924763
-0.0027475956558671057   -0.05881724477921909   -0.0020834543546927584
-0.004029483560377342   -0.06526268988992577   -0.0021786722296845995
-0.0016895842502630018   -0.06523887876022039   -0.0022676799724598356
0.0006039027740966036   -0.05870740319692918   -0.002223491300924763
-0.0014790738689831847   -0.06518806937566282   -0.0020859282865316
-0.0027475956558671057   -0.05881724477921909   -0.0020834543546927584
0.0007385502791815852   -0.0586705278540217   -0.0020827008367589757
-0.0014790738689831847   -0.06518806937566282   -0.0020859282865316
0.0006039027740966036   -0.05870740319692918   -0.002223491300924763
-0.0027475956558671057   -0.05881724477921909   -0.0020834543546927584
-0.0014790738689831847   -0.06518806937566282   -0.0020859282865316
-0.0038655247386339717   -0.06523028496149881   -0.0020757831904476987
-0.004029483560377342   -0.06526268988992577   -0.0021786722296845995
-0.0027475956558671057   -0.05881724477921909   -0.0020834543546927584
-0.0014790738689831847   -0.06518806937566282   -0.0020859282865316
-0.004029483560377342   -0.06526268988992577   -0.0021786722296845995
0.0006039027740966036   -0.05870740319692918   -0.002223491300924763
-0.0027475956558671057   -0.05881724477921909   -0.0020834543546927584
-0.0038655247386339717   -0.06523028496149881   -0.0020757831904476987
0.0007385502791815852   -0.0586705278540217   -0.0020827008367589757
-0.002640179621751897   -0.05883586481897364   -0.0020133949214716463
-0.0038655247386339717   -0.06523028496149881   -0.0020757831904476987
-0.0014790738689831847   -0.06518806937566282   -0.0020859282865316
0.0007385502791815852   -0.0586705278540217   -0.0020827008367589757
-0.0012638035538103953   -0.06517913294135463   -0.0019134084847090035
-0.002640179621751897   -0.05883586481897364   -0.0020133949214716463
0.0008804717432539209   -0.058667190516291906   -0.001954809144907002
-0.0012638035538103953   -0.06517913294135463   -0.0019134084847090035
0.0007385502791815852   -0.0586705278540217   -0.0020827008367589757
-0.002640179621751897   -0.05883586481897364   -0.0020133949214716463
-0.0012638035538103953   -0.06517913294135463   -0.0019134084847090035
-0.0037092210238133844   -0.06523828871417606   -0.0019815267304291754
-0.0038655247386339717   -0.06523028496149881   -0.0020757831904476987
-0.002640179621751897   -0.05883586481897364   -0.0020133949214716463
-0.0012638035538103953   -0.06517913294135463   -0.0019134084847090035
-0.0038655247386339717   -0.06523028496149881   -0.0020757831904476987
0.0007385502791815852   -0.0586705278540217   -0.0020827008367589757
-0.002640179621751897   -0.05883586481897364   -0.0020133949214716463
-0.0037092210238133844   -0.06523828871417606   -0.0019815267304291754
0.0008804717432539209   -0.058667190516291906   -0.001954809144907002
-0.0025431260408070133   -0.058888820705967876   -0.0019526323917441666
-0.0037092210238133844   -0.06523828871417606   -0.0019815267304291754
-0.0012638035538103953   -0.06517913294135463   -0.0019134084847090035
0.0008804717432539209   -0.058667190516291906   -0.001954809144907002
-0.001104385768892726   -0.0652210728144323   -0.0017566993584725399
-0.0025431260408070133   -0.058888820705967876   -0.0019526323917441666
0.0009842676823555053   -0.058695861642236065   -0.0018357980280390347
-0.001104385768892726   -0.0652210728144323   -0.0017566993584725399
0.0008804717432539209   -0.058667190516291906   -0.001954809144907002
-0.0025431260408070133   -0.058888820705967876   -0.0019526323917441666
-0.001104385768892726   -0.0652210728144323   -0.0017566993584725399
-0.003579206977288744   -0.06529455332255117   -0.0019012850753709922
-0.0037092210238133844   -0.06523828871417606   -0.0019815267304291754
-0.0025431260408070133   -0.058888820705967876   -0.0019526323917441666
-0.001104385768892726   -0.0652210728144323   -0.0017566993584725399
-0.0037092210238133844   -0.06523828871417606   -0.0019815267304291754
0.0008804717432539209   -0.058667190516291906   -0.001954809144907002
0.0006039027740966036   -0.05870740319692918   -0.002223491300924763
-0.0016895842502630018   -0.06523887876022039   -0.0022676799724598356
0.004294353991750708   -0.05846924382211653   -0.0023512352542629784
0.0007385502791815852   -0.0586705278540217   -0.0020827008367589757
-0.0016895842502630018   -0.06523887876022039   -0.0022676799724598356
0.0008282227477010645   -0.06501396693218192   -0.002449942763112537
0.004294353991750708   -0.05846924382211653   -0.0023512352542629784
0.0013191958562296592   -0.06490344622720876   -0.0021526593196219113
0.0007385502791815852   -0.0586705278540217   -0.0020827008367589757
0.004635566641399627   -0.058398489074791116   -0.0021357491313844183
0.0013191958562296592   -0.06490344622720876   -0.0021526593196219113
0.004294353991750708   -0.05846924382211653   -0.0023512352542629784
0.0007385502791815852   -0.0586705278540217   -0.0020827008367589757
0.0013191958562296592   -0.06490344622720876   -0.0021526593196219113
-0.0014790738689831847   -0.06518806937566282   -0.0020859282865316
-0.0016895842502630018   -0.06523887876022039   -0.0022676799724598356
0.0007385502791815852   -0.0586705278540217   -0.0020827008367589757
0.0013191958562296592   -0.06490344622720876   -0.0021526593196219113
-0.0016895842502630018   -0.06523887876022039   -0.0022676799724598356
0.004294353991750708   -0.05846924382211653   -0.0023512352542629784
0.0007385502791815852   -0.0586705278540217   -0.0020827008367589757
-0.0014790738689831847   -0.06518806937566282   -0.0020859282865316
0.004635566641399627   -0.058398489074791116   -0.0021357491313844183
0.0008804717432539209   -0.058667190516291906   -0.001954809144907002
-0.0014790738689831847   -0.06518806937566282   -0.0020859282865316
0.0013191958562296592   -0.06490344622720876   -0.0021526593196219113
0.004635566641399627   -0.058398489074791116   -0.0021357491313844183
0.0017050195152535199   -0.06488108578864943   -0.0018734992949183582
0.0008804717432539209   -0.058667190516291906   -0.001954809144907002
0.0048971954019764756   -0.05838623673274721   -0.0019362594414632922
0.0017050195152535199   -0.06488108578864943   -0.0018734992949183582
0.004635566641399627   -0.058398489074791116   -0.0021357491313844183
0.0008804717432539209   -0.058667190516291906   -0.001954809144907002
0.0017050195152535199   -0.06488108578864943   -0.0018734992949183582
-0.0012638035538103953   -0.06517913294135463   -0.0019134084847090035
-0.0014790738689831847   -0.06518806937566282   -0.0020859282865316
0.0008804717432539209   -0.058667190516291906   -0.001954809144907002
0.0017050195152535199   -0.06488108578864943   -0.0018734992949183582
-0.0014790738689831847   -0.06518806937566282   -0.0020859282865316
0.004635566641399627   -0.058398489074791116   -0.0021357491313844183
0.0008804717432539209   -0.058667190516291906   -0.001954809144907002
-0.0012638035538103953   -0.06517913294135463   -0.0019134084847090035
0.0048971954019764756   -0.05838623673274721   -0.0019362594414632922
0.0009842676823555053   -0.058695861642236065   -0.0018357980280390347
-0.0012638035538103953   -0.06517913294135463   -0.0019134084847090035
0.0017050195152535199   -0.06488108578864943   -0.0018734992949183582
0.0048971954019764756   -0.05838623673274721   -0.0019362594414632922
0.0021060587722924397   -0.06490000055474092   -0.0016185135277798747
0.0009842676823555053   -0.058695861642236065   -0.0018357980280390347
0.005168328196071277   -0.058407247980990756   -0.0017543947263365404
0.0021060587722924397   -0.06490000055474092   -0.0016185135277798747
0.0048971954019764756   -0.05838623673274721   -0.0019362594414632922
0.0009842676823555053   -0.058695861642236065   -0.0018357980280390347
0.0021060587722924397   -0.06490000055474092   -0.0016185135277798747
-0.001104385768892726   -0.0652210728144323   -0.0017566993584725399
-0.0012638035538103953   -0.06517913294135463   -0.0019134084847090035
0.0009842676823555053   -0.058695861642236065   -0.0018357980280390347
0.0021060587722924397   -0.06490000055474092   -0.0016185135277798747
-0.0012638035538103953   -0.06517913294135463   -0.0019134084847090035
0.0048971954019764756   -0.05838623673274721   -0.0019362594414632922
-0.011339366297530462   -0.06472189741339386   -0.0019576604889980503
-0.008318778828645184   -0.06837665588594592   -0.001722855829844766
-0.008527822073386758   -0.06499405126594653   -0.0020392712847463945
-0.011033618697736936   -0.06471425770002134   -0.002138091309735542
-0.008318778828645184   -0.06837665588594592   -0.001722855829844766
-0.0070096938925981195   -0.06872077798044235   -0.001929546915261156
-0.008527822073386758   -0.06499405126594653   -0.0020392712847463945
-0.006830903333792368   -0.06865285498517029   -0.0020007799412941215
-0.011033618697736936   -0.06471425770002134   -0.002138091309735542
-0.008386057594237216   -0.06498006494761156   -0.0021061928900145614
-0.006830903333792368   -0.06865285498517029   -0.0020007799412941215
-0.008527822073386758   -0.06499405126594653   -0.0020392712847463945
-0.011033618697736936   -0.06471425770002134   -0.002138091309735542
-0.006830903333792368   -0.06865285498517029   -0.0020007799412941215
-0.007937847702268245   -0.06830012389971744   -0.0019393055065725906
-0.008318778828645184   -0.06837665588594592   -0.001722855829844766
-0.011033618697736936   -0.06471425770002134   -0.002138091309735542
-0.006830903333792368   -0.06865285498517029   -0.0020007799412941215
-0.008318778828645184   -0.06837665588594592   -0.001722855829844766
-0.008527822073386758   -0.06499405126594653   -0.0020392712847463945
-0.011033618697736936   -0.06471425770002134   -0.002138091309735542
-0.007937847702268245   -0.06830012389971744   -0.0019393055065725906
-0.008386057594237216   -0.06498006494761156   -0.0021061928900145614
-0.010751808053964572   -0.06476271696800961   -0.002332674229923306
-0.007937847702268245   -0.06830012389971744   -0.0019393055065725906
-0.006830903333792368   -0.06865285498517029   -0.0020007799412941215
-0.008386057594237216   -0.06498006494761156   -0.0021061928900145614
-0.006632848219283564   -0.06865631095544318   -0.002072736626898022
-0.010751808053964572   -0.06476271696800961   -0.002332674229923306
-0.008219297092992352   -0.06501929306136409   -0.0021831619343365043
-0.006632848219283564   -0.06865631095544318   -0.002072736626898022
-0.008386057594237216   -0.06498006494761156   -0.0021061928900145614
-0.010751808053964572   -0.06476271696800961   -0.002332674229923306
-0.006632848219283564   -0.06865631095544318   -0.002072736626898022
-0.007609188672598886   -0.06830678316752951   -0.002154930320798564
-0.007937847702268245   -0.06830012389971744   -0.0019393055065725906
-0.010751808053964572   -0.06476271696800961   -0.002332674229923306
-0.006632848219283564   -0.06865631095544318   -0.002072736626898022
-0.007937847702268245   -0.06830012389971744   -0.0019393055065725906
-0.008386057594237216   -0.06498006494761156   -0.0021061928900145614
-0.010751808053964572   -0.06476271696800961   -0.002332674229923306
-0.007609188672598886   -0.06830678316752951   -0.002154930320798564
-0.008219297092992352   -0.06501929306136409   -0.0021831619343365043
-0.010408077570451089   -0.06489205150736406   -0.002540578210263961
-0.007609188672598886   -0.06830678316752951   -0.002154930320798564
-0.006632848219283564   -0.06865631095544318   -0.002072736626898022
-0.008219297092992352   -0.06501929306136409   -0.0021831619343365043
-0.0064488790867517016   -0.06873148203120585   -0.0021457180186819063
-0.010408077570451089   -0.06489205150736406   -0.002540578210263961
-0.008068013890681215   -0.06511263292879102   -0.0022695362643384534
-0.0064488790867517016   -0.06873148203120585   -0.0021457180186819063
-0.008219297092992352   -0.06501929306136409   -0.0021831619343365043
-0.010408077570451089   -0.06489205150736406   -0.002540578210263961
-0.0064488790867517016   -0.06873148203120585   -0.0021457180186819063
-0.007219327858296997   -0.06840142133465214   -0.002375196833586842
-0.007609188672598886   -0.06830678316752951   -0.002154930320798564
-0.010408077570451089   -0.06489205150736406   -0.002540578210263961
-0.0064488790867517016   -0.06873148203120585   -0.0021457180186819063
-0.007609188672598886   -0.06830678316752951   -0.002154930320798564
-0.008219297092992352   -0.06501929306136409   -0.0021831619343365043
-0.008527822073386758   -0.06499405126594653   -0.0020392712847463945
-0.0070096938925981195   -0.06872077798044235   -0.001929546915261156
-0.006230188175657589   -0.06517030744071478   -0.0021031447045324614
-0.008386057594237216   -0.06498006494761156   -0.0021061928900145614
-0.0070096938925981195   -0.06872077798044235   -0.001929546915261156
-0.006050585549105968   -0.06906576193140487   -0.0021121944155569616
-0.006230188175657589   -0.06517030744071478   -0.0021031447045324614
-0.005861988093764234   -0.06899605036610248   -0.0020623965420772865
-0.008386057594237216   -0.06498006494761156   -0.0021061928900145614
-0.006084738234264012   -0.06514786763359566   -0.0020826774796206316
-0.005861988093764234   -0.06899605036610248   -0.0020623965420772865
-0.006230188175657589   -0.06517030744071478   -0.0021031447045324614
-0.008386057594237216   -0.06498006494761156   -0.0021061928900145614
-0.005861988093764234   -0.06899605036610248   -0.0020623965420772865
-0.006830903333792368   -0.06865285498517029   -0.0020007799412941215
-0.0070096938925981195   -0.06872077798044235   -0.001929546915261156
-0.008386057594237216   -0.06498006494761156   -0.0021061928900145614
-0.005861988093764234   -0.06899605036610248   -0.0020623965420772865
-0.0070096938925981195   -0.06872077798044235   -0.001929546915261156
-0.006230188175657589   -0.06517030744071478   -0.0021031447045324614
-0.008386057594237216   -0.06498006494761156   -0.0021061928900145614
-0.006830903333792368   -0.06865285498517029   -0.0020007799412941215
-0.006084738234264012   -0.06514786763359566   -0.0020826774796206316
-0.008219297092992352   -0.06501929306136409   -0.0021831619343365043
-0.006830903333792368   -0.06865285498517029   -0.0020007799412941215
-0.005861988093764234   -0.06899605036610248   -0.0020623965420772865
-0.006084738234264012   -0.06514786763359566   -0.0020826774796206316
-0.005679623930818088   -0.0689948742618588   -0.00201198216460309
-0.008219297092992352   -0.06501929306136409   -0.0021831619343365043
-0.005941321032011367   -0.06517136848650905   -0.0020719706075110053
-0.005679623930818088   -0.0689948742618588   -0.00201198216460309
-0.006084738234264012   -0.06514786763359566   -0.0020826774796206316
-0.008219297092992352   -0.06501929306136409   -0.0021831619343365043
-0.005679623930818088   -0.0689948742618588   -0.00201198216460309
-0.006632848219283564   -0.06865631095544318   -0.002072736626898022
-0.006830903333792368   -0.06865285498517029   -0.0020007799412941215
-0.008219297092992352   -0.06501929306136409   -0.0021831619343365043
-0.005679623930818088   -0.0689948742618588   -0.00201198216460309
-0.006830903333792368   -0.06865285498517029   -0.0020007799412941215
-0.006084738234264012   -0.06514786763359566   -0.0020826774796206316
-0.008219297092992352   -0.06501929306136409   -0.0021831619343365043
-0.006632848219283564   -0.06865631095544318   -0.002072736626898022
-0.005941321032011367   -0.06517136848650905   -0.0020719706075110053
-0.008068013890681215   -0.06511263292879102   -0.0022695362643384534
-0.006632848219283564   -0.06865631095544318   -0.002072736626898022
-0.005679623930818088   -0.0689948742618588   -0.00201198216460309
-0.005941321032011367   -0.06517136848650905   -0.0020719706075110053
-0.005489516383797427   -0.06906080759497717   -0.001963565547069106
-0.008068013890681215   -0.06511263292879102   -0.0022695362643384534
-0.005809346106689739   -0.06524233114447697   -0.0020730664381192
-0.005489516383797427   -0.06906080759497717   -0.001963565547069106
-0.005941321032011367   -0.06517136848650905   -0.0020719706075110053
-0.008068013890681215   -0.06511263292879102   -0.0022695362643384534
-0.005489516383797427   -0.06906080759497717   -0.001963565547069106
-0.0064488790867517016   -0.06873148203120585   -0.0021457180186819063
-0.006632848219283564   -0.06865631095544318   -0.002072736626898022
-0.008068013890681215   -0.06511263292879102   -0.0022695362643384534
-0.005489516383797427   -0.06906080759497717   -0.001963565547069106
-0.006632848219283564   -0.06865631095544318   -0.002072736626898022
-0.005941321032011367   -0.06517136848650905   -0.0020719706075110053
-0.006230188175657589   -0.06517030744071478   -0.0021031447045324614
-0.006050585549105968   -0.06906576193140487   -0.0021121944155569616
-0.004029483560377342   -0.06526268988992577   -0.0021786722296845995
-0.006084738234264012   -0.06514786763359566   -0.0020826774796206316
-0.006050585549105968   -0.06906576193140487   -0.0021121944155569616
-0.005174544465779595   -0.06948167396482594   -0.002313384952992643
-0.004029483560377342   -0.06526268988992577   -0.0021786722296845995
-0.004943369388062647   -0.06942113360210873   -0.0021357752970122953
-0.006084738234264012   -0.06514786763359566   -0.0020826774796206316
-0.0038655247386339717   -0.06523028496149881   -0.0020757831904476987
-0.004943369388062647   -0.06942113360210873   -0.0021357752970122953
-0.004029483560377342   -0.06526268988992577   -0.0021786722296845995
-0.006084738234264012   -0.06514786763359566   -0.0020826774796206316
-0.004943369388062647   -0.06942113360210873   -0.0021357752970122953
-0.005861988093764234   -0.06899605036610248   -0.0020623965420772865
-0.006050585549105968   -0.06906576193140487   -0.0021121944155569616
-0.006084738234264012   -0.06514786763359566   -0.0020826774796206316
-0.004943369388062647   -0.06942113360210873   -0.0021357752970122953
-0.006050585549105968   -0.06906576193140487   -0.0021121944155569616
-0.004029483560377342   -0.06526268988992577   -0.0021786722296845995
-0.006084738234264012   -0.06514786763359566   -0.0020826774796206316
-0.005861988093764234   -0.06899605036610248   -0.0020623965420772865
-0.0038655247386339717   -0.06523028496149881   -0.0020757831904476987
-0.005941321032011367   -0.06517136848650905   -0.0020719706075110053
-0.005861988093764234   -0.06899605036610248   -0.0020623965420772865
-0.004943369388062647   -0.06942113360210873   -0.0021357752970122953
-0.0038655247386339717   -0.06523028496149881   -0.0020757831904476987
-0.004729137325176402   -0.06941793652659818   -0.0019587491829282455
-0.005941321032011367   -0.06517136848650905   -0.0020719706075110053
-0.0037092210238133844   -0.06523828871417606   -0.0019815267304291754
-0.004729137325176402   -0.06941793652659818   -0.0019587491829282455
-0.0038655247386339717   -0.06523028496149881   -0.0020757831904476987
-0.005941321032011367   -0.06517136848650905   -0.0020719706075110053
-0.004729137325176402   -0.06941793652659818   -0.0019587491829282455
-0.005679623930818088   -0.0689948742618588   -0.00201198216460309
-0.005861988093764234   -0.06899605036610248   -0.0020623965420772865
-0.005941321032011367   -0.06517136848650905   -0.0020719706075110053
-0.004729137325176402   -0.06941793652659818   -0.0019587491829282455
-0.005861988093764234   -0.06899605036610248   -0.0020623965420772865
-0.0038655247386339717   -0.06523028496149881   -0.0020757831904476987
-0.005941321032011367   -0.06517136848650905   -0.0020719706075110053
-0.005679623930818088   -0.0689948742618588   -0.00201198216460309
-0.0037092210238133844   -0.06523828871417606   -0.0019815267304291754
-0.005809346106689739   -0.06524233114447697   -0.0020730664381192
-0.005679623930818088   -0.0689948742618588   -0.00201198216460309
-0.004729137325176402   -0.06941793652659818   -0.0019587491829282455
-0.0037092210238133844   -0.06523828871417606   -0.0019815267304291754
-0.004499171490220969   -0.06946899716183719   -0.0017813568723639669
-0.005809346106689739   -0.06524233114447697   -0.0020730664381192
-0.003579206977288744   -0.06529455332255117   -0.0019012850753709922
-0.004499171490220969   -0.06946899716183719   -0.0017813568723639669
-0.0037092210238133844   -0.06523828871417606   -0.0019815267304291754
-0.005809346106689739   -0.06524233114447697   -0.0020730664381192
-0.004499171490220969   -0.06946899716183719   -0.0017813568723639669
-0.005489516383797427   -0.06906080759497717   -0.001963565547069106
-0.005679623930818088   -0.0689948742618588   -0.00201198216460309
-0.005809346106689739   -0.06524233114447697   -0.0020730664381192
-0.004499171490220969   -0.06946899716183719   -0.0017813568723639669
-0.005679623930818088   -0.0689948742618588   -0.00201198216460309
-0.0037092210238133844   -0.06523828871417606   -0.0019815267304291754
-0.004029483560377342   -0.06526268988992577   -0.0021786722296845995
-0.005174544465779595   -0.06948167396482594   -0.002313384952992643
-0.0016895842502630018   -0.06523887876022039   -0.0022676799724598356
-0.0038655247386339717   -0.06523028496149881   -0.0020757831904476987
-0.005174544465779595   -0.06948167396482594   -0.002313384952992643
-0.004312365230469989   -0.07   -0.002468157506663045
-0.0016895842502630018   -0.06523887876022039   -0.0022676799724598356
-0.004021547570074534   -0.07   -0.0021982345771565277
-0.0038655247386339717   -0.06523028496149881   -0.0020757831904476987
-0.0014790738689831847   -0.06518806937566282   -0.0020859282865316
-0.004021547570074534   -0.07   -0.0021982345771565277
-0.0016895842502630018   -0.06523887876022039   -0.0022676799724598356
-0.0038655247386339717   -0.06523028496149881   -0.0020757831904476987
-0.004021547570074534   -0.07   -0.0021982345771565277
-0.004943369388062647   -0.06942113360210873   -0.0021357752970122953
-0.005174544465779595   -0.06948167396482594   -0.002313384952992643
-0.0038655247386339717   -0.06523028496149881   -0.0020757831904476987
-0.004021547570074534   -0.07   -0.0021982345771565277
-0.005174544465779595   -0.06948167396482594   -0.002313384952992643
-0.0016895842502630018   -0.06523887876022039   -0.0022676799724598356
-0.0038655247386339717   -0.06523028496149881   -0.0020757831904476987
-0.004943369388062647   -0.06942113360210873   -0.0021357752970122953
-0.0014790738689831847   -0.06518806937566282   -0.0020859282865316
-0.0037092210238133844   -0.06523828871417606   -0.0019815267304291754
-0.004943369388062647   -0.06942113360210873   -0.0021357752970122953
-0.004021547570074534   -0.07   -0.0021982345771565277
-0.0014790738689831847   -0.06518806937566282   -0.0020859282865316
-0.0037292991985116443   -0.07   -0.0019251122280356985
-0.0037092210238133844   -0.06523828871417606   -0.0019815267304291754
-0.0012638035538103953   -0.06517913294135463   -0.0019134084847090035
-0.0037292991985116443   -0.07   -0.0019251122280356985
-0.0014790738689831847   -0.06518806937566282   -0.0020859282865316
-0.0037092210238133844   -0.06523828871417606   -0.0019815267304291754
-0.0037292991985116443   -0.07   -0.0019251122280356985
-0.004729137325176402   -0.06941793652659818   -0.0019587491829282455
-0.004943369388062647   -0.06942113360210873   -0.0021357752970122953
-0.0037092210238133844   -0.06523828871417606   -0.0019815267304291754
-0.0037292991985116443   -0.07   -0.0019251122280356985
-0.004943369388062647   -0.06942113360210873   -0.0021357752970122953
-0.0014790738689831847   -0.06518806937566282   -0.0020859282865316
-0.0037092210238133844   -0.06523828871417606   -0.0019815267304291754
-0.004729137325176402   -0.06941793652659818   -0.0019587491829282455
-0.0012638035538103953   -0.06517913294135463   -0.0019134084847090035
-0.003579206977288744   -0.06529455332255117   -0.0019012850753709922
-0.004729137325176402   -0.06941793652659818   -0.0019587491829282455
-0.0037292991985116443   -0.07   -0.0019251122280356985
-0.0012638035538103953   -0.06517913294135463   -0.0019134084847090035
-0.0034436802325624387   -0.07   -0.0016556048338194664
-0.003579206977288744   -0.06529455332255117   -0.0019012850753709922
-0.001104385768892726   -0.0652210728144323   -0.0017566993584725399
-0.0034436802325624387   -0.07   -0.0016556048338194664
-0.0012638035538103953   -0.06517913294135463   -0.0019134084847090035
-0.003579206977288744   -0.06529455332255117   -0.0019012850753709922
-0.0034436802325624387   -0.07   -0.0016556048338194664
-0.004499171490220969   -0.06946899716183719   -0.0017813568723639669
-0.004729137325176402   -0.06941793652659818   -0.0019587491829282455
-0.003579206977288744   -0.06529455332255117   -0.0019012850753709922
-0.0034436802325624387   -0.07   -0.0016556048338194664
-0.004729137325176402   -0.06941793652659818   -0.0019587491829282455
-0.0012638035538103953   -0.06517913294135463   -0.0019134084847090035
-0.0016895842502630018   -0.06523887876022039   -0.0022676799724598356
-0.004312365230469989   -0.07   -0.002468157506663045
0.0008282227477010645   -0.06501396693218192   -0.002449942763112537
-0.0014790738689831847   -0.06518806937566282   -0.0020859282865316
-0.004312365230469989   -0.07   -0.002468157506663045
-0.003686426608722451   -0.07   -0.002655600910589118
0.0008282227477010645   -0.06501396693218192   -0.002449942763112537
-0.0030779839522190127   -0.07   -0.0022650180475594674
-0.0014790738689831847   -0.06518806937566282   -0.0020859282865316
0.0013191958562296592   -0.06490344622720876   -0.0021526593196219113
-0.0030779839522190127   -0.07   -0.0022650180475594674
0.0008282227477010645   -0.06501396693218192   -0.002449942763112537
-0.0014790738689831847   -0.06518806937566282   -0.0020859282865316
-0.0030779839522190127   -0.07   -0.0022650180475594674
-0.004021547570074534   -0.07   -0.0021982345771565277
-0.004312365230469989   -0.07   -0.002468157506663045
-0.0014790738689831847   -0.06518806937566282   -0.0020859282865316
-0.0030779839522190127   -0.07   -0.0022650180475594674
-0.004312365230469989   -0.07   -0.002468157506663045
0.0008282227477010645   -0.06501396693218192   -0.002449942763112537
-0.0014790738689831847   -0.06518806937566282   -0.0020859282865316
-0.004021547570074534   -0.07   -0.0021982345771565277
0.0013191958562296592   -0.06490344622720876   -0.0021526593196219113
-0.0012638035538103953   -0.06517913294135463   -0.0019134084847090035
-0.004021547570074534   -0.07   -0.0021982345771565277
-0.0030779839522190127   -0.07   -0.0022650180475594674
0.0013191958562296592   -0.06490344622720876   -0.0021526593196219113
-0.002592763807870596   -0.07   -0.0018913815804306624
-0.0012638035538103953   -0.06517913294135463   -0.0019134084847090035
0.0017050195152535199   -0.06488108578864943   -0.0018734992949183582
-0.002592763807870596   -0.07   -0.0018913815804306624
0.0013191958562296592   -0.06490344622720876   -0.0021526593196219113
-0.0012638035538103953   -0.06517913294135463   -0.0019134084847090035
-0.002592763807870596   -0.07   -0.0018913815804306624
-0.0037292991985116443   -0.07   -0.0019251122280356985
-0.004021547570074534   -0.07   -0.0021982345771565277
-0.0012638035538103953   -0.06517913294135463   -0.0019134084847090035
-0.002592763807870596   -0.07   -0.0018913815804306624
-0.004021547570074534   -0.07   -0.0021982345771565277
0.0013191958562296592   -0.06490344622720876   -0.0021526593196219113
-0.0012638035538103953   -0.06517913294135463   -0.0019134084847090035
-0.0037292991985116443   -0.07   -0.0019251122280356985
0.0017050195152535199   -0.06488108578864943   -0.0018734992949183582
-0.001104385768892726   -0.0652210728144323   -0.0017566993584725399
-0.0037292991985116443   -0.07   -0.0019251122280356985
-0.002592763807870596   -0.07   -0.0018913815804306624
0.0017050195152535199   -0.06488108578864943   -0.0018734992949183582
-0.0019933847445562612   -0.07   -0.0015035008065334477
-0.001104385768892726   -0.0652210728144323   -0.0017566993584725399
0.0021060587722924397   -0.06490000055474092   -0.0016185135277798747
-0.0019933847445562612   -0.07   -0.0015035008065334477
0.0017050195152535199   -0.06488108578864943   -0.0018734992949183582
-0.001104385768892726   -0.0652210728144323   -0.0017566993584725399
-0.0019933847445562612   -0.07   -0.0015035008065334477
-0.0034436802325624387   -0.07   -0.0016556048338194664
-0.0037292991985116443   -0.07   -0.0019251122280356985
-0.001104385768892726   -0.0652210728144323   -0.0017566993584725399
-0.0019933847445562612   -0.07   -0.0015035008065334477
-0.0037292991985116443   -0.07   -0.0019251122280356985
0.0017050195152535199   -0.06488108578864943   -0.0018734992949183582
-0.008318778828645184   -0.06837665588594592   -0.001722855829844766
-0.004977001911276065   -0.06856422469994795   -0.001474683562847422
-0.0070096938925981195   -0.06872077798044235   -0.001929546915261156
-0.007937847702268245   -0.06830012389971744   -0.0019393055065725906
-0.004977001911276065   -0.06856422469994795   -0.001474683562847422
-0.005276193786132386   -0.06882955195223761   -0.0017408251928409662
-0.0070096938925981195   -0.06872077798044235   -0.001929546915261156
-0.0051409469886271025   -0.06873677831960948   -0.0018379661054309848
-0.007937847702268245   -0.06830012389971744   -0.0019393055065725906
-0.006830903333792368   -0.06865285498517029   -0.0020007799412941215
-0.0051409469886271025   -0.06873677831960948   -0.0018379661054309848
-0.0070096938925981195   -0.06872077798044235   -0.001929546915261156
-0.007937847702268245   -0.06830012389971744   -0.0019393055065725906
-0.0051409469886271025   -0.06873677831960948   -0.0018379661054309848
-0.004631719509295387   -0.06844508954802142   -0.0017021109390742686
-0.004977001911276065   -0.06856422469994795   -0.001474683562847422
-0.007937847702268245   -0.06830012389971744   -0.0019393055065725906
-0.0051409469886271025   -0.06873677831960948   -0.0018379661054309848
-0.004977001911276065   -0.06856422469994795   -0.001474683562847422
-0.0070096938925981195   -0.06872077798044235   -0.001929546915261156
-0.007937847702268245   -0.06830012389971744   -0.0019393055065725906
-0.004631719509295387   -0.06844508954802142   -0.0017021109390742686
-0.006830903333792368   -0.06865285498517029   -0.0020007799412941215
-0.007609188672598886   -0.06830678316752951   -0.002154930320798564
-0.004631719509295387   -0.06844508954802142   -0.0017021109390742686
-0.0051409469886271025   -0.06873677831960948   -0.0018379661054309848
-0.006830903333792368   -0.06865285498517029   -0.0020007799412941215
-0.004982288969423417   -0.06870262998257934   -0.001927603209801431
-0.007609188672598886   -0.06830678316752951   -0.002154930320798564
-0.006632848219283564   -0.06865631095544318   -0.002072736626898022
-0.004982288969423417   -0.06870262998257934   -0.001927603209801431
-0.006830903333792368   -0.06865285498517029   -0.0020007799412941215
-0.007609188672598886   -0.06830678316752951   -0.002154930320798564
-0.004982288969423417   -0.06870262998257934   -0.001927603209801431
-0.0043443136941644965   -0.06840852772024171   -0.0019202273949655087
-0.004631719509295387   -0.06844508954802142   -0.0017021109390742686
-0.007609188672598886   -0.06830678316752951   -0.002154930320798564
-0.004982288969423417   -0.06870262998257934   -0.001927603209801431
-0.004631719509295387   -0.06844508954802142   -0.0017021109390742686
-0.006830903333792368   -0.06865285498517029   -0.0020007799412941215
-0.007609188672598886   -0.06830678316752951   -0.002154930320798564
-0.0043443136941644965   -0.06840852772024171   -0.0019202273949655087
-0.006632848219283564   -0.06865631095544318   -0.002072736626898022
-0.007219327858296997   -0.06840142133465214   -0.002375196833586842
-0.0043443136941644965   -0.06840852772024171   -0.0019202273949655087
-0.004982288969423417   -0.06870262998257934   -0.001927603209801431
-0.006632848219283564   -0.06865631095544318   -0.002072736626898022
-0.004846388788532384   -0.06872760504852023   -0.0020092691744499863
-0.007219327858296997   -0.06840142133465214   -0.002375196833586842
-0.0064488790867517016   -0.06873148203120585   -0.0021457180186819063
-0.004846388788532384   -0.06872760504852023   -0.0020092691744499863
-0.006632848219283564   -0.06865631095544318   -0.002072736626898022
-0.007219327858296997   -0.06840142133465214   -0.002375196833586842
-0.004846388788532384   -0.06872760504852023   -0.0020092691744499863
-0.004019091628485805   -0.06843968100490923   -0.002128066862476997
-0.0043443136941644965   -0.06840852772024171   -0.0019202273949655087
-0.007219327858296997   -0.06840142133465214   -0.002375196833586842
-0.004846388788532384   -0.06872760504852023   -0.0020092691744499863
-0.0043443136941644965   -0.06840852772024171   -0.0019202273949655087
-0.006632848219283564   -0.06865631095544318   -0.002072736626898022
-0.0070096938925981195   -0.06872077798044235   -0.001929546915261156
-0.005276193786132386   -0.06882955195223761   -0.0017408251928409662
-0.006050585549105968   -0.06906576193140487   -0.0021121944155569616
-0.006830903333792368   -0.06865285498517029   -0.0020007799412941215
-0.005276193786132386   -0.06882955195223761   -0.0017408251928409662
-0.0056822735483325   -0.06899343278681946   -0.0019535956655795084
-0.006050585549105968   -0.06906576193140487   -0.0021121944155569616
-0.0055625885157755154   -0.0689105845718843   -0.001956117714031085
-0.006830903333792368   -0.06865285498517029   -0.0020007799412941215
-0.005861988093764234   -0.06899605036610248   -0.0020623965420772865
-0.0055625885157755154   -0.0689105845718843   -0.001956117714031085
-0.006050585549105968   -0.06906576193140487   -0.0021121944155569616
-0.006830903333792368   -0.06865285498517029   -0.0020007799412941215
-0.0055625885157755154   -0.0689105845718843   -0.001956117714031085
-0.0051409469886271025   -0.06873677831960948   -0.0018379661054309848
-0.005276193786132386   -0.06882955195223761   -0.0017408251928409662
-0.006830903333792368   -0.06865285498517029   -0.0020007799412941215
-0.0055625885157755154   -0.0689105845718843   -0.001956117714031085
-0.005276193786132386   -0.06882955195223761   -0.0017408251928409662
-0.006050585549105968   -0.06906576193140487   -0.0021121944155569616
-0.006830903333792368   -0.06865285498517029   -0.0020007799412941215
-0.0051409469886271025   -0.06873677831960948   -0.0018379661054309848
-0.005861988093764234   -0.06899605036610248   -0.0020623965420772865
-0.006632848219283564   -0.06865631095544318   -0.002072736626898022
-0.0051409469886271025   -0.06873677831960948   -0.0018379661054309848
-0.0055625885157755154   -0.0689105845718843   -0.001956117714031085
-0.005861988093764234   -0.06899605036610248   -0.0020623965420772865
-0.005429376925438554   -0.06888083298644952   -0.0019489114538300484
-0.006632848219283564   -0.06865631095544318   -0.002072736626898022
-0.005679623930818088   -0.0689948742618588   -0.00201198216460309
-0.005429376925438554   -0.06888083298644952   -0.0019489114538300484
-0.005861988093764234   -0.06899605036610248   -0.0020623965420772865
-0.006632848219283564   -0.06865631095544318   -0.002072736626898022
-0.005429376925438554   -0.06888083298644952   -0.0019489114538300484
-0.004982288969423417   -0.06870262998257934   -0.001927603209801431
-0.0051409469886271025   -0.06873677831960948   -0.0018379661054309848
-0.006632848219283564   -0.06865631095544318   -0.002072736626898022
-0.005429376925438554   -0.06888083298644952   -0.0019489114538300484
-0.0051409469886271025   -0.06873677831960948   -0.0018379661054309848
-0.005861988093764234   -0.06899605036610248   -0.0020623965420772865
-0.006632848219283564   -0.06865631095544318   -0.002072736626898022
-0.004982288969423417   -0.06870262998257934   -0.001927603209801431
-0.005679623930818088   -0.0689948742618588   -0.00201198216460309
-0.0064488790867517016   -0.06873148203120585   -0.0021457180186819063
-0.004982288969423417   -0.06870262998257934   -0.001927603209801431
-0.005429376925438554   -0.06888083298644952   -0.0019489114538300484
-0.005679623930818088   -0.0689948742618588   -0.00201198216460309
-0.005293942606888806   -0.06890175999300237   -0.001934071140158402
-0.0064488790867517016   -0.06873148203120585   -0.0021457180186819063
-0.005489516383797427   -0.06906080759497717   -0.001963565547069106
-0.005293942606888806   -0.06890175999300237   -0.001934071140158402
-0.005679623930818088   -0.0689948742618588   -0.00201198216460309
-0.0064488790867517016   -0.06873148203120585   -0.0021457180186819063
-0.005293942606888806   -0.06890175999300237   -0.001934071140158402
-0.004846388788532384   -0.06872760504852023   -0.0020092691744499863
-0.004982288969423417   -0.06870262998257934   -0.001927603209801431
-0.0064488790867517016   -0.06873148203120585   -0.0021457180186819063
-0.005293942606888806   -0.06890175999300237   -0.001934071140158402
-0.004982288969423417   -0.06870262998257934   -0.001927603209801431
-0.005679623930818088   -0.0689948742618588   -0.00201198216460309
-0.006050585549105968   -0.06906576193140487   -0.0021121944155569616
-0.0056822735483325   -0.06899343278681946   -0.0019535956655795084
-0.005174544465779595   -0.06948167396482594   -0.002313384952992643
-0.005861988093764234   -0.06899605036610248   -0.0020623965420772865
-0.0056822735483325   -0.06899343278681946   -0.0019535956655795084
-0.006117734652566251   -0.0690620717650197   -0.0021630358178830324
-0.005174544465779595   -0.06948167396482594   -0.002313384952992643
-0.0059937530936428045   -0.06898305490519885   -0.0020745736978566936
-0.005861988093764234   -0.06899605036610248   -0.0020623965420772865
-0.004943369388062647   -0.06942113360210873   -0.0021357752970122953
-0.0059937530936428045   -0.06898305490519885   -0.0020745736978566936
-0.005174544465779595   -0.06948167396482594   -0.002313384952992643
-0.005861988093764234   -0.06899605036610248   -0.0020623965420772865
-0.0059937530936428045   -0.06898305490519885   -0.0020745736978566936
-0.0055625885157755154   -0.0689105845718843   -0.001956117714031085
-0.0056822735483325   -0.06899343278681946   -0.0019535956655795084
-0.005861988093764234   -0.06899605036610248   -0.0020623965420772865
-0.0059937530936428045   -0.06898305490519885   -0.0020745736978566936
-0.0056822735483325   -0.06899343278681946   -0.0019535956655795084
-0.005174544465779595   -0.06948167396482594   -0.002313384952992643
-0.005861988093764234   -0.06899605036610248   -0.0020623965420772865
-0.0055625885157755154   -0.0689105845718843   -0.001956117714031085
-0.004943369388062647   -0.06942113360210873   -0.0021357752970122953
-0.005679623930818088   -0.0689948742618588   -0.00201198216460309
-0.0055625885157755154   -0.0689105845718843   -0.001956117714031085
-0.0059937530936428045   -0.06898305490519885   -0.0020745736978566936
-0.004943369388062647   -0.06942113360210873   -0.0021357752970122953
-0.005845055803923417   -0.06895800054185508   -0.0019742629172465513
-0.005679623930818088   -0.0689948742618588   -0.00201198216460309
-0.004729137325176402   -0.06941793652659818   -0.0019587491829282455
-0.005845055803923417   -0.06895800054185508   -0.0019742629172465513
-0.004943369388062647   -0.06942113360210873   -0.0021357752970122953
-0.005679623930818088   -0.0689948742618588   -0.00201198216460309
-0.005845055803923417   -0.06895800054185508   -0.0019742629172465513
-0.005429376925438554   -0.06888083298644952   -0.0019489114538300484
-0.0055625885157755154   -0.0689105845718843   -0.001956117714031085
-0.005679623930818088   -0.0689948742618588   -0.00201198216460309
-0.005845055803923417   -0.06895800054185508   -0.0019742629172465513
-0.0055625885157755154   -0.0689105845718843   -0.001956117714031085
-0.004943369388062647   -0.06942113360210873   -0.0021357752970122953
-0.005679623930818088   -0.0689948742618588   -0.00201198216460309
-0.005429376925438554   -0.06888083298644952   -0.0019489114538300484
-0.004729137325176402   -0.06941793652659818   -0.0019587491829282455
-0.005489516383797427   -0.06906080759497717   -0.001963565547069106
-0.005429376925438554   -0.06888083298644952   -0.0019489114538300484
-0.005845055803923417   -0.06895800054185508   -0.0019742629172465513
-0.004729137325176402   -0.06941793652659818   -0.0019587491829282455
-0.0056921473331013476   -0.06897844854526566   -0.0018674287488955786
-0.005489516383797427   -0.06906080759497717   -0.001963565547069106
-0.004499171490220969   -0.06946899716183719   -0.0017813568723639669
-0.0056921473331013476   -0.06897844854526566   -0.0018674287488955786
-0.004729137325176402   -0.06941793652659818   -0.0019587491829282455
-0.005489516383797427   -0.06906080759497717   -0.001963565547069106
-0.0056921473331013476   -0.06897844854526566   -0.0018674287488955786
-0.005293942606888806   -0.06890175999300237   -0.001934071140158402
-0.005429376925438554   -0.06888083298644952   -0.0019489114538300484
-0.005489516383797427   -0.06906080759497717   -0.001963565547069106
-0.0056921473331013476   -0.06897844854526566   -0.0018674287488955786
-0.005429376925438554   -0.06888083298644952   -0.0019489114538300484
-0.004729137325176402   -0.06941793652659818   -0.0019587491829282455
-0.005174544465779595   -0.06948167396482594   -0.002313384952992643
-0.006117734652566251   -0.0690620717650197   -0.0021630358178830324
-0.004312365230469989   -0.07   -0.002468157506663045
-0.004943369388062647   -0.06942113360210873   -0.0021357752970122953
-0.006117734652566251   -0.0690620717650197   -0.0021630358178830324
-0.006748490418720266   -0.06898747837861963   -0.0023620887238646623
-0.004312365230469989   -0.07   -0.002468157506663045
-0.006586550962346474   -0.06891284418936557   -0.0021869874437507584
-0.004943369388062647   -0.06942113360210873   -0.0021357752970122953
-0.004021547570074534   -0.07   -0.0021982345771565277
-0.006586550962346474   -0.06891284418936557   -0.0021869874437507584
-0.004312365230469989   -0.07   -0.002468157506663045
-0.004943369388062647   -0.06942113360210873   -0.0021357752970122953
-0.006586550962346474   -0.06891284418936557   -0.0021869874437507584
-0.0059937530936428045   -0.06898305490519885   -0.0020745736978566936
-0.006117734652566251   -0.0690620717650197   -0.0021630358178830324
-0.004943369388062647   -0.06942113360210873   -0.0021357752970122953
-0.006586550962346474   -0.06891284418936557   -0.0021869874437507584
-0.006117734652566251   -0.0690620717650197   -0.0021630358178830324
-0.004312365230469989   -0.07   -0.002468157506663045
-0.004943369388062647   -0.06942113360210873   -0.0021357752970122953
-0.0059937530936428045   -0.06898305490519885   -0.0020745736978566936
-0.004021547570074534   -0.07   -0.0021982345771565277
-0.004729137325176402   -0.06941793652659818   -0.0019587491829282455
-0.0059937530936428045   -0.06898305490519885   -0.0020745736978566936
-0.006586550962346474   -0.06891284418936557   -0.0021869874437507584
-0.004021547570074534   -0.07   -0.0021982345771565277
-0.006372842262451494   -0.06889591782675465   -0.001998686516824548
-0.004729137325176402   -0.06941793652659818   -0.0019587491829282455
-0.0037292991985116443   -0.07   -0.0019251122280356985
-0.006372842262451494   -0.06889591782675465   -0.001998686516824548
-0.004021547570074534   -0.07   -0.0021982345771565277
-0.004729137325176402   -0.06941793652659818   -0.0019587491829282455
-0.006372842262451494   -0.06889591782675465   -0.001998686516824548
-0.005845055803923417   -0.06895800054185508   -0.0019742629172465513
-0.0059937530936428045   -0.06898305490519885   -0.0020745736978566936
-0.004729137325176402   -0.06941793652659818   -0.0019587491829282455
-0.006372842262451494   -0.06889591782675465   -0.001998686516824548
-0.0059937530936428045   -0.06898305490519885   -0.0020745736978566936
-0.004021547570074534   -0.07   -0.0021982345771565277
-0.004729137325176402   -0.06941793652659818   -0.0019587491829282455
-0.005845055803923417   -0.06895800054185508   -0.0019742629172465513
-0.0037292991985116443   -0.07   -0.0019251122280356985
-0.004499171490220969   -0.06946899716183719   -0.0017813568723639669
-0.005845055803923417   -0.06895800054185508   -0.0019742629172465513
-0.006372842262451494   -0.06889591782675465   -0.001998686516824548
-0.0037292991985116443   -0.07   -0.0019251122280356985
-0.006171861258121766   -0.06892557491811815   -0.0018031270887030792
-0.004499171490220969   -0.06946899716183719   -0.0017813568723639669
-0.0034436802325624387   -0.07   -0.0016556048338194664
-0.006171861258121766   -0.06892557491811815   -0.0018031270887030792
-0.0037292991985116443   -0.07   -0.0019251122280356985
-0.004499171490220969   -0.06946899716183719   -0.0017813568723639669
-0.006171861258121766   -0.06892557491811815   -0.0018031270887030792
-0.0056921473331013476   -0.06897844854526566   -0.0018674287488955786
-0.005845055803923417   -0.06895800054185508   -0.0019742629172465513
-0.004499171490220969   -0.06946899716183719   -0.0017813568723639669
-0.006171861258121766   -0.06892557491811815   -0.0018031270887030792
-0.005845055803923417   -0.06895800054185508   -0.0019742629172465513
-0.0037292991985116443   -0.07   -0.0019251122280356985
-0.004312365230469989   -0.07   -0.002468157506663045
-0.006748490418720266   -0.06898747837861963   -0.0023620887238646623
-0.003686426608722451   -0.07   -0.002655600910589118
-0.004021547570074534   -0.07   -0.0021982345771565277
-0.006748490418720266   -0.06898747837861963   -0.0023620887238646623
-0.007975442156832699   -0.06864994711786618   -0.002573275225335785
-0.003686426608722451   -0.07   -0.002655600910589118
-0.00754461316507341   -0.06858698309711067   -0.0022860054575944816
-0.004021547570074534   -0.07   -0.0021982345771565277
-0.0030779839522190127   -0.07   -0.0022650180475594674
-0.00754461316507341   -0.06858698309711067   -0.0022860054575944816
-0.003686426608722451   -0.07   -0.002655600910589118
-0.004021547570074534   -0.07   -0.0021982345771565277
-0.00754461316507341   -0.06858698309711067   -0.0022860054575944816
-0.006586550962346474   -0.06891284418936557   -0.0021869874437507584
-0.006748490418720266   -0.06898747837861963   -0.0023620887238646623
-0.004021547570074534   -0.07   -0.0021982345771565277
-0.00754461316507341   -0.06858698309711067   -0.0022860054575944816
-0.006748490418720266   -0.06898747837861963   -0.0023620887238646623
-0.003686426608722451   -0.07   -0.002655600910589118
-0.004021547570074534   -0.07   -0.0021982345771565277
-0.006586550962346474   -0.06891284418936557   -0.0021869874437507584
-0.0030779839522190127   -0.07   -0.0022650180475594674
-0.0037292991985116443   -0.07   -0.0019251122280356985
-0.006586550962346474   -0.06891284418936557   -0.0021869874437507584
-0.00754461316507341   -0.06858698309711067   -0.0022860054575944816
-0.0030779839522190127   -0.07   -0.0022650180475594674
-0.007148829840183634   -0.06857838020451577   -0.0019794066684515337
-0.0037292991985116443   -0.07   -0.0019251122280356985
-0.002592763807870596   -0.07   -0.0018913815804306624
-0.007148829840183634   -0.06857838020451577   -0.0019794066684515337
-0.0030779839522190127   -0.07   -0.0022650180475594674
-0.0037292991985116443   -0.07   -0.0019251122280356985
-0.007148829840183634   -0.06857838020451577   -0.0019794066684515337
-0.006372842262451494   -0.06889591782675465   -0.001998686516824548
-0.006586550962346474   -0.06891284418936557   -0.0021869874437507584
-0.0037292991985116443   -0.07   -0.0019251122280356985
-0.007148829840183634   -0.06857838020451577   -0.0019794066684515337
-0.006586550962346474   -0.06891284418936557   -0.0021869874437507584
-0.0030779839522190127   -0.07   -0.0022650180475594674
-0.0037292991985116443   -0.07   -0.0019251122280356985
-0.006372842262451494   -0.06889591782675465   -0.001998686516824548
-0.002592763807870596   -0.07   -0.0018913815804306624
-0.0034436802325624387   -0.07   -0.0016556048338194664
-0.006372842262451494   -0.06889591782675465   -0.001998686516824548
-0.007148829840183634   -0.06857838020451577   -0.0019794066684515337
-0.002592763807870596   -0.07   -0.0018913815804306624
-0.006648986387337065   -0.06866099796614698   -0.0016587759816577203
-0.0034436802325624387   -0.07   -0.0016556048338194664
-0.0019933847445562612   -0.07   -0.0015035008065334477
-0.006648986387337065   -0.06866099796614698   -0.0016587759816577203
-0.002592763807870596   -0.07   -0.0018913815804306624
-0.0034436802325624387   -0.07   -0.0016556048338194664
-0.006648986387337065   -0.06866099796614698   -0.0016587759816577203
-0.006171861258121766   -0.06892557491811815   -0.0018031270887030792
-0.006372842262451494   -0.06889591782675465   -0.001998686516824548
-0.0034436802325624387   -0.07   -0.0016556048338194664
-0.006648986387337065   -0.06866099796614698   -0.0016587759816577203
-0.006372842262451494   -0.06889591782675465   -0.001998686516824548
-0.002592763807870596   -0.07   -0.0018913815804306624
-0.004977001911276065   -0.06856422469994795   -0.001474683562847422
-0.002036613106489169   -0.06597900098270347   -0.0012740564975116673
-0.005276193786132386   -0.06882955195223761   -0.0017408251928409662
-0.004631719509295387   -0.06844508954802142   -0.0017021109390742686
-0.002036613106489169   -0.06597900098270347   -0.0012740564975116673
-0.003789298931054168   -0.06617923790371441   -0.001556767365949227
-0.005276193786132386   -0.06882955195223761   -0.0017408251928409662
-0.0036932258058190895   -0.06606697262110012   -0.0016433970620023531
-0.004631719509295387   -0.06844508954802142   -0.0017021109390742686
-0.0051409469886271025   -0.06873677831960948   -0.0018379661054309848
-0.0036932258058190895   -0.06606697262110012   -0.0016433970620023531
-0.005276193786132386   -0.06882955195223761   -0.0017408251928409662
-0.004631719509295387   -0.06844508954802142   -0.0017021109390742686
-0.0036932258058190895   -0.06606697262110012   -0.0016433970620023531
-0.0017612412870896127   -0.06584006105384581   -0.0014706706282065622
-0.002036613106489169   -0.06597900098270347   -0.0012740564975116673
-0.004631719509295387   -0.06844508954802142   -0.0017021109390742686
-0.0036932258058190895   -0.06606697262110012   -0.0016433970620023531
-0.002036613106489169   -0.06597900098270347   -0.0012740564975116673
-0.005276193786132386   -0.06882955195223761   -0.0017408251928409662
-0.004631719509295387   -0.06844508954802142   -0.0017021109390742686
-0.0017612412870896127   -0.06584006105384581   -0.0014706706282065622
-0.0051409469886271025   -0.06873677831960948   -0.0018379661054309848
-0.0043443136941644965   -0.06840852772024171   -0.0019202273949655087
-0.0017612412870896127   -0.06584006105384581   -0.0014706706282065622
-0.0036932258058190895   -0.06606697262110012   -0.0016433970620023531
-0.0051409469886271025   -0.06873677831960948   -0.0018379661054309848
-0.0035850441672226566   -0.06600485802351377   -0.001722228496549641
-0.0043443136941644965   -0.06840852772024171   -0.0019202273949655087
-0.004982288969423417   -0.06870262998257934   -0.001927603209801431
-0.0035850441672226566   -0.06600485802351377   -0.001722228496549641
-0.0051409469886271025   -0.06873677831960948   -0.0018379661054309848
-0.0043443136941644965   -0.06840852772024171   -0.0019202273949655087
-0.0035850441672226566   -0.06600485802351377   -0.001722228496549641
-0.0015445540666768835   -0.06577398945296448   -0.0016557263688580998
-0.0017612412870896127   -0.06584006105384581   -0.0014706706282065622
-0.0043443136941644965   -0.06840852772024171   -0.0019202273949655087
-0.0035850441672226566   -0.06600485802351377   -0.001722228496549641
-0.0017612412870896127   -0.06584006105384581   -0.0014706706282065622
-0.0051409469886271025   -0.06873677831960948   -0.0018379661054309848
-0.0043443136941644965   -0.06840852772024171   -0.0019202273949655087
-0.0015445540666768835   -0.06577398945296448   -0.0016557263688580998
-0.004982288969423417   -0.06870262998257934   -0.001927603209801431
-0.004019091628485805   -0.06843968100490923   -0.002128066862476997
-0.0015445540666768835   -0.06577398945296448   -0.0016557263688580998
-0.0035850441672226566   -0.06600485802351377   -0.001722228496549641
-0.004982288969423417   -0.06870262998257934   -0.001927603209801431
-0.003502107608785422   -0.065991157754466   -0.0017935115353665714
-0.004019091628485805   -0.06843968100490923   -0.002128066862476997
-0.004846388788532384   -0.06872760504852023   -0.0020092691744499863
-0.003502107608785422   -0.065991157754466   -0.0017935115353665714
-0.004982288969423417   -0.06870262998257934   -0.001927603209801431
-0.004019091628485805   -0.06843968100490923   -0.002128066862476997
-0.003502107608785422   -0.065991157754466   -0.0017935115353665714
-0.0013078606558310332   -0.0657617846677098   -0.0018287360407313635
-0.0015445540666768835   -0.06577398945296448   -0.0016557263688580998
-0.004019091628485805   -0.06843968100490923   -0.002128066862476997
-0.003502107608785422   -0.065991157754466   -0.0017935115353665714
-0.0015445540666768835   -0.06577398945296448   -0.0016557263688580998
-0.004982288969423417   -0.06870262998257934   -0.001927603209801431
-0.005276193786132386   -0.06882955195223761   -0.0017408251928409662
-0.003789298931054168   -0.06617923790371441   -0.001556767365949227
-0.0056822735483325   -0.06899343278681946   -0.0019535956655795084
-0.0051409469886271025   -0.06873677831960948   -0.0018379661054309848
-0.003789298931054168   -0.06617923790371441   -0.001556767365949227
-0.005519821151542815   -0.06624984586002068   -0.0017873279211519035
-0.0056822735483325   -0.06899343278681946   -0.0019535956655795084
-0.005439057303419851   -0.0661519067671115   -0.0017920786020448566
-0.0051409469886271025   -0.06873677831960948   -0.0018379661054309848
-0.0055625885157755154   -0.0689105845718843   -0.001956117714031085
-0.005439057303419851   -0.0661519067671115   -0.0017920786020448566
-0.0056822735483325   -0.06899343278681946   -0.0019535956655795084
-0.0051409469886271025   -0.06873677831960948   -0.0018379661054309848
-0.005439057303419851   -0.0661519067671115   -0.0017920786020448566
-0.0036932258058190895   -0.06606697262110012   -0.0016433970620023531
-0.003789298931054168   -0.06617923790371441   -0.001556767365949227
-0.0051409469886271025   -0.06873677831960948   -0.0018379661054309848
-0.005439057303419851   -0.0661519067671115   -0.0017920786020448566
-0.003789298931054168   -0.06617923790371441   -0.001556767365949227
-0.0056822735483325   -0.06899343278681946   -0.0019535956655795084
-0.0051409469886271025   -0.06873677831960948   -0.0018379661054309848
-0.0036932258058190895   -0.06606697262110012   -0.0016433970620023531
-0.0055625885157755154   -0.0689105845718843   -0.001956117714031085
-0.004982288969423417   -0.06870262998257934   -0.001927603209801431
-0.0036932258058190895   -0.06606697262110012   -0.0016433970620023531
-0.005439057303419851   -0.0661519067671115   -0.0017920786020448566
-0.0055625885157755154   -0.0689105845718843   -0.001956117714031085
-0.00535552269543261   -0.06609917530734344   -0.0017896068725143063
-0.004982288969423417   -0.06870262998257934   -0.001927603209801431
-0.005429376925438554   -0.06888083298644952   -0.0019489114538300484
-0.00535552269543261   -0.06609917530734344   -0.0017896068725143063
-0.0055625885157755154   -0.0689105845718843   -0.001956117714031085
-0.004982288969423417   -0.06870262998257934   -0.001927603209801431
-0.00535552269543261   -0.06609917530734344   -0.0017896068725143063
-0.0035850441672226566   -0.06600485802351377   -0.001722228496549641
-0.0036932258058190895   -0.06606697262110012   -0.0016433970620023531
-0.004982288969423417   -0.06870262998257934   -0.001927603209801431
-0.00535552269543261   -0.06609917530734344   -0.0017896068725143063
-0.0036932258058190895   -0.06606697262110012   -0.0016433970620023531
-0.0055625885157755154   -0.0689105845718843   -0.001956117714031085
-0.004982288969423417   -0.06870262998257934   -0.001927603209801431
-0.0035850441672226566   -0.06600485802351377   -0.001722228496549641
-0.005429376925438554   -0.06888083298644952   -0.0019489114538300484
-0.004846388788532384   -0.06872760504852023   -0.0020092691744499863
-0.0035850441672226566   -0.06600485802351377   -0.001722228496549641
-0.00535552269543261   -0.06609917530734344   -0.0017896068725143063
-0.005429376925438554   -0.06888083298644952   -0.0019489114538300484
-0.005274965077503027   -0.0660894786641174   -0.0017798464478113482
-0.004846388788532384   -0.06872760504852023   -0.0020092691744499863
-0.005293942606888806   -0.06890175999300237   -0.001934071140158402
-0.005274965077503027   -0.0660894786641174   -0.0017798464478113482
-0.005429376925438554   -0.06888083298644952   -0.0019489114538300484
-0.004846388788532384   -0.06872760504852023   -0.0020092691744499863
-0.005274965077503027   -0.0660894786641174   -0.0017798464478113482
-0.003502107608785422   -0.065991157754466   -0.0017935115353665714
-0.0035850441672226566   -0.06600485802351377   -0.001722228496549641
-0.004846388788532384   -0.06872760504852023   -0.0020092691744499863
-0.005274965077503027   -0.0660894786641174   -0.0017798464478113482
-0.0035850441672226566   -0.06600485802351377   -0.001722228496549641
-0.005429376925438554   -0.06888083298644952   -0.0019489114538300484
-0.0056822735483325   -0.06899343278681946   -0.0019535956655795084
-0.005519821151542815   -0.06624984586002068   -0.0017873279211519035
-0.006117734652566251   -0.0690620717650197   -0.0021630358178830324
-0.0055625885157755154   -0.0689105845718843   -0.001956117714031085
-0.005519821151542815   -0.06624984586002068   -0.0017873279211519035
-0.007238431900608578   -0.06618699603037302   -0.0020031188264490957
-0.006117734652566251   -0.0690620717650197   -0.0021630358178830324
-0.007158306249050334   -0.06610000589706662   -0.0019293556245425709
-0.0055625885157755154   -0.0689105845718843   -0.001956117714031085
-0.0059937530936428045   -0.06898305490519885   -0.0020745736978566936
-0.007158306249050334   -0.06610000589706662   -0.0019293556245425709
-0.006117734652566251   -0.0690620717650197   -0.0021630358178830324
-0.0055625885157755154   -0.0689105845718843   -0.001956117714031085
-0.007158306249050334   -0.06610000589706662   -0.0019293556245425709
-0.005439057303419851   -0.0661519067671115   -0.0017920786020448566
-0.005519821151542815   -0.06624984586002068   -0.0017873279211519035
-0.0055625885157755154   -0.0689105845718843   -0.001956117714031085
-0.007158306249050334   -0.06610000589706662   -0.0019293556245425709
-0.005519821151542815   -0.06624984586002068   -0.0017873279211519035
-0.006117734652566251   -0.0690620717650197   -0.0021630358178830324
-0.0055625885157755154   -0.0689105845718843   -0.001956117714031085
-0.005439057303419851   -0.0661519067671115   -0.0017920786020448566
-0.0059937530936428045   -0.06898305490519885   -0.0020745736978566936
-0.005429376925438554   -0.06888083298644952   -0.0019489114538300484
-0.005439057303419851   -0.0661519067671115   -0.0017920786020448566
-0.007158306249050334   -0.06610000589706662   -0.0019293556245425709
-0.0059937530936428045   -0.06898305490519885   -0.0020745736978566936
-0.007068387643591004   -0.06605746653451319   -0.0018484776067513612
-0.005429376925438554   -0.06888083298644952   -0.0019489114538300484
-0.005845055803923417   -0.06895800054185508   -0.0019742629172465513
-0.007068387643591004   -0.06605746653451319   -0.0018484776067513612
-0.0059937530936428045   -0.06898305490519885   -0.0020745736978566936
-0.005429376925438554   -0.06888083298644952   -0.0019489114538300484
-0.007068387643591004   -0.06605746653451319   -0.0018484776067513612
-0.00535552269543261   -0.06609917530734344   -0.0017896068725143063
-0.005439057303419851   -0.0661519067671115   -0.0017920786020448566
-0.005429376925438554   -0.06888083298644952   -0.0019489114538300484
-0.007068387643591004   -0.06605746653451319   -0.0018484776067513612
-0.005439057303419851   -0.0661519067671115   -0.0017920786020448566
-0.0059937530936428045   -0.06898305490519885   -0.0020745736978566936
-0.005429376925438554   -0.06888083298644952   -0.0019489114538300484
-0.00535552269543261   -0.06609917530734344   -0.0017896068725143063
-0.005845055803923417   -0.06895800054185508   -0.0019742629172465513
-0.005293942606888806   -0.06890175999300237   -0.001934071140158402
-0.00535552269543261   -0.06609917530734344   -0.0017896068725143063
-0.007068387643591004   -0.06605746653451319   -0.0018484776067513612
-0.005845055803923417   -0.06895800054185508   -0.0019742629172465513
-0.0069781031954945566   -0.06605510720629121   -0.0017596180506171673
-0.005293942606888806   -0.06890175999300237   -0.001934071140158402
-0.0056921473331013476   -0.06897844854526566   -0.0018674287488955786
-0.0069781031954945566   -0.06605510720629121   -0.0017596180506171673
-0.005845055803923417   -0.06895800054185508   -0.0019742629172465513
-0.005293942606888806   -0.06890175999300237   -0.001934071140158402
-0.0069781031954945566   -0.06605510720629121   -0.0017596180506171673
-0.005274965077503027   -0.0660894786641174   -0.0017798464478113482
-0.00535552269543261   -0.06609917530734344   -0.0017896068725143063
-0.005293942606888806   -0.06890175999300237   -0.001934071140158402
-0.0069781031954945566   -0.06605510720629121   -0.0017596180506171673
-0.00535552269543261   -0.06609917530734344   -0.0017896068725143063
-0.005845055803923417   -0.06895800054185508   -0.0019742629172465513
-0.006117734652566251   -0.0690620717650197   -0.0021630358178830324
-0.007238431900608578   -0.06618699603037302   -0.0020031188264490957
-0.006748490418720266   -0.06898747837861963   -0.0023620887238646623
-0.0059937530936428045   -0.06898305490519885   -0.0020745736978566936
-0.007238431900608578   -0.06618699603037302   -0.0020031188264490957
-0.009126447224242442   -0.06598237894007926   -0.002201355792285537
-0.006748490418720266   -0.06898747837861963   -0.0023620887238646623
-0.009028344646270399   -0.06590635637073232   -0.002050820589016121
-0.0059937530936428045   -0.06898305490519885   -0.0020745736978566936
-0.006586550962346474   -0.06891284418936557   -0.0021869874437507584
-0.009028344646270399   -0.06590635637073232   -0.002050820589016121
-0.006748490418720266   -0.06898747837861963   -0.0023620887238646623
-0.0059937530936428045   -0.06898305490519885   -0.0020745736978566936
-0.009028344646270399   -0.06590635637073232   -0.002050820589016121
-0.007158306249050334   -0.06610000589706662   -0.0019293556245425709
-0.007238431900608578   -0.06618699603037302   -0.0020031188264490957
-0.0059937530936428045   -0.06898305490519885   -0.0020745736978566936
-0.009028344646270399   -0.06590635637073232   -0.002050820589016121
-0.007238431900608578   -0.06618699603037302   -0.0020031188264490957
-0.006748490418720266   -0.06898747837861963   -0.0023620887238646623
-0.0059937530936428045   -0.06898305490519885   -0.0020745736978566936
-0.007158306249050334   -0.06610000589706662   -0.0019293556245425709
-0.006586550962346474   -0.06891284418936557   -0.0021869874437507584
-0.005845055803923417   -0.06895800054185508   -0.0019742629172465513
-0.007158306249050334   -0.06610000589706662   -0.0019293556245425709
-0.009028344646270399   -0.06590635637073232   -0.002050820589016121
-0.006586550962346474   -0.06891284418936557   -0.0021869874437507584
-0.008892880799638639   -0.06587396853653729   -0.0018936945955822838
-0.005845055803923417   -0.06895800054185508   -0.0019742629172465513
-0.006372842262451494   -0.06889591782675465   -0.001998686516824548
-0.008892880799638639   -0.06587396853653729   -0.0018936945955822838
-0.006586550962346474   -0.06891284418936557   -0.0021869874437507584
-0.005845055803923417   -0.06895800054185508   -0.0019742629172465513
-0.008892880799638639   -0.06587396853653729   -0.0018936945955822838
-0.007068387643591004   -0.06605746653451319   -0.0018484776067513612
-0.007158306249050334   -0.06610000589706662   -0.0019293556245425709
-0.005845055803923417   -0.06895800054185508   -0.0019742629172465513
-0.008892880799638639   -0.06587396853653729   -0.0018936945955822838
-0.007158306249050334   -0.06610000589706662   -0.0019293556245425709
-0.006586550962346474   -0.06891284418936557   -0.0021869874437507584
-0.005845055803923417   -0.06895800054185508   -0.0019742629172465513
-0.007068387643591004   -0.06605746653451319   -0.0018484776067513612
-0.006372842262451494   -0.06889591782675465   -0.001998686516824548
-0.0056921473331013476   -0.06897844854526566   -0.0018674287488955786
-0.007068387643591004   -0.06605746653451319   -0.0018484776067513612
-0.008892880799638639   -0.06587396853653729   -0.0018936945955822838
-0.006372842262451494   -0.06889591782675465   -0.001998686516824548
-0.00877467537222902   -0.06588526533933454   -0.0017256045150601316
-0.0056921473331013476   -0.06897844854526566   -0.0018674287488955786
-0.006171861258121766   -0.06892557491811815   -0.0018031270887030792
-0.00877467537222902   -0.06588526533933454   -0.0017256045150601316
-0.006372842262451494   -0.06889591782675465   -0.001998686516824548
-0.0056921473331013476   -0.06897844854526566   -0.0018674287488955786
-0.00877467537222902   -0.06588526533933454   -0.0017256045150601316
-0.0069781031954945566   -0.06605510720629121   -0.0017596180506171673
-0.007068387643591004   -0.06605746653451319   -0.0018484776067513612
-0.0056921473331013476   -0.06897844854526566   -0.0018674287488955786
-0.00877467537222902   -0.06588526533933454   -0.0017256045150601316
-0.007068387643591004   -0.06605746653451319   -0.0018484776067513612
-0.006372842262451494   -0.06889591782675465   -0.001998686516824548
-0.006748490418720266   -0.06898747837861963   -0.0023620887238646623
-0.009126447224242442   -0.06598237894007926   -0.002201355792285537
-0.007975442156832699   -0.06864994711786618   -0.002573275225335785
-0.006586550962346474   -0.06891284418936557   -0.0021869874437507584
-0.009126447224242442   -0.06598237894007926   -0.002201355792285537
-0.011557727670109803   -0.06564960483627477   -0.0023916919785196985
-0.007975442156832699   -0.06864994711786618   -0.002573275225335785
-0.011241513997547912   -0.06556715720363139   -0.0021540155617300674
-0.006586550962346474   -0.06891284418936557   -0.0021869874437507584
-0.00754461316507341   -0.06858698309711067   -0.0022860054575944816
-0.011241513997547912   -0.06556715720363139   -0.0021540155617300674
-0.007975442156832699   -0.06864994711786618   -0.002573275225335785
-0.006586550962346474   -0.06891284418936557   -0.0021869874437507584
-0.011241513997547912   -0.06556715720363139   -0.0021540155617300674
-0.009028344646270399   -0.06590635637073232   -0.002050820589016121
-0.009126447224242442   -0.06598237894007926   -0.002201355792285537
-0.006586550962346474   -0.06891284418936557   -0.0021869874437507584
-0.011241513997547912   -0.06556715720363139   -0.0021540155617300674
-0.009126447224242442   -0.06598237894007926   -0.002201355792285537
-0.007975442156832699   -0.06864994711786618   -0.002573275225335785
-0.006586550962346474   -0.06891284418936557   -0.0021869874437507584
-0.009028344646270399   -0.06590635637073232   -0.002050820589016121
-0.00754461316507341   -0.06858698309711067   -0.0022860054575944816
-0.006372842262451494   -0.06889591782675465   -0.001998686516824548
-0.009028344646270399   -0.06590635637073232   -0.002050820589016121
-0.011241513997547912   -0.06556715720363139   -0.0021540155617300674
-0.00754461316507341   -0.06858698309711067   -0.0022860054575944816
-0.01095812670623808   -0.06553719946926265   -0.0019025137745684382
-0.006372842262451494   -0.06889591782675465   -0.001998686516824548
-0.007148829840183634   -0.06857838020451577   -0.0019794066684515337
-0.01095812670623808   -0.06553719946926265   -0.0019025137745684382
-0.00754461316507341   -0.06858698309711067   -0.0022860054575944816
-0.006372842262451494   -0.06889591782675465   -0.001998686516824548
-0.01095812670623808   -0.06553719946926265   -0.0019025137745684382
-0.008892880799638639   -0.06587396853653729   -0.0018936945955822838
-0.009028344646270399   -0.06590635637073232   -0.002050820589016121
-0.006372842262451494   -0.06889591782675465   -0.001998686516824548
-0.01095812670623808   -0.06553719946926265   -0.0019025137745684382
-0.009028344646270399   -0.06590635637073232   -0.002050820589016121
-0.00754461316507341   -0.06858698309711067   -0.0022860054575944816
-0.006372842262451494   -0.06889591782675465   -0.001998686516824548
-0.008892880799638639   -0.06587396853653729   -0.0018936945955822838
-0.007148829840183634   -0.06857838020451577   -0.0019794066684515337
-0.006171861258121766   -0.06892557491811815   -0.0018031270887030792
-0.008892880799638639   -0.06587396853653729   -0.0018936945955822838
-0.01095812670623808   -0.06553719946926265   -0.0019025137745684382
-0.007148829840183634   -0.06857838020451577   -0.0019794066684515337
-0.010590849421990643   -0.0655752051158075   -0.0016395743295392713
-0.006171861258121766   -0.06892557491811815   -0.0018031270887030792
-0.006648986387337065   -0.06866099796614698   -0.0016587759816577203
-0.010590849421990643   -0.0655752051158075   -0.0016395743295392713
-0.007148829840183634   -0.06857838020451577   -0.0019794066684515337
-0.006171861258121766   -0.06892557491811815   -0.0018031270887030792
-0.010590849421990643   -0.0655752051158075   -0.0016395743295392713
-0.00877467537222902   -0.06588526533933454   -0.0017256045150601316
-0.008892880799638639   -0.06587396853653729   -0.0018936945955822838
-0.006171861258121766   -0.06892557491811815   -0.0018031270887030792
-0.010590849421990643   -0.0655752051158075   -0.0016395743295392713
-0.008892880799638639   -0.06587396853653729   -0.0018936945955822838
-0.007148829840183634   -0.06857838020451577   -0.0019794066684515337
-0.002036613106489169   -0.06597900098270347   -0.0012740564975116673
0.0003493304609110193   -0.06121773731155481   -0.0010537638600299902
-0.003789298931054168   -0.06617923790371441   -0.001556767365949227
-0.0017612412870896127   -0.06584006105384581   -0.0014706706282065622
0.0003493304609110193   -0.06121773731155481   -0.0010537638600299902
-0.0026082214427864524   -0.061364642233370396   -0.0013313358137530926
-0.003789298931054168   -0.06617923790371441   -0.001556767365949227
-0.002557276619850124   -0.06124698409354455   -0.001400084650134151
-0.0017612412870896127   -0.06584006105384581   -0.0014706706282065622
-0.0036932258058190895   -0.06606697262110012   -0.0016433970620023531
-0.002557276619850124   -0.06124698409354455   -0.001400084650134151
-0.003789298931054168   -0.06617923790371441   -0.001556767365949227
-0.0017612412870896127   -0.06584006105384581   -0.0014706706282065622
-0.002557276619850124   -0.06124698409354455   -0.001400084650134151
0.0005417151564743873   -0.06107656322824214   -0.0012103800215119006
0.0003493304609110193   -0.06121773731155481   -0.0010537638600299902
-0.0017612412870896127   -0.06584006105384581   -0.0014706706282065622
-0.002557276619850124   -0.06124698409354455   -0.001400084650134151
0.0003493304609110193   -0.06121773731155481   -0.0010537638600299902
-0.003789298931054168   -0.06617923790371441   -0.001556767365949227
-0.0017612412870896127   -0.06584006105384581   -0.0014706706282065622
0.0005417151564743873   -0.06107656322824214   -0.0012103800215119006
-0.0036932258058190895   -0.06606697262110012   -0.0016433970620023531
-0.0015445540666768835   -0.06577398945296448   -0.0016557263688580998
0.0005417151564743873   -0.06107656322824214   -0.0012103800215119006
-0.002557276619850124   -0.06124698409354455   -0.001400084650134151
-0.0036932258058190895   -0.06606697262110012   -0.0016433970620023531
-0.002499246346187658   -0.06117023541424373   -0.0014608376977864133
-0.0015445540666768835   -0.06577398945296448   -0.0016557263688580998
-0.0035850441672226566   -0.06600485802351377   -0.001722228496549641
-0.002499246346187658   -0.06117023541424373   -0.0014608376977864133
-0.0036932258058190895   -0.06606697262110012   -0.0016433970620023531
-0.0015445540666768835   -0.06577398945296448   -0.0016557263688580998
-0.002499246346187658   -0.06117023541424373   -0.0014608376977864133
0.0006832440493709189   -0.060995095424370864   -0.0013558046282976892
0.0005417151564743873   -0.06107656322824214   -0.0012103800215119006
-0.0015445540666768835   -0.06577398945296448   -0.0016557263688580998
-0.002499246346187658   -0.06117023541424373   -0.0014608376977864133
0.0005417151564743873   -0.06107656322824214   -0.0012103800215119006
-0.0036932258058190895   -0.06606697262110012   -0.0016433970620023531
-0.0015445540666768835   -0.06577398945296448   -0.0016557263688580998
0.0006832440493709189   -0.060995095424370864   -0.0013558046282976892
-0.0035850441672226566   -0.06600485802351377   -0.001722228496549641
-0.0013078606558310332   -0.0657617846677098   -0.0018287360407313635
0.0006832440493709189   -0.060995095424370864   -0.0013558046282976892
-0.002499246346187658   -0.06117023541424373   -0.0014608376977864133
-0.0035850441672226566   -0.06600485802351377   -0.001722228496549641
-0.0024645502409147316   -0.061132121754817845   -0.0015143845306564237
-0.0013078606558310332   -0.0657617846677098   -0.0018287360407313635
-0.003502107608785422   -0.065991157754466   -0.0017935115353665714
-0.0024645502409147316   -0.061132121754817845   -0.0015143845306564237
-0.0035850441672226566   -0.06600485802351377   -0.001722228496549641
-0.0013078606558310332   -0.0657617846677098   -0.0018287360407313635
-0.0024645502409147316   -0.061132121754817845   -0.0015143845306564237
0.0008348041517229434   -0.060955100337401355   -0.0014899837602693907
0.0006832440493709189   -0.060995095424370864   -0.0013558046282976892
-0.0013078606558310332   -0.0657617846677098   -0.0018287360407313635
-0.0024645502409147316   -0.061132121754817845   -0.0015143845306564237
0.0006832440493709189   -0.060995095424370864   -0.0013558046282976892
-0.0035850441672226566   -0.06600485802351377   -0.001722228496549641
-0.003789298931054168   -0.06617923790371441   -0.001556767365949227
-0.0026082214427864524   -0.061364642233370396   -0.0013313358137530926
-0.005519821151542815   -0.06624984586002068   -0.0017873279211519035
-0.0036932258058190895   -0.06606697262110012   -0.0016433970620023531
-0.0026082214427864524   -0.061364642233370396   -0.0013313358137530926
-0.005469701840984111   -0.06139275089565924   -0.00155999731166573
-0.005519821151542815   -0.06624984586002068   -0.0017873279211519035
-0.00543226535604752   -0.061291761086100766   -0.0015617513566304336
-0.0036932258058190895   -0.06606697262110012   -0.0016433970620023531
-0.005439057303419851   -0.0661519067671115   -0.0017920786020448566
-0.00543226535604752   -0.061291761086100766   -0.0015617513566304336
-0.005519821151542815   -0.06624984586002068   -0.0017873279211519035
-0.0036932258058190895   -0.06606697262110012   -0.0016433970620023531
-0.00543226535604752   -0.061291761086100766   -0.0015617513566304336
-0.002557276619850124   -0.06124698409354455   -0.001400084650134151
-0.0026082214427864524   -0.061364642233370396   -0.0013313358137530926
-0.0036932258058190895   -0.06606697262110012   -0.0016433970620023531
-0.00543226535604752   -0.061291761086100766   -0.0015617513566304336
-0.0026082214427864524   -0.061364642233370396   -0.0013313358137530926
-0.005519821151542815   -0.06624984586002068   -0.0017873279211519035
-0.0036932258058190895   -0.06606697262110012   -0.0016433970620023531
-0.002557276619850124   -0.06124698409354455   -0.001400084650134151
-0.005439057303419851   -0.0661519067671115   -0.0017920786020448566
-0.0035850441672226566   -0.06600485802351377   -0.001722228496549641
-0.002557276619850124   -0.06124698409354455   -0.001400084650134151
-0.00543226535604752   -0.061291761086100766   -0.0015617513566304336
-0.005439057303419851   -0.0661519067671115   -0.0017920786020448566
-0.005393767192972558   -0.06122738609205558   -0.0015558440989901056
-0.0035850441672226566   -0.06600485802351377   -0.001722228496549641
-0.00535552269543261   -0.06609917530734344   -0.0017896068725143063
-0.005393767192972558   -0.06122738609205558   -0.0015558440989901056
-0.005439057303419851   -0.0661519067671115   -0.0017920786020448566
-0.0035850441672226566   -0.06600485802351377   -0.001722228496549641
-0.005393767192972558   -0.06122738609205558   -0.0015558440989901056
-0.002499246346187658   -0.06117023541424373   -0.0014608376977864133
-0.002557276619850124   -0.06124698409354455   -0.001400084650134151
-0.0035850441672226566   -0.06600485802351377   -0.001722228496549641
-0.005393767192972558   -0.06122738609205558   -0.0015558440989901056
-0.002557276619850124   -0.06124698409354455   -0.001400084650134151
-0.005439057303419851   -0.0661519067671115   -0.0017920786020448566
-0.0035850441672226566   -0.06600485802351377   -0.001722228496549641
-0.002499246346187658   -0.06117023541424373   -0.0014608376977864133
-0.00535552269543261   -0.06609917530734344   -0.0017896068725143063
-0.003502107608785422   -0.065991157754466   -0.0017935115353665714
-0.002499246346187658   -0.06117023541424373   -0.0014608376977864133
-0.005393767192972558   -0.06122738609205558   -0.0015558440989901056
-0.00535552269543261   -0.06609917530734344   -0.0017896068725143063
-0.005360095823226765   -0.061199023397760614   -0.0015427865266645156
-0.003502107608785422   -0.065991157754466   -0.0017935115353665714
-0.005274965077503027   -0.0660894786641174   -0.0017798464478113482
-0.005360095823226765   -0.061199023397760614   -0.0015427865266645156
-0.00535552269543261   -0.06609917530734344   -0.0017896068725143063
-0.003502107608785422   -0.065991157754466   -0.0017935115353665714
-0.005360095823226765   -0.061199023397760614   -0.0015427865266645156
-0.0024645502409147316   -0.061132121754817845   -0.0015143845306564237
-0.002499246346187658   -0.06117023541424373   -0.0014608376977864133
-0.003502107608785422   -0.065991157754466   -0.0017935115353665714
-0.005360095823226765   -0.061199023397760614   -0.0015427865266645156
-0.002499246346187658   -0.06117023541424373   -0.0014608376977864133
-0.00535552269543261   -0.06609917530734344   -0.0017896068725143063
-0.005519821151542815   -0.06624984586002068   -0.0017873279211519035
-0.005469701840984111   -0.06139275089565924   -0.00155999731166573
-0.007238431900608578   -0.06618699603037302   -0.0020031188264490957
-0.005439057303419851   -0.0661519067671115   -0.0017920786020448566
-0.005469701840984111   -0.06139275089565924   -0.00155999731166573
-0.008286275785982752   -0.0613015904018712   -0.0017663979689419196
-0.007238431900608578   -0.06618699603037302   -0.0020031188264490957
-0.00825142375540458   -0.06121446103885208   -0.0017027719579937295
-0.005439057303419851   -0.0661519067671115   -0.0017920786020448566
-0.007158306249050334   -0.06610000589706662   -0.0019293556245425709
-0.00825142375540458   -0.06121446103885208   -0.0017027719579937295
-0.007238431900608578   -0.06618699603037302   -0.0020031188264490957
-0.005439057303419851   -0.0661519067671115   -0.0017920786020448566
-0.00825142375540458   -0.06121446103885208   -0.0017027719579937295
-0.00543226535604752   -0.061291761086100766   -0.0015617513566304336
-0.005469701840984111   -0.06139275089565924   -0.00155999731166573
-0.005439057303419851   -0.0661519067671115   -0.0017920786020448566
-0.00825142375540458   -0.06121446103885208   -0.0017027719579937295
-0.005469701840984111   -0.06139275089565924   -0.00155999731166573
-0.007238431900608578   -0.06618699603037302   -0.0020031188264490957
-0.005439057303419851   -0.0661519067671115   -0.0017920786020448566
-0.00543226535604752   -0.061291761086100766   -0.0015617513566304336
-0.007158306249050334   -0.06610000589706662   -0.0019293556245425709
-0.00535552269543261   -0.06609917530734344   -0.0017896068725143063
-0.00543226535604752   -0.061291761086100766   -0.0015617513566304336
-0.00825142375540458   -0.06121446103885208   -0.0017027719579937295
-0.007158306249050334   -0.06610000589706662   -0.0019293556245425709
-0.008209308546070798   -0.06116354408891062   -0.0016316513512097887
-0.00535552269543261   -0.06609917530734344   -0.0017896068725143063
-0.007068387643591004   -0.06605746653451319   -0.0018484776067513612
-0.008209308546070798   -0.06116354408891062   -0.0016316513512097887
-0.007158306249050334   -0.06610000589706662   -0.0019293556245425709
-0.00535552269543261   -0.06609917530734344   -0.0017896068725143063
-0.008209308546070798   -0.06116354408891062   -0.0016316513512097887
-0.005393767192972558   -0.06122738609205558   -0.0015558440989901056
-0.00543226535604752   -0.061291761086100766   -0.0015617513566304336
-0.00535552269543261   -0.06609917530734344   -0.0017896068725143063
-0.008209308546070798   -0.06116354408891062   -0.0016316513512097887
-0.00543226535604752   -0.061291761086100766   -0.0015617513566304336
-0.007158306249050334   -0.06610000589706662   -0.0019293556245425709
-0.00535552269543261   -0.06609917530734344   -0.0017896068725143063
-0.005393767192972558   -0.06122738609205558   -0.0015558440989901056
-0.007068387643591004   -0.06605746653451319   -0.0018484776067513612
-0.005274965077503027   -0.0660894786641174   -0.0017798464478113482
-0.005393767192972558   -0.06122738609205558   -0.0015558440989901056
-0.008209308546070798   -0.06116354408891062   -0.0016316513512097887
-0.007068387643591004   -0.06605746653451319   -0.0018484776067513612
-0.008168350693612967   -0.06114716005218555   -0.001553266825530246
-0.005274965077503027   -0.0660894786641174   -0.0017798464478113482
-0.0069781031954945566   -0.06605510720629121   -0.0017596180506171673
-0.008168350693612967   -0.06114716005218555   -0.001553266825530246
-0.007068387643591004   -0.06605746653451319   -0.0018484776067513612
-0.005274965077503027   -0.0660894786641174   -0.0017798464478113482
-0.008168350693612967   -0.06114716005218555   -0.001553266825530246
-0.005360095823226765   -0.061199023397760614   -0.0015427865266645156
-0.005393767192972558   -0.06122738609205558   -0.0015558440989901056
-0.005274965077503027   -0.0660894786641174   -0.0017798464478113482
-0.008168350693612967   -0.06114716005218555   -0.001553266825530246
-0.005393767192972558   -0.06122738609205558   -0.0015558440989901056
-0.007068387643591004   -0.06605746653451319   -0.0018484776067513612
-0.007238431900608578   -0.06618699603037302   -0.0020031188264490957
-0.008286275785982752   -0.0613015904018712   -0.0017663979689419196
-0.009126447224242442   -0.06598237894007926   -0.002201355792285537
-0.007158306249050334   -0.06610000589706662   -0.0019293556245425709
-0.008286275785982752   -0.0613015904018712   -0.0017663979689419196
-0.011237837775879563   -0.06109438120868204   -0.0019497584249106713
-0.009126447224242442   -0.06598237894007926   -0.002201355792285537
-0.01119229271583297   -0.06102047911828632   -0.0018206671270752602
-0.007158306249050334   -0.06610000589706662   -0.0019293556245425709
-0.009028344646270399   -0.06590635637073232   -0.002050820589016121
-0.01119229271583297   -0.06102047911828632   -0.0018206671270752602
-0.009126447224242442   -0.06598237894007926   -0.002201355792285537
-0.007158306249050334   -0.06610000589706662   -0.0019293556245425709
-0.01119229271583297   -0.06102047911828632   -0.0018206671270752602
-0.00825142375540458   -0.06121446103885208   -0.0017027719579937295
-0.008286275785982752   -0.0613015904018712   -0.0017663979689419196
-0.007158306249050334   -0.06610000589706662   -0.0019293556245425709
-0.01119229271583297   -0.06102047911828632   -0.0018206671270752602
-0.008286275785982752   -0.0613015904018712   -0.0017663979689419196
-0.009126447224242442   -0.06598237894007926   -0.002201355792285537
-0.007158306249050334   -0.06610000589706662   -0.0019293556245425709
-0.00825142375540458   -0.06121446103885208   -0.0017027719579937295
-0.009028344646270399   -0.06590635637073232   -0.002050820589016121
-0.007068387643591004   -0.06605746653451319   -0.0018484776067513612
-0.00825142375540458   -0.06121446103885208   -0.0017027719579937295
-0.01119229271583297   -0.06102047911828632   -0.0018206671270752602
-0.009028344646270399   -0.06590635637073232   -0.002050820589016121
-0.01111507116567212   -0.060981763455736596   -0.001685233735491736
-0.007068387643591004   -0.06605746653451319   -0.0018484776067513612
-0.008892880799638639   -0.06587396853653729   -0.0018936945955822838
-0.01111507116567212   -0.060981763455736596   -0.001685233735491736
-0.009028344646270399   -0.06590635637073232   -0.002050820589016121
-0.007068387643591004   -0.06605746653451319   -0.0018484776067513612
-0.01111507116567212   -0.060981763455736596   -0.001685233735491736
-0.008209308546070798   -0.06116354408891062   -0.0016316513512097887
-0.00825142375540458   -0.06121446103885208   -0.0017027719579937295
-0.007068387643591004   -0.06605746653451319   -0.0018484776067513612
-0.01111507116567212   -0.060981763455736596   -0.001685233735491736
-0.00825142375540458   -0.06121446103885208   -0.0017027719579937295
-0.009028344646270399   -0.06590635637073232   -0.002050820589016121
-0.007068387643591004   -0.06605746653451319   -0.0018484776067513612
-0.008209308546070798   -0.06116354408891062   -0.0016316513512097887
-0.008892880799638639   -0.06587396853653729   -0.0018936945955822838
-0.0069781031954945566   -0.06605510720629121   -0.0017596180506171673
-0.008209308546070798   -0.06116354408891062   -0.0016316513512097887
-0.01111507116567212   -0.060981763455736596   -0.001685233735491736
-0.008892880799638639   -0.06587396853653729   -0.0018936945955822838
-0.011052368377010246   -0.06098028658774678   -0.0015414790130030636
-0.0069781031954945566   -0.06605510720629121   -0.0017596180506171673
-0.00877467537222902   -0.06588526533933454   -0.0017256045150601316
-0.011052368377010246   -0.06098028658774678   -0.0015414790130030636
-0.008892880799638639   -0.06587396853653729   -0.0018936945955822838
-0.0069781031954945566   -0.06605510720629121   -0.0017596180506171673
-0.011052368377010246   -0.06098028658774678   -0.0015414790130030636
-0.008168350693612967   -0.06114716005218555   -0.001553266825530246
-0.008209308546070798   -0.06116354408891062   -0.0016316513512097887
-0.0069781031954945566   -0.06605510720629121   -0.0017596180506171673
-0.011052368377010246   -0.06098028658774678   -0.0015414790130030636
-0.008209308546070798   -0.06116354408891062   -0.0016316513512097887
-0.008892880799638639   -0.06587396853653729   -0.0018936945955822838
-0.009126447224242442   -0.06598237894007926   -0.002201355792285537
-0.011237837775879563   -0.06109438120868204   -0.0019497584249106713
-0.011557727670109803   -0.06564960483627477   -0.0023916919785196985
-0.009028344646270399   -0.06590635637073232   -0.002050820589016121
-0.011237837775879563   -0.06109438120868204   -0.0019497584249106713
-0.014679990883284666   -0.06079597045142585   -0.0021207620740806166
-0.011557727670109803   -0.06564960483627477   -0.0023916919785196985
-0.014446546773900717   -0.060718878180731   -0.001918691976383258
-0.009028344646270399   -0.06590635637073232   -0.002050820589016121
-0.011241513997547912   -0.06556715720363139   -0.0021540155617300674
-0.014446546773900717   -0.060718878180731   -0.001918691976383258
-0.011557727670109803   -0.06564960483627477   -0.0023916919785196985
-0.009028344646270399   -0.06590635637073232   -0.002050820589016121
-0.014446546773900717   -0.060718878180731   -0.001918691976383258
-0.01119229271583297   -0.06102047911828632   -0.0018206671270752602
-0.011237837775879563   -0.06109438120868204   -0.0019497584249106713
-0.009028344646270399   -0.06590635637073232   -0.002050820589016121
-0.014446546773900717   -0.060718878180731   -0.001918691976383258
-0.011237837775879563   -0.06109438120868204   -0.0019497584249106713
-0.011557727670109803   -0.06564960483627477   -0.0023916919785196985
-0.009028344646270399   -0.06590635637073232   -0.002050820589016121
-0.01119229271583297   -0.06102047911828632   -0.0018206671270752602
-0.011241513997547912   -0.06556715720363139   -0.0021540155617300674
-0.008892880799638639   -0.06587396853653729   -0.0018936945955822838
-0.01119229271583297   -0.06102047911828632   -0.0018206671270752602
-0.014446546773900717   -0.060718878180731   -0.001918691976383258
-0.011241513997547912   -0.06556715720363139   -0.0021540155617300674
-0.014243967709705882   -0.060683474976278726   -0.0017061626735457912
-0.008892880799638639   -0.06587396853653729   -0.0018936945955822838
-0.01095812670623808   -0.06553719946926265   -0.0019025137745684382
-0.014243967709705882   -0.060683474976278726   -0.0017061626735457912
-0.011241513997547912   -0.06556715720363139   -0.0021540155617300674
-0.008892880799638639   -0.06587396853653729   -0.0018936945955822838
-0.014243967709705882   -0.060683474976278726   -0.0017061626735457912
-0.01111507116567212   -0.060981763455736596   -0.001685233735491736
-0.01119229271583297   -0.06102047911828632   -0.0018206671270752602
-0.008892880799638639   -0.06587396853653729   -0.0018936945955822838
-0.014243967709705882   -0.060683474976278726   -0.0017061626735457912
-0.01119229271583297   -0.06102047911828632   -0.0018206671270752602
-0.011241513997547912   -0.06556715720363139   -0.0021540155617300674
-0.008892880799638639   -0.06587396853653729   -0.0018936945955822838
-0.01111507116567212   -0.060981763455736596   -0.001685233735491736
-0.01095812670623808   -0.06553719946926265   -0.0019025137745684382
-0.00877467537222902   -0.06588526533933454   -0.0017256045150601316
-0.01111507116567212   -0.060981763455736596   -0.001685233735491736
-0.014243967709705882   -0.060683474976278726   -0.0017061626735457912
-0.01095812670623808   -0.06553719946926265   -0.0019025137745684382
-0.013971052637444109   -0.06070498068295883   -0.001484528004403146
-0.00877467537222902   -0.06588526533933454   -0.0017256045150601316
-0.010590849421990643   -0.0655752051158075   -0.0016395743295392713
-0.013971052637444109   -0.06070498068295883   -0.001484528004403146
-0.01095812670623808   -0.06553719946926265   -0.0019025137745684382
-0.00877467537222902   -0.06588526533933454   -0.0017256045150601316
-0.013971052637444109   -0.06070498068295883   -0.001484528004403146
-0.011052368377010246   -0.06098028658774678   -0.0015414790130030636
-0.01111507116567212   -0.060981763455736596   -0.001685233735491736
-0.00877467537222902   -0.06588526533933454   -0.0017256045150601316
-0.013971052637444109   -0.06070498068295883   -0.001484528004403146
-0.01111507116567212   -0.060981763455736596   -0.001685233735491736
-0.01095812670623808   -0.06553719946926265   -0.0019025137745684382
0.0003493304609110193   -0.06121773731155481   -0.0010537638600299902
0.002161648436055194   -0.05475137461480631   -0.0008029657472624702
-0.0026082214427864524   -0.061364642233370396   -0.0013313358137530926
0.0005417151564743873   -0.06107656322824214   -0.0012103800215119006
0.002161648436055194   -0.05475137461480631   -0.0008029657472624702
-0.0017551195076670448   -0.05484853783404869   -0.00106791721881305
-0.0026082214427864524   -0.061364642233370396   -0.0013313358137530926
-0.0017444888509844157   -0.05473150884203256   -0.00111560455677504
0.0005417151564743873   -0.06107656322824214   -0.0012103800215119006
-0.002557276619850124   -0.06124698409354455   -0.001400084650134151
-0.0017444888509844157   -0.05473150884203256   -0.00111560455677504
-0.0026082214427864524   -0.061364642233370396   -0.0013313358137530926
0.0005417151564743873   -0.06107656322824214   -0.0012103800215119006
-0.0017444888509844157   -0.05473150884203256   -0.00111560455677504
0.002276027036131703   -0.054613606169119484   -0.0009188624041991411
0.002161648436055194   -0.05475137461480631   -0.0008029657472624702
0.0005417151564743873   -0.06107656322824214   -0.0012103800215119006
-0.0017444888509844157   -0.05473150884203256   -0.00111560455677504
0.002161648436055194   -0.05475137461480631   -0.0008029657472624702
-0.0026082214427864524   -0.061364642233370396   -0.0013313358137530926
0.0005417151564743873   -0.06107656322824214   -0.0012103800215119006
0.002276027036131703   -0.054613606169119484   -0.0009188624041991411
-0.002557276619850124   -0.06124698409354455   -0.001400084650134151
0.0006832440493709189   -0.060995095424370864   -0.0013558046282976892
0.002276027036131703   -0.054613606169119484   -0.0009188624041991411
-0.0017444888509844157   -0.05473150884203256   -0.00111560455677504
-0.002557276619850124   -0.06124698409354455   -0.001400084650134151
-0.0017309615282889526   -0.0546467641847005   -0.001155982081198424
0.0006832440493709189   -0.060995095424370864   -0.0013558046282976892
-0.002499246346187658   -0.06117023541424373   -0.0014608376977864133
-0.0017309615282889526   -0.0546467641847005   -0.001155982081198424
-0.002557276619850124   -0.06124698409354455   -0.001400084650134151
0.0006832440493709189   -0.060995095424370864   -0.0013558046282976892
-0.0017309615282889526   -0.0546467641847005   -0.001155982081198424
0.0023491842960486984   -0.054523324981765785   -0.0010244285221183722
0.002276027036131703   -0.054613606169119484   -0.0009188624041991411
0.0006832440493709189   -0.060995095424370864   -0.0013558046282976892
-0.0017309615282889526   -0.0546467641847005   -0.001155982081198424
0.002276027036131703   -0.054613606169119484   -0.0009188624041991411
-0.002557276619850124   -0.06124698409354455   -0.001400084650134151
0.0006832440493709189   -0.060995095424370864   -0.0013558046282976892
0.0023491842960486984   -0.054523324981765785   -0.0010244285221183722
-0.002499246346187658   -0.06117023541424373   -0.0014608376977864133
0.0008348041517229434   -0.060955100337401355   -0.0014899837602693907
0.0023491842960486984   -0.054523324981765785   -0.0010244285221183722
-0.0017309615282889526   -0.0546467641847005   -0.001155982081198424
-0.002499246346187658   -0.06117023541424373   -0.0014608376977864133
-0.0017373612562302445   -0.0545915867629969   -0.0011895828894403673
0.0008348041517229434   -0.060955100337401355   -0.0014899837602693907
-0.0024645502409147316   -0.061132121754817845   -0.0015143845306564237
-0.0017373612562302445   -0.0545915867629969   -0.0011895828894403673
-0.002499246346187658   -0.06117023541424373   -0.0014608376977864133
0.0008348041517229434   -0.060955100337401355   -0.0014899837602693907
-0.0017373612562302445   -0.0545915867629969   -0.0011895828894403673
0.00242434208845649   -0.0544629918790955   -0.0011198813077799292
0.0023491842960486984   -0.054523324981765785   -0.0010244285221183722
0.0008348041517229434   -0.060955100337401355   -0.0014899837602693907
-0.0017373612562302445   -0.0545915867629969   -0.0011895828894403673
0.0023491842960486984   -0.054523324981765785   -0.0010244285221183722
-0.002499246346187658   -0.06117023541424373   -0.0014608376977864133
-0.0026082214427864524   -0.061364642233370396   -0.0013313358137530926
-0.0017551195076670448   -0.05484853783404869   -0.00106791721881305
-0.005469701840984111   -0.06139275089565924   -0.00155999731166573
-0.002557276619850124   -0.06124698409354455   -0.001400084650134151
-0.0017551195076670448   -0.05484853783404869   -0.00106791721881305
-0.005524463439774372   -0.054849075872139115   -0.0012863732513874405
-0.005469701840984111   -0.06139275089565924   -0.00155999731166573
-0.0055249312086759735   -0.05475007972506206   -0.001281870587530803
-0.002557276619850124   -0.06124698409354455   -0.001400084650134151
-0.00543226535604752   -0.061291761086100766   -0.0015617513566304336
-0.0055249312086759735   -0.05475007972506206   -0.001281870587530803
-0.005469701840984111   -0.06139275089565924   -0.00155999731166573
-0.002557276619850124   -0.06124698409354455   -0.001400084650134151
-0.0055249312086759735   -0.05475007972506206   -0.001281870587530803
-0.0017444888509844157   -0.05473150884203256   -0.00111560455677504
-0.0017551195076670448   -0.05484853783404869   -0.00106791721881305
-0.002557276619850124   -0.06124698409354455   -0.001400084650134151
-0.0055249312086759735   -0.05475007972506206   -0.001281870587530803
-0.0017551195076670448   -0.05484853783404869   -0.00106791721881305
-0.005469701840984111   -0.06139275089565924   -0.00155999731166573
-0.002557276619850124   -0.06124698409354455   -0.001400084650134151
-0.0017444888509844157   -0.05473150884203256   -0.00111560455677504
-0.00543226535604752   -0.061291761086100766   -0.0015617513566304336
-0.002499246346187658   -0.06117023541424373   -0.0014608376977864133
-0.0017444888509844157   -0.05473150884203256   -0.00111560455677504
-0.0055249312086759735   -0.05475007972506206   -0.001281870587530803
-0.00543226535604752   -0.061291761086100766   -0.0015617513566304336
-0.0055251451079076155   -0.054679543252568914   -0.001270085989201607
-0.002499246346187658   -0.06117023541424373   -0.0014608376977864133
-0.005393767192972558   -0.06122738609205558   -0.0015558440989901056
-0.0055251451079076155   -0.054679543252568914   -0.001270085989201607
-0.00543226535604752   -0.061291761086100766   -0.0015617513566304336
-0.002499246346187658   -0.06117023541424373   -0.0014608376977864133
-0.0055251451079076155   -0.054679543252568914   -0.001270085989201607
-0.0017309615282889526   -0.0546467641847005   -0.001155982081198424
-0.0017444888509844157   -0.05473150884203256   -0.00111560455677504
-0.002499246346187658   -0.06117023541424373   -0.0014608376977864133
-0.0055251451079076155   -0.054679543252568914   -0.001270085989201607
-0.0017444888509844157   -0.05473150884203256   -0.00111560455677504
-0.00543226535604752   -0.061291761086100766   -0.0015617513566304336
-0.002499246346187658   -0.06117023541424373   -0.0014608376977864133
-0.0017309615282889526   -0.0546467641847005   -0.001155982081198424
-0.005393767192972558   -0.06122738609205558   -0.0015558440989901056
-0.0024645502409147316   -0.061132121754817845   -0.0015143845306564237
-0.0017309615282889526   -0.0546467641847005   -0.001155982081198424
-0.0055251451079076155   -0.054679543252568914   -0.001270085989201607
-0.005393767192972558   -0.06122738609205558   -0.0015558440989901056
-0.005530396647340138   -0.0546375169979173   -0.0012513979821822247
-0.0024645502409147316   -0.061132121754817845   -0.0015143845306564237
-0.005360095823226765   -0.061199023397760614   -0.0015427865266645156
-0.005530396647340138   -0.0546375169979173   -0.0012513979821822247
-0.005393767192972558   -0.06122738609205558   -0.0015558440989901056
-0.0024645502409147316   -0.061132121754817845   -0.0015143845306564237
-0.005530396647340138   -0.0546375169979173   -0.0012513979821822247
-0.0017373612562302445   -0.0545915867629969   -0.0011895828894403673
-0.0017309615282889526   -0.0546467641847005   -0.001155982081198424
-0.0024645502409147316   -0.061132121754817845   -0.0015143845306564237
-0.005530396647340138   -0.0546375169979173   -0.0012513979821822247
-0.0017309615282889526   -0.0546467641847005   -0.001155982081198424
-0.005393767192972558   -0.06122738609205558   -0.0015558440989901056
-0.005469701840984111   -0.06139275089565924   -0.00155999731166573
-0.005524463439774372   -0.054849075872139115   -0.0012863732513874405
-0.008286275785982752   -0.0613015904018712   -0.0017663979689419196
-0.00543226535604752   -0.061291761086100766   -0.0015617513566304336
-0.005524463439774372   -0.054849075872139115   -0.0012863732513874405
-0.009229852256374547   -0.054755230516642925   -0.0014777166618196473
-0.008286275785982752   -0.0613015904018712   -0.0017663979689419196
-0.009233111925573823   -0.054672072651458646   -0.0014216544613073231
-0.00543226535604752   -0.061291761086100766   -0.0015617513566304336
-0.00825142375540458   -0.06121446103885208   -0.0017027719579937295
-0.009233111925573823   -0.054672072651458646   -0.0014216544613073231
-0.008286275785982752   -0.0613015904018712   -0.0017663979689419196
-0.00543226535604752   -0.061291761086100766   -0.0015617513566304336
-0.009233111925573823   -0.054672072651458646   -0.0014216544613073231
-0.0055249312086759735   -0.05475007972506206   -0.001281870587530803
-0.005524463439774372   -0.054849075872139115   -0.0012863732513874405
-0.00543226535604752   -0.061291761086100766   -0.0015617513566304336
-0.009233111925573823   -0.054672072651458646   -0.0014216544613073231
-0.005524463439774372   -0.054849075872139115   -0.0012863732513874405
-0.008286275785982752   -0.0613015904018712   -0.0017663979689419196
-0.00543226535604752   -0.061291761086100766   -0.0015617513566304336
-0.0055249312086759735   -0.05475007972506206   -0.001281870587530803
-0.00825142375540458   -0.06121446103885208   -0.0017027719579937295
-0.005393767192972558   -0.06122738609205558   -0.0015558440989901056
-0.0055249312086759735   -0.05475007972506206   -0.001281870587530803
-0.009233111925573823   -0.054672072651458646   -0.0014216544613073231
-0.00825142375540458   -0.06121446103885208   -0.0017027719579937295
-0.009230058289104559   -0.05461712276700429   -0.0013584520581490043
-0.005393767192972558   -0.06122738609205558   -0.0015558440989901056
-0.008209308546070798   -0.06116354408891062   -0.0016316513512097887
-0.009230058289104559   -0.05461712276700429   -0.0013584520581490043
-0.00825142375540458   -0.06121446103885208   -0.0017027719579937295
-0.005393767192972558   -0.06122738609205558   -0.0015558440989901056
-0.009230058289104559   -0.05461712276700429   -0.0013584520581490043
-0.0055251451079076155   -0.054679543252568914   -0.001270085989201607
-0.0055249312086759735   -0.05475007972506206   -0.001281870587530803
-0.005393767192972558   -0.06122738609205558   -0.0015558440989901056
-0.009230058289104559   -0.05461712276700429   -0.0013584520581490043
-0.0055249312086759735   -0.05475007972506206   -0.001281870587530803
-0.00825142375540458   -0.06121446103885208   -0.0017027719579937295
-0.005393767192972558   -0.06122738609205558   -0.0015558440989901056
-0.0055251451079076155   -0.054679543252568914   -0.001270085989201607
-0.008209308546070798   -0.06116354408891062   -0.0016316513512097887
-0.005360095823226765   -0.061199023397760614   -0.0015427865266645156
-0.0055251451079076155   -0.054679543252568914   -0.001270085989201607
-0.009230058289104559   -0.05461712276700429   -0.0013584520581490043
-0.008209308546070798   -0.06116354408891062   -0.0016316513512097887
-0.009228144773353484   -0.05458988635233107   -0.001288317461161102
-0.005360095823226765   -0.061199023397760614   -0.0015427865266645156
-0.008168350693612967   -0.06114716005218555   -0.001553266825530246
-0.009228144773353484   -0.05458988635233107   -0.001288317461161102
-0.008209308546070798   -0.06116354408891062   -0.0016316513512097887
-0.005360095823226765   -0.061199023397760614   -0.0015427865266645156
-0.009228144773353484   -0.05458988635233107   -0.001288317461161102
-0.005530396647340138   -0.0546375169979173   -0.0012513979821822247
-0.0055251451079076155   -0.054679543252568914   -0.001270085989201607
-0.005360095823226765   -0.061199023397760614   -0.0015427865266645156
-0.009228144773353484   -0.05458988635233107   -0.001288317461161102
-0.0055251451079076155   -0.054679543252568914   -0.001270085989201607
-0.008209308546070798   -0.06116354408891062   -0.0016316513512097887
-0.008286275785982752   -0.0613015904018712   -0.0017663979689419196
-0.009229852256374547   -0.054755230516642925   -0.0014777166618196473
-0.011237837775879563   -0.06109438120868204   -0.0019497584249106713
-0.00825142375540458   -0.06121446103885208   -0.0017027719579937295
-0.009229852256374547   -0.054755230516642925   -0.0014777166618196473
-0.013050693377201938   -0.05457054737495284   -0.0016423153158016163
-0.011237837775879563   -0.06109438120868204   -0.0019497584249106713
-0.013046160159506728   -0.05450255205537568   -0.0015340819199877005
-0.00825142375540458   -0.06121446103885208   -0.0017027719579937295
-0.01119229271583297   -0.06102047911828632   -0.0018206671270752602
-0.013046160159506728   -0.05450255205537568   -0.0015340819199877005
-0.011237837775879563   -0.06109438120868204   -0.0019497584249106713
-0.00825142375540458   -0.06121446103885208   -0.0017027719579937295
-0.013046160159506728   -0.05450255205537568   -0.0015340819199877005
-0.009233111925573823   -0.054672072651458646   -0.0014216544613073231
-0.009229852256374547   -0.054755230516642925   -0.0014777166618196473
-0.00825142375540458   -0.06121446103885208   -0.0017027719579937295
-0.013046160159506728   -0.05450255205537568   -0.0015340819199877005
-0.009229852256374547   -0.054755230516642925   -0.0014777166618196473
-0.011237837775879563   -0.06109438120868204   -0.0019497584249106713
-0.00825142375540458   -0.06121446103885208   -0.0017027719579937295
-0.009233111925573823   -0.054672072651458646   -0.0014216544613073231
-0.01119229271583297   -0.06102047911828632   -0.0018206671270752602
-0.008209308546070798   -0.06116354408891062   -0.0016316513512097887
-0.009233111925573823   -0.054672072651458646   -0.0014216544613073231
-0.013046160159506728   -0.05450255205537568   -0.0015340819199877005
-0.01119229271583297   -0.06102047911828632   -0.0018206671270752602
-0.013014081940442051   -0.05446173514480645   -0.0014197849041732399
-0.008209308546070798   -0.06116354408891062   -0.0016316513512097887
-0.01111507116567212   -0.060981763455736596   -0.001685233735491736
-0.013014081940442051   -0.05446173514480645   -0.0014197849041732399
-0.01119229271583297   -0.06102047911828632   -0.0018206671270752602
-0.008209308546070798   -0.06116354408891062   -0.0016316513512097887
-0.013014081940442051   -0.05446173514480645   -0.0014197849041732399
-0.009230058289104559   -0.05461712276700429   -0.0013584520581490043
-0.009233111925573823   -0.054672072651458646   -0.0014216544613073231
-0.008209308546070798   -0.06116354408891062   -0.0016316513512097887
-0.013014081940442051   -0.05446173514480645   -0.0014197849041732399
-0.009233111925573823   -0.054672072651458646   -0.0014216544613073231
-0.01119229271583297   -0.06102047911828632   -0.0018206671270752602
-0.008209308546070798   -0.06116354408891062   -0.0016316513512097887
-0.009230058289104559   -0.05461712276700429   -0.0013584520581490043
-0.01111507116567212   -0.060981763455736596   -0.001685233735491736
-0.008168350693612967   -0.06114716005218555   -0.001553266825530246
-0.009230058289104559   -0.05461712276700429   -0.0013584520581490043
-0.013014081940442051   -0.05446173514480645   -0.0014197849041732399
-0.01111507116567212   -0.060981763455736596   -0.001685233735491736
-0.012992651108698624   -0.05445096149895005   -0.0012979982319997543
-0.008168350693612967   -0.06114716005218555   -0.001553266825530246
-0.011052368377010246   -0.06098028658774678   -0.0015414790130030636
-0.012992651108698624   -0.05445096149895005   -0.0012979982319997543
-0.01111507116567212   -0.060981763455736596   -0.001685233735491736
-0.008168350693612967   -0.06114716005218555   -0.001553266825530246
-0.012992651108698624   -0.05445096149895005   -0.0012979982319997543
-0.009228144773353484   -0.05458988635233107   -0.001288317461161102
-0.009230058289104559   -0.05461712276700429   -0.0013584520581490043
-0.008168350693612967   -0.06114716005218555   -0.001553266825530246
-0.012992651108698624   -0.05445096149895005   -0.0012979982319997543
-0.009230058289104559   -0.05461712276700429   -0.0013584520581490043
-0.01111507116567212   -0.060981763455736596   -0.001685233735491736
-0.011237837775879563   -0.06109438120868204   -0.0019497584249106713
-0.013050693377201938   -0.05457054737495284   -0.0016423153158016163
-0.014679990883284666   -0.06079597045142585   -0.0021207620740806166
-0.01119229271583297   -0.06102047911828632   -0.0018206671270752602
-0.013050693377201938   -0.05457054737495284   -0.0016423153158016163
-0.01731853011736014   -0.05431595762039847   -0.0017907599385940049
-0.014679990883284666   -0.06079597045142585   -0.0021207620740806166
-0.01715880174984571   -0.054249215989148246   -0.0016251728125338636
-0.01119229271583297   -0.06102047911828632   -0.0018206671270752602
-0.014446546773900717   -0.060718878180731   -0.001918691976383258
-0.01715880174984571   -0.054249215989148246   -0.0016251728125338636
-0.014679990883284666   -0.06079597045142585   -0.0021207620740806166
-0.01119229271583297   -0.06102047911828632   -0.0018206671270752602
-0.01715880174984571   -0.054249215989148246   -0.0016251728125338636
-0.013046160159506728   -0.05450255205537568   -0.0015340819199877005
-0.013050693377201938   -0.05457054737495284   -0.0016423153158016163
-0.01119229271583297   -0.06102047911828632   -0.0018206671270752602
-0.01715880174984571   -0.054249215989148246   -0.0016251728125338636
-0.013050693377201938   -0.05457054737495284   -0.0016423153158016163
-0.014679990883284666   -0.06079597045142585   -0.0021207620740806166
-0.01119229271583297   -0.06102047911828632   -0.0018206671270752602
-0.013046160159506728   -0.05450255205537568   -0.0015340819199877005
-0.014446546773900717   -0.060718878180731   -0.001918691976383258
-0.01111507116567212   -0.060981763455736596   -0.001685233735491736
-0.013046160159506728   -0.05450255205537568   -0.0015340819199877005
-0.01715880174984571   -0.054249215989148246   -0.0016251728125338636
-0.014446546773900717   -0.060718878180731   -0.001918691976383258
-0.017022214996165238   -0.054213555171272174   -0.0014493923837217682
-0.01111507116567212   -0.060981763455736596   -0.001685233735491736
-0.014243967709705882   -0.060683474976278726   -0.0017061626735457912
-0.017022214996165238   -0.054213555171272174   -0.0014493923837217682
-0.014446546773900717   -0.060718878180731   -0.001918691976383258
-0.01111507116567212   -0.060981763455736596   -0.001685233735491736
-0.017022214996165238   -0.054213555171272174   -0.0014493923837217682
-0.013014081940442051   -0.05446173514480645   -0.0014197849041732399
-0.013046160159506728   -0.05450255205537568   -0.0015340819199877005
-0.01111507116567212   -0.060981763455736596   -0.001685233735491736
-0.017022214996165238   -0.054213555171272174   -0.0014493923837217682
-0.013046160159506728   -0.05450255205537568   -0.0015340819199877005
-0.014446546773900717   -0.060718878180731   -0.001918691976383258
-0.01111507116567212   -0.060981763455736596   -0.001685233735491736
-0.013014081940442051   -0.05446173514480645   -0.0014197849041732399
-0.014243967709705882   -0.060683474976278726   -0.0017061626735457912
-0.011052368377010246   -0.06098028658774678   -0.0015414790130030636
-0.013014081940442051   -0.05446173514480645   -0.0014197849041732399
-0.017022214996165238   -0.054213555171272174   -0.0014493923837217682
-0.014243967709705882   -0.060683474976278726   -0.0017061626735457912
-0.01682511953015255   -0.054225541383642994   -0.0012648165900025158
-0.011052368377010246   -0.06098028658774678   -0.0015414790130030636
-0.013971052637444109   -0.06070498068295883   -0.001484528004403146
-0.01682511953015255   -0.054225541383642994   -0.0012648165900025158
-0.014243967709705882   -0.060683474976278726   -0.0017061626735457912
-0.011052368377010246   -0.06098028658774678   -0.0015414790130030636
-0.01682511953015255   -0.054225541383642994   -0.0012648165900025158
-0.012992651108698624   -0.05445096149895005   -0.0012979982319997543
-0.013014081940442051   -0.05446173514480645   -0.0014197849041732399
-0.011052368377010246   -0.06098028658774678   -0.0015414790130030636
-0.01682511953015255   -0.054225541383642994   -0.0012648165900025158
-0.013014081940442051   -0.05446173514480645   -0.0014197849041732399
-0.014243967709705882   -0.060683474976278726   -0.0017061626735457912
0.002161648436055194   -0.05475137461480631   -0.0008029657472624702
0.0034112590175635416   -0.04697144062009357   -0.0005349260953635944
-0.0017551195076670448   -0.05484853783404869   -0.00106791721881305
0.002276027036131703   -0.054613606169119484   -0.0009188624041991411
0.0034112590175635416   -0.04697144062009357   -0.0005349260953635944
-0.0012365460483271021   -0.04701928703597013   -0.0007841941682985283
-0.0017551195076670448   -0.05484853783404869   -0.00106791721881305
-0.001258351361946301   -0.04690511354810928   -0.0008099264122780732
0.002276027036131703   -0.054613606169119484   -0.0009188624041991411
-0.0017444888509844157   -0.05473150884203256   -0.00111560455677504
-0.001258351361946301   -0.04690511354810928   -0.0008099264122780732
-0.0017551195076670448   -0.05484853783404869   -0.00106791721881305
0.002276027036131703   -0.054613606169119484   -0.0009188624041991411
-0.001258351361946301   -0.04690511354810928   -0.0008099264122780732
0.003456579138365497   -0.04683870866642732   -0.0006109155412158633
0.0034112590175635416   -0.04697144062009357   -0.0005349260953635944
0.002276027036131703   -0.054613606169119484   -0.0009188624041991411
-0.001258351361946301   -0.04690511354810928   -0.0008099264122780732
0.0034112590175635416   -0.04697144062009357   -0.0005349260953635944
-0.0017551195076670448   -0.05484853783404869   -0.00106791721881305
0.002276027036131703   -0.054613606169119484   -0.0009188624041991411
0.003456579138365497   -0.04683870866642732   -0.0006109155412158633
-0.0017444888509844157   -0.05473150884203256   -0.00111560455677504
0.0023491842960486984   -0.054523324981765785   -0.0010244285221183722
0.003456579138365497   -0.04683870866642732   -0.0006109155412158633
-0.001258351361946301   -0.04690511354810928   -0.0008099264122780732
-0.0017444888509844157   -0.05473150884203256   -0.00111560455677504
-0.001281260999600091   -0.04681487576940425   -0.0008291303430697927
0.0023491842960486984   -0.054523324981765785   -0.0010244285221183722
-0.0017309615282889526   -0.0546467641847005   -0.001155982081198424
-0.001281260999600091   -0.04681487576940425   -0.0008291303430697927
-0.0017444888509844157   -0.05473150884203256   -0.00111560455677504
0.0023491842960486984   -0.054523324981765785   -0.0010244285221183722
-0.001281260999600091   -0.04681487576940425   -0.0008291303430697927
0.003470447607152121   -0.04674208597704332   -0.0006772730928519795
0.003456579138365497   -0.04683870866642732   -0.0006109155412158633
0.0023491842960486984   -0.054523324981765785   -0.0010244285221183722
-0.001281260999600091   -0.04681487576940425   -0.0008291303430697927
0.003456579138365497   -0.04683870866642732   -0.0006109155412158633
-0.0017444888509844157   -0.05473150884203256   -0.00111560455677504
0.0023491842960486984   -0.054523324981765785   -0.0010244285221183722
0.003470447607152121   -0.04674208597704332   -0.0006772730928519795
-0.0017309615282889526   -0.0546467641847005   -0.001155982081198424
0.00242434208845649   -0.0544629918790955   -0.0011198813077799292
0.003470447607152121   -0.04674208597704332   -0.0006772730928519795
-0.001281260999600091   -0.04681487576940425   -0.0008291303430697927
-0.0017309615282889526   -0.0546467641847005   -0.001155982081198424
-0.0013203254979231578   -0.04674573359195659   -0.0008420265490954512
0.00242434208845649   -0.0544629918790955   -0.0011198813077799292
-0.0017373612562302445   -0.0545915867629969   -0.0011895828894403673
-0.0013203254979231578   -0.04674573359195659   -0.0008420265490954512
-0.0017309615282889526   -0.0546467641847005   -0.001155982081198424
0.00242434208845649   -0.0544629918790955   -0.0011198813077799292
-0.0013203254979231578   -0.04674573359195659   -0.0008420265490954512
0.0034783478213993193   -0.04666451573108966   -0.000734454911242759
0.003470447607152121   -0.04674208597704332   -0.0006772730928519795
0.00242434208845649   -0.0544629918790955   -0.0011198813077799292
-0.0013203254979231578   -0.04674573359195659   -0.0008420265490954512
0.003470447607152121   -0.04674208597704332   -0.0006772730928519795
-0.0017309615282889526   -0.0546467641847005   -0.001155982081198424
-0.0017551195076670448   -0.05484853783404869   -0.00106791721881305
-0.0012365460483271021   -0.04701928703597013   -0.0007841941682985283
-0.005524463439774372   -0.054849075872139115   -0.0012863732513874405
-0.0017444888509844157   -0.05473150884203256   -0.00111560455677504
-0.0012365460483271021   -0.04701928703597013   -0.0007841941682985283
-0.005691824806752478   -0.04699477748509837   -0.0009893909979933196
-0.005524463439774372   -0.054849075872139115   -0.0012863732513874405
-0.005722099610381419   -0.04689938508890082   -0.0009773812721478778
-0.0017444888509844157   -0.05473150884203256   -0.00111560455677504
-0.0055249312086759735   -0.05475007972506206   -0.001281870587530803
-0.005722099610381419   -0.04689938508890082   -0.0009773812721478778
-0.005524463439774372   -0.054849075872139115   -0.0012863732513874405
-0.0017444888509844157   -0.05473150884203256   -0.00111560455677504
-0.005722099610381419   -0.04689938508890082   -0.0009773812721478778
-0.001258351361946301   -0.04690511354810928   -0.0008099264122780732
-0.0012365460483271021   -0.04701928703597013   -0.0007841941682985283
-0.0017444888509844157   -0.05473150884203256   -0.00111560455677504
-0.005722099610381419   -0.04689938508890082   -0.0009773812721478778
-0.0012365460483271021   -0.04701928703597013   -0.0007841941682985283
-0.005524463439774372   -0.054849075872139115   -0.0012863732513874405
-0.0017444888509844157   -0.05473150884203256   -0.00111560455677504
-0.001258351361946301   -0.04690511354810928   -0.0008099264122780732
-0.0055249312086759735   -0.05475007972506206   -0.001281870587530803
-0.0017309615282889526   -0.0546467641847005   -0.001155982081198424
-0.001258351361946301   -0.04690511354810928   -0.0008099264122780732
-0.005722099610381419   -0.04689938508890082   -0.0009773812721478778
-0.0055249312086759735   -0.05475007972506206   -0.001281870587530803
-0.005752790481743077   -0.04682450991543186   -0.000958650260305315
-0.0017309615282889526   -0.0546467641847005   -0.001155982081198424
-0.0055251451079076155   -0.054679543252568914   -0.001270085989201607
-0.005752790481743077   -0.04682450991543186   -0.000958650260305315
-0.0055249312086759735   -0.05475007972506206   -0.001281870587530803
-0.0017309615282889526   -0.0546467641847005   -0.001155982081198424
-0.005752790481743077   -0.04682450991543186   -0.000958650260305315
-0.001281260999600091   -0.04681487576940425   -0.0008291303430697927
-0.001258351361946301   -0.04690511354810928   -0.0008099264122780732
-0.0017309615282889526   -0.0546467641847005   -0.001155982081198424
-0.005752790481743077   -0.04682450991543186   -0.000958650260305315
-0.001258351361946301   -0.04690511354810928   -0.0008099264122780732
-0.0055249312086759735   -0.05475007972506206   -0.001281870587530803
-0.0017309615282889526   -0.0546467641847005   -0.001155982081198424
-0.001281260999600091   -0.04681487576940425   -0.0008291303430697927
-0.0055251451079076155   -0.054679543252568914   -0.001270085989201607
-0.0017373612562302445   -0.0545915867629969   -0.0011895828894403673
-0.001281260999600091   -0.04681487576940425   -0.0008291303430697927
-0.005752790481743077   -0.04682450991543186   -0.000958650260305315
-0.0055251451079076155   -0.054679543252568914   -0.001270085989201607
-0.005788264036626604   -0.046770500102175164   -0.0009335226937299454
-0.0017373612562302445   -0.0545915867629969   -0.0011895828894403673
-0.005530396647340138   -0.0546375169979173   -0.0012513979821822247
-0.005788264036626604   -0.046770500102175164   -0.0009335226937299454
-0.0055251451079076155   -0.054679543252568914   -0.001270085989201607
-0.0017373612562302445   -0.0545915867629969   -0.0011895828894403673
-0.005788264036626604   -0.046770500102175164   -0.0009335226937299454
-0.0013203254979231578   -0.04674573359195659   -0.0008420265490954512
-0.001281260999600091   -0.04681487576940425   -0.0008291303430697927
-0.0017373612562302445   -0.0545915867629969   -0.0011895828894403673
-0.005788264036626604   -0.046770500102175164   -0.0009335226937299454
-0.001281260999600091   -0.04681487576940425   -0.0008291303430697927
-0.0055251451079076155   -0.054679543252568914   -0.001270085989201607
-0.005524463439774372   -0.054849075872139115   -0.0012863732513874405
-0.005691824806752478   -0.04699477748509837   -0.0009893909979933196
-0.009229852256374547   -0.054755230516642925   -0.0014777166618196473
-0.0055249312086759735   -0.05475007972506206   -0.001281870587530803
-0.005691824806752478   -0.04699477748509837   -0.0009893909979933196
-0.010071826269791749   -0.04690240734154897   -0.0011649371540856138
-0.009229852256374547   -0.054755230516642925   -0.0014777166618196473
-0.010104496133360542   -0.04682407528691215   -0.0011153693387299796
-0.0055249312086759735   -0.05475007972506206   -0.001281870587530803
-0.009233111925573823   -0.054672072651458646   -0.0014216544613073231
-0.010104496133360542   -0.04682407528691215   -0.0011153693387299796
-0.009229852256374547   -0.054755230516642925   -0.0014777166618196473
-0.0055249312086759735   -0.05475007972506206   -0.001281870587530803
-0.010104496133360542   -0.04682407528691215   -0.0011153693387299796
-0.005722099610381419   -0.04689938508890082   -0.0009773812721478778
-0.005691824806752478   -0.04699477748509837   -0.0009893909979933196
-0.0055249312086759735   -0.05475007972506206   -0.001281870587530803
-0.010104496133360542   -0.04682407528691215   -0.0011153693387299796
-0.005691824806752478   -0.04699477748509837   -0.0009893909979933196
-0.009229852256374547   -0.054755230516642925   -0.0014777166618196473
-0.0055249312086759735   -0.05475007972506206   -0.001281870587530803
-0.005722099610381419   -0.04689938508890082   -0.0009773812721478778
-0.009233111925573823   -0.054672072651458646   -0.0014216544613073231
-0.0055251451079076155   -0.054679543252568914   -0.001270085989201607
-0.005722099610381419   -0.04689938508890082   -0.0009773812721478778
-0.010104496133360542   -0.04682407528691215   -0.0011153693387299796
-0.009233111925573823   -0.054672072651458646   -0.0014216544613073231
-0.010131558851509797   -0.046766064568740155   -0.001059199429772486
-0.0055251451079076155   -0.054679543252568914   -0.001270085989201607
-0.009230058289104559   -0.05461712276700429   -0.0013584520581490043
-0.010131558851509797   -0.046766064568740155   -0.001059199429772486
-0.009233111925573823   -0.054672072651458646   -0.0014216544613073231
-0.0055251451079076155   -0.054679543252568914   -0.001270085989201607
-0.010131558851509797   -0.046766064568740155   -0.001059199429772486
-0.005752790481743077   -0.04682450991543186   -0.000958650260305315
-0.005722099610381419   -0.04689938508890082   -0.0009773812721478778
-0.0055251451079076155   -0.054679543252568914   -0.001270085989201607
-0.010131558851509797   -0.046766064568740155   -0.001059199429772486
-0.005722099610381419   -0.04689938508890082   -0.0009773812721478778
-0.009233111925573823   -0.054672072651458646   -0.0014216544613073231
-0.0055251451079076155   -0.054679543252568914   -0.001270085989201607
-0.005752790481743077   -0.04682450991543186   -0.000958650260305315
-0.009230058289104559   -0.05461712276700429   -0.0013584520581490043
-0.005530396647340138   -0.0546375169979173   -0.0012513979821822247
-0.005752790481743077   -0.04682450991543186   -0.000958650260305315
-0.010131558851509797   -0.046766064568740155   -0.001059199429772486
-0.009230058289104559   -0.05461712276700429   -0.0013584520581490043
-0.010159409918795298   -0.04672828984962503   -0.0009966215897323262
-0.005530396647340138   -0.0546375169979173   -0.0012513979821822247
-0.009228144773353484   -0.05458988635233107   -0.001288317461161102
-0.010159409918795298   -0.04672828984962503   -0.0009966215897323262
-0.009230058289104559   -0.05461712276700429   -0.0013584520581490043
-0.005530396647340138   -0.0546375169979173   -0.0012513979821822247
-0.010159409918795298   -0.04672828984962503   -0.0009966215897323262
-0.005788264036626604   -0.046770500102175164   -0.0009335226937299454
-0.005752790481743077   -0.04682450991543186   -0.000958650260305315
-0.005530396647340138   -0.0546375169979173   -0.0012513979821822247
-0.010159409918795298   -0.04672828984962503   -0.0009966215897323262
-0.005752790481743077   -0.04682450991543186   -0.000958650260305315
-0.009230058289104559   -0.05461712276700429   -0.0013584520581490043
-0.009229852256374547   -0.054755230516642925   -0.0014777166618196473
-0.010071826269791749   -0.04690240734154897   -0.0011649371540856138
-0.013050693377201938   -0.05457054737495284   -0.0016423153158016163
-0.009233111925573823   -0.054672072651458646   -0.0014216544613073231
-0.010071826269791749   -0.04690240734154897   -0.0011649371540856138
-0.014556002534494057   -0.04674401541049225   -0.001311507230291906
-0.013050693377201938   -0.05457054737495284   -0.0016423153158016163
-0.014583020388991248   -0.04668234565704394   -0.001223869391272061
-0.009233111925573823   -0.054672072651458646   -0.0014216544613073231
-0.013046160159506728   -0.05450255205537568   -0.0015340819199877005
-0.014583020388991248   -0.04668234565704394   -0.001223869391272061
-0.013050693377201938   -0.05457054737495284   -0.0016423153158016163
-0.009233111925573823   -0.054672072651458646   -0.0014216544613073231
-0.014583020388991248   -0.04668234565704394   -0.001223869391272061
-0.010104496133360542   -0.04682407528691215   -0.0011153693387299796
-0.010071826269791749   -0.04690240734154897   -0.0011649371540856138
-0.009233111925573823   -0.054672072651458646   -0.0014216544613073231
-0.014583020388991248   -0.04668234565704394   -0.001223869391272061
-0.010071826269791749   -0.04690240734154897   -0.0011649371540856138
-0.013050693377201938   -0.05457054737495284   -0.0016423153158016163
-0.009233111925573823   -0.054672072651458646   -0.0014216544613073231
-0.010104496133360542   -0.04682407528691215   -0.0011153693387299796
-0.013046160159506728   -0.05450255205537568   -0.0015340819199877005
-0.009230058289104559   -0.05461712276700429   -0.0013584520581490043
-0.010104496133360542   -0.04682407528691215   -0.0011153693387299796
-0.014583020388991248   -0.04668234565704394   -0.001223869391272061
-0.013046160159506728   -0.05450255205537568   -0.0015340819199877005
-0.014586447578115398   -0.046639756369775   -0.001130542916728859
-0.009230058289104559   -0.05461712276700429   -0.0013584520581490043
-0.013014081940442051   -0.05446173514480645   -0.0014197849041732399
-0.014586447578115398   -0.046639756369775   -0.001130542916728859
-0.013046160159506728   -0.05450255205537568   -0.0015340819199877005
-0.009230058289104559   -0.05461712276700429   -0.0013584520581490043
-0.014586447578115398   -0.046639756369775   -0.001130542916728859
-0.010131558851509797   -0.046766064568740155   -0.001059199429772486
-0.010104496133360542   -0.04682407528691215   -0.0011153693387299796
-0.009230058289104559   -0.05461712276700429   -0.0013584520581490043
-0.014586447578115398   -0.046639756369775   -0.001130542916728859
-0.010104496133360542   -0.04682407528691215   -0.0011153693387299796
-0.013046160159506728   -0.05450255205537568   -0.0015340819199877005
-0.009230058289104559   -0.05461712276700429   -0.0013584520581490043
-0.010131558851509797   -0.046766064568740155   -0.001059199429772486
-0.013014081940442051   -0.05446173514480645   -0.0014197849041732399
-0.009228144773353484   -0.05458988635233107   -0.001288317461161102
-0.010131558851509797   -0.046766064568740155   -0.001059199429772486
-0.014586447578115398   -0.046639756369775   -0.001130542916728859
-0.013014081940442051   -0.05446173514480645   -0.0014197849041732399
-0.01459657943228461   -0.04661922461084751   -0.0010303226903130957
-0.009228144773353484   -0.05458988635233107   -0.001288317461161102
-0.012992651108698624   -0.05445096149895005   -0.0012979982319997543
-0.01459657943228461   -0.04661922461084751   -0.0010303226903130957
-0.013014081940442051   -0.05446173514480645   -0.0014197849041732399
-0.009228144773353484   -0.05458988635233107   -0.001288317461161102
-0.01459657943228461   -0.04661922461084751   -0.0010303226903130957
-0.010159409918795298   -0.04672828984962503   -0.0009966215897323262
-0.010131558851509797   -0.046766064568740155   -0.001059199429772486
-0.009228144773353484   -0.05458988635233107   -0.001288317461161102
-0.01459657943228461   -0.04661922461084751   -0.0010303226903130957
-0.010131558851509797   -0.046766064568740155   -0.001059199429772486
-0.013014081940442051   -0.05446173514480645   -0.0014197849041732399
-0.013050693377201938   -0.05457054737495284   -0.0016423153158016163
-0.014556002534494057   -0.04674401541049225   -0.001311507230291906
-0.01731853011736014   -0.05431595762039847   -0.0017907599385940049
-0.013046160159506728   -0.05450255205537568   -0.0015340819199877005
-0.014556002534494057   -0.04674401541049225   -0.001311507230291906
-0.019445978999678617   -0.04653619775160477   -0.0014367158561465294
-0.01731853011736014   -0.05431595762039847   -0.0017907599385940049
-0.019352230986509438   -0.04647986422250018   -0.0013088078301137375
-0.013046160159506728   -0.05450255205537568   -0.0015340819199877005
-0.01715880174984571   -0.054249215989148246   -0.0016251728125338636
-0.019352230986509438   -0.04647986422250018   -0.0013088078301137375
-0.01731853011736014   -0.05431595762039847   -0.0017907599385940049
-0.013046160159506728   -0.05450255205537568   -0.0015340819199877005
-0.019352230986509438   -0.04647986422250018   -0.0013088078301137375
-0.014583020388991248   -0.04668234565704394   -0.001223869391272061
-0.014556002534494057   -0.04674401541049225   -0.001311507230291906
-0.013046160159506728   -0.05450255205537568   -0.0015340819199877005
-0.019352230986509438   -0.04647986422250018   -0.0013088078301137375
-0.014556002534494057   -0.04674401541049225   -0.001311507230291906
-0.01731853011736014   -0.05431595762039847   -0.0017907599385940049
-0.013046160159506728   -0.05450255205537568   -0.0015340819199877005
-0.014583020388991248   -0.04668234565704394   -0.001223869391272061
-0.01715880174984571   -0.054249215989148246   -0.0016251728125338636
-0.013014081940442051   -0.05446173514480645   -0.0014197849041732399
-0.014583020388991248   -0.04668234565704394   -0.001223869391272061
-0.019352230986509438   -0.04647986422250018   -0.0013088078301137375
-0.01715880174984571   -0.054249215989148246   -0.0016251728125338636
-0.0192732033431889   -0.04644381342609207   -0.0011709668513600116
-0.013014081940442051   -0.05446173514480645   -0.0014197849041732399
-0.017022214996165238   -0.054213555171272174   -0.0014493923837217682
-0.0192732033431889   -0.04644381342609207   -0.0011709668513600116
-0.01715880174984571   -0.054249215989148246   -0.0016251728125338636
-0.013014081940442051   -0.05446173514480645   -0.0014197849041732399
-0.0192732033431889   -0.04644381342609207   -0.0011709668513600116
-0.014586447578115398   -0.046639756369775   -0.001130542916728859
-0.014583020388991248   -0.04668234565704394   -0.001223869391272061
-0.013014081940442051   -0.05446173514480645   -0.0014197849041732399
-0.0192732033431889   -0.04644381342609207   -0.0011709668513600116
-0.014583020388991248   -0.04668234565704394   -0.001223869391272061
-0.01715880174984571   -0.054249215989148246   -0.0016251728125338636
-0.013014081940442051   -0.05446173514480645   -0.0014197849041732399
-0.014586447578115398   -0.046639756369775   -0.001130542916728859
-0.017022214996165238   -0.054213555171272174   -0.0014493923837217682
-0.012992651108698624   -0.05445096149895005   -0.0012979982319997543
-0.014586447578115398   -0.046639756369775   -0.001130542916728859
-0.0192732033431889   -0.04644381342609207   -0.0011709668513600116
-0.017022214996165238   -0.054213555171272174   -0.0014493923837217682
-0.01914286970479886   -0.04644523560609624   -0.001024431446092053
-0.012992651108698624   -0.05445096149895005   -0.0012979982319997543
-0.01682511953015255   -0.054225541383642994   -0.0012648165900025158
-0.01914286970479886   -0.04644523560609624   -0.001024431446092053
-0.017022214996165238   -0.054213555171272174   -0.0014493923837217682
-0.012992651108698624   -0.05445096149895005   -0.0012979982319997543
-0.01914286970479886   -0.04644523560609624   -0.001024431446092053
-0.01459657943228461   -0.04661922461084751   -0.0010303226903130957
-0.014586447578115398   -0.046639756369775   -0.001130542916728859
-0.012992651108698624   -0.05445096149895005   -0.0012979982319997543
-0.01914286970479886   -0.04644523560609624   -0.001024431446092053
-0.014586447578115398   -0.046639756369775   -0.001130542916728859
-0.017022214996165238   -0.054213555171272174   -0.0014493923837217682
0.0034112590175635416   -0.04697144062009357   -0.0005349260953635944
0.004106167710169861   -0.03823947587176044   -0.00027256613844957376
-0.0012365460483271021   -0.04701928703597013   -0.0007841941682985283
0.003456579138365497   -0.04683870866642732   -0.0006109155412158633
0.004106167710169861   -0.03823947587176044   -0.00027256613844957376
-0.0010544744738191514   -0.03823848945312012   -0.000503692841610885
-0.0012365460483271021   -0.04701928703597013   -0.0007841941682985283
-0.0011005562699631388   -0.03812806366286417   -0.0005071802757170087
0.003456579138365497   -0.04683870866642732   -0.0006109155412158633
-0.001258351361946301   -0.04690511354810928   -0.0008099264122780732
-0.0011005562699631388   -0.03812806366286417   -0.0005071802757170087
-0.0012365460483271021   -0.04701928703597013   -0.0007841941682985283
0.003456579138365497   -0.04683870866642732   -0.0006109155412158633
-0.0011005562699631388   -0.03812806366286417   -0.0005071802757170087
0.004091470415158699   -0.038112414943977664   -0.00030907617706576215
0.004106167710169861   -0.03823947587176044   -0.00027256613844957376
0.003456579138365497   -0.04683870866642732   -0.0006109155412158633
-0.0011005562699631388   -0.03812806366286417   -0.0005071802757170087
0.004106167710169861   -0.03823947587176044   -0.00027256613844957376
-0.0012365460483271021   -0.04701928703597013   -0.0007841941682985283
0.003456579138365497   -0.04683870866642732   -0.0006109155412158633
0.004091470415158699   -0.038112414943977664   -0.00030907617706576215
-0.001258351361946301   -0.04690511354810928   -0.0008099264122780732
0.003470447607152121   -0.04674208597704332   -0.0006772730928519795
0.004091470415158699   -0.038112414943977664   -0.00030907617706576215
-0.0011005562699631388   -0.03812806366286417   -0.0005071802757170087
-0.001258351361946301   -0.04690511354810928   -0.0008099264122780732
-0.0011517628814986755   -0.03803307715468443   -0.0005048763333751321
0.003470447607152121   -0.04674208597704332   -0.0006772730928519795
-0.001281260999600091   -0.04681487576940425   -0.0008291303430697927
-0.0011517628814986755   -0.03803307715468443   -0.0005048763333751321
-0.001258351361946301   -0.04690511354810928   -0.0008099264122780732
0.003470447607152121   -0.04674208597704332   -0.0006772730928519795
-0.0011517628814986755   -0.03803307715468443   -0.0005048763333751321
0.004054517509793006   -0.03801026117488544   -0.00033630364393369904
0.004091470415158699   -0.038112414943977664   -0.00030907617706576215
0.003470447607152121   -0.04674208597704332   -0.0006772730928519795
-0.0011517628814986755   -0.03803307715468443   -0.0005048763333751321
0.004091470415158699   -0.038112414943977664   -0.00030907617706576215
-0.001258351361946301   -0.04690511354810928   -0.0008099264122780732
0.003470447607152121   -0.04674208597704332   -0.0006772730928519795
0.004054517509793006   -0.03801026117488544   -0.00033630364393369904
-0.001281260999600091   -0.04681487576940425   -0.0008291303430697927
0.0034783478213993193   -0.04666451573108966   -0.000734454911242759
0.004054517509793006   -0.03801026117488544   -0.00033630364393369904
-0.0011517628814986755   -0.03803307715468443   -0.0005048763333751321
-0.001281260999600091   -0.04681487576940425   -0.0008291303430697927
-0.0012153467226414768   -0.03795106459052361   -0.0004965526993387762
0.0034783478213993193   -0.04666451573108966   -0.000734454911242759
-0.0013203254979231578   -0.04674573359195659   -0.0008420265490954512
-0.0012153467226414768   -0.03795106459052361   -0.0004965526993387762
-0.001281260999600091   -0.04681487576940425   -0.0008291303430697927
0.0034783478213993193   -0.04666451573108966   -0.000734454911242759
-0.0012153467226414768   -0.03795106459052361   -0.0004965526993387762
0.00400289833226076   -0.0379163196850111   -0.0003548968165055998
0.004054517509793006   -0.03801026117488544   -0.00033630364393369904
0.0034783478213993193   -0.04666451573108966   -0.000734454911242759
-0.0012153467226414768   -0.03795106459052361   -0.0004965526993387762
0.004054517509793006   -0.03801026117488544   -0.00033630364393369904
-0.001281260999600091   -0.04681487576940425   -0.0008291303430697927
-0.0012365460483271021   -0.04701928703597013   -0.0007841941682985283
-0.0010544744738191514   -0.03823848945312012   -0.000503692841610885
-0.005691824806752478   -0.04699477748509837   -0.0009893909979933196
-0.001258351361946301   -0.04690511354810928   -0.0008099264122780732
-0.0010544744738191514   -0.03823848945312012   -0.000503692841610885
-0.0059769089170367325   -0.03819185788326163   -0.0006943696392511953
-0.005691824806752478   -0.04699477748509837   -0.0009893909979933196
-0.00602851241660957   -0.03810022305220804   -0.0006742226025542946
-0.001258351361946301   -0.04690511354810928   -0.0008099264122780732
-0.005722099610381419   -0.04689938508890082   -0.0009773812721478778
-0.00602851241660957   -0.03810022305220804   -0.0006742226025542946
-0.005691824806752478   -0.04699477748509837   -0.0009893909979933196
-0.001258351361946301   -0.04690511354810928   -0.0008099264122780732
-0.00602851241660957   -0.03810022305220804   -0.0006742226025542946
-0.0011005562699631388   -0.03812806366286417   -0.0005071802757170087
-0.0010544744738191514   -0.03823848945312012   -0.000503692841610885
-0.001258351361946301   -0.04690511354810928   -0.0008099264122780732
-0.00602851241660957   -0.03810022305220804   -0.0006742226025542946
-0.0010544744738191514   -0.03823848945312012   -0.000503692841610885
-0.005691824806752478   -0.04699477748509837   -0.0009893909979933196
-0.001258351361946301   -0.04690511354810928   -0.0008099264122780732
-0.0011005562699631388   -0.03812806366286417   -0.0005071802757170087
-0.005722099610381419   -0.04689938508890082   -0.0009773812721478778
-0.001281260999600091   -0.04681487576940425   -0.0008291303430697927
-0.0011005562699631388   -0.03812806366286417   -0.0005071802757170087
-0.00602851241660957   -0.03810022305220804   -0.0006742226025542946
-0.005722099610381419   -0.04689938508890082   -0.0009773812721478778
-0.006081155811798423   -0.03802115668833991   -0.0006480423739308508
-0.001281260999600091   -0.04681487576940425   -0.0008291303430697927
-0.005752790481743077   -0.04682450991543186   -0.000958650260305315
-0.006081155811798423   -0.03802115668833991   -0.0006480423739308508
-0.005722099610381419   -0.04689938508890082   -0.0009773812721478778
-0.001281260999600091   -0.04681487576940425   -0.0008291303430697927
-0.006081155811798423   -0.03802115668833991   -0.0006480423739308508
-0.0011517628814986755   -0.03803307715468443   -0.0005048763333751321
-0.0011005562699631388   -0.03812806366286417   -0.0005071802757170087
-0.001281260999600091   -0.04681487576940425   -0.0008291303430697927
-0.006081155811798423   -0.03802115668833991   -0.0006480423739308508
-0.0011005562699631388   -0.03812806366286417   -0.0005071802757170087
-0.005722099610381419   -0.04689938508890082   -0.0009773812721478778
-0.001281260999600091   -0.04681487576940425   -0.0008291303430697927
-0.0011517628814986755   -0.03803307715468443   -0.0005048763333751321
-0.005752790481743077   -0.04682450991543186   -0.000958650260305315
-0.0013203254979231578   -0.04674573359195659   -0.0008420265490954512
-0.0011517628814986755   -0.03803307715468443   -0.0005048763333751321
-0.006081155811798423   -0.03802115668833991   -0.0006480423739308508
-0.005752790481743077   -0.04682450991543186   -0.000958650260305315
-0.006138255523714086   -0.03795540695729432   -0.0006161124870905772
-0.0013203254979231578   -0.04674573359195659   -0.0008420265490954512
-0.005788264036626604   -0.046770500102175164   -0.0009335226937299454
-0.006138255523714086   -0.03795540695729432   -0.0006161124870905772
-0.005752790481743077   -0.04682450991543186   -0.000958650260305315
-0.0013203254979231578   -0.04674573359195659   -0.0008420265490954512
-0.006138255523714086   -0.03795540695729432   -0.0006161124870905772
-0.0012153467226414768   -0.03795106459052361   -0.0004965526993387762
-0.0011517628814986755   -0.03803307715468443   -0.0005048763333751321
-0.0013203254979231578   -0.04674573359195659   -0.0008420265490954512
-0.006138255523714086   -0.03795540695729432   -0.0006161124870905772
-0.0011517628814986755   -0.03803307715468443   -0.0005048763333751321
-0.005752790481743077   -0.04682450991543186   -0.000958650260305315
-0.005691824806752478   -0.04699477748509837   -0.0009893909979933196
-0.0059769089170367325   -0.03819185788326163   -0.0006943696392511953
-0.010071826269791749   -0.04690240734154897   -0.0011649371540856138
-0.005722099610381419   -0.04689938508890082   -0.0009773812721478778
-0.0059769089170367325   -0.03819185788326163   -0.0006943696392511953
-0.010816117090744424   -0.0381047666772808   -0.0008551903316185484
-0.010071826269791749   -0.04690240734154897   -0.0011649371540856138
-0.01086925368491403   -0.038030450522268486   -0.0008114534284095841
-0.005722099610381419   -0.04689938508890082   -0.0009773812721478778
-0.010104496133360542   -0.04682407528691215   -0.0011153693387299796
-0.01086925368491403   -0.038030450522268486   -0.0008114534284095841
-0.010071826269791749   -0.04690240734154897   -0.0011649371540856138
-0.005722099610381419   -0.04689938508890082   -0.0009773812721478778
-0.01086925368491403   -0.038030450522268486   -0.0008114534284095841
-0.00602851241660957   -0.03810022305220804   -0.0006742226025542946
-0.0059769089170367325   -0.03819185788326163   -0.0006943696392511953
-0.005722099610381419   -0.04689938508890082   -0.0009773812721478778
-0.01086925368491403   -0.038030450522268486   -0.0008114534284095841
-0.0059769089170367325   -0.03819185788326163   -0.0006943696392511953
-0.010071826269791749   -0.04690240734154897   -0.0011649371540856138
-0.005722099610381419   -0.04689938508890082   -0.0009773812721478778
-0.00602851241660957   -0.03810022305220804   -0.0006742226025542946
-0.010104496133360542   -0.04682407528691215   -0.0011153693387299796
-0.005752790481743077   -0.04682450991543186   -0.000958650260305315
-0.00602851241660957   -0.03810022305220804   -0.0006742226025542946
-0.01086925368491403   -0.038030450522268486   -0.0008114534284095841
-0.010104496133360542   -0.04682407528691215   -0.0011153693387299796
-0.010917453388209312   -0.03796861400235585   -0.0007618241480540214
-0.005752790481743077   -0.04682450991543186   -0.000958650260305315
-0.010131558851509797   -0.046766064568740155   -0.001059199429772486
-0.010917453388209312   -0.03796861400235585   -0.0007618241480540214
-0.010104496133360542   -0.04682407528691215   -0.0011153693387299796
-0.005752790481743077   -0.04682450991543186   -0.000958650260305315
-0.010917453388209312   -0.03796861400235585   -0.0007618241480540214
-0.006081155811798423   -0.03802115668833991   -0.0006480423739308508
-0.00602851241660957   -0.03810022305220804   -0.0006742226025542946
-0.005752790481743077   -0.04682450991543186   -0.000958650260305315
-0.010917453388209312   -0.03796861400235585   -0.0007618241480540214
-0.00602851241660957   -0.03810022305220804   -0.0006742226025542946
-0.010104496133360542   -0.04682407528691215   -0.0011153693387299796
-0.005752790481743077   -0.04682450991543186   -0.000958650260305315
-0.006081155811798423   -0.03802115668833991   -0.0006480423739308508
-0.010131558851509797   -0.046766064568740155   -0.001059199429772486
-0.005788264036626604   -0.046770500102175164   -0.0009335226937299454
-0.006081155811798423   -0.03802115668833991   -0.0006480423739308508
-0.010917453388209312   -0.03796861400235585   -0.0007618241480540214
-0.010131558851509797   -0.046766064568740155   -0.001059199429772486
-0.010966110777120383   -0.03791936101470601   -0.0007065269241533997
-0.005788264036626604   -0.046770500102175164   -0.0009335226937299454
-0.010159409918795298   -0.04672828984962503   -0.0009966215897323262
-0.010966110777120383   -0.03791936101470601   -0.0007065269241533997
-0.010131558851509797   -0.046766064568740155   -0.001059199429772486
-0.005788264036626604   -0.046770500102175164   -0.0009335226937299454
-0.010966110777120383   -0.03791936101470601   -0.0007065269241533997
-0.006138255523714086   -0.03795540695729432   -0.0006161124870905772
-0.006081155811798423   -0.03802115668833991   -0.0006480423739308508
-0.005788264036626604   -0.046770500102175164   -0.0009335226937299454
-0.010966110777120383   -0.03791936101470601   -0.0007065269241533997
-0.006081155811798423   -0.03802115668833991   -0.0006480423739308508
-0.010131558851509797   -0.046766064568740155   -0.001059199429772486
-0.010071826269791749   -0.04690240734154897   -0.0011649371540856138
-0.010816117090744424   -0.0381047666772808   -0.0008551903316185484
-0.014556002534494057   -0.04674401541049225   -0.001311507230291906
-0.010104496133360542   -0.04682407528691215   -0.0011153693387299796
-0.010816117090744424   -0.0381047666772808   -0.0008551903316185484
-0.015751190764540245   -0.03797536486023274   -0.0009865209435990948
-0.014556002534494057   -0.04674401541049225   -0.001311507230291906
-0.015800519017979978   -0.03791851218161748   -0.0009190134730558278
-0.010104496133360542   -0.04682407528691215   -0.0011153693387299796
-0.014583020388991248   -0.04668234565704394   -0.001223869391272061
-0.015800519017979978   -0.03791851218161748   -0.0009190134730558278
-0.014556002534494057   -0.04674401541049225   -0.001311507230291906
-0.010104496133360542   -0.04682407528691215   -0.0011153693387299796
-0.015800519017979978   -0.03791851218161748   -0.0009190134730558278
-0.01086925368491403   -0.038030450522268486   -0.0008114534284095841
-0.010816117090744424   -0.0381047666772808   -0.0008551903316185484
-0.010104496133360542   -0.04682407528691215   -0.0011153693387299796
-0.015800519017979978   -0.03791851218161748   -0.0009190134730558278
-0.010816117090744424   -0.0381047666772808   -0.0008551903316185484
-0.014556002534494057   -0.04674401541049225   -0.001311507230291906
-0.010104496133360542   -0.04682407528691215   -0.0011153693387299796
-0.01086925368491403   -0.038030450522268486   -0.0008114534284095841
-0.014583020388991248   -0.04668234565704394   -0.001223869391272061
-0.010131558851509797   -0.046766064568740155   -0.001059199429772486
-0.01086925368491403   -0.038030450522268486   -0.0008114534284095841
-0.015800519017979978   -0.03791851218161748   -0.0009190134730558278
-0.014583020388991248   -0.04668234565704394   -0.001223869391272061
-0.015830365551491653   -0.037872555431401556   -0.0008464081987801708
-0.010131558851509797   -0.046766064568740155   -0.001059199429772486
-0.014586447578115398   -0.046639756369775   -0.001130542916728859
-0.015830365551491653   -0.037872555431401556   -0.0008464081987801708
-0.014583020388991248   -0.04668234565704394   -0.001223869391272061
-0.010131558851509797   -0.046766064568740155   -0.001059199429772486
-0.015830365551491653   -0.037872555431401556   -0.0008464081987801708
-0.010917453388209312   -0.03796861400235585   -0.0007618241480540214
-0.01086925368491403   -0.038030450522268486   -0.0008114534284095841
-0.010131558851509797   -0.046766064568740155   -0.001059199429772486
-0.015830365551491653   -0.037872555431401556   -0.0008464081987801708
-0.01086925368491403   -0.038030450522268486   -0.0008114534284095841
-0.014583020388991248   -0.04668234565704394   -0.001223869391272061
-0.010131558851509797   -0.046766064568740155   -0.001059199429772486
-0.010917453388209312   -0.03796861400235585   -0.0007618241480540214
-0.014586447578115398   -0.046639756369775   -0.001130542916728859
-0.010159409918795298   -0.04672828984962503   -0.0009966215897323262
-0.010917453388209312   -0.03796861400235585   -0.0007618241480540214
-0.015830365551491653   -0.037872555431401556   -0.0008464081987801708
-0.014586447578115398   -0.046639756369775   -0.001130542916728859
-0.0158631653848126   -0.03784027522569272   -0.0007676513435435366
-0.010159409918795298   -0.04672828984962503   -0.0009966215897323262
-0.01459657943228461   -0.04661922461084751   -0.0010303226903130957
-0.0158631653848126   -0.03784027522569272   -0.0007676513435435366
-0.014586447578115398   -0.046639756369775   -0.001130542916728859
-0.010159409918795298   -0.04672828984962503   -0.0009966215897323262
-0.0158631653848126   -0.03784027522569272   -0.0007676513435435366
-0.010966110777120383   -0.03791936101470601   -0.0007065269241533997
-0.010917453388209312   -0.03796861400235585   -0.0007618241480540214
-0.010159409918795298   -0.04672828984962503   -0.0009966215897323262
-0.0158631653848126   -0.03784027522569272   -0.0007676513435435366
-0.010917453388209312   -0.03796861400235585   -0.0007618241480540214
-0.014586447578115398   -0.046639756369775   -0.001130542916728859
-0.014556002534494057   -0.04674401541049225   -0.001311507230291906
-0.015751190764540245   -0.03797536486023274   -0.0009865209435990948
-0.019445978999678617   -0.04653619775160477   -0.0014367158561465294
-0.014583020388991248   -0.04668234565704394   -0.001223869391272061
-0.015751190764540245   -0.03797536486023274   -0.0009865209435990948
-0.021047939652524057   -0.037816119731428385   -0.00109090665682923
-0.019445978999678617   -0.04653619775160477   -0.0014367158561465294
-0.021011391889721905   -0.03776821538032241   -0.0010009396729623045
-0.014583020388991248   -0.04668234565704394   -0.001223869391272061
-0.019352230986509438   -0.04647986422250018   -0.0013088078301137375
-0.021011391889721905   -0.03776821538032241   -0.0010009396729623045
-0.019445978999678617   -0.04653619775160477   -0.0014367158561465294
-0.014583020388991248   -0.04668234565704394   -0.001223869391272061
-0.021011391889721905   -0.03776821538032241   -0.0010009396729623045
-0.015800519017979978   -0.03791851218161748   -0.0009190134730558278
-0.015751190764540245   -0.03797536486023274   -0.0009865209435990948
-0.014583020388991248   -0.04668234565704394   -0.001223869391272061
-0.021011391889721905   -0.03776821538032241   -0.0010009396729623045
-0.015751190764540245   -0.03797536486023274   -0.0009865209435990948
-0.019445978999678617   -0.04653619775160477   -0.0014367158561465294
-0.014583020388991248   -0.04668234565704394   -0.001223869391272061
-0.015800519017979978   -0.03791851218161748   -0.0009190134730558278
-0.019352230986509438   -0.04647986422250018   -0.0013088078301137375
-0.014586447578115398   -0.046639756369775   -0.001130542916728859
-0.015800519017979978   -0.03791851218161748   -0.0009190134730558278
-0.021011391889721905   -0.03776821538032241   -0.0010009396729623045
-0.019352230986509438   -0.04647986422250018   -0.0013088078301137375
-0.020981606762159787   -0.03772974004992708   -0.0009016184053863795
-0.014586447578115398   -0.046639756369775   -0.001130542916728859
-0.0192732033431889   -0.04644381342609207   -0.0011709668513600116
-0.020981606762159787   -0.03772974004992708   -0.0009016184053863795
-0.019352230986509438   -0.04647986422250018   -0.0013088078301137375
-0.014586447578115398   -0.046639756369775   -0.001130542916728859
-0.020981606762159787   -0.03772974004992708   -0.0009016184053863795
-0.015830365551491653   -0.037872555431401556   -0.0008464081987801708
-0.015800519017979978   -0.03791851218161748   -0.0009190134730558278
-0.014586447578115398   -0.046639756369775   -0.001130542916728859
-0.020981606762159787   -0.03772974004992708   -0.0009016184053863795
-0.015800519017979978   -0.03791851218161748   -0.0009190134730558278
-0.019352230986509438   -0.04647986422250018   -0.0013088078301137375
-0.014586447578115398   -0.046639756369775   -0.001130542916728859
-0.015830365551491653   -0.037872555431401556   -0.0008464081987801708
-0.0192732033431889   -0.04644381342609207   -0.0011709668513600116
-0.01459657943228461   -0.04661922461084751   -0.0010303226903130957
-0.015830365551491653   -0.037872555431401556   -0.0008464081987801708
-0.020981606762159787   -0.03772974004992708   -0.0009016184053863795
-0.0192732033431889   -0.04644381342609207   -0.0011709668513600116
-0.020910201760857654   -0.037717816506917   -0.000794009627799029
-0.01459657943228461   -0.04661922461084751   -0.0010303226903130957
-0.01914286970479886   -0.04644523560609624   -0.001024431446092053
-0.020910201760857654   -0.037717816506917   -0.000794009627799029
-0.0192732033431889   -0.04644381342609207   -0.0011709668513600116
-0.01459657943228461   -0.04661922461084751   -0.0010303226903130957
-0.020910201760857654   -0.037717816506917   -0.000794009627799029
-0.0158631653848126   -0.03784027522569272   -0.0007676513435435366
-0.015830365551491653   -0.037872555431401556   -0.0008464081987801708
-0.01459657943228461   -0.04661922461084751   -0.0010303226903130957
-0.020910201760857654   -0.037717816506917   -0.000794009627799029
-0.015830365551491653   -0.037872555431401556   -0.0008464081987801708
-0.0192732033431889   -0.04644381342609207   -0.0011709668513600116
0.004106167710169861   -0.03823947587176044   -0.00027256613844957376
0.004246360137990001   -0.02890251275474038   -4.281205986090273e-05
-0.0010544744738191514   -0.03823848945312012   -0.000503692841610885
0.004091470415158699   -0.038112414943977664   -0.00030907617706576215
0.004246360137990001   -0.02890251275474038   -4.281205986090273e-05
-0.0012080187043659305   -0.028854628142176344   -0.00025056240524330307
-0.0010544744738191514   -0.03823848945312012   -0.000503692841610885
-0.0012713080386896071   -0.028748962006247616   -0.0002318000081243723
0.004091470415158699   -0.038112414943977664   -0.00030907617706576215
-0.0011005562699631388   -0.03812806366286417   -0.0005071802757170087
-0.0012713080386896071   -0.028748962006247616   -0.0002318000081243723
-0.0010544744738191514   -0.03823848945312012   -0.000503692841610885
0.004091470415158699   -0.038112414943977664   -0.00030907617706576215
-0.0012713080386896071   -0.028748962006247616   -0.0002318000081243723
0.004179305163975553   -0.02878132756323166   -3.9139553352101166e-05
0.004246360137990001   -0.02890251275474038   -4.281205986090273e-05
0.004091470415158699   -0.038112414943977664   -0.00030907617706576215
-0.0012713080386896071   -0.028748962006247616   -0.0002318000081243723
0.004246360137990001   -0.02890251275474038   -4.281205986090273e-05
-0.0010544744738191514   -0.03823848945312012   -0.000503692841610885
0.004091470415158699   -0.038112414943977664   -0.00030907617706576215
0.004179305163975553   -0.02878132756323166   -3.9139553352101166e-05
-0.0011005562699631388   -0.03812806366286417   -0.0005071802757170087
0.004054517509793006   -0.03801026117488544   -0.00033630364393369904
0.004179305163975553   -0.02878132756323166   -3.9139553352101166e-05
-0.0012713080386896071   -0.028748962006247616   -0.0002318000081243723
-0.0011005562699631388   -0.03812806366286417   -0.0005071802757170087
-0.0013437738391900169   -0.028649273200350954   -0.0002077841817156553
0.004054517509793006   -0.03801026117488544   -0.00033630364393369904
-0.0011517628814986755   -0.03803307715468443   -0.0005048763333751321
-0.0013437738391900169   -0.028649273200350954   -0.0002077841817156553
-0.0011005562699631388   -0.03812806366286417   -0.0005071802757170087
0.004054517509793006   -0.03801026117488544   -0.00033630364393369904
-0.0013437738391900169   -0.028649273200350954   -0.0002077841817156553
0.004096912945322935   -0.028673103123942598   -2.473423003735159e-05
0.004179305163975553   -0.02878132756323166   -3.9139553352101166e-05
0.004054517509793006   -0.03801026117488544   -0.00033630364393369904
-0.0013437738391900169   -0.028649273200350954   -0.0002077841817156553
0.004179305163975553   -0.02878132756323166   -3.9139553352101166e-05
-0.0011005562699631388   -0.03812806366286417   -0.0005071802757170087
0.004054517509793006   -0.03801026117488544   -0.00033630364393369904
0.004096912945322935   -0.028673103123942598   -2.473423003735159e-05
-0.0011517628814986755   -0.03803307715468443   -0.0005048763333751321
0.00400289833226076   -0.0379163196850111   -0.0003548968165055998
0.004096912945322935   -0.028673103123942598   -2.473423003735159e-05
-0.0013437738391900169   -0.028649273200350954   -0.0002077841817156553
-0.0011517628814986755   -0.03803307715468443   -0.0005048763333751321
-0.001425129287090843   -0.028554195270367885   -0.0001771982952122999
0.00400289833226076   -0.0379163196850111   -0.0003548968165055998
-0.0012153467226414768   -0.03795106459052361   -0.0004965526993387762
-0.001425129287090843   -0.028554195270367885   -0.0001771982952122999
-0.0011517628814986755   -0.03803307715468443   -0.0005048763333751321
0.00400289833226076   -0.0379163196850111   -0.0003548968165055998
-0.001425129287090843   -0.028554195270367885   -0.0001771982952122999
0.003988282267589395   -0.028559928288530854   -8.133372542980516e-08
0.004096912945322935   -0.028673103123942598   -2.473423003735159e-05
0.00400289833226076   -0.0379163196850111   -0.0003548968165055998
-0.001425129287090843   -0.028554195270367885   -0.0001771982952122999
0.004096912945322935   -0.028673103123942598   -2.473423003735159e-05
-0.0011517628814986755   -0.03803307715468443   -0.0005048763333751321
-0.0010544744738191514   -0.03823848945312012   -0.000503692841610885
-0.0012080187043659305   -0.028854628142176344   -0.00025056240524330307
-0.0059769089170367325   -0.03819185788326163   -0.0006943696392511953
-0.0011005562699631388   -0.03812806366286417   -0.0005071802757170087
-0.0012080187043659305   -0.028854628142176344   -0.00025056240524330307
-0.006376291252360773   -0.02879873023057596   -0.0004262974136192358
-0.0059769089170367325   -0.03819185788326163   -0.0006943696392511953
-0.006440876866117484   -0.028710391102879387   -0.0003974925674275848
-0.0011005562699631388   -0.03812806366286417   -0.0005071802757170087
-0.00602851241660957   -0.03810022305220804   -0.0006742226025542946
-0.006440876866117484   -0.028710391102879387   -0.0003974925674275848
-0.0059769089170367325   -0.03819185788326163   -0.0006943696392511953
-0.0011005562699631388   -0.03812806366286417   -0.0005071802757170087
-0.006440876866117484   -0.028710391102879387   -0.0003974925674275848
-0.0012713080386896071   -0.028748962006247616   -0.0002318000081243723
-0.0012080187043659305   -0.028854628142176344   -0.00025056240524330307
-0.0011005562699631388   -0.03812806366286417   -0.0005071802757170087
-0.006440876866117484   -0.028710391102879387   -0.0003974925674275848
-0.0012080187043659305   -0.028854628142176344   -0.00025056240524330307
-0.0059769089170367325   -0.03819185788326163   -0.0006943696392511953
-0.0011005562699631388   -0.03812806366286417   -0.0005071802757170087
-0.0012713080386896071   -0.028748962006247616   -0.0002318000081243723
-0.00602851241660957   -0.03810022305220804   -0.0006742226025542946
-0.0011517628814986755   -0.03803307715468443   -0.0005048763333751321
-0.0012713080386896071   -0.028748962006247616   -0.0002318000081243723
-0.006440876866117484   -0.028710391102879387   -0.0003974925674275848
-0.00602851241660957   -0.03810022305220804   -0.0006742226025542946
-0.006506911288635585   -0.02862669076509665   -0.00036368039665038237
-0.0011517628814986755   -0.03803307715468443   -0.0005048763333751321
-0.006081155811798423   -0.03802115668833991   -0.0006480423739308508
-0.006506911288635585   -0.02862669076509665   -0.00036368039665038237
-0.00602851241660957   -0.03810022305220804   -0.0006742226025542946
-0.0011517628814986755   -0.03803307715468443   -0.0005048763333751321
-0.006506911288635585   -0.02862669076509665   -0.00036368039665038237
-0.0013437738391900169   -0.028649273200350954   -0.0002077841817156553
-0.0012713080386896071   -0.028748962006247616   -0.0002318000081243723
-0.0011517628814986755   -0.03803307715468443   -0.0005048763333751321
-0.006506911288635585   -0.02862669076509665   -0.00036368039665038237
-0.0012713080386896071   -0.028748962006247616   -0.0002318000081243723
-0.00602851241660957   -0.03810022305220804   -0.0006742226025542946
-0.0011517628814986755   -0.03803307715468443   -0.0005048763333751321
-0.0013437738391900169   -0.028649273200350954   -0.0002077841817156553
-0.006081155811798423   -0.03802115668833991   -0.0006480423739308508
-0.0012153467226414768   -0.03795106459052361   -0.0004965526993387762
-0.0013437738391900169   -0.028649273200350954   -0.0002077841817156553
-0.006506911288635585   -0.02862669076509665   -0.00036368039665038237
-0.006081155811798423   -0.03802115668833991   -0.0006480423739308508
-0.006577148739563407   -0.028548928131924594   -0.0003248074941744438
-0.0012153467226414768   -0.03795106459052361   -0.0004965526993387762
-0.006138255523714086   -0.03795540695729432   -0.0006161124870905772
-0.006577148739563407   -0.028548928131924594   -0.0003248074941744438
-0.006081155811798423   -0.03802115668833991   -0.0006480423739308508
-0.0012153467226414768   -0.03795106459052361   -0.0004965526993387762
-0.006577148739563407   -0.028548928131924594   -0.0003248074941744438
-0.001425129287090843   -0.028554195270367885   -0.0001771982952122999
-0.0013437738391900169   -0.028649273200350954   -0.0002077841817156553
-0.0012153467226414768   -0.03795106459052361   -0.0004965526993387762
-0.006577148739563407   -0.028548928131924594   -0.0003248074941744438
-0.0013437738391900169   -0.028649273200350954   -0.0002077841817156553
-0.006081155811798423   -0.03802115668833991   -0.0006480423739308508
-0.0059769089170367325   -0.03819185788326163   -0.0006943696392511953
-0.006376291252360773   -0.02879873023057596   -0.0004262974136192358
-0.010816117090744424   -0.0381047666772808   -0.0008551903316185484
-0.00602851241660957   -0.03810022305220804   -0.0006742226025542946
-0.006376291252360773   -0.02879873023057596   -0.0004262974136192358
-0.011460439461735446   -0.028731658104964322   -0.0005754902405791253
-0.010816117090744424   -0.0381047666772808   -0.0008551903316185484
-0.011524566697636431   -0.028659371143159418   -0.0005366535402563765
-0.00602851241660957   -0.03810022305220804   -0.0006742226025542946
-0.01086925368491403   -0.038030450522268486   -0.0008114534284095841
-0.011524566697636431   -0.028659371143159418   -0.0005366535402563765
-0.010816117090744424   -0.0381047666772808   -0.0008551903316185484
-0.00602851241660957   -0.03810022305220804   -0.0006742226025542946
-0.011524566697636431   -0.028659371143159418   -0.0005366535402563765
-0.006440876866117484   -0.028710391102879387   -0.0003974925674275848
-0.006376291252360773   -0.02879873023057596   -0.0004262974136192358
-0.00602851241660957   -0.03810022305220804   -0.0006742226025542946
-0.011524566697636431   -0.028659371143159418   -0.0005366535402563765
-0.006376291252360773   -0.02879873023057596   -0.0004262974136192358
-0.010816117090744424   -0.0381047666772808   -0.0008551903316185484
-0.00602851241660957   -0.03810022305220804   -0.0006742226025542946
-0.006440876866117484   -0.028710391102879387   -0.0003974925674275848
-0.01086925368491403   -0.038030450522268486   -0.0008114534284095841
-0.006081155811798423   -0.03802115668833991   -0.0006480423739308508
-0.006440876866117484   -0.028710391102879387   -0.0003974925674275848
-0.011524566697636431   -0.028659371143159418   -0.0005366535402563765
-0.01086925368491403   -0.038030450522268486   -0.0008114534284095841
-0.01158454234043564   -0.02859198488975343   -0.0004929806793235635
-0.006081155811798423   -0.03802115668833991   -0.0006480423739308508
-0.010917453388209312   -0.03796861400235585   -0.0007618241480540214
-0.01158454234043564   -0.02859198488975343   -0.0004929806793235635
-0.01086925368491403   -0.038030450522268486   -0.0008114534284095841
-0.006081155811798423   -0.03802115668833991   -0.0006480423739308508
-0.01158454234043564   -0.02859198488975343   -0.0004929806793235635
-0.006506911288635585   -0.02862669076509665   -0.00036368039665038237
-0.006440876866117484   -0.028710391102879387   -0.0003974925674275848
-0.006081155811798423   -0.03802115668833991   -0.0006480423739308508
-0.01158454234043564   -0.02859198488975343   -0.0004929806793235635
-0.006440876866117484   -0.028710391102879387   -0.0003974925674275848
-0.01086925368491403   -0.038030450522268486   -0.0008114534284095841
-0.006081155811798423   -0.03802115668833991   -0.0006480423739308508
-0.006506911288635585   -0.02862669076509665   -0.00036368039665038237
-0.010917453388209312   -0.03796861400235585   -0.0007618241480540214
-0.006138255523714086   -0.03795540695729432   -0.0006161124870905772
-0.006506911288635585   -0.02862669076509665   -0.00036368039665038237
-0.01158454234043564   -0.02859198488975343   -0.0004929806793235635
-0.010917453388209312   -0.03796861400235585   -0.0007618241480540214
-0.01164473259905844   -0.028529685642231652   -0.00044471098773587515
-0.006138255523714086   -0.03795540695729432   -0.0006161124870905772
-0.010966110777120383   -0.03791936101470601   -0.0007065269241533997
-0.01164473259905844   -0.028529685642231652   -0.00044471098773587515
-0.010917453388209312   -0.03796861400235585   -0.0007618241480540214
-0.006138255523714086   -0.03795540695729432   -0.0006161124870905772
-0.01164473259905844   -0.028529685642231652   -0.00044471098773587515
-0.006577148739563407   -0.028548928131924594   -0.0003248074941744438
-0.006506911288635585   -0.02862669076509665   -0.00036368039665038237
-0.006138255523714086   -0.03795540695729432   -0.0006161124870905772
-0.01164473259905844   -0.028529685642231652   -0.00044471098773587515
-0.006506911288635585   -0.02862669076509665   -0.00036368039665038237
-0.010917453388209312   -0.03796861400235585   -0.0007618241480540214
-0.010816117090744424   -0.0381047666772808   -0.0008551903316185484
-0.011460439461735446   -0.028731658104964322   -0.0005754902405791253
-0.015751190764540245   -0.03797536486023274   -0.0009865209435990948
-0.01086925368491403   -0.038030450522268486   -0.0008114534284095841
-0.011460439461735446   -0.028731658104964322   -0.0005754902405791253
-0.01663644713310262   -0.028640957510072857   -0.0006968651245722773
-0.015751190764540245   -0.03797536486023274   -0.0009865209435990948
-0.016697852773414477   -0.02858555820539127   -0.0006481160306773573
-0.01086925368491403   -0.038030450522268486   -0.0008114534284095841
-0.015800519017979978   -0.03791851218161748   -0.0009190134730558278
-0.016697852773414477   -0.02858555820539127   -0.0006481160306773573
-0.015751190764540245   -0.03797536486023274   -0.0009865209435990948
-0.01086925368491403   -0.038030450522268486   -0.0008114534284095841
-0.016697852773414477   -0.02858555820539127   -0.0006481160306773573
-0.011524566697636431   -0.028659371143159418   -0.0005366535402563765
-0.011460439461735446   -0.028731658104964322   -0.0005754902405791253
-0.01086925368491403   -0.038030450522268486   -0.0008114534284095841
-0.016697852773414477   -0.02858555820539127   -0.0006481160306773573
-0.011460439461735446   -0.028731658104964322   -0.0005754902405791253
-0.015751190764540245   -0.03797536486023274   -0.0009865209435990948
-0.01086925368491403   -0.038030450522268486   -0.0008114534284095841
-0.011524566697636431   -0.028659371143159418   -0.0005366535402563765
-0.015800519017979978   -0.03791851218161748   -0.0009190134730558278
-0.010917453388209312   -0.03796861400235585   -0.0007618241480540214
-0.011524566697636431   -0.028659371143159418   -0.0005366535402563765
-0.016697852773414477   -0.02858555820539127   -0.0006481160306773573
-0.015800519017979978   -0.03791851218161748   -0.0009190134730558278
-0.016744382572403085   -0.028533197763880403   -0.000595327904386904
-0.010917453388209312   -0.03796861400235585   -0.0007618241480540214
-0.015830365551491653   -0.037872555431401556   -0.0008464081987801708
-0.016744382572403085   -0.028533197763880403   -0.000595327904386904
-0.015800519017979978   -0.03791851218161748   -0.0009190134730558278
-0.010917453388209312   -0.03796861400235585   -0.0007618241480540214
-0.016744382572403085   -0.028533197763880403   -0.000595327904386904
-0.01158454234043564   -0.02859198488975343   -0.0004929806793235635
-0.011524566697636431   -0.028659371143159418   -0.0005366535402563765
-0.010917453388209312   -0.03796861400235585   -0.0007618241480540214
-0.016744382572403085   -0.028533197763880403   -0.000595327904386904
-0.011524566697636431   -0.028659371143159418   -0.0005366535402563765
-0.015800519017979978   -0.03791851218161748   -0.0009190134730558278
-0.010917453388209312   -0.03796861400235585   -0.0007618241480540214
-0.01158454234043564   -0.02859198488975343   -0.0004929806793235635
-0.015830365551491653   -0.037872555431401556   -0.0008464081987801708
-0.010966110777120383   -0.03791936101470601   -0.0007065269241533997
-0.01158454234043564   -0.02859198488975343   -0.0004929806793235635
-0.016744382572403085   -0.028533197763880403   -0.000595327904386904
-0.015830365551491653   -0.037872555431401556   -0.0008464081987801708
-0.01679055525535112   -0.028486207501970083   -0.0005374478314905341
-0.010966110777120383   -0.03791936101470601   -0.0007065269241533997
-0.0158631653848126   -0.03784027522569272   -0.0007676513435435366
-0.01679055525535112   -0.028486207501970083   -0.0005374478314905341
-0.015830365551491653   -0.037872555431401556   -0.0008464081987801708
-0.010966110777120383   -0.03791936101470601   -0.0007065269241533997
-0.01679055525535112   -0.028486207501970083   -0.0005374478314905341
-0.01164473259905844   -0.028529685642231652   -0.00044471098773587515
-0.01158454234043564   -0.02859198488975343   -0.0004929806793235635
-0.010966110777120383   -0.03791936101470601   -0.0007065269241533997
-0.01679055525535112   -0.028486207501970083   -0.0005374478314905341
-0.01158454234043564   -0.02859198488975343   -0.0004929806793235635
-0.015830365551491653   -0.037872555431401556   -0.0008464081987801708
-0.015751190764540245   -0.03797536486023274   -0.0009865209435990948
-0.01663644713310262   -0.028640957510072857   -0.0006968651245722773
-0.021047939652524057   -0.037816119731428385   -0.00109090665682923
-0.015800519017979978   -0.03791851218161748   -0.0009190134730558278
-0.01663644713310262   -0.028640957510072857   -0.0006968651245722773
-0.02212251480132792   -0.028533752993275954   -0.0007868474559216069
-0.021047939652524057   -0.037816119731428385   -0.00109090665682923
-0.022131773073366515   -0.028489590547602958   -0.0007329493305225401
-0.015800519017979978   -0.03791851218161748   -0.0009190134730558278
-0.021011391889721905   -0.03776821538032241   -0.0010009396729623045
-0.022131773073366515   -0.028489590547602958   -0.0007329493305225401
-0.021047939652524057   -0.037816119731428385   -0.00109090665682923
-0.015800519017979978   -0.03791851218161748   -0.0009190134730558278
-0.022131773073366515   -0.028489590547602958   -0.0007329493305225401
-0.016697852773414477   -0.02858555820539127   -0.0006481160306773573
-0.01663644713310262   -0.028640957510072857   -0.0006968651245722773
-0.015800519017979978   -0.03791851218161748   -0.0009190134730558278
-0.022131773073366515   -0.028489590547602958   -0.0007329493305225401
-0.01663644713310262   -0.028640957510072857   -0.0006968651245722773
-0.021047939652524057   -0.037816119731428385   -0.00109090665682923
-0.015800519017979978   -0.03791851218161748   -0.0009190134730558278
-0.016697852773414477   -0.02858555820539127   -0.0006481160306773573
-0.021011391889721905   -0.03776821538032241   -0.0010009396729623045
-0.015830365551491653   -0.037872555431401556   -0.0008464081987801708
-0.016697852773414477   -0.02858555820539127   -0.0006481160306773573
-0.022131773073366515   -0.028489590547602958   -0.0007329493305225401
-0.021011391889721905   -0.03776821538032241   -0.0010009396729623045
-0.022141309018468787   -0.02844494824685216   -0.0006709199493261033
-0.015830365551491653   -0.037872555431401556   -0.0008464081987801708
-0.020981606762159787   -0.03772974004992708   -0.0009016184053863795
-0.022141309018468787   -0.02844494824685216   -0.0006709199493261033
-0.021011391889721905   -0.03776821538032241   -0.0010009396729623045
-0.015830365551491653   -0.037872555431401556   -0.0008464081987801708
-0.022141309018468787   -0.02844494824685216   -0.0006709199493261033
-0.016744382572403085   -0.028533197763880403   -0.000595327904386904
-0.016697852773414477   -0.02858555820539127   -0.0006481160306773573
-0.015830365551491653   -0.037872555431401556   -0.0008464081987801708
-0.022141309018468787   -0.02844494824685216   -0.0006709199493261033
-0.016697852773414477   -0.02858555820539127   -0.0006481160306773573
-0.021011391889721905   -0.03776821538032241   -0.0010009396729623045
-0.015830365551491653   -0.037872555431401556   -0.0008464081987801708
-0.016744382572403085   -0.028533197763880403   -0.000595327904386904
-0.020981606762159787   -0.03772974004992708   -0.0009016184053863795
-0.0158631653848126   -0.03784027522569272   -0.0007676513435435366
-0.016744382572403085   -0.028533197763880403   -0.000595327904386904
-0.022141309018468787   -0.02844494824685216   -0.0006709199493261033
-0.020981606762159787   -0.03772974004992708   -0.0009016184053863795
-0.02211996109362411   -0.02841568589403806   -0.0006017233764571024
-0.0158631653848126   -0.03784027522569272   -0.0007676513435435366
-0.020910201760857654   -0.037717816506917   -0.000794009627799029
-0.02211996109362411   -0.02841568589403806   -0.0006017233764571024
-0.020981606762159787   -0.03772974004992708   -0.0009016184053863795
-0.0158631653848126   -0.03784027522569272   -0.0007676513435435366
-0.02211996109362411   -0.02841568589403806   -0.0006017233764571024
-0.01679055525535112   -0.028486207501970083   -0.0005374478314905341
-0.016744382572403085   -0.028533197763880403   -0.000595327904386904
-0.0158631653848126   -0.03784027522569272   -0.0007676513435435366
-0.02211996109362411   -0.02841568589403806   -0.0006017233764571024
-0.016744382572403085   -0.028533197763880403   -0.000595327904386904
-0.020981606762159787   -0.03772974004992708   -0.0009016184053863795
0.004246360137990001   -0.02890251275474038   -4.281205986090273e-05
0.003807617385472946   -0.019286539488361655   0.00011578223239598945
-0.0012080187043659305   -0.028854628142176344   -0.00025056240524330307
0.004179305163975553   -0.02878132756323166   -3.9139553352101166e-05
0.003807617385472946   -0.019286539488361655   0.00011578223239598945
-0.001688331776181778   -0.019196040534996496   -4.918767129140441e-05
-0.0012080187043659305   -0.028854628142176344   -0.00025056240524330307
-0.0017639994616347062   -0.01910041296326874   -9.934497696090212e-06
0.004179305163975553   -0.02878132756323166   -3.9139553352101166e-05
-0.0012713080386896071   -0.028748962006247616   -0.0002318000081243723
-0.0017639994616347062   -0.01910041296326874   -9.934497696090212e-06
-0.0012080187043659305   -0.028854628142176344   -0.00025056240524330307
0.004179305163975553   -0.02878132756323166   -3.9139553352101166e-05
-0.0017639994616347062   -0.01910041296326874   -9.934497696090212e-06
0.0036885195691490702   -0.019171105761944023   0.00016456775017820527
0.003807617385472946   -0.019286539488361655   0.00011578223239598945
0.004179305163975553   -0.02878132756323166   -3.9139553352101166e-05
-0.0017639994616347062   -0.01910041296326874   -9.934497696090212e-06
0.003807617385472946   -0.019286539488361655   0.00011578223239598945
-0.0012080187043659305   -0.028854628142176344   -0.00025056240524330307
0.004179305163975553   -0.02878132756323166   -3.9139553352101166e-05
0.0036885195691490702   -0.019171105761944023   0.00016456775017820527
-0.0012713080386896071   -0.028748962006247616   -0.0002318000081243723
0.004096912945322935   -0.028673103123942598   -2.473423003735159e-05
0.0036885195691490702   -0.019171105761944023   0.00016456775017820527
-0.0017639994616347062   -0.01910041296326874   -9.934497696090212e-06
-0.0012713080386896071   -0.028748962006247616   -0.0002318000081243723
-0.0018525301498119643   -0.018999503986967044   3.631247740724242e-05
0.004096912945322935   -0.028673103123942598   -2.473423003735159e-05
-0.0013437738391900169   -0.028649273200350954   -0.0002077841817156553
-0.0018525301498119643   -0.018999503986967044   3.631247740724242e-05
-0.0012713080386896071   -0.028748962006247616   -0.0002318000081243723
0.004096912945322935   -0.028673103123942598   -2.473423003735159e-05
-0.0018525301498119643   -0.018999503986967044   3.631247740724242e-05
0.003555504952916164   -0.01905650925290468   0.00023470407973764286
0.0036885195691490702   -0.019171105761944023   0.00016456775017820527
0.004096912945322935   -0.028673103123942598   -2.473423003735159e-05
-0.0018525301498119643   -0.018999503986967044   3.631247740724242e-05
0.0036885195691490702   -0.019171105761944023   0.00016456775017820527
-0.0012713080386896071   -0.028748962006247616   -0.0002318000081243723
0.004096912945322935   -0.028673103123942598   -2.473423003735159e-05
0.003555504952916164   -0.01905650925290468   0.00023470407973764286
-0.0013437738391900169   -0.028649273200350954   -0.0002077841817156553
0.003988282267589395   -0.028559928288530854   -8.133372542980516e-08
0.003555504952916164   -0.01905650925290468   0.00023470407973764286
-0.0018525301498119643   -0.018999503986967044   3.631247740724242e-05
-0.0013437738391900169   -0.028649273200350954   -0.0002077841817156553
-0.0019441196150979446   -0.018892376095708426   8.946193106135069e-05
0.003988282267589395   -0.028559928288530854   -8.133372542980516e-08
-0.001425129287090843   -0.028554195270367885   -0.0001771982952122999
-0.0019441196150979446   -0.018892376095708426   8.946193106135069e-05
-0.0013437738391900169   -0.028649273200350954   -0.0002077841817156553
0.003988282267589395   -0.028559928288530854   -8.133372542980516e-08
-0.0019441196150979446   -0.018892376095708426   8.946193106135069e-05
0.0033929716157084866   -0.01891571807146782   0.0003118909851353978
0.003555504952916164   -0.01905650925290468   0.00023470407973764286
0.003988282267589395   -0.028559928288530854   -8.133372542980516e-08
-0.0019441196150979446   -0.018892376095708426   8.946193106135069e-05
0.003555504952916164   -0.01905650925290468   0.00023470407973764286
-0.0013437738391900169   -0.028649273200350954   -0.0002077841817156553
-0.0012080187043659305   -0.028854628142176344   -0.00025056240524330307
-0.001688331776181778   -0.019196040534996496   -4.918767129140441e-05
-0.006376291252360773   -0.02879873023057596   -0.0004262974136192358
-0.0012713080386896071   -0.028748962006247616   -0.0002318000081243723
-0.001688331776181778   -0.019196040534996496   -4.918767129140441e-05
-0.006863465642409572   -0.019172612950456528   -0.00020814223760118507
-0.006376291252360773   -0.02879873023057596   -0.0004262974136192358
-0.0069318913343867205   -0.01908919364028006   -0.0001715857973439794
-0.0012713080386896071   -0.028748962006247616   -0.0002318000081243723
-0.006440876866117484   -0.028710391102879387   -0.0003974925674275848
-0.0069318913343867205   -0.01908919364028006   -0.0001715857973439794
-0.006376291252360773   -0.02879873023057596   -0.0004262974136192358
-0.0012713080386896071   -0.028748962006247616   -0.0002318000081243723
-0.0069318913343867205   -0.01908919364028006   -0.0001715857973439794
-0.0017639994616347062   -0.01910041296326874   -9.934497696090212e-06
-0.001688331776181778   -0.019196040534996496   -4.918767129140441e-05
-0.0012713080386896071   -0.028748962006247616   -0.0002318000081243723
-0.0069318913343867205   -0.01908919364028006   -0.0001715857973439794
-0.001688331776181778   -0.019196040534996496   -4.918767129140441e-05
-0.006376291252360773   -0.02879873023057596   -0.0004262974136192358
-0.0012713080386896071   -0.028748962006247616   -0.0002318000081243723
-0.0017639994616347062   -0.01910041296326874   -9.934497696090212e-06
-0.006440876866117484   -0.028710391102879387   -0.0003974925674275848
-0.0013437738391900169   -0.028649273200350954   -0.0002077841817156553
-0.0017639994616347062   -0.01910041296326874   -9.934497696090212e-06
-0.0069318913343867205   -0.01908919364028006   -0.0001715857973439794
-0.006440876866117484   -0.028710391102879387   -0.0003974925674275848
-0.007002681099832797   -0.019002428706151087   -0.00013139616804218673
-0.0013437738391900169   -0.028649273200350954   -0.0002077841817156553
-0.006506911288635585   -0.02862669076509665   -0.00036368039665038237
-0.007002681099832797   -0.019002428706151087   -0.00013139616804218673
-0.006440876866117484   -0.028710391102879387   -0.0003974925674275848
-0.0013437738391900169   -0.028649273200350954   -0.0002077841817156553
-0.007002681099832797   -0.019002428706151087   -0.00013139616804218673
-0.0018525301498119643   -0.018999503986967044   3.631247740724242e-05
-0.0017639994616347062   -0.01910041296326874   -9.934497696090212e-06
-0.0013437738391900169   -0.028649273200350954   -0.0002077841817156553
-0.007002681099832797   -0.019002428706151087   -0.00013139616804218673
-0.0017639994616347062   -0.01910041296326874   -9.934497696090212e-06
-0.006440876866117484   -0.028710391102879387   -0.0003974925674275848
-0.0013437738391900169   -0.028649273200350954   -0.0002077841817156553
-0.0018525301498119643   -0.018999503986967044   3.631247740724242e-05
-0.006506911288635585   -0.02862669076509665   -0.00036368039665038237
-0.001425129287090843   -0.028554195270367885   -0.0001771982952122999
-0.0018525301498119643   -0.018999503986967044   3.631247740724242e-05
-0.007002681099832797   -0.019002428706151087   -0.00013139616804218673
-0.006506911288635585   -0.02862669076509665   -0.00036368039665038237
-0.007076385727210415   -0.018913879702860407   -8.684871153942782e-05
-0.001425129287090843   -0.028554195270367885   -0.0001771982952122999
-0.006577148739563407   -0.028548928131924594   -0.0003248074941744438
-0.007076385727210415   -0.018913879702860407   -8.684871153942782e-05
-0.006506911288635585   -0.02862669076509665   -0.00036368039665038237
-0.001425129287090843   -0.028554195270367885   -0.0001771982952122999
-0.007076385727210415   -0.018913879702860407   -8.684871153942782e-05
-0.0019441196150979446   -0.018892376095708426   8.946193106135069e-05
-0.0018525301498119643   -0.018999503986967044   3.631247740724242e-05
-0.001425129287090843   -0.028554195270367885   -0.0001771982952122999
-0.007076385727210415   -0.018913879702860407   -8.684871153942782e-05
-0.0018525301498119643   -0.018999503986967044   3.631247740724242e-05
-0.006506911288635585   -0.02862669076509665   -0.00036368039665038237
-0.006376291252360773   -0.02879873023057596   -0.0004262974136192358
-0.006863465642409572   -0.019172612950456528   -0.00020814223760118507
-0.011460439461735446   -0.028731658104964322   -0.0005754902405791253
-0.006440876866117484   -0.028710391102879387   -0.0003974925674275848
-0.006863465642409572   -0.019172612950456528   -0.00020814223760118507
-0.011985336972546402   -0.019166090786869133   -0.00035178471487682414
-0.011460439461735446   -0.028731658104964322   -0.0005754902405791253
-0.012050765436383113   -0.01909297624816893   -0.0003168813013674149
-0.006440876866117484   -0.028710391102879387   -0.0003974925674275848
-0.011524566697636431   -0.028659371143159418   -0.0005366535402563765
-0.012050765436383113   -0.01909297624816893   -0.0003168813013674149
-0.011460439461735446   -0.028731658104964322   -0.0005754902405791253
-0.006440876866117484   -0.028710391102879387   -0.0003974925674275848
-0.012050765436383113   -0.01909297624816893   -0.0003168813013674149
-0.0069318913343867205   -0.01908919364028006   -0.0001715857973439794
-0.006863465642409572   -0.019172612950456528   -0.00020814223760118507
-0.006440876866117484   -0.028710391102879387   -0.0003974925674275848
-0.012050765436383113   -0.01909297624816893   -0.0003168813013674149
-0.006863465642409572   -0.019172612950456528   -0.00020814223760118507
-0.011460439461735446   -0.028731658104964322   -0.0005754902405791253
-0.006440876866117484   -0.028710391102879387   -0.0003974925674275848
-0.0069318913343867205   -0.01908919364028006   -0.0001715857973439794
-0.011524566697636431   -0.028659371143159418   -0.0005366535402563765
-0.006506911288635585   -0.02862669076509665   -0.00036368039665038237
-0.0069318913343867205   -0.01908919364028006   -0.0001715857973439794
-0.012050765436383113   -0.01909297624816893   -0.0003168813013674149
-0.011524566697636431   -0.028659371143159418   -0.0005366535402563765
-0.012113093784958057   -0.01901855038085475   -0.0002787998868142324
-0.006506911288635585   -0.02862669076509665   -0.00036368039665038237
-0.01158454234043564   -0.02859198488975343   -0.0004929806793235635
-0.012113093784958057   -0.01901855038085475   -0.0002787998868142324
-0.011524566697636431   -0.028659371143159418   -0.0005366535402563765
-0.006506911288635585   -0.02862669076509665   -0.00036368039665038237
-0.012113093784958057   -0.01901855038085475   -0.0002787998868142324
-0.007002681099832797   -0.019002428706151087   -0.00013139616804218673
-0.0069318913343867205   -0.01908919364028006   -0.0001715857973439794
-0.006506911288635585   -0.02862669076509665   -0.00036368039665038237
-0.012113093784958057   -0.01901855038085475   -0.0002787998868142324
-0.0069318913343867205   -0.01908919364028006   -0.0001715857973439794
-0.011524566697636431   -0.028659371143159418   -0.0005366535402563765
-0.006506911288635585   -0.02862669076509665   -0.00036368039665038237
-0.007002681099832797   -0.019002428706151087   -0.00013139616804218673
-0.01158454234043564   -0.02859198488975343   -0.0004929806793235635
-0.006577148739563407   -0.028548928131924594   -0.0003248074941744438
-0.007002681099832797   -0.019002428706151087   -0.00013139616804218673
-0.012113093784958057   -0.01901855038085475   -0.0002787998868142324
-0.01158454234043564   -0.02859198488975343   -0.0004929806793235635
-0.012174795860324944   -0.01894238693752206   -0.00023771965814120376
-0.006577148739563407   -0.028548928131924594   -0.0003248074941744438
-0.01164473259905844   -0.028529685642231652   -0.00044471098773587515
-0.012174795860324944   -0.01894238693752206   -0.00023771965814120376
-0.01158454234043564   -0.02859198488975343   -0.0004929806793235635
-0.006577148739563407   -0.028548928131924594   -0.0003248074941744438
-0.012174795860324944   -0.01894238693752206   -0.00023771965814120376
-0.007076385727210415   -0.018913879702860407   -8.684871153942782e-05
-0.007002681099832797   -0.019002428706151087   -0.00013139616804218673
-0.006577148739563407   -0.028548928131924594   -0.0003248074941744438
-0.012174795860324944   -0.01894238693752206   -0.00023771965814120376
-0.007002681099832797   -0.019002428706151087   -0.00013139616804218673
-0.01158454234043564   -0.02859198488975343   -0.0004929806793235635
-0.011460439461735446   -0.028731658104964322   -0.0005754902405791253
-0.011985336972546402   -0.019166090786869133   -0.00035178471487682414
-0.01663644713310262   -0.028640957510072857   -0.0006968651245722773
-0.011524566697636431   -0.028659371143159418   -0.0005366535402563765
-0.011985336972546402   -0.019166090786869133   -0.00035178471487682414
-0.01721573881564708   -0.0191362935588075   -0.0004723682797046003
-0.01663644713310262   -0.028640957510072857   -0.0006968651245722773
-0.017278112704345452   -0.019076757901959788   -0.00043929774447638777
-0.011524566697636431   -0.028659371143159418   -0.0005366535402563765
-0.016697852773414477   -0.02858555820539127   -0.0006481160306773573
-0.017278112704345452   -0.019076757901959788   -0.00043929774447638777
-0.01663644713310262   -0.028640957510072857   -0.0006968651245722773
-0.011524566697636431   -0.028659371143159418   -0.0005366535402563765
-0.017278112704345452   -0.019076757901959788   -0.00043929774447638777
-0.012050765436383113   -0.01909297624816893   -0.0003168813013674149
-0.011985336972546402   -0.019166090786869133   -0.00035178471487682414
-0.011524566697636431   -0.028659371143159418   -0.0005366535402563765
-0.017278112704345452   -0.019076757901959788   -0.00043929774447638777
-0.011985336972546402   -0.019166090786869133   -0.00035178471487682414
-0.01663644713310262   -0.028640957510072857   -0.0006968651245722773
-0.011524566697636431   -0.028659371143159418   -0.0005366535402563765
-0.012050765436383113   -0.01909297624816893   -0.0003168813013674149
-0.016697852773414477   -0.02858555820539127   -0.0006481160306773573
-0.01158454234043564   -0.02859198488975343   -0.0004929806793235635
-0.012050765436383113   -0.01909297624816893   -0.0003168813013674149
-0.017278112704345452   -0.019076757901959788   -0.00043929774447638777
-0.016697852773414477   -0.02858555820539127   -0.0006481160306773573
-0.01733094817452259   -0.019013960662483807   -0.0004039674609137591
-0.01158454234043564   -0.02859198488975343   -0.0004929806793235635
-0.016744382572403085   -0.028533197763880403   -0.000595327904386904
-0.01733094817452259   -0.019013960662483807   -0.0004039674609137591
-0.016697852773414477   -0.02858555820539127   -0.0006481160306773573
-0.01158454234043564   -0.02859198488975343   -0.0004929806793235635
-0.01733094817452259   -0.019013960662483807   -0.0004039674609137591
-0.012113093784958057   -0.01901855038085475   -0.0002787998868142324
-0.012050765436383113   -0.01909297624816893   -0.0003168813013674149
-0.01158454234043564   -0.02859198488975343   -0.0004929806793235635
-0.01733094817452259   -0.019013960662483807   -0.0004039674609137591
-0.012050765436383113   -0.01909297624816893   -0.0003168813013674149
-0.016697852773414477   -0.02858555820539127   -0.0006481160306773573
-0.01158454234043564   -0.02859198488975343   -0.0004929806793235635
-0.012113093784958057   -0.01901855038085475   -0.0002787998868142324
-0.016744382572403085   -0.028533197763880403   -0.000595327904386904
-0.01164473259905844   -0.028529685642231652   -0.00044471098773587515
-0.012113093784958057   -0.01901855038085475   -0.0002787998868142324
-0.01733094817452259   -0.019013960662483807   -0.0004039674609137591
-0.016744382572403085   -0.028533197763880403   -0.000595327904386904
-0.017380884652401233   -0.01894952046646189   -0.0003653960225290092
-0.01164473259905844   -0.028529685642231652   -0.00044471098773587515
-0.01679055525535112   -0.028486207501970083   -0.0005374478314905341
-0.017380884652401233   -0.01894952046646189   -0.0003653960225290092
-0.016744382572403085   -0.028533197763880403   -0.000595327904386904
-0.01164473259905844   -0.028529685642231652   -0.00044471098773587515
-0.017380884652401233   -0.01894952046646189   -0.0003653960225290092
-0.012174795860324944   -0.01894238693752206   -0.00023771965814120376
-0.012113093784958057   -0.01901855038085475   -0.0002787998868142324
-0.01164473259905844   -0.028529685642231652   -0.00044471098773587515
-0.017380884652401233   -0.01894952046646189   -0.0003653960225290092
-0.012113093784958057   -0.01901855038085475   -0.0002787998868142324
-0.016744382572403085   -0.028533197763880403   -0.000595327904386904
-0.01663644713310262   -0.028640957510072857   -0.0006968651245722773
-0.01721573881564708   -0.0191362935588075   -0.0004723682797046003
-0.02212251480132792   -0.028533752993275954   -0.0007868474559216069
-0.016697852773414477   -0.02858555820539127   -0.0006481160306773573
-0.01721573881564708   -0.0191362935588075   -0.0004723682797046003
-0.022694889059530817   -0.019087163708898774   -0.0005614648729146582
-0.02212251480132792   -0.028533752993275954   -0.0007868474559216069
-0.022733581267955258   -0.019037240158436303   -0.0005366155971409078
-0.016697852773414477   -0.02858555820539127   -0.0006481160306773573
-0.022131773073366515   -0.028489590547602958   -0.0007329493305225401
-0.022733581267955258   -0.019037240158436303   -0.0005366155971409078
-0.02212251480132792   -0.028533752993275954   -0.0007868474559216069
-0.016697852773414477   -0.02858555820539127   -0.0006481160306773573
-0.022733581267955258   -0.019037240158436303   -0.0005366155971409078
-0.017278112704345452   -0.019076757901959788   -0.00043929774447638777
-0.01721573881564708   -0.0191362935588075   -0.0004723682797046003
-0.016697852773414477   -0.02858555820539127   -0.0006481160306773573
-0.022733581267955258   -0.019037240158436303   -0.0005366155971409078
-0.01721573881564708   -0.0191362935588075   -0.0004723682797046003
-0.02212251480132792   -0.028533752993275954   -0.0007868474559216069
-0.016697852773414477   -0.02858555820539127   -0.0006481160306773573
-0.017278112704345452   -0.019076757901959788   -0.00043929774447638777
-0.022131773073366515   -0.028489590547602958   -0.0007329493305225401
-0.016744382572403085   -0.028533197763880403   -0.000595327904386904
-0.017278112704345452   -0.019076757901959788   -0.00043929774447638777
-0.022733581267955258   -0.019037240158436303   -0.0005366155971409078
-0.022131773073366515   -0.028489590547602958   -0.0007329493305225401
-0.022768960884131415   -0.018980727450545146   -0.0005062288079389096
-0.016744382572403085   -0.028533197763880403   -0.000595327904386904
-0.022141309018468787   -0.02844494824685216   -0.0006709199493261033
-0.022768960884131415   -0.018980727450545146   -0.0005062288079389096
-0.022131773073366515   -0.028489590547602958   -0.0007329493305225401
-0.016744382572403085   -0.028533197763880403   -0.000595327904386904
-0.022768960884131415   -0.018980727450545146   -0.0005062288079389096
-0.01733094817452259   -0.019013960662483807   -0.0004039674609137591
-0.017278112704345452   -0.019076757901959788   -0.00043929774447638777
-0.016744382572403085   -0.028533197763880403   -0.000595327904386904
-0.022768960884131415   -0.018980727450545146   -0.0005062288079389096
-0.017278112704345452   -0.019076757901959788   -0.00043929774447638777
-0.022131773073366515   -0.028489590547602958   -0.0007329493305225401
-0.016744382572403085   -0.028533197763880403   -0.000595327904386904
-0.01733094817452259   -0.019013960662483807   -0.0004039674609137591
-0.022141309018468787   -0.02844494824685216   -0.0006709199493261033
-0.01679055525535112   -0.028486207501970083   -0.0005374478314905341
-0.01733094817452259   -0.019013960662483807   -0.0004039674609137591
-0.022768960884131415   -0.018980727450545146   -0.0005062288079389096
-0.022141309018468787   -0.02844494824685216   -0.0006709199493261033
-0.0227860248810377   -0.018928934092469315   -0.00047168543235878783
-0.01679055525535112   -0.028486207501970083   -0.0005374478314905341
-0.02211996109362411   -0.02841568589403806   -0.0006017233764571024
-0.0227860248810377   -0.018928934092469315   -0.00047168543235878783
-0.022141309018468787   -0.02844494824685216   -0.0006709199493261033
-0.01679055525535112   -0.028486207501970083   -0.0005374478314905341
-0.0227860248810377   -0.018928934092469315   -0.00047168543235878783
-0.017380884652401233   -0.01894952046646189   -0.0003653960225290092
-0.01733094817452259   -0.019013960662483807   -0.0004039674609137591
-0.01679055525535112   -0.028486207501970083   -0.0005374478314905341
-0.0227860248810377   -0.018928934092469315   -0.00047168543235878783
-0.01733094817452259   -0.019013960662483807   -0.0004039674609137591
-0.022141309018468787   -0.02844494824685216   -0.0006709199493261033
0.003807617385472946   -0.019286539488361655   0.00011578223239598945
0.002668584527188601   -0.00968703108422397   0.00012449310675179175
-0.001688331776181778   -0.019196040534996496   -4.918767129140441e-05
0.0036885195691490702   -0.019171105761944023   0.00016456775017820527
0.002668584527188601   -0.00968703108422397   0.00012449310675179175
-0.0024574064934045404   -0.009561725688124858   6.380631320341194e-05
-0.001688331776181778   -0.019196040534996496   -4.918767129140441e-05
-0.0025327118302546432   -0.009513594655537146   0.00011839982856296484
0.0036885195691490702   -0.019171105761944023   0.00016456775017820527
-0.0017639994616347062   -0.01910041296326874   -9.934497696090212e-06
-0.0025327118302546432   -0.009513594655537146   0.00011839982856296484
-0.001688331776181778   -0.019196040534996496   -4.918767129140441e-05
0.0036885195691490702   -0.019171105761944023   0.00016456775017820527
-0.0025327118302546432   -0.009513594655537146   0.00011839982856296484
0.0024338264016972155   -0.009564342925649814   0.0002595831188403689
0.002668584527188601   -0.00968703108422397   0.00012449310675179175
0.0036885195691490702   -0.019171105761944023   0.00016456775017820527
-0.0025327118302546432   -0.009513594655537146   0.00011839982856296484
0.002668584527188601   -0.00968703108422397   0.00012449310675179175
-0.001688331776181778   -0.019196040534996496   -4.918767129140441e-05
0.0036885195691490702   -0.019171105761944023   0.00016456775017820527
0.0024338264016972155   -0.009564342925649814   0.0002595831188403689
-0.0017639994616347062   -0.01910041296326874   -9.934497696090212e-06
0.003555504952916164   -0.01905650925290468   0.00023470407973764286
0.0024338264016972155   -0.009564342925649814   0.0002595831188403689
-0.0025327118302546432   -0.009513594655537146   0.00011839982856296484
-0.0017639994616347062   -0.01910041296326874   -9.934497696090212e-06
-0.002631742012547384   -0.009427673868796848   0.00018470921339758877
0.003555504952916164   -0.01905650925290468   0.00023470407973764286
-0.0018525301498119643   -0.018999503986967044   3.631247740724242e-05
-0.002631742012547384   -0.009427673868796848   0.00018470921339758877
-0.0017639994616347062   -0.01910041296326874   -9.934497696090212e-06
0.003555504952916164   -0.01905650925290468   0.00023470407973764286
-0.002631742012547384   -0.009427673868796848   0.00018470921339758877
0.0022963839069296012   -0.009464084899759669   0.000360362537257374
0.0024338264016972155   -0.009564342925649814   0.0002595831188403689
0.003555504952916164   -0.01905650925290468   0.00023470407973764286
-0.002631742012547384   -0.009427673868796848   0.00018470921339758877
0.0024338264016972155   -0.009564342925649814   0.0002595831188403689
-0.0017639994616347062   -0.01910041296326874   -9.934497696090212e-06
0.003555504952916164   -0.01905650925290468   0.00023470407973764286
0.0022963839069296012   -0.009464084899759669   0.000360362537257374
-0.0018525301498119643   -0.018999503986967044   3.631247740724242e-05
0.0033929716157084866   -0.01891571807146782   0.0003118909851353978
0.0022963839069296012   -0.009464084899759669   0.000360362537257374
-0.002631742012547384   -0.009427673868796848   0.00018470921339758877
-0.0018525301498119643   -0.018999503986967044   3.631247740724242e-05
-0.0027150266476868115   -0.009335326381203405   0.00024307696893081978
0.0033929716157084866   -0.01891571807146782   0.0003118909851353978
-0.0019441196150979446   -0.018892376095708426   8.946193106135069e-05
-0.0027150266476868115   -0.009335326381203405   0.00024307696893081978
-0.0018525301498119643   -0.018999503986967044   3.631247740724242e-05
0.0033929716157084866   -0.01891571807146782   0.0003118909851353978
-0.0027150266476868115   -0.009335326381203405   0.00024307696893081978
0.002120202773924777   -0.009310763629158326   0.00047577452868791874
0.0022963839069296012   -0.009464084899759669   0.000360362537257374
0.0033929716157084866   -0.01891571807146782   0.0003118909851353978
-0.0027150266476868115   -0.009335326381203405   0.00024307696893081978
0.0022963839069296012   -0.009464084899759669   0.000360362537257374
-0.0018525301498119643   -0.018999503986967044   3.631247740724242e-05
-0.001688331776181778   -0.019196040534996496   -4.918767129140441e-05
-0.0024574064934045404   -0.009561725688124858   6.380631320341194e-05
-0.006863465642409572   -0.019172612950456528   -0.00020814223760118507
-0.0017639994616347062   -0.01910041296326874   -9.934497696090212e-06
-0.0024574064934045404   -0.009561725688124858   6.380631320341194e-05
-0.007335408734622189   -0.009703267060587493   -6.252194427809011e-05
-0.006863465642409572   -0.019172612950456528   -0.00020814223760118507
-0.007404801752986763   -0.009629521953398635   -2.382933040348516e-05
-0.0017639994616347062   -0.01910041296326874   -9.934497696090212e-06
-0.0069318913343867205   -0.01908919364028006   -0.0001715857973439794
-0.007404801752986763   -0.009629521953398635   -2.382933040348516e-05
-0.006863465642409572   -0.019172612950456528   -0.00020814223760118507
-0.0017639994616347062   -0.01910041296326874   -9.934497696090212e-06
-0.007404801752986763   -0.009629521953398635   -2.382933040348516e-05
-0.0025327118302546432   -0.009513594655537146   0.00011839982856296484
-0.0024574064934045404   -0.009561725688124858   6.380631320341194e-05
-0.0017639994616347062   -0.01910041296326874   -9.934497696090212e-06
-0.007404801752986763   -0.009629521953398635   -2.382933040348516e-05
-0.0024574064934045404   -0.009561725688124858   6.380631320341194e-05
-0.006863465642409572   -0.019172612950456528   -0.00020814223760118507
-0.0017639994616347062   -0.01910041296326874   -9.934497696090212e-06
-0.0025327118302546432   -0.009513594655537146   0.00011839982856296484
-0.0069318913343867205   -0.01908919364028006   -0.0001715857973439794
-0.0018525301498119643   -0.018999503986967044   3.631247740724242e-05
-0.0025327118302546432   -0.009513594655537146   0.00011839982856296484
-0.007404801752986763   -0.009629521953398635   -2.382933040348516e-05
-0.0069318913343867205   -0.01908919364028006   -0.0001715857973439794
-0.007477466046244141   -0.009546220166444451   1.7134126923649077e-05
-0.0018525301498119643   -0.018999503986967044   3.631247740724242e-05
-0.007002681099832797   -0.019002428706151087   -0.00013139616804218673
-0.007477466046244141   -0.009546220166444451   1.7134126923649077e-05
-0.0069318913343867205   -0.01908919364028006   -0.0001715857973439794
-0.0018525301498119643   -0.018999503986967044   3.631247740724242e-05
-0.007477466046244141   -0.009546220166444451   1.7134126923649077e-05
-0.002631742012547384   -0.009427673868796848   0.00018470921339758877
-0.0025327118302546432   -0.009513594655537146   0.00011839982856296484
-0.0018525301498119643   -0.018999503986967044   3.631247740724242e-05
-0.007477466046244141   -0.009546220166444451   1.7134126923649077e-05
-0.0025327118302546432   -0.009513594655537146   0.00011839982856296484
-0.0069318913343867205   -0.01908919364028006   -0.0001715857973439794
-0.0018525301498119643   -0.018999503986967044   3.631247740724242e-05
-0.002631742012547384   -0.009427673868796848   0.00018470921339758877
-0.007002681099832797   -0.019002428706151087   -0.00013139616804218673
-0.0019441196150979446   -0.018892376095708426   8.946193106135069e-05
-0.002631742012547384   -0.009427673868796848   0.00018470921339758877
-0.007477466046244141   -0.009546220166444451   1.7134126923649077e-05
-0.007002681099832797   -0.019002428706151087   -0.00013139616804218673
-0.00754655652072499   -0.009454921018953736   6.231901598351204e-05
-0.0019441196150979446   -0.018892376095708426   8.946193106135069e-05
-0.007076385727210415   -0.018913879702860407   -8.684871153942782e-05
-0.00754655652072499   -0.009454921018953736   6.231901598351204e-05
-0.007002681099832797   -0.019002428706151087   -0.00013139616804218673
-0.0019441196150979446   -0.018892376095708426   8.946193106135069e-05
-0.00754655652072499   -0.009454921018953736   6.231901598351204e-05
-0.0027150266476868115   -0.009335326381203405   0.00024307696893081978
-0.002631742012547384   -0.009427673868796848   0.00018470921339758877
-0.0019441196150979446   -0.018892376095708426   8.946193106135069e-05
-0.00754655652072499   -0.009454921018953736   6.231901598351204e-05
-0.002631742012547384   -0.009427673868796848   0.00018470921339758877
-0.007002681099832797   -0.019002428706151087   -0.00013139616804218673
-0.006863465642409572   -0.019172612950456528   -0.00020814223760118507
-0.007335408734622189   -0.009703267060587493   -6.252194427809011e-05
-0.011985336972546402   -0.019166090786869133   -0.00035178471487682414
-0.0069318913343867205   -0.01908919364028006   -0.0001715857973439794
-0.007335408734622189   -0.009703267060587493   -6.252194427809011e-05
-0.012332721171105074   -0.00981384178409768   -0.00020262596411595057
-0.011985336972546402   -0.019166090786869133   -0.00035178471487682414
-0.012395069309373273   -0.009738119374756663   -0.00017262662311523562
-0.0069318913343867205   -0.01908919364028006   -0.0001715857973439794
-0.012050765436383113   -0.01909297624816893   -0.0003168813013674149
-0.012395069309373273   -0.009738119374756663   -0.00017262662311523562
-0.011985336972546402   -0.019166090786869133   -0.00035178471487682414
-0.0069318913343867205   -0.01908919364028006   -0.0001715857973439794
-0.012395069309373273   -0.009738119374756663   -0.00017262662311523562
-0.007404801752986763   -0.009629521953398635   -2.382933040348516e-05
-0.007335408734622189   -0.009703267060587493   -6.252194427809011e-05
-0.0069318913343867205   -0.01908919364028006   -0.0001715857973439794
-0.012395069309373273   -0.009738119374756663   -0.00017262662311523562
-0.007335408734622189   -0.009703267060587493   -6.252194427809011e-05
-0.011985336972546402   -0.019166090786869133   -0.00035178471487682414
-0.0069318913343867205   -0.01908919364028006   -0.0001715857973439794
-0.007404801752986763   -0.009629521953398635   -2.382933040348516e-05
-0.012050765436383113   -0.01909297624816893   -0.0003168813013674149
-0.007002681099832797   -0.019002428706151087   -0.00013139616804218673
-0.007404801752986763   -0.009629521953398635   -2.382933040348516e-05
-0.012395069309373273   -0.009738119374756663   -0.00017262662311523562
-0.012050765436383113   -0.01909297624816893   -0.0003168813013674149
-0.012454763329742642   -0.009658127691433593   -0.00014271497390130178
-0.007002681099832797   -0.019002428706151087   -0.00013139616804218673
-0.012113093784958057   -0.01901855038085475   -0.0002787998868142324
-0.012454763329742642   -0.009658127691433593   -0.00014271497390130178
-0.012050765436383113   -0.01909297624816893   -0.0003168813013674149
-0.007002681099832797   -0.019002428706151087   -0.00013139616804218673
-0.012454763329742642   -0.009658127691433593   -0.00014271497390130178
-0.007477466046244141   -0.009546220166444451   1.7134126923649077e-05
-0.007404801752986763   -0.009629521953398635   -2.382933040348516e-05
-0.007002681099832797   -0.019002428706151087   -0.00013139616804218673
-0.012454763329742642   -0.009658127691433593   -0.00014271497390130178
-0.007404801752986763   -0.009629521953398635   -2.382933040348516e-05
-0.012050765436383113   -0.01909297624816893   -0.0003168813013674149
-0.007002681099832797   -0.019002428706151087   -0.00013139616804218673
-0.007477466046244141   -0.009546220166444451   1.7134126923649077e-05
-0.012113093784958057   -0.01901855038085475   -0.0002787998868142324
-0.007076385727210415   -0.018913879702860407   -8.684871153942782e-05
-0.007477466046244141   -0.009546220166444451   1.7134126923649077e-05
-0.012454763329742642   -0.009658127691433593   -0.00014271497390130178
-0.012113093784958057   -0.01901855038085475   -0.0002787998868142324
-0.012509799048137185   -0.00957150823743696   -0.00011013980045423001
-0.007076385727210415   -0.018913879702860407   -8.684871153942782e-05
-0.012174795860324944   -0.01894238693752206   -0.00023771965814120376
-0.012509799048137185   -0.00957150823743696   -0.00011013980045423001
-0.012113093784958057   -0.01901855038085475   -0.0002787998868142324
-0.007076385727210415   -0.018913879702860407   -8.684871153942782e-05
-0.012509799048137185   -0.00957150823743696   -0.00011013980045423001
-0.00754655652072499   -0.009454921018953736   6.231901598351204e-05
-0.007477466046244141   -0.009546220166444451   1.7134126923649077e-05
-0.007076385727210415   -0.018913879702860407   -8.684871153942782e-05
-0.012509799048137185   -0.00957150823743696   -0.00011013980045423001
-0.007477466046244141   -0.009546220166444451   1.7134126923649077e-05
-0.012113093784958057   -0.01901855038085475   -0.0002787998868142324
-0.011985336972546402   -0.019166090786869133   -0.00035178471487682414
-0.012332721171105074   -0.00981384178409768   -0.00020262596411595057
-0.01721573881564708   -0.0191362935588075   -0.0004723682797046003
-0.012050765436383113   -0.01909297624816893   -0.0003168813013674149
-0.012332721171105074   -0.00981384178409768   -0.00020262596411595057
-0.01750557770834118   -0.009859225101976052   -0.00033194725372920553
-0.01721573881564708   -0.0191362935588075   -0.0004723682797046003
-0.01756175319992852   -0.009791234794705912   -0.00031006642840450773
-0.012050765436383113   -0.01909297624816893   -0.0003168813013674149
-0.017278112704345452   -0.019076757901959788   -0.00043929774447638777
-0.01756175319992852   -0.009791234794705912   -0.00031006642840450773
-0.01721573881564708   -0.0191362935588075   -0.0004723682797046003
-0.012050765436383113   -0.01909297624816893   -0.0003168813013674149
-0.01756175319992852   -0.009791234794705912   -0.00031006642840450773
-0.012395069309373273   -0.009738119374756663   -0.00017262662311523562
-0.012332721171105074   -0.00981384178409768   -0.00020262596411595057
-0.012050765436383113   -0.01909297624816893   -0.0003168813013674149
-0.01756175319992852   -0.009791234794705912   -0.00031006642840450773
-0.012332721171105074   -0.00981384178409768   -0.00020262596411595057
-0.01721573881564708   -0.0191362935588075   -0.0004723682797046003
-0.012050765436383113   -0.01909297624816893   -0.0003168813013674149
-0.012395069309373273   -0.009738119374756663   -0.00017262662311523562
-0.017278112704345452   -0.019076757901959788   -0.00043929774447638777
-0.012113093784958057   -0.01901855038085475   -0.0002787998868142324
-0.012395069309373273   -0.009738119374756663   -0.00017262662311523562
-0.01756175319992852   -0.009791234794705912   -0.00031006642840450773
-0.017278112704345452   -0.019076757901959788   -0.00043929774447638777
-0.017611812613495256   -0.009717162388882355   -0.0002888007933107462
-0.012113093784958057   -0.01901855038085475   -0.0002787998868142324
-0.01733094817452259   -0.019013960662483807   -0.0004039674609137591
-0.017611812613495256   -0.009717162388882355   -0.0002888007933107462
-0.017278112704345452   -0.019076757901959788   -0.00043929774447638777
-0.012113093784958057   -0.01901855038085475   -0.0002787998868142324
-0.017611812613495256   -0.009717162388882355   -0.0002888007933107462
-0.012454763329742642   -0.009658127691433593   -0.00014271497390130178
-0.012395069309373273   -0.009738119374756663   -0.00017262662311523562
-0.012113093784958057   -0.01901855038085475   -0.0002787998868142324
-0.017611812613495256   -0.009717162388882355   -0.0002888007933107462
-0.012395069309373273   -0.009738119374756663   -0.00017262662311523562
-0.017278112704345452   -0.019076757901959788   -0.00043929774447638777
-0.012113093784958057   -0.01901855038085475   -0.0002787998868142324
-0.012454763329742642   -0.009658127691433593   -0.00014271497390130178
-0.01733094817452259   -0.019013960662483807   -0.0004039674609137591
-0.012174795860324944   -0.01894238693752206   -0.00023771965814120376
-0.012454763329742642   -0.009658127691433593   -0.00014271497390130178
-0.017611812613495256   -0.009717162388882355   -0.0002888007933107462
-0.01733094817452259   -0.019013960662483807   -0.0004039674609137591
-0.017657146387652856   -0.009638303622800506   -0.00026689368255692546
-0.012174795860324944   -0.01894238693752206   -0.00023771965814120376
-0.017380884652401233   -0.01894952046646189   -0.0003653960225290092
-0.017657146387652856   -0.009638303622800506   -0.00026689368255692546
-0.01733094817452259   -0.019013960662483807   -0.0004039674609137591
-0.012174795860324944   -0.01894238693752206   -0.00023771965814120376
-0.017657146387652856   -0.009638303622800506   -0.00026689368255692546
-0.012509799048137185   -0.00957150823743696   -0.00011013980045423001
-0.012454763329742642   -0.009658127691433593   -0.00014271497390130178
-0.012174795860324944   -0.01894238693752206   -0.00023771965814120376
-0.017657146387652856   -0.009638303622800506   -0.00026689368255692546
-0.012454763329742642   -0.009658127691433593   -0.00014271497390130178
-0.01733094817452259   -0.019013960662483807   -0.0004039674609137591
-0.01721573881564708   -0.0191362935588075   -0.0004723682797046003
-0.01750557770834118   -0.009859225101976052   -0.00033194725372920553
-0.022694889059530817   -0.019087163708898774   -0.0005614648729146582
-0.017278112704345452   -0.019076757901959788   -0.00043929774447638777
-0.01750557770834118   -0.009859225101976052   -0.00033194725372920553
-0.022862837515185357   -0.009864286950357735   -0.00043924295125149376
-0.022694889059530817   -0.019087163708898774   -0.0005614648729146582
-0.022911090277077318   -0.009798299227827802   -0.0004298267471249392
-0.017278112704345452   -0.019076757901959788   -0.00043929774447638777
-0.022733581267955258   -0.019037240158436303   -0.0005366155971409078
-0.022911090277077318   -0.009798299227827802   -0.0004298267471249392
-0.022694889059530817   -0.019087163708898774   -0.0005614648729146582
-0.017278112704345452   -0.019076757901959788   -0.00043929774447638777
-0.022911090277077318   -0.009798299227827802   -0.0004298267471249392
-0.01756175319992852   -0.009791234794705912   -0.00031006642840450773
-0.01750557770834118   -0.009859225101976052   -0.00033194725372920553
-0.017278112704345452   -0.019076757901959788   -0.00043929774447638777
-0.022911090277077318   -0.009798299227827802   -0.0004298267471249392
-0.01750557770834118   -0.009859225101976052   -0.00033194725372920553
-0.022694889059530817   -0.019087163708898774   -0.0005614648729146582
-0.017278112704345452   -0.019076757901959788   -0.00043929774447638777
-0.01756175319992852   -0.009791234794705912   -0.00031006642840450773
-0.022733581267955258   -0.019037240158436303   -0.0005366155971409078
-0.01733094817452259   -0.019013960662483807   -0.0004039674609137591
-0.01756175319992852   -0.009791234794705912   -0.00031006642840450773
-0.022911090277077318   -0.009798299227827802   -0.0004298267471249392
-0.022733581267955258   -0.019037240158436303   -0.0005366155971409078
-0.022954320542342203   -0.009726935483453374   -0.0004188098517274552
-0.01733094817452259   -0.019013960662483807   -0.0004039674609137591
-0.022768960884131415   -0.018980727450545146   -0.0005062288079389096
-0.022954320542342203   -0.009726935483453374   -0.0004188098517274552
-0.022733581267955258   -0.019037240158436303   -0.0005366155971409078
-0.01733094817452259   -0.019013960662483807   -0.0004039674609137591
-0.022954320542342203   -0.009726935483453374   -0.0004188098517274552
-0.017611812613495256   -0.009717162388882355   -0.0002888007933107462
-0.01756175319992852   -0.009791234794705912   -0.00031006642840450773
-0.01733094817452259   -0.019013960662483807   -0.0004039674609137591
-0.022954320542342203   -0.009726935483453374   -0.0004188098517274552
-0.01756175319992852   -0.009791234794705912   -0.00031006642840450773
-0.022733581267955258   -0.019037240158436303   -0.0005366155971409078
-0.01733094817452259   -0.019013960662483807   -0.0004039674609137591
-0.017611812613495256   -0.009717162388882355   -0.0002888007933107462
-0.022768960884131415   -0.018980727450545146   -0.0005062288079389096
-0.017380884652401233   -0.01894952046646189   -0.0003653960225290092
-0.017611812613495256   -0.009717162388882355   -0.0002888007933107462
-0.022954320542342203   -0.009726935483453374   -0.0004188098517274552
-0.022768960884131415   -0.018980727450545146   -0.0005062288079389096
-0.022990656740373268   -0.009651371486436433   -0.0004085494896476502
-0.017380884652401233   -0.01894952046646189   -0.0003653960225290092
-0.0227860248810377   -0.018928934092469315   -0.00047168543235878783
-0.022990656740373268   -0.009651371486436433   -0.0004085494896476502
-0.022768960884131415   -0.018980727450545146   -0.0005062288079389096
-0.017380884652401233   -0.01894952046646189   -0.0003653960225290092
-0.022990656740373268   -0.009651371486436433   -0.0004085494896476502
-0.017657146387652856   -0.009638303622800506   -0.00026689368255692546
-0.017611812613495256   -0.009717162388882355   -0.0002888007933107462
-0.017380884652401233   -0.01894952046646189   -0.0003653960225290092
-0.022990656740373268   -0.009651371486436433   -0.0004085494896476502
-0.017611812613495256   -0.009717162388882355   -0.0002888007933107462
-0.022768960884131415   -0.018980727450545146   -0.0005062288079389096
0.002668584527188601   -0.00968703108422397   0.00012449310675179175
0.0   0.0   0.0
-0.0024574064934045404   -0.009561725688124858   6.380631320341194e-05
0.0024338264016972155   -0.009564342925649814   0.0002595831188403689
0.0   0.0   0.0
-0.0030847448673634254   -0.0007825148361088214   -2.5900246508508748e-05
-0.0024574064934045404   -0.009561725688124858   6.380631320341194e-05
-0.0032690587434313183   -0.0006082253915582159   8.039993742895318e-05
0.0024338264016972155   -0.009564342925649814   0.0002595831188403689
-0.0025327118302546432   -0.009513594655537146   0.00011839982856296484
-0.0032690587434313183   -0.0006082253915582159   8.039993742895318e-05
-0.0024574064934045404   -0.009561725688124858   6.380631320341194e-05
0.0024338264016972155   -0.009564342925649814   0.0002595831188403689
-0.0032690587434313183   -0.0006082253915582159   8.039993742895318e-05
0.0   0.0   0.0
0.0   0.0   0.0
0.0024338264016972155   -0.009564342925649814   0.0002595831188403689
-0.0032690587434313183   -0.0006082253915582159   8.039993742895318e-05
0.0   0.0   0.0
-0.0024574064934045404   -0.009561725688124858   6.380631320341194e-05
0.0024338264016972155   -0.009564342925649814   0.0002595831188403689
0.0   0.0   0.0
-0.0025327118302546432   -0.009513594655537146   0.00011839982856296484
0.0022963839069296012   -0.009464084899759669   0.000360362537257374
0.0   0.0   0.0
-0.0032690587434313183   -0.0006082253915582159   8.039993742895318e-05
-0.0025327118302546432   -0.009513594655537146   0.00011839982856296484
-0.0033847451099799533   -0.00052424526219174   0.00014177564964569926
0.0022963839069296012   -0.009464084899759669   0.000360362537257374
-0.002631742012547384   -0.009427673868796848   0.00018470921339758877
-0.0033847451099799533   -0.00052424526219174   0.00014177564964569926
-0.0025327118302546432   -0.009513594655537146   0.00011839982856296484
0.0022963839069296012   -0.009464084899759669   0.000360362537257374
-0.0033847451099799533   -0.00052424526219174   0.00014177564964569926
0.0   0.0   0.0
0.0   0.0   0.0
0.0022963839069296012   -0.009464084899759669   0.000360362537257374
-0.0033847451099799533   -0.00052424526219174   0.00014177564964569926
0.0   0.0   0.0
-0.0025327118302546432   -0.009513594655537146   0.00011839982856296484
0.0022963839069296012   -0.009464084899759669   0.000360362537257374
0.0   0.0   0.0
-0.002631742012547384   -0.009427673868796848   0.00018470921339758877
0.002120202773924777   -0.009310763629158326   0.00047577452868791874
0.0   0.0   0.0
-0.0033847451099799533   -0.00052424526219174   0.00014177564964569926
-0.002631742012547384   -0.009427673868796848   0.00018470921339758877
-0.00353986987249771   -0.0004127188127293285   0.0002122273350090689
0.002120202773924777   -0.009310763629158326   0.00047577452868791874
-0.0027150266476868115   -0.009335326381203405   0.00024307696893081978
-0.00353986987249771   -0.0004127188127293285   0.0002122273350090689
-0.002631742012547384   -0.009427673868796848   0.00018470921339758877
0.002120202773924777   -0.009310763629158326   0.00047577452868791874
-0.00353986987249771   -0.0004127188127293285   0.0002122273350090689
0.0   0.0   0.0
0.0   0.0   0.0
0.002120202773924777   -0.009310763629158326   0.00047577452868791874
-0.00353986987249771   -0.0004127188127293285   0.0002122273350090689
0.0   0.0   0.0
-0.002631742012547384   -0.009427673868796848   0.00018470921339758877
-0.0024574064934045404   -0.009561725688124858   6.380631320341194e-05
-0.0030847448673634254   -0.0007825148361088214   -2.5900246508508748e-05
-0.007335408734622189   -0.009703267060587493   -6.252194427809011e-05
-0.0025327118302546432   -0.009513594655537146   0.00011839982856296484
-0.0030847448673634254   -0.0007825148361088214   -2.5900246508508748e-05
-0.007553931535572166   -0.0010251226628648963   -2.4316775106368696e-05
-0.007335408734622189   -0.009703267060587493   -6.252194427809011e-05
-0.00764892111935041   -0.0009298692152950866   2.936886049207543e-06
-0.0025327118302546432   -0.009513594655537146   0.00011839982856296484
-0.007404801752986763   -0.009629521953398635   -2.382933040348516e-05
-0.00764892111935041   -0.0009298692152950866   2.936886049207543e-06
-0.007335408734622189   -0.009703267060587493   -6.252194427809011e-05
-0.0025327118302546432   -0.009513594655537146   0.00011839982856296484
-0.00764892111935041   -0.0009298692152950866   2.936886049207543e-06
-0.0032690587434313183   -0.0006082253915582159   8.039993742895318e-05
-0.0030847448673634254   -0.0007825148361088214   -2.5900246508508748e-05
-0.0025327118302546432   -0.009513594655537146   0.00011839982856296484
-0.00764892111935041   -0.0009298692152950866   2.936886049207543e-06
-0.0030847448673634254   -0.0007825148361088214   -2.5900246508508748e-05
-0.007335408734622189   -0.009703267060587493   -6.252194427809011e-05
-0.0025327118302546432   -0.009513594655537146   0.00011839982856296484
-0.0032690587434313183   -0.0006082253915582159   8.039993742895318e-05
-0.007404801752986763   -0.009629521953398635   -2.382933040348516e-05
-0.002631742012547384   -0.009427673868796848   0.00018470921339758877
-0.0032690587434313183   -0.0006082253915582159   8.039993742895318e-05
-0.00764892111935041   -0.0009298692152950866   2.936886049207543e-06
-0.007404801752986763   -0.009629521953398635   -2.382933040348516e-05
-0.007743515830897583   -0.0008184187857008099   5.175204001539417e-05
-0.002631742012547384   -0.009427673868796848   0.00018470921339758877
-0.007477466046244141   -0.009546220166444451   1.7134126923649077e-05
-0.007743515830897583   -0.0008184187857008099   5.175204001539417e-05
-0.007404801752986763   -0.009629521953398635   -2.382933040348516e-05
-0.002631742012547384   -0.009427673868796848   0.00018470921339758877
-0.007743515830897583   -0.0008184187857008099   5.175204001539417e-05
-0.0033847451099799533   -0.00052424526219174   0.00014177564964569926
-0.0032690587434313183   -0.0006082253915582159   8.039993742895318e-05
-0.002631742012547384   -0.009427673868796848   0.00018470921339758877
-0.007743515830897583   -0.0008184187857008099   5.175204001539417e-05
-0.0032690587434313183   -0.0006082253915582159   8.039993742895318e-05
-0.007404801752986763   -0.009629521953398635   -2.382933040348516e-05
-0.002631742012547384   -0.009427673868796848   0.00018470921339758877
-0.0033847451099799533   -0.00052424526219174   0.00014177564964569926
-0.007477466046244141   -0.009546220166444451   1.7134126923649077e-05
-0.0027150266476868115   -0.009335326381203405   0.00024307696893081978
-0.0033847451099799533   -0.00052424526219174   0.00014177564964569926
-0.007743515830897583   -0.0008184187857008099   5.175204001539417e-05
-0.007477466046244141   -0.009546220166444451   1.7134126923649077e-05
-0.007848281051124065   -0.0006895651857330812   9.849436794925533e-05
-0.0027150266476868115   -0.009335326381203405   0.00024307696893081978
-0.00754655652072499   -0.009454921018953736   6.231901598351204e-05
-0.007848281051124065   -0.0006895651857330812   9.849436794925533e-05
-0.007477466046244141   -0.009546220166444451   1.7134126923649077e-05
-0.0027150266476868115   -0.009335326381203405   0.00024307696893081978
-0.007848281051124065   -0.0006895651857330812   9.849436794925533e-05
-0.00353986987249771   -0.0004127188127293285   0.0002122273350090689
-0.0033847451099799533   -0.00052424526219174   0.00014177564964569926
-0.0027150266476868115   -0.009335326381203405   0.00024307696893081978
-0.007848281051124065   -0.0006895651857330812   9.849436794925533e-05
-0.0033847451099799533   -0.00052424526219174   0.00014177564964569926
-0.007477466046244141   -0.009546220166444451   1.7134126923649077e-05
-0.007335408734622189   -0.009703267060587493   -6.252194427809011e-05
-0.007553931535572166   -0.0010251226628648963   -2.4316775106368696e-05
-0.012332721171105074   -0.00981384178409768   -0.00020262596411595057
-0.007404801752986763   -0.009629521953398635   -2.382933040348516e-05
-0.007553931535572166   -0.0010251226628648963   -2.4316775106368696e-05
-0.012454643667775708   -0.0010929197349551535   -0.00011297827984364809
-0.012332721171105074   -0.00981384178409768   -0.00020262596411595057
-0.012512266561178789   -0.0010186072512773032   -0.00010545434098270099
-0.007404801752986763   -0.009629521953398635   -2.382933040348516e-05
-0.012395069309373273   -0.009738119374756663   -0.00017262662311523562
-0.012512266561178789   -0.0010186072512773032   -0.00010545434098270099
-0.012332721171105074   -0.00981384178409768   -0.00020262596411595057
-0.007404801752986763   -0.009629521953398635   -2.382933040348516e-05
-0.012512266561178789   -0.0010186072512773032   -0.00010545434098270099
-0.00764892111935041   -0.0009298692152950866   2.936886049207543e-06
-0.007553931535572166   -0.0010251226628648963   -2.4316775106368696e-05
-0.007404801752986763   -0.009629521953398635   -2.382933040348516e-05
-0.012512266561178789   -0.0010186072512773032   -0.00010545434098270099
-0.007553931535572166   -0.0010251226628648963   -2.4316775106368696e-05
-0.012332721171105074   -0.00981384178409768   -0.00020262596411595057
-0.007404801752986763   -0.009629521953398635   -2.382933040348516e-05
-0.00764892111935041   -0.0009298692152950866   2.936886049207543e-06
-0.012395069309373273   -0.009738119374756663   -0.00017262662311523562
-0.007477466046244141   -0.009546220166444451   1.7134126923649077e-05
-0.00764892111935041   -0.0009298692152950866   2.936886049207543e-06
-0.012512266561178789   -0.0010186072512773032   -0.00010545434098270099
-0.012395069309373273   -0.009738119374756663   -0.00017262662311523562
-0.01257218134129468   -0.0009323740212602446   -9.223561834718625e-05
-0.007477466046244141   -0.009546220166444451   1.7134126923649077e-05
-0.012454763329742642   -0.009658127691433593   -0.00014271497390130178
-0.01257218134129468   -0.0009323740212602446   -9.223561834718625e-05
-0.012395069309373273   -0.009738119374756663   -0.00017262662311523562
-0.007477466046244141   -0.009546220166444451   1.7134126923649077e-05
-0.01257218134129468   -0.0009323740212602446   -9.223561834718625e-05
-0.007743515830897583   -0.0008184187857008099   5.175204001539417e-05
-0.00764892111935041   -0.0009298692152950866   2.936886049207543e-06
-0.007477466046244141   -0.009546220166444451   1.7134126923649077e-05
-0.01257218134129468   -0.0009323740212602446   -9.223561834718625e-05
-0.00764892111935041   -0.0009298692152950866   2.936886049207543e-06
-0.012395069309373273   -0.009738119374756663   -0.00017262662311523562
-0.007477466046244141   -0.009546220166444451   1.7134126923649077e-05
-0.007743515830897583   -0.0008184187857008099   5.175204001539417e-05
-0.012454763329742642   -0.009658127691433593   -0.00014271497390130178
-0.00754655652072499   -0.009454921018953736   6.231901598351204e-05
-0.007743515830897583   -0.0008184187857008099   5.175204001539417e-05
-0.01257218134129468   -0.0009323740212602446   -9.223561834718625e-05
-0.012454763329742642   -0.009658127691433593   -0.00014271497390130178
-0.012629044022886815   -0.0008274839626825438   -7.474565389469244e-05
-0.00754655652072499   -0.009454921018953736   6.231901598351204e-05
-0.012509799048137185   -0.00957150823743696   -0.00011013980045423001
-0.012629044022886815   -0.0008274839626825438   -7.474565389469244e-05
-0.012454763329742642   -0.009658127691433593   -0.00014271497390130178
-0.00754655652072499   -0.009454921018953736   6.231901598351204e-05
-0.012629044022886815   -0.0008274839626825438   -7.474565389469244e-05
-0.007848281051124065   -0.0006895651857330812   9.849436794925533e-05
-0.007743515830897583   -0.0008184187857008099   5.175204001539417e-05
-0.00754655652072499   -0.009454921018953736   6.231901598351204e-05
-0.012629044022886815   -0.0008274839626825438   -7.474565389469244e-05
-0.007743515830897583   -0.0008184187857008099   5.175204001539417e-05
-0.012454763329742642   -0.009658127691433593   -0.00014271497390130178
-0.012332721171105074   -0.00981384178409768   -0.00020262596411595057
-0.012454643667775708   -0.0010929197349551535   -0.00011297827984364809
-0.01750557770834118   -0.009859225101976052   -0.00033194725372920553
-0.012395069309373273   -0.009738119374756663   -0.00017262662311523562
-0.012454643667775708   -0.0010929197349551535   -0.00011297827984364809
-0.01759615764776303   -0.001081272791280407   -0.00024040901265783314
-0.01750557770834118   -0.009859225101976052   -0.00033194725372920553
-0.017635074249030425   -0.0010144686976865606   -0.000237191576051274
-0.012395069309373273   -0.009738119374756663   -0.00017262662311523562
-0.01756175319992852   -0.009791234794705912   -0.00031006642840450773
-0.017635074249030425   -0.0010144686976865606   -0.000237191576051274
-0.01750557770834118   -0.009859225101976052   -0.00033194725372920553
-0.012395069309373273   -0.009738119374756663   -0.00017262662311523562
-0.017635074249030425   -0.0010144686976865606   -0.000237191576051274
-0.012512266561178789   -0.0010186072512773032   -0.00010545434098270099
-0.012454643667775708   -0.0010929197349551535   -0.00011297827984364809
-0.012395069309373273   -0.009738119374756663   -0.00017262662311523562
-0.017635074249030425   -0.0010144686976865606   -0.000237191576051274
-0.012454643667775708   -0.0010929197349551535   -0.00011297827984364809
-0.01750557770834118   -0.009859225101976052   -0.00033194725372920553
-0.012395069309373273   -0.009738119374756663   -0.00017262662311523562
-0.012512266561178789   -0.0010186072512773032   -0.00010545434098270099
-0.01756175319992852   -0.009791234794705912   -0.00031006642840450773
-0.012454763329742642   -0.009658127691433593   -0.00014271497390130178
-0.012512266561178789   -0.0010186072512773032   -0.00010545434098270099
-0.017635074249030425   -0.0010144686976865606   -0.000237191576051274
-0.01756175319992852   -0.009791234794705912   -0.00031006642840450773
-0.017675676303746113   -0.0009401291197565258   -0.00023497472994628526
-0.012454763329742642   -0.009658127691433593   -0.00014271497390130178
-0.017611812613495256   -0.009717162388882355   -0.0002888007933107462
-0.017675676303746113   -0.0009401291197565258   -0.00023497472994628526
-0.01756175319992852   -0.009791234794705912   -0.00031006642840450773
-0.012454763329742642   -0.009658127691433593   -0.00014271497390130178
-0.017675676303746113   -0.0009401291197565258   -0.00023497472994628526
-0.01257218134129468   -0.0009323740212602446   -9.223561834718625e-05
-0.012512266561178789   -0.0010186072512773032   -0.00010545434098270099
-0.012454763329742642   -0.009658127691433593   -0.00014271497390130178
-0.017675676303746113   -0.0009401291197565258   -0.00023497472994628526
-0.012512266561178789   -0.0010186072512773032   -0.00010545434098270099
-0.01756175319992852   -0.009791234794705912   -0.00031006642840450773
-0.012454763329742642   -0.009658127691433593   -0.00014271497390130178
-0.01257218134129468   -0.0009323740212602446   -9.223561834718625e-05
-0.017611812613495256   -0.009717162388882355   -0.0002888007933107462
-0.012509799048137185   -0.00957150823743696   -0.00011013980045423001
-0.01257218134129468   -0.0009323740212602446   -9.223561834718625e-05
-0.017675676303746113   -0.0009401291197565258   -0.00023497472994628526
-0.017611812613495256   -0.009717162388882355   -0.0002888007933107462
-0.017706505501484667   -0.0008596557536494385   -0.00023393331701608471
-0.012509799048137185   -0.00957150823743696   -0.00011013980045423001
-0.017657146387652856   -0.009638303622800506   -0.00026689368255692546
-0.017706505501484667   -0.0008596557536494385   -0.00023393331701608471
-0.017611812613495256   -0.009717162388882355   -0.0002888007933107462
-0.012509799048137185   -0.00957150823743696   -0.00011013980045423001
-0.017706505501484667   -0.0008596557536494385   -0.00023393331701608471
-0.012629044022886815   -0.0008274839626825438   -7.474565389469244e-05
-0.01257218134129468   -0.0009323740212602446   -9.223561834718625e-05
-0.012509799048137185   -0.00957150823743696   -0.00011013980045423001
-0.017706505501484667   -0.0008596557536494385   -0.00023393331701608471
-0.01257218134129468   -0.0009323740212602446   -9.223561834718625e-05
-0.017611812613495256   -0.009717162388882355   -0.0002888007933107462
-0.01750557770834118   -0.009859225101976052   -0.00033194725372920553
-0.01759615764776303   -0.001081272791280407   -0.00024040901265783314
-0.022862837515185357   -0.009864286950357735   -0.00043924295125149376
-0.01756175319992852   -0.009791234794705912   -0.00031006642840450773
-0.01759615764776303   -0.001081272791280407   -0.00024040901265783314
-0.02287972907417798   -0.0010735011376881982   -0.00036585028363192245
-0.022862837515185357   -0.009864286950357735   -0.00043924295125149376
-0.022911035597149014   -0.0010010275462311708   -0.0003657973383371392
-0.01756175319992852   -0.009791234794705912   -0.00031006642840450773
-0.022911090277077318   -0.009798299227827802   -0.0004298267471249392
-0.022911035597149014   -0.0010010275462311708   -0.0003657973383371392
-0.022862837515185357   -0.009864286950357735   -0.00043924295125149376
-0.01756175319992852   -0.009791234794705912   -0.00031006642840450773
-0.022911035597149014   -0.0010010275462311708   -0.0003657973383371392
-0.017635074249030425   -0.0010144686976865606   -0.000237191576051274
-0.01759615764776303   -0.001081272791280407   -0.00024040901265783314
-0.01756175319992852   -0.009791234794705912   -0.00031006642840450773
-0.022911035597149014   -0.0010010275462311708   -0.0003657973383371392
-0.01759615764776303   -0.001081272791280407   -0.00024040901265783314
-0.022862837515185357   -0.009864286950357735   -0.00043924295125149376
-0.01756175319992852   -0.009791234794705912   -0.00031006642840450773
-0.017635074249030425   -0.0010144686976865606   -0.000237191576051274
-0.022911090277077318   -0.009798299227827802   -0.0004298267471249392
-0.017611812613495256   -0.009717162388882355   -0.0002888007933107462
-0.017635074249030425   -0.0010144686976865606   -0.000237191576051274
-0.022911035597149014   -0.0010010275462311708   -0.0003657973383371392
-0.022911090277077318   -0.009798299227827802   -0.0004298267471249392
-0.022945402948280052   -0.0009286367138958264   -0.0003713988746769788
-0.017611812613495256   -0.009717162388882355   -0.0002888007933107462
-0.022954320542342203   -0.009726935483453374   -0.0004188098517274552
-0.022945402948280052   -0.0009286367138958264   -0.0003713988746769788
-0.022911090277077318   -0.009798299227827802   -0.0004298267471249392
-0.017611812613495256   -0.009717162388882355   -0.0002888007933107462
-0.022945402948280052   -0.0009286367138958264   -0.0003713988746769788
-0.017675676303746113   -0.0009401291197565258   -0.00023497472994628526
-0.017635074249030425   -0.0010144686976865606   -0.000237191576051274
-0.017611812613495256   -0.009717162388882355   -0.0002888007933107462
-0.022945402948280052   -0.0009286367138958264   -0.0003713988746769788
-0.017635074249030425   -0.0010144686976865606   -0.000237191576051274
-0.022911090277077318   -0.009798299227827802   -0.0004298267471249392
-0.017611812613495256   -0.009717162388882355   -0.0002888007933107462
-0.017675676303746113   -0.0009401291197565258   -0.00023497472994628526
-0.022954320542342203   -0.009726935483453374   -0.0004188098517274552
-0.017657146387652856   -0.009638303622800506   -0.00026689368255692546
-0.017675676303746113   -0.0009401291197565258   -0.00023497472994628526
-0.022945402948280052   -0.0009286367138958264   -0.0003713988746769788
-0.022954320542342203   -0.009726935483453374   -0.0004188098517274552
-0.02297071951261209   -0.0008498313758036007   -0.0003773573043671757
-0.017657146387652856   -0.009638303622800506   -0.00026689368255692546
-0.022990656740373268   -0.009651371486436433   -0.0004085494896476502
-0.02297071951261209   -0.0008498313758036007   -0.0003773573043671757
-0.022954320542342203   -0.009726935483453374   -0.0004188098517274552
-0.017657146387652856   -0.009638303622800506   -0.00026689368255692546
-0.02297071951261209   -0.0008498313758036007   -0.0003773573043671757
-0.017706505501484667   -0.0008596557536494385   -0.00023393331701608471
-0.017675676303746113   -0.0009401291197565258   -0.00023497472994628526
-0.017657146387652856   -0.009638303622800506   -0.00026689368255692546
-0.02297071951261209   -0.0008498313758036007   -0.0003773573043671757
-0.017675676303746113   -0.0009401291197565258   -0.00023497472994628526
-0.022954320542342203   -0.009726935483453374   -0.0004188098517274552
              </DataArray>   
          </PointData>  
       </Piece>  
   </UnstructuredGrid> 
</VTKFile> 
