<?xml version="1.0"?> 
<VTKFile type="UnstructuredGrid"> 
   <UnstructuredGrid> 
      <Piece NumberOfPoints="6000"  NumberOfCells="1500">  
          <Points>  
             <DataArray type="Float64" NumberOfComponents="3" format="ascii">   
-500.0   0.0   0.0
-450.0   0.0   0.0
-500.0   30.0   0.0
-500.0   0.0   16.666666666666668
-450.0   0.0   0.0
-450.0   30.0   0.0
-500.0   30.0   0.0
-450.0   30.0   16.666666666666668
-500.0   0.0   16.666666666666668
-500.0   30.0   16.666666666666668
-450.0   30.0   16.666666666666668
-500.0   30.0   0.0
-500.0   0.0   16.666666666666668
-450.0   30.0   16.666666666666668
-450.0   0.0   16.666666666666668
-450.0   0.0   0.0
-500.0   0.0   16.666666666666668
-450.0   30.0   16.666666666666668
-450.0   0.0   0.0
-500.0   30.0   0.0
-500.0   0.0   16.666666666666668
-450.0   0.0   16.666666666666668
-500.0   30.0   16.666666666666668
-500.0   0.0   33.333333333333336
-450.0   0.0   16.666666666666668
-450.0   30.0   16.666666666666668
-500.0   30.0   16.666666666666668
-450.0   30.0   33.333333333333336
-500.0   0.0   33.333333333333336
-500.0   30.0   33.333333333333336
-450.0   30.0   33.333333333333336
-500.0   30.0   16.666666666666668
-500.0   0.0   33.333333333333336
-450.0   30.0   33.333333333333336
-450.0   0.0   33.333333333333336
-450.0   0.0   16.666666666666668
-500.0   0.0   33.333333333333336
-450.0   30.0   33.333333333333336
-450.0   0.0   16.666666666666668
-500.0   30.0   16.666666666666668
-500.0   0.0   33.333333333333336
-450.0   0.0   33.333333333333336
-500.0   30.0   33.333333333333336
-500.0   0.0   50.0
-450.0   0.0   33.333333333333336
-450.0   30.0   33.333333333333336
-500.0   30.0   33.333333333333336
-450.0   30.0   50.0
-500.0   0.0   50.0
-500.0   30.0   50.0
-450.0   30.0   50.0
-500.0   30.0   33.333333333333336
-500.0   0.0   50.0
-450.0   30.0   50.0
-450.0   0.0   50.0
-450.0   0.0   33.333333333333336
-500.0   0.0   50.0
-450.0   30.0   50.0
-450.0   0.0   33.333333333333336
-500.0   30.0   33.333333333333336
-500.0   30.0   0.0
-450.0   30.0   0.0
-500.0   60.0   0.0
-500.0   30.0   16.666666666666668
-450.0   30.0   0.0
-450.0   60.0   0.0
-500.0   60.0   0.0
-450.0   60.0   16.666666666666668
-500.0   30.0   16.666666666666668
-500.0   60.0   16.666666666666668
-450.0   60.0   16.666666666666668
-500.0   60.0   0.0
-500.0   30.0   16.666666666666668
-450.0   60.0   16.666666666666668
-450.0   30.0   16.666666666666668
-450.0   30.0   0.0
-500.0   30.0   16.666666666666668
-450.0   60.0   16.666666666666668
-450.0   30.0   0.0
-500.0   60.0   0.0
-500.0   30.0   16.666666666666668
-450.0   30.0   16.666666666666668
-500.0   60.0   16.666666666666668
-500.0   30.0   33.333333333333336
-450.0   30.0   16.666666666666668
-450.0   60.0   16.666666666666668
-500.0   60.0   16.666666666666668
-450.0   60.0   33.333333333333336
-500.0   30.0   33.333333333333336
-500.0   60.0   33.333333333333336
-450.0   60.0   33.333333333333336
-500.0   60.0   16.666666666666668
-500.0   30.0   33.333333333333336
-450.0   60.0   33.333333333333336
-450.0   30.0   33.333333333333336
-450.0   30.0   16.666666666666668
-500.0   30.0   33.333333333333336
-450.0   60.0   33.333333333333336
-450.0   30.0   16.666666666666668
-500.0   60.0   16.666666666666668
-500.0   30.0   33.333333333333336
-450.0   30.0   33.333333333333336
-500.0   60.0   33.333333333333336
-500.0   30.0   50.0
-450.0   30.0   33.333333333333336
-450.0   60.0   33.333333333333336
-500.0   60.0   33.333333333333336
-450.0   60.0   50.0
-500.0   30.0   50.0
-500.0   60.0   50.0
-450.0   60.0   50.0
-500.0   60.0   33.333333333333336
-500.0   30.0   50.0
-450.0   60.0   50.0
-450.0   30.0   50.0
-450.0   30.0   33.333333333333336
-500.0   30.0   50.0
-450.0   60.0   50.0
-450.0   30.0   33.333333333333336
-500.0   60.0   33.333333333333336
-500.0   60.0   0.0
-450.0   60.0   0.0
-500.0   90.0   0.0
-500.0   60.0   16.666666666666668
-450.0   60.0   0.0
-450.0   90.0   0.0
-500.0   90.0   0.0
-450.0   90.0   16.666666666666668
-500.0   60.0   16.666666666666668
-500.0   90.0   16.666666666666668
-450.0   90.0   16.666666666666668
-500.0   90.0   0.0
-500.0   60.0   16.666666666666668
-450.0   90.0   16.666666666666668
-450.0   60.0   16.666666666666668
-450.0   60.0   0.0
-500.0   60.0   16.666666666666668
-450.0   90.0   16.666666666666668
-450.0   60.0   0.0
-500.0   90.0   0.0
-500.0   60.0   16.666666666666668
-450.0   60.0   16.666666666666668
-500.0   90.0   16.666666666666668
-500.0   60.0   33.333333333333336
-450.0   60.0   16.666666666666668
-450.0   90.0   16.666666666666668
-500.0   90.0   16.666666666666668
-450.0   90.0   33.333333333333336
-500.0   60.0   33.333333333333336
-500.0   90.0   33.333333333333336
-450.0   90.0   33.333333333333336
-500.0   90.0   16.666666666666668
-500.0   60.0   33.333333333333336
-450.0   90.0   33.333333333333336
-450.0   60.0   33.333333333333336
-450.0   60.0   16.666666666666668
-500.0   60.0   33.333333333333336
-450.0   90.0   33.333333333333336
-450.0   60.0   16.666666666666668
-500.0   90.0   16.666666666666668
-500.0   60.0   33.333333333333336
-450.0   60.0   33.333333333333336
-500.0   90.0   33.333333333333336
-500.0   60.0   50.0
-450.0   60.0   33.333333333333336
-450.0   90.0   33.333333333333336
-500.0   90.0   33.333333333333336
-450.0   90.0   50.0
-500.0   60.0   50.0
-500.0   90.0   50.0
-450.0   90.0   50.0
-500.0   90.0   33.333333333333336
-500.0   60.0   50.0
-450.0   90.0   50.0
-450.0   60.0   50.0
-450.0   60.0   33.333333333333336
-500.0   60.0   50.0
-450.0   90.0   50.0
-450.0   60.0   33.333333333333336
-500.0   90.0   33.333333333333336
-500.0   90.0   0.0
-450.0   90.0   0.0
-500.0   120.0   0.0
-500.0   90.0   16.666666666666668
-450.0   90.0   0.0
-450.0   120.0   0.0
-500.0   120.0   0.0
-450.0   120.0   16.666666666666668
-500.0   90.0   16.666666666666668
-500.0   120.0   16.666666666666668
-450.0   120.0   16.666666666666668
-500.0   120.0   0.0
-500.0   90.0   16.666666666666668
-450.0   120.0   16.666666666666668
-450.0   90.0   16.666666666666668
-450.0   90.0   0.0
-500.0   90.0   16.666666666666668
-450.0   120.0   16.666666666666668
-450.0   90.0   0.0
-500.0   120.0   0.0
-500.0   90.0   16.666666666666668
-450.0   90.0   16.666666666666668
-500.0   120.0   16.666666666666668
-500.0   90.0   33.333333333333336
-450.0   90.0   16.666666666666668
-450.0   120.0   16.666666666666668
-500.0   120.0   16.666666666666668
-450.0   120.0   33.333333333333336
-500.0   90.0   33.333333333333336
-500.0   120.0   33.333333333333336
-450.0   120.0   33.333333333333336
-500.0   120.0   16.666666666666668
-500.0   90.0   33.333333333333336
-450.0   120.0   33.333333333333336
-450.0   90.0   33.333333333333336
-450.0   90.0   16.666666666666668
-500.0   90.0   33.333333333333336
-450.0   120.0   33.333333333333336
-450.0   90.0   16.666666666666668
-500.0   120.0   16.666666666666668
-500.0   90.0   33.333333333333336
-450.0   90.0   33.333333333333336
-500.0   120.0   33.333333333333336
-500.0   90.0   50.0
-450.0   90.0   33.333333333333336
-450.0   120.0   33.333333333333336
-500.0   120.0   33.333333333333336
-450.0   120.0   50.0
-500.0   90.0   50.0
-500.0   120.0   50.0
-450.0   120.0   50.0
-500.0   120.0   33.333333333333336
-500.0   90.0   50.0
-450.0   120.0   50.0
-450.0   90.0   50.0
-450.0   90.0   33.333333333333336
-500.0   90.0   50.0
-450.0   120.0   50.0
-450.0   90.0   33.333333333333336
-500.0   120.0   33.333333333333336
-500.0   120.0   0.0
-450.0   120.0   0.0
-500.0   150.0   0.0
-500.0   120.0   16.666666666666668
-450.0   120.0   0.0
-450.0   150.0   0.0
-500.0   150.0   0.0
-450.0   150.0   16.666666666666668
-500.0   120.0   16.666666666666668
-500.0   150.0   16.666666666666668
-450.0   150.0   16.666666666666668
-500.0   150.0   0.0
-500.0   120.0   16.666666666666668
-450.0   150.0   16.666666666666668
-450.0   120.0   16.666666666666668
-450.0   120.0   0.0
-500.0   120.0   16.666666666666668
-450.0   150.0   16.666666666666668
-450.0   120.0   0.0
-500.0   150.0   0.0
-500.0   120.0   16.666666666666668
-450.0   120.0   16.666666666666668
-500.0   150.0   16.666666666666668
-500.0   120.0   33.333333333333336
-450.0   120.0   16.666666666666668
-450.0   150.0   16.666666666666668
-500.0   150.0   16.666666666666668
-450.0   150.0   33.333333333333336
-500.0   120.0   33.333333333333336
-500.0   150.0   33.333333333333336
-450.0   150.0   33.333333333333336
-500.0   150.0   16.666666666666668
-500.0   120.0   33.333333333333336
-450.0   150.0   33.333333333333336
-450.0   120.0   33.333333333333336
-450.0   120.0   16.666666666666668
-500.0   120.0   33.333333333333336
-450.0   150.0   33.333333333333336
-450.0   120.0   16.666666666666668
-500.0   150.0   16.666666666666668
-500.0   120.0   33.333333333333336
-450.0   120.0   33.333333333333336
-500.0   150.0   33.333333333333336
-500.0   120.0   50.0
-450.0   120.0   33.333333333333336
-450.0   150.0   33.333333333333336
-500.0   150.0   33.333333333333336
-450.0   150.0   50.0
-500.0   120.0   50.0
-500.0   150.0   50.0
-450.0   150.0   50.0
-500.0   150.0   33.333333333333336
-500.0   120.0   50.0
-450.0   150.0   50.0
-450.0   120.0   50.0
-450.0   120.0   33.333333333333336
-500.0   120.0   50.0
-450.0   150.0   50.0
-450.0   120.0   33.333333333333336
-500.0   150.0   33.333333333333336
-450.0   0.0   0.0
-400.0   0.0   0.0
-450.0   30.0   0.0
-450.0   0.0   16.666666666666668
-400.0   0.0   0.0
-400.0   30.0   0.0
-450.0   30.0   0.0
-400.0   30.0   16.666666666666668
-450.0   0.0   16.666666666666668
-450.0   30.0   16.666666666666668
-400.0   30.0   16.666666666666668
-450.0   30.0   0.0
-450.0   0.0   16.666666666666668
-400.0   30.0   16.666666666666668
-400.0   0.0   16.666666666666668
-400.0   0.0   0.0
-450.0   0.0   16.666666666666668
-400.0   30.0   16.666666666666668
-400.0   0.0   0.0
-450.0   30.0   0.0
-450.0   0.0   16.666666666666668
-400.0   0.0   16.666666666666668
-450.0   30.0   16.666666666666668
-450.0   0.0   33.333333333333336
-400.0   0.0   16.666666666666668
-400.0   30.0   16.666666666666668
-450.0   30.0   16.666666666666668
-400.0   30.0   33.333333333333336
-450.0   0.0   33.333333333333336
-450.0   30.0   33.333333333333336
-400.0   30.0   33.333333333333336
-450.0   30.0   16.666666666666668
-450.0   0.0   33.333333333333336
-400.0   30.0   33.333333333333336
-400.0   0.0   33.333333333333336
-400.0   0.0   16.666666666666668
-450.0   0.0   33.333333333333336
-400.0   30.0   33.333333333333336
-400.0   0.0   16.666666666666668
-450.0   30.0   16.666666666666668
-450.0   0.0   33.333333333333336
-400.0   0.0   33.333333333333336
-450.0   30.0   33.333333333333336
-450.0   0.0   50.0
-400.0   0.0   33.333333333333336
-400.0   30.0   33.333333333333336
-450.0   30.0   33.333333333333336
-400.0   30.0   50.0
-450.0   0.0   50.0
-450.0   30.0   50.0
-400.0   30.0   50.0
-450.0   30.0   33.333333333333336
-450.0   0.0   50.0
-400.0   30.0   50.0
-400.0   0.0   50.0
-400.0   0.0   33.333333333333336
-450.0   0.0   50.0
-400.0   30.0   50.0
-400.0   0.0   33.333333333333336
-450.0   30.0   33.333333333333336
-450.0   30.0   0.0
-400.0   30.0   0.0
-450.0   60.0   0.0
-450.0   30.0   16.666666666666668
-400.0   30.0   0.0
-400.0   60.0   0.0
-450.0   60.0   0.0
-400.0   60.0   16.666666666666668
-450.0   30.0   16.666666666666668
-450.0   60.0   16.666666666666668
-400.0   60.0   16.666666666666668
-450.0   60.0   0.0
-450.0   30.0   16.666666666666668
-400.0   60.0   16.666666666666668
-400.0   30.0   16.666666666666668
-400.0   30.0   0.0
-450.0   30.0   16.666666666666668
-400.0   60.0   16.666666666666668
-400.0   30.0   0.0
-450.0   60.0   0.0
-450.0   30.0   16.666666666666668
-400.0   30.0   16.666666666666668
-450.0   60.0   16.666666666666668
-450.0   30.0   33.333333333333336
-400.0   30.0   16.666666666666668
-400.0   60.0   16.666666666666668
-450.0   60.0   16.666666666666668
-400.0   60.0   33.333333333333336
-450.0   30.0   33.333333333333336
-450.0   60.0   33.333333333333336
-400.0   60.0   33.333333333333336
-450.0   60.0   16.666666666666668
-450.0   30.0   33.333333333333336
-400.0   60.0   33.333333333333336
-400.0   30.0   33.333333333333336
-400.0   30.0   16.666666666666668
-450.0   30.0   33.333333333333336
-400.0   60.0   33.333333333333336
-400.0   30.0   16.666666666666668
-450.0   60.0   16.666666666666668
-450.0   30.0   33.333333333333336
-400.0   30.0   33.333333333333336
-450.0   60.0   33.333333333333336
-450.0   30.0   50.0
-400.0   30.0   33.333333333333336
-400.0   60.0   33.333333333333336
-450.0   60.0   33.333333333333336
-400.0   60.0   50.0
-450.0   30.0   50.0
-450.0   60.0   50.0
-400.0   60.0   50.0
-450.0   60.0   33.333333333333336
-450.0   30.0   50.0
-400.0   60.0   50.0
-400.0   30.0   50.0
-400.0   30.0   33.333333333333336
-450.0   30.0   50.0
-400.0   60.0   50.0
-400.0   30.0   33.333333333333336
-450.0   60.0   33.333333333333336
-450.0   60.0   0.0
-400.0   60.0   0.0
-450.0   90.0   0.0
-450.0   60.0   16.666666666666668
-400.0   60.0   0.0
-400.0   90.0   0.0
-450.0   90.0   0.0
-400.0   90.0   16.666666666666668
-450.0   60.0   16.666666666666668
-450.0   90.0   16.666666666666668
-400.0   90.0   16.666666666666668
-450.0   90.0   0.0
-450.0   60.0   16.666666666666668
-400.0   90.0   16.666666666666668
-400.0   60.0   16.666666666666668
-400.0   60.0   0.0
-450.0   60.0   16.666666666666668
-400.0   90.0   16.666666666666668
-400.0   60.0   0.0
-450.0   90.0   0.0
-450.0   60.0   16.666666666666668
-400.0   60.0   16.666666666666668
-450.0   90.0   16.666666666666668
-450.0   60.0   33.333333333333336
-400.0   60.0   16.666666666666668
-400.0   90.0   16.666666666666668
-450.0   90.0   16.666666666666668
-400.0   90.0   33.333333333333336
-450.0   60.0   33.333333333333336
-450.0   90.0   33.333333333333336
-400.0   90.0   33.333333333333336
-450.0   90.0   16.666666666666668
-450.0   60.0   33.333333333333336
-400.0   90.0   33.333333333333336
-400.0   60.0   33.333333333333336
-400.0   60.0   16.666666666666668
-450.0   60.0   33.333333333333336
-400.0   90.0   33.333333333333336
-400.0   60.0   16.666666666666668
-450.0   90.0   16.666666666666668
-450.0   60.0   33.333333333333336
-400.0   60.0   33.333333333333336
-450.0   90.0   33.333333333333336
-450.0   60.0   50.0
-400.0   60.0   33.333333333333336
-400.0   90.0   33.333333333333336
-450.0   90.0   33.333333333333336
-400.0   90.0   50.0
-450.0   60.0   50.0
-450.0   90.0   50.0
-400.0   90.0   50.0
-450.0   90.0   33.333333333333336
-450.0   60.0   50.0
-400.0   90.0   50.0
-400.0   60.0   50.0
-400.0   60.0   33.333333333333336
-450.0   60.0   50.0
-400.0   90.0   50.0
-400.0   60.0   33.333333333333336
-450.0   90.0   33.333333333333336
-450.0   90.0   0.0
-400.0   90.0   0.0
-450.0   120.0   0.0
-450.0   90.0   16.666666666666668
-400.0   90.0   0.0
-400.0   120.0   0.0
-450.0   120.0   0.0
-400.0   120.0   16.666666666666668
-450.0   90.0   16.666666666666668
-450.0   120.0   16.666666666666668
-400.0   120.0   16.666666666666668
-450.0   120.0   0.0
-450.0   90.0   16.666666666666668
-400.0   120.0   16.666666666666668
-400.0   90.0   16.666666666666668
-400.0   90.0   0.0
-450.0   90.0   16.666666666666668
-400.0   120.0   16.666666666666668
-400.0   90.0   0.0
-450.0   120.0   0.0
-450.0   90.0   16.666666666666668
-400.0   90.0   16.666666666666668
-450.0   120.0   16.666666666666668
-450.0   90.0   33.333333333333336
-400.0   90.0   16.666666666666668
-400.0   120.0   16.666666666666668
-450.0   120.0   16.666666666666668
-400.0   120.0   33.333333333333336
-450.0   90.0   33.333333333333336
-450.0   120.0   33.333333333333336
-400.0   120.0   33.333333333333336
-450.0   120.0   16.666666666666668
-450.0   90.0   33.333333333333336
-400.0   120.0   33.333333333333336
-400.0   90.0   33.333333333333336
-400.0   90.0   16.666666666666668
-450.0   90.0   33.333333333333336
-400.0   120.0   33.333333333333336
-400.0   90.0   16.666666666666668
-450.0   120.0   16.666666666666668
-450.0   90.0   33.333333333333336
-400.0   90.0   33.333333333333336
-450.0   120.0   33.333333333333336
-450.0   90.0   50.0
-400.0   90.0   33.333333333333336
-400.0   120.0   33.333333333333336
-450.0   120.0   33.333333333333336
-400.0   120.0   50.0
-450.0   90.0   50.0
-450.0   120.0   50.0
-400.0   120.0   50.0
-450.0   120.0   33.333333333333336
-450.0   90.0   50.0
-400.0   120.0   50.0
-400.0   90.0   50.0
-400.0   90.0   33.333333333333336
-450.0   90.0   50.0
-400.0   120.0   50.0
-400.0   90.0   33.333333333333336
-450.0   120.0   33.333333333333336
-450.0   120.0   0.0
-400.0   120.0   0.0
-450.0   150.0   0.0
-450.0   120.0   16.666666666666668
-400.0   120.0   0.0
-400.0   150.0   0.0
-450.0   150.0   0.0
-400.0   150.0   16.666666666666668
-450.0   120.0   16.666666666666668
-450.0   150.0   16.666666666666668
-400.0   150.0   16.666666666666668
-450.0   150.0   0.0
-450.0   120.0   16.666666666666668
-400.0   150.0   16.666666666666668
-400.0   120.0   16.666666666666668
-400.0   120.0   0.0
-450.0   120.0   16.666666666666668
-400.0   150.0   16.666666666666668
-400.0   120.0   0.0
-450.0   150.0   0.0
-450.0   120.0   16.666666666666668
-400.0   120.0   16.666666666666668
-450.0   150.0   16.666666666666668
-450.0   120.0   33.333333333333336
-400.0   120.0   16.666666666666668
-400.0   150.0   16.666666666666668
-450.0   150.0   16.666666666666668
-400.0   150.0   33.333333333333336
-450.0   120.0   33.333333333333336
-450.0   150.0   33.333333333333336
-400.0   150.0   33.333333333333336
-450.0   150.0   16.666666666666668
-450.0   120.0   33.333333333333336
-400.0   150.0   33.333333333333336
-400.0   120.0   33.333333333333336
-400.0   120.0   16.666666666666668
-450.0   120.0   33.333333333333336
-400.0   150.0   33.333333333333336
-400.0   120.0   16.666666666666668
-450.0   150.0   16.666666666666668
-450.0   120.0   33.333333333333336
-400.0   120.0   33.333333333333336
-450.0   150.0   33.333333333333336
-450.0   120.0   50.0
-400.0   120.0   33.333333333333336
-400.0   150.0   33.333333333333336
-450.0   150.0   33.333333333333336
-400.0   150.0   50.0
-450.0   120.0   50.0
-450.0   150.0   50.0
-400.0   150.0   50.0
-450.0   150.0   33.333333333333336
-450.0   120.0   50.0
-400.0   150.0   50.0
-400.0   120.0   50.0
-400.0   120.0   33.333333333333336
-450.0   120.0   50.0
-400.0   150.0   50.0
-400.0   120.0   33.333333333333336
-450.0   150.0   33.333333333333336
-400.0   0.0   0.0
-350.0   0.0   0.0
-400.0   30.0   0.0
-400.0   0.0   16.666666666666668
-350.0   0.0   0.0
-350.0   30.0   0.0
-400.0   30.0   0.0
-350.0   30.0   16.666666666666668
-400.0   0.0   16.666666666666668
-400.0   30.0   16.666666666666668
-350.0   30.0   16.666666666666668
-400.0   30.0   0.0
-400.0   0.0   16.666666666666668
-350.0   30.0   16.666666666666668
-350.0   0.0   16.666666666666668
-350.0   0.0   0.0
-400.0   0.0   16.666666666666668
-350.0   30.0   16.666666666666668
-350.0   0.0   0.0
-400.0   30.0   0.0
-400.0   0.0   16.666666666666668
-350.0   0.0   16.666666666666668
-400.0   30.0   16.666666666666668
-400.0   0.0   33.333333333333336
-350.0   0.0   16.666666666666668
-350.0   30.0   16.666666666666668
-400.0   30.0   16.666666666666668
-350.0   30.0   33.333333333333336
-400.0   0.0   33.333333333333336
-400.0   30.0   33.333333333333336
-350.0   30.0   33.333333333333336
-400.0   30.0   16.666666666666668
-400.0   0.0   33.333333333333336
-350.0   30.0   33.333333333333336
-350.0   0.0   33.333333333333336
-350.0   0.0   16.666666666666668
-400.0   0.0   33.333333333333336
-350.0   30.0   33.333333333333336
-350.0   0.0   16.666666666666668
-400.0   30.0   16.666666666666668
-400.0   0.0   33.333333333333336
-350.0   0.0   33.333333333333336
-400.0   30.0   33.333333333333336
-400.0   0.0   50.0
-350.0   0.0   33.333333333333336
-350.0   30.0   33.333333333333336
-400.0   30.0   33.333333333333336
-350.0   30.0   50.0
-400.0   0.0   50.0
-400.0   30.0   50.0
-350.0   30.0   50.0
-400.0   30.0   33.333333333333336
-400.0   0.0   50.0
-350.0   30.0   50.0
-350.0   0.0   50.0
-350.0   0.0   33.333333333333336
-400.0   0.0   50.0
-350.0   30.0   50.0
-350.0   0.0   33.333333333333336
-400.0   30.0   33.333333333333336
-400.0   30.0   0.0
-350.0   30.0   0.0
-400.0   60.0   0.0
-400.0   30.0   16.666666666666668
-350.0   30.0   0.0
-350.0   60.0   0.0
-400.0   60.0   0.0
-350.0   60.0   16.666666666666668
-400.0   30.0   16.666666666666668
-400.0   60.0   16.666666666666668
-350.0   60.0   16.666666666666668
-400.0   60.0   0.0
-400.0   30.0   16.666666666666668
-350.0   60.0   16.666666666666668
-350.0   30.0   16.666666666666668
-350.0   30.0   0.0
-400.0   30.0   16.666666666666668
-350.0   60.0   16.666666666666668
-350.0   30.0   0.0
-400.0   60.0   0.0
-400.0   30.0   16.666666666666668
-350.0   30.0   16.666666666666668
-400.0   60.0   16.666666666666668
-400.0   30.0   33.333333333333336
-350.0   30.0   16.666666666666668
-350.0   60.0   16.666666666666668
-400.0   60.0   16.666666666666668
-350.0   60.0   33.333333333333336
-400.0   30.0   33.333333333333336
-400.0   60.0   33.333333333333336
-350.0   60.0   33.333333333333336
-400.0   60.0   16.666666666666668
-400.0   30.0   33.333333333333336
-350.0   60.0   33.333333333333336
-350.0   30.0   33.333333333333336
-350.0   30.0   16.666666666666668
-400.0   30.0   33.333333333333336
-350.0   60.0   33.333333333333336
-350.0   30.0   16.666666666666668
-400.0   60.0   16.666666666666668
-400.0   30.0   33.333333333333336
-350.0   30.0   33.333333333333336
-400.0   60.0   33.333333333333336
-400.0   30.0   50.0
-350.0   30.0   33.333333333333336
-350.0   60.0   33.333333333333336
-400.0   60.0   33.333333333333336
-350.0   60.0   50.0
-400.0   30.0   50.0
-400.0   60.0   50.0
-350.0   60.0   50.0
-400.0   60.0   33.333333333333336
-400.0   30.0   50.0
-350.0   60.0   50.0
-350.0   30.0   50.0
-350.0   30.0   33.333333333333336
-400.0   30.0   50.0
-350.0   60.0   50.0
-350.0   30.0   33.333333333333336
-400.0   60.0   33.333333333333336
-400.0   60.0   0.0
-350.0   60.0   0.0
-400.0   90.0   0.0
-400.0   60.0   16.666666666666668
-350.0   60.0   0.0
-350.0   90.0   0.0
-400.0   90.0   0.0
-350.0   90.0   16.666666666666668
-400.0   60.0   16.666666666666668
-400.0   90.0   16.666666666666668
-350.0   90.0   16.666666666666668
-400.0   90.0   0.0
-400.0   60.0   16.666666666666668
-350.0   90.0   16.666666666666668
-350.0   60.0   16.666666666666668
-350.0   60.0   0.0
-400.0   60.0   16.666666666666668
-350.0   90.0   16.666666666666668
-350.0   60.0   0.0
-400.0   90.0   0.0
-400.0   60.0   16.666666666666668
-350.0   60.0   16.666666666666668
-400.0   90.0   16.666666666666668
-400.0   60.0   33.333333333333336
-350.0   60.0   16.666666666666668
-350.0   90.0   16.666666666666668
-400.0   90.0   16.666666666666668
-350.0   90.0   33.333333333333336
-400.0   60.0   33.333333333333336
-400.0   90.0   33.333333333333336
-350.0   90.0   33.333333333333336
-400.0   90.0   16.666666666666668
-400.0   60.0   33.333333333333336
-350.0   90.0   33.333333333333336
-350.0   60.0   33.333333333333336
-350.0   60.0   16.666666666666668
-400.0   60.0   33.333333333333336
-350.0   90.0   33.333333333333336
-350.0   60.0   16.666666666666668
-400.0   90.0   16.666666666666668
-400.0   60.0   33.333333333333336
-350.0   60.0   33.333333333333336
-400.0   90.0   33.333333333333336
-400.0   60.0   50.0
-350.0   60.0   33.333333333333336
-350.0   90.0   33.333333333333336
-400.0   90.0   33.333333333333336
-350.0   90.0   50.0
-400.0   60.0   50.0
-400.0   90.0   50.0
-350.0   90.0   50.0
-400.0   90.0   33.333333333333336
-400.0   60.0   50.0
-350.0   90.0   50.0
-350.0   60.0   50.0
-350.0   60.0   33.333333333333336
-400.0   60.0   50.0
-350.0   90.0   50.0
-350.0   60.0   33.333333333333336
-400.0   90.0   33.333333333333336
-400.0   90.0   0.0
-350.0   90.0   0.0
-400.0   120.0   0.0
-400.0   90.0   16.666666666666668
-350.0   90.0   0.0
-350.0   120.0   0.0
-400.0   120.0   0.0
-350.0   120.0   16.666666666666668
-400.0   90.0   16.666666666666668
-400.0   120.0   16.666666666666668
-350.0   120.0   16.666666666666668
-400.0   120.0   0.0
-400.0   90.0   16.666666666666668
-350.0   120.0   16.666666666666668
-350.0   90.0   16.666666666666668
-350.0   90.0   0.0
-400.0   90.0   16.666666666666668
-350.0   120.0   16.666666666666668
-350.0   90.0   0.0
-400.0   120.0   0.0
-400.0   90.0   16.666666666666668
-350.0   90.0   16.666666666666668
-400.0   120.0   16.666666666666668
-400.0   90.0   33.333333333333336
-350.0   90.0   16.666666666666668
-350.0   120.0   16.666666666666668
-400.0   120.0   16.666666666666668
-350.0   120.0   33.333333333333336
-400.0   90.0   33.333333333333336
-400.0   120.0   33.333333333333336
-350.0   120.0   33.333333333333336
-400.0   120.0   16.666666666666668
-400.0   90.0   33.333333333333336
-350.0   120.0   33.333333333333336
-350.0   90.0   33.333333333333336
-350.0   90.0   16.666666666666668
-400.0   90.0   33.333333333333336
-350.0   120.0   33.333333333333336
-350.0   90.0   16.666666666666668
-400.0   120.0   16.666666666666668
-400.0   90.0   33.333333333333336
-350.0   90.0   33.333333333333336
-400.0   120.0   33.333333333333336
-400.0   90.0   50.0
-350.0   90.0   33.333333333333336
-350.0   120.0   33.333333333333336
-400.0   120.0   33.333333333333336
-350.0   120.0   50.0
-400.0   90.0   50.0
-400.0   120.0   50.0
-350.0   120.0   50.0
-400.0   120.0   33.333333333333336
-400.0   90.0   50.0
-350.0   120.0   50.0
-350.0   90.0   50.0
-350.0   90.0   33.333333333333336
-400.0   90.0   50.0
-350.0   120.0   50.0
-350.0   90.0   33.333333333333336
-400.0   120.0   33.333333333333336
-400.0   120.0   0.0
-350.0   120.0   0.0
-400.0   150.0   0.0
-400.0   120.0   16.666666666666668
-350.0   120.0   0.0
-350.0   150.0   0.0
-400.0   150.0   0.0
-350.0   150.0   16.666666666666668
-400.0   120.0   16.666666666666668
-400.0   150.0   16.666666666666668
-350.0   150.0   16.666666666666668
-400.0   150.0   0.0
-400.0   120.0   16.666666666666668
-350.0   150.0   16.666666666666668
-350.0   120.0   16.666666666666668
-350.0   120.0   0.0
-400.0   120.0   16.666666666666668
-350.0   150.0   16.666666666666668
-350.0   120.0   0.0
-400.0   150.0   0.0
-400.0   120.0   16.666666666666668
-350.0   120.0   16.666666666666668
-400.0   150.0   16.666666666666668
-400.0   120.0   33.333333333333336
-350.0   120.0   16.666666666666668
-350.0   150.0   16.666666666666668
-400.0   150.0   16.666666666666668
-350.0   150.0   33.333333333333336
-400.0   120.0   33.333333333333336
-400.0   150.0   33.333333333333336
-350.0   150.0   33.333333333333336
-400.0   150.0   16.666666666666668
-400.0   120.0   33.333333333333336
-350.0   150.0   33.333333333333336
-350.0   120.0   33.333333333333336
-350.0   120.0   16.666666666666668
-400.0   120.0   33.333333333333336
-350.0   150.0   33.333333333333336
-350.0   120.0   16.666666666666668
-400.0   150.0   16.666666666666668
-400.0   120.0   33.333333333333336
-350.0   120.0   33.333333333333336
-400.0   150.0   33.333333333333336
-400.0   120.0   50.0
-350.0   120.0   33.333333333333336
-350.0   150.0   33.333333333333336
-400.0   150.0   33.333333333333336
-350.0   150.0   50.0
-400.0   120.0   50.0
-400.0   150.0   50.0
-350.0   150.0   50.0
-400.0   150.0   33.333333333333336
-400.0   120.0   50.0
-350.0   150.0   50.0
-350.0   120.0   50.0
-350.0   120.0   33.333333333333336
-400.0   120.0   50.0
-350.0   150.0   50.0
-350.0   120.0   33.333333333333336
-400.0   150.0   33.333333333333336
-350.0   0.0   0.0
-300.0   0.0   0.0
-350.0   30.0   0.0
-350.0   0.0   16.666666666666668
-300.0   0.0   0.0
-300.0   30.0   0.0
-350.0   30.0   0.0
-300.0   30.0   16.666666666666668
-350.0   0.0   16.666666666666668
-350.0   30.0   16.666666666666668
-300.0   30.0   16.666666666666668
-350.0   30.0   0.0
-350.0   0.0   16.666666666666668
-300.0   30.0   16.666666666666668
-300.0   0.0   16.666666666666668
-300.0   0.0   0.0
-350.0   0.0   16.666666666666668
-300.0   30.0   16.666666666666668
-300.0   0.0   0.0
-350.0   30.0   0.0
-350.0   0.0   16.666666666666668
-300.0   0.0   16.666666666666668
-350.0   30.0   16.666666666666668
-350.0   0.0   33.333333333333336
-300.0   0.0   16.666666666666668
-300.0   30.0   16.666666666666668
-350.0   30.0   16.666666666666668
-300.0   30.0   33.333333333333336
-350.0   0.0   33.333333333333336
-350.0   30.0   33.333333333333336
-300.0   30.0   33.333333333333336
-350.0   30.0   16.666666666666668
-350.0   0.0   33.333333333333336
-300.0   30.0   33.333333333333336
-300.0   0.0   33.333333333333336
-300.0   0.0   16.666666666666668
-350.0   0.0   33.333333333333336
-300.0   30.0   33.333333333333336
-300.0   0.0   16.666666666666668
-350.0   30.0   16.666666666666668
-350.0   0.0   33.333333333333336
-300.0   0.0   33.333333333333336
-350.0   30.0   33.333333333333336
-350.0   0.0   50.0
-300.0   0.0   33.333333333333336
-300.0   30.0   33.333333333333336
-350.0   30.0   33.333333333333336
-300.0   30.0   50.0
-350.0   0.0   50.0
-350.0   30.0   50.0
-300.0   30.0   50.0
-350.0   30.0   33.333333333333336
-350.0   0.0   50.0
-300.0   30.0   50.0
-300.0   0.0   50.0
-300.0   0.0   33.333333333333336
-350.0   0.0   50.0
-300.0   30.0   50.0
-300.0   0.0   33.333333333333336
-350.0   30.0   33.333333333333336
-350.0   30.0   0.0
-300.0   30.0   0.0
-350.0   60.0   0.0
-350.0   30.0   16.666666666666668
-300.0   30.0   0.0
-300.0   60.0   0.0
-350.0   60.0   0.0
-300.0   60.0   16.666666666666668
-350.0   30.0   16.666666666666668
-350.0   60.0   16.666666666666668
-300.0   60.0   16.666666666666668
-350.0   60.0   0.0
-350.0   30.0   16.666666666666668
-300.0   60.0   16.666666666666668
-300.0   30.0   16.666666666666668
-300.0   30.0   0.0
-350.0   30.0   16.666666666666668
-300.0   60.0   16.666666666666668
-300.0   30.0   0.0
-350.0   60.0   0.0
-350.0   30.0   16.666666666666668
-300.0   30.0   16.666666666666668
-350.0   60.0   16.666666666666668
-350.0   30.0   33.333333333333336
-300.0   30.0   16.666666666666668
-300.0   60.0   16.666666666666668
-350.0   60.0   16.666666666666668
-300.0   60.0   33.333333333333336
-350.0   30.0   33.333333333333336
-350.0   60.0   33.333333333333336
-300.0   60.0   33.333333333333336
-350.0   60.0   16.666666666666668
-350.0   30.0   33.333333333333336
-300.0   60.0   33.333333333333336
-300.0   30.0   33.333333333333336
-300.0   30.0   16.666666666666668
-350.0   30.0   33.333333333333336
-300.0   60.0   33.333333333333336
-300.0   30.0   16.666666666666668
-350.0   60.0   16.666666666666668
-350.0   30.0   33.333333333333336
-300.0   30.0   33.333333333333336
-350.0   60.0   33.333333333333336
-350.0   30.0   50.0
-300.0   30.0   33.333333333333336
-300.0   60.0   33.333333333333336
-350.0   60.0   33.333333333333336
-300.0   60.0   50.0
-350.0   30.0   50.0
-350.0   60.0   50.0
-300.0   60.0   50.0
-350.0   60.0   33.333333333333336
-350.0   30.0   50.0
-300.0   60.0   50.0
-300.0   30.0   50.0
-300.0   30.0   33.333333333333336
-350.0   30.0   50.0
-300.0   60.0   50.0
-300.0   30.0   33.333333333333336
-350.0   60.0   33.333333333333336
-350.0   60.0   0.0
-300.0   60.0   0.0
-350.0   90.0   0.0
-350.0   60.0   16.666666666666668
-300.0   60.0   0.0
-300.0   90.0   0.0
-350.0   90.0   0.0
-300.0   90.0   16.666666666666668
-350.0   60.0   16.666666666666668
-350.0   90.0   16.666666666666668
-300.0   90.0   16.666666666666668
-350.0   90.0   0.0
-350.0   60.0   16.666666666666668
-300.0   90.0   16.666666666666668
-300.0   60.0   16.666666666666668
-300.0   60.0   0.0
-350.0   60.0   16.666666666666668
-300.0   90.0   16.666666666666668
-300.0   60.0   0.0
-350.0   90.0   0.0
-350.0   60.0   16.666666666666668
-300.0   60.0   16.666666666666668
-350.0   90.0   16.666666666666668
-350.0   60.0   33.333333333333336
-300.0   60.0   16.666666666666668
-300.0   90.0   16.666666666666668
-350.0   90.0   16.666666666666668
-300.0   90.0   33.333333333333336
-350.0   60.0   33.333333333333336
-350.0   90.0   33.333333333333336
-300.0   90.0   33.333333333333336
-350.0   90.0   16.666666666666668
-350.0   60.0   33.333333333333336
-300.0   90.0   33.333333333333336
-300.0   60.0   33.333333333333336
-300.0   60.0   16.666666666666668
-350.0   60.0   33.333333333333336
-300.0   90.0   33.333333333333336
-300.0   60.0   16.666666666666668
-350.0   90.0   16.666666666666668
-350.0   60.0   33.333333333333336
-300.0   60.0   33.333333333333336
-350.0   90.0   33.333333333333336
-350.0   60.0   50.0
-300.0   60.0   33.333333333333336
-300.0   90.0   33.333333333333336
-350.0   90.0   33.333333333333336
-300.0   90.0   50.0
-350.0   60.0   50.0
-350.0   90.0   50.0
-300.0   90.0   50.0
-350.0   90.0   33.333333333333336
-350.0   60.0   50.0
-300.0   90.0   50.0
-300.0   60.0   50.0
-300.0   60.0   33.333333333333336
-350.0   60.0   50.0
-300.0   90.0   50.0
-300.0   60.0   33.333333333333336
-350.0   90.0   33.333333333333336
-350.0   90.0   0.0
-300.0   90.0   0.0
-350.0   120.0   0.0
-350.0   90.0   16.666666666666668
-300.0   90.0   0.0
-300.0   120.0   0.0
-350.0   120.0   0.0
-300.0   120.0   16.666666666666668
-350.0   90.0   16.666666666666668
-350.0   120.0   16.666666666666668
-300.0   120.0   16.666666666666668
-350.0   120.0   0.0
-350.0   90.0   16.666666666666668
-300.0   120.0   16.666666666666668
-300.0   90.0   16.666666666666668
-300.0   90.0   0.0
-350.0   90.0   16.666666666666668
-300.0   120.0   16.666666666666668
-300.0   90.0   0.0
-350.0   120.0   0.0
-350.0   90.0   16.666666666666668
-300.0   90.0   16.666666666666668
-350.0   120.0   16.666666666666668
-350.0   90.0   33.333333333333336
-300.0   90.0   16.666666666666668
-300.0   120.0   16.666666666666668
-350.0   120.0   16.666666666666668
-300.0   120.0   33.333333333333336
-350.0   90.0   33.333333333333336
-350.0   120.0   33.333333333333336
-300.0   120.0   33.333333333333336
-350.0   120.0   16.666666666666668
-350.0   90.0   33.333333333333336
-300.0   120.0   33.333333333333336
-300.0   90.0   33.333333333333336
-300.0   90.0   16.666666666666668
-350.0   90.0   33.333333333333336
-300.0   120.0   33.333333333333336
-300.0   90.0   16.666666666666668
-350.0   120.0   16.666666666666668
-350.0   90.0   33.333333333333336
-300.0   90.0   33.333333333333336
-350.0   120.0   33.333333333333336
-350.0   90.0   50.0
-300.0   90.0   33.333333333333336
-300.0   120.0   33.333333333333336
-350.0   120.0   33.333333333333336
-300.0   120.0   50.0
-350.0   90.0   50.0
-350.0   120.0   50.0
-300.0   120.0   50.0
-350.0   120.0   33.333333333333336
-350.0   90.0   50.0
-300.0   120.0   50.0
-300.0   90.0   50.0
-300.0   90.0   33.333333333333336
-350.0   90.0   50.0
-300.0   120.0   50.0
-300.0   90.0   33.333333333333336
-350.0   120.0   33.333333333333336
-350.0   120.0   0.0
-300.0   120.0   0.0
-350.0   150.0   0.0
-350.0   120.0   16.666666666666668
-300.0   120.0   0.0
-300.0   150.0   0.0
-350.0   150.0   0.0
-300.0   150.0   16.666666666666668
-350.0   120.0   16.666666666666668
-350.0   150.0   16.666666666666668
-300.0   150.0   16.666666666666668
-350.0   150.0   0.0
-350.0   120.0   16.666666666666668
-300.0   150.0   16.666666666666668
-300.0   120.0   16.666666666666668
-300.0   120.0   0.0
-350.0   120.0   16.666666666666668
-300.0   150.0   16.666666666666668
-300.0   120.0   0.0
-350.0   150.0   0.0
-350.0   120.0   16.666666666666668
-300.0   120.0   16.666666666666668
-350.0   150.0   16.666666666666668
-350.0   120.0   33.333333333333336
-300.0   120.0   16.666666666666668
-300.0   150.0   16.666666666666668
-350.0   150.0   16.666666666666668
-300.0   150.0   33.333333333333336
-350.0   120.0   33.333333333333336
-350.0   150.0   33.333333333333336
-300.0   150.0   33.333333333333336
-350.0   150.0   16.666666666666668
-350.0   120.0   33.333333333333336
-300.0   150.0   33.333333333333336
-300.0   120.0   33.333333333333336
-300.0   120.0   16.666666666666668
-350.0   120.0   33.333333333333336
-300.0   150.0   33.333333333333336
-300.0   120.0   16.666666666666668
-350.0   150.0   16.666666666666668
-350.0   120.0   33.333333333333336
-300.0   120.0   33.333333333333336
-350.0   150.0   33.333333333333336
-350.0   120.0   50.0
-300.0   120.0   33.333333333333336
-300.0   150.0   33.333333333333336
-350.0   150.0   33.333333333333336
-300.0   150.0   50.0
-350.0   120.0   50.0
-350.0   150.0   50.0
-300.0   150.0   50.0
-350.0   150.0   33.333333333333336
-350.0   120.0   50.0
-300.0   150.0   50.0
-300.0   120.0   50.0
-300.0   120.0   33.333333333333336
-350.0   120.0   50.0
-300.0   150.0   50.0
-300.0   120.0   33.333333333333336
-350.0   150.0   33.333333333333336
-300.0   0.0   0.0
-250.0   0.0   0.0
-300.0   30.0   0.0
-300.0   0.0   16.666666666666668
-250.0   0.0   0.0
-250.0   30.0   0.0
-300.0   30.0   0.0
-250.0   30.0   16.666666666666668
-300.0   0.0   16.666666666666668
-300.0   30.0   16.666666666666668
-250.0   30.0   16.666666666666668
-300.0   30.0   0.0
-300.0   0.0   16.666666666666668
-250.0   30.0   16.666666666666668
-250.0   0.0   16.666666666666668
-250.0   0.0   0.0
-300.0   0.0   16.666666666666668
-250.0   30.0   16.666666666666668
-250.0   0.0   0.0
-300.0   30.0   0.0
-300.0   0.0   16.666666666666668
-250.0   0.0   16.666666666666668
-300.0   30.0   16.666666666666668
-300.0   0.0   33.333333333333336
-250.0   0.0   16.666666666666668
-250.0   30.0   16.666666666666668
-300.0   30.0   16.666666666666668
-250.0   30.0   33.333333333333336
-300.0   0.0   33.333333333333336
-300.0   30.0   33.333333333333336
-250.0   30.0   33.333333333333336
-300.0   30.0   16.666666666666668
-300.0   0.0   33.333333333333336
-250.0   30.0   33.333333333333336
-250.0   0.0   33.333333333333336
-250.0   0.0   16.666666666666668
-300.0   0.0   33.333333333333336
-250.0   30.0   33.333333333333336
-250.0   0.0   16.666666666666668
-300.0   30.0   16.666666666666668
-300.0   0.0   33.333333333333336
-250.0   0.0   33.333333333333336
-300.0   30.0   33.333333333333336
-300.0   0.0   50.0
-250.0   0.0   33.333333333333336
-250.0   30.0   33.333333333333336
-300.0   30.0   33.333333333333336
-250.0   30.0   50.0
-300.0   0.0   50.0
-300.0   30.0   50.0
-250.0   30.0   50.0
-300.0   30.0   33.333333333333336
-300.0   0.0   50.0
-250.0   30.0   50.0
-250.0   0.0   50.0
-250.0   0.0   33.333333333333336
-300.0   0.0   50.0
-250.0   30.0   50.0
-250.0   0.0   33.333333333333336
-300.0   30.0   33.333333333333336
-300.0   30.0   0.0
-250.0   30.0   0.0
-300.0   60.0   0.0
-300.0   30.0   16.666666666666668
-250.0   30.0   0.0
-250.0   60.0   0.0
-300.0   60.0   0.0
-250.0   60.0   16.666666666666668
-300.0   30.0   16.666666666666668
-300.0   60.0   16.666666666666668
-250.0   60.0   16.666666666666668
-300.0   60.0   0.0
-300.0   30.0   16.666666666666668
-250.0   60.0   16.666666666666668
-250.0   30.0   16.666666666666668
-250.0   30.0   0.0
-300.0   30.0   16.666666666666668
-250.0   60.0   16.666666666666668
-250.0   30.0   0.0
-300.0   60.0   0.0
-300.0   30.0   16.666666666666668
-250.0   30.0   16.666666666666668
-300.0   60.0   16.666666666666668
-300.0   30.0   33.333333333333336
-250.0   30.0   16.666666666666668
-250.0   60.0   16.666666666666668
-300.0   60.0   16.666666666666668
-250.0   60.0   33.333333333333336
-300.0   30.0   33.333333333333336
-300.0   60.0   33.333333333333336
-250.0   60.0   33.333333333333336
-300.0   60.0   16.666666666666668
-300.0   30.0   33.333333333333336
-250.0   60.0   33.333333333333336
-250.0   30.0   33.333333333333336
-250.0   30.0   16.666666666666668
-300.0   30.0   33.333333333333336
-250.0   60.0   33.333333333333336
-250.0   30.0   16.666666666666668
-300.0   60.0   16.666666666666668
-300.0   30.0   33.333333333333336
-250.0   30.0   33.333333333333336
-300.0   60.0   33.333333333333336
-300.0   30.0   50.0
-250.0   30.0   33.333333333333336
-250.0   60.0   33.333333333333336
-300.0   60.0   33.333333333333336
-250.0   60.0   50.0
-300.0   30.0   50.0
-300.0   60.0   50.0
-250.0   60.0   50.0
-300.0   60.0   33.333333333333336
-300.0   30.0   50.0
-250.0   60.0   50.0
-250.0   30.0   50.0
-250.0   30.0   33.333333333333336
-300.0   30.0   50.0
-250.0   60.0   50.0
-250.0   30.0   33.333333333333336
-300.0   60.0   33.333333333333336
-300.0   60.0   0.0
-250.0   60.0   0.0
-300.0   90.0   0.0
-300.0   60.0   16.666666666666668
-250.0   60.0   0.0
-250.0   90.0   0.0
-300.0   90.0   0.0
-250.0   90.0   16.666666666666668
-300.0   60.0   16.666666666666668
-300.0   90.0   16.666666666666668
-250.0   90.0   16.666666666666668
-300.0   90.0   0.0
-300.0   60.0   16.666666666666668
-250.0   90.0   16.666666666666668
-250.0   60.0   16.666666666666668
-250.0   60.0   0.0
-300.0   60.0   16.666666666666668
-250.0   90.0   16.666666666666668
-250.0   60.0   0.0
-300.0   90.0   0.0
-300.0   60.0   16.666666666666668
-250.0   60.0   16.666666666666668
-300.0   90.0   16.666666666666668
-300.0   60.0   33.333333333333336
-250.0   60.0   16.666666666666668
-250.0   90.0   16.666666666666668
-300.0   90.0   16.666666666666668
-250.0   90.0   33.333333333333336
-300.0   60.0   33.333333333333336
-300.0   90.0   33.333333333333336
-250.0   90.0   33.333333333333336
-300.0   90.0   16.666666666666668
-300.0   60.0   33.333333333333336
-250.0   90.0   33.333333333333336
-250.0   60.0   33.333333333333336
-250.0   60.0   16.666666666666668
-300.0   60.0   33.333333333333336
-250.0   90.0   33.333333333333336
-250.0   60.0   16.666666666666668
-300.0   90.0   16.666666666666668
-300.0   60.0   33.333333333333336
-250.0   60.0   33.333333333333336
-300.0   90.0   33.333333333333336
-300.0   60.0   50.0
-250.0   60.0   33.333333333333336
-250.0   90.0   33.333333333333336
-300.0   90.0   33.333333333333336
-250.0   90.0   50.0
-300.0   60.0   50.0
-300.0   90.0   50.0
-250.0   90.0   50.0
-300.0   90.0   33.333333333333336
-300.0   60.0   50.0
-250.0   90.0   50.0
-250.0   60.0   50.0
-250.0   60.0   33.333333333333336
-300.0   60.0   50.0
-250.0   90.0   50.0
-250.0   60.0   33.333333333333336
-300.0   90.0   33.333333333333336
-300.0   90.0   0.0
-250.0   90.0   0.0
-300.0   120.0   0.0
-300.0   90.0   16.666666666666668
-250.0   90.0   0.0
-250.0   120.0   0.0
-300.0   120.0   0.0
-250.0   120.0   16.666666666666668
-300.0   90.0   16.666666666666668
-300.0   120.0   16.666666666666668
-250.0   120.0   16.666666666666668
-300.0   120.0   0.0
-300.0   90.0   16.666666666666668
-250.0   120.0   16.666666666666668
-250.0   90.0   16.666666666666668
-250.0   90.0   0.0
-300.0   90.0   16.666666666666668
-250.0   120.0   16.666666666666668
-250.0   90.0   0.0
-300.0   120.0   0.0
-300.0   90.0   16.666666666666668
-250.0   90.0   16.666666666666668
-300.0   120.0   16.666666666666668
-300.0   90.0   33.333333333333336
-250.0   90.0   16.666666666666668
-250.0   120.0   16.666666666666668
-300.0   120.0   16.666666666666668
-250.0   120.0   33.333333333333336
-300.0   90.0   33.333333333333336
-300.0   120.0   33.333333333333336
-250.0   120.0   33.333333333333336
-300.0   120.0   16.666666666666668
-300.0   90.0   33.333333333333336
-250.0   120.0   33.333333333333336
-250.0   90.0   33.333333333333336
-250.0   90.0   16.666666666666668
-300.0   90.0   33.333333333333336
-250.0   120.0   33.333333333333336
-250.0   90.0   16.666666666666668
-300.0   120.0   16.666666666666668
-300.0   90.0   33.333333333333336
-250.0   90.0   33.333333333333336
-300.0   120.0   33.333333333333336
-300.0   90.0   50.0
-250.0   90.0   33.333333333333336
-250.0   120.0   33.333333333333336
-300.0   120.0   33.333333333333336
-250.0   120.0   50.0
-300.0   90.0   50.0
-300.0   120.0   50.0
-250.0   120.0   50.0
-300.0   120.0   33.333333333333336
-300.0   90.0   50.0
-250.0   120.0   50.0
-250.0   90.0   50.0
-250.0   90.0   33.333333333333336
-300.0   90.0   50.0
-250.0   120.0   50.0
-250.0   90.0   33.333333333333336
-300.0   120.0   33.333333333333336
-300.0   120.0   0.0
-250.0   120.0   0.0
-300.0   150.0   0.0
-300.0   120.0   16.666666666666668
-250.0   120.0   0.0
-250.0   150.0   0.0
-300.0   150.0   0.0
-250.0   150.0   16.666666666666668
-300.0   120.0   16.666666666666668
-300.0   150.0   16.666666666666668
-250.0   150.0   16.666666666666668
-300.0   150.0   0.0
-300.0   120.0   16.666666666666668
-250.0   150.0   16.666666666666668
-250.0   120.0   16.666666666666668
-250.0   120.0   0.0
-300.0   120.0   16.666666666666668
-250.0   150.0   16.666666666666668
-250.0   120.0   0.0
-300.0   150.0   0.0
-300.0   120.0   16.666666666666668
-250.0   120.0   16.666666666666668
-300.0   150.0   16.666666666666668
-300.0   120.0   33.333333333333336
-250.0   120.0   16.666666666666668
-250.0   150.0   16.666666666666668
-300.0   150.0   16.666666666666668
-250.0   150.0   33.333333333333336
-300.0   120.0   33.333333333333336
-300.0   150.0   33.333333333333336
-250.0   150.0   33.333333333333336
-300.0   150.0   16.666666666666668
-300.0   120.0   33.333333333333336
-250.0   150.0   33.333333333333336
-250.0   120.0   33.333333333333336
-250.0   120.0   16.666666666666668
-300.0   120.0   33.333333333333336
-250.0   150.0   33.333333333333336
-250.0   120.0   16.666666666666668
-300.0   150.0   16.666666666666668
-300.0   120.0   33.333333333333336
-250.0   120.0   33.333333333333336
-300.0   150.0   33.333333333333336
-300.0   120.0   50.0
-250.0   120.0   33.333333333333336
-250.0   150.0   33.333333333333336
-300.0   150.0   33.333333333333336
-250.0   150.0   50.0
-300.0   120.0   50.0
-300.0   150.0   50.0
-250.0   150.0   50.0
-300.0   150.0   33.333333333333336
-300.0   120.0   50.0
-250.0   150.0   50.0
-250.0   120.0   50.0
-250.0   120.0   33.333333333333336
-300.0   120.0   50.0
-250.0   150.0   50.0
-250.0   120.0   33.333333333333336
-300.0   150.0   33.333333333333336
-250.0   0.0   0.0
-200.0   0.0   0.0
-250.0   30.0   0.0
-250.0   0.0   16.666666666666668
-200.0   0.0   0.0
-200.0   30.0   0.0
-250.0   30.0   0.0
-200.0   30.0   16.666666666666668
-250.0   0.0   16.666666666666668
-250.0   30.0   16.666666666666668
-200.0   30.0   16.666666666666668
-250.0   30.0   0.0
-250.0   0.0   16.666666666666668
-200.0   30.0   16.666666666666668
-200.0   0.0   16.666666666666668
-200.0   0.0   0.0
-250.0   0.0   16.666666666666668
-200.0   30.0   16.666666666666668
-200.0   0.0   0.0
-250.0   30.0   0.0
-250.0   0.0   16.666666666666668
-200.0   0.0   16.666666666666668
-250.0   30.0   16.666666666666668
-250.0   0.0   33.333333333333336
-200.0   0.0   16.666666666666668
-200.0   30.0   16.666666666666668
-250.0   30.0   16.666666666666668
-200.0   30.0   33.333333333333336
-250.0   0.0   33.333333333333336
-250.0   30.0   33.333333333333336
-200.0   30.0   33.333333333333336
-250.0   30.0   16.666666666666668
-250.0   0.0   33.333333333333336
-200.0   30.0   33.333333333333336
-200.0   0.0   33.333333333333336
-200.0   0.0   16.666666666666668
-250.0   0.0   33.333333333333336
-200.0   30.0   33.333333333333336
-200.0   0.0   16.666666666666668
-250.0   30.0   16.666666666666668
-250.0   0.0   33.333333333333336
-200.0   0.0   33.333333333333336
-250.0   30.0   33.333333333333336
-250.0   0.0   50.0
-200.0   0.0   33.333333333333336
-200.0   30.0   33.333333333333336
-250.0   30.0   33.333333333333336
-200.0   30.0   50.0
-250.0   0.0   50.0
-250.0   30.0   50.0
-200.0   30.0   50.0
-250.0   30.0   33.333333333333336
-250.0   0.0   50.0
-200.0   30.0   50.0
-200.0   0.0   50.0
-200.0   0.0   33.333333333333336
-250.0   0.0   50.0
-200.0   30.0   50.0
-200.0   0.0   33.333333333333336
-250.0   30.0   33.333333333333336
-250.0   30.0   0.0
-200.0   30.0   0.0
-250.0   60.0   0.0
-250.0   30.0   16.666666666666668
-200.0   30.0   0.0
-200.0   60.0   0.0
-250.0   60.0   0.0
-200.0   60.0   16.666666666666668
-250.0   30.0   16.666666666666668
-250.0   60.0   16.666666666666668
-200.0   60.0   16.666666666666668
-250.0   60.0   0.0
-250.0   30.0   16.666666666666668
-200.0   60.0   16.666666666666668
-200.0   30.0   16.666666666666668
-200.0   30.0   0.0
-250.0   30.0   16.666666666666668
-200.0   60.0   16.666666666666668
-200.0   30.0   0.0
-250.0   60.0   0.0
-250.0   30.0   16.666666666666668
-200.0   30.0   16.666666666666668
-250.0   60.0   16.666666666666668
-250.0   30.0   33.333333333333336
-200.0   30.0   16.666666666666668
-200.0   60.0   16.666666666666668
-250.0   60.0   16.666666666666668
-200.0   60.0   33.333333333333336
-250.0   30.0   33.333333333333336
-250.0   60.0   33.333333333333336
-200.0   60.0   33.333333333333336
-250.0   60.0   16.666666666666668
-250.0   30.0   33.333333333333336
-200.0   60.0   33.333333333333336
-200.0   30.0   33.333333333333336
-200.0   30.0   16.666666666666668
-250.0   30.0   33.333333333333336
-200.0   60.0   33.333333333333336
-200.0   30.0   16.666666666666668
-250.0   60.0   16.666666666666668
-250.0   30.0   33.333333333333336
-200.0   30.0   33.333333333333336
-250.0   60.0   33.333333333333336
-250.0   30.0   50.0
-200.0   30.0   33.333333333333336
-200.0   60.0   33.333333333333336
-250.0   60.0   33.333333333333336
-200.0   60.0   50.0
-250.0   30.0   50.0
-250.0   60.0   50.0
-200.0   60.0   50.0
-250.0   60.0   33.333333333333336
-250.0   30.0   50.0
-200.0   60.0   50.0
-200.0   30.0   50.0
-200.0   30.0   33.333333333333336
-250.0   30.0   50.0
-200.0   60.0   50.0
-200.0   30.0   33.333333333333336
-250.0   60.0   33.333333333333336
-250.0   60.0   0.0
-200.0   60.0   0.0
-250.0   90.0   0.0
-250.0   60.0   16.666666666666668
-200.0   60.0   0.0
-200.0   90.0   0.0
-250.0   90.0   0.0
-200.0   90.0   16.666666666666668
-250.0   60.0   16.666666666666668
-250.0   90.0   16.666666666666668
-200.0   90.0   16.666666666666668
-250.0   90.0   0.0
-250.0   60.0   16.666666666666668
-200.0   90.0   16.666666666666668
-200.0   60.0   16.666666666666668
-200.0   60.0   0.0
-250.0   60.0   16.666666666666668
-200.0   90.0   16.666666666666668
-200.0   60.0   0.0
-250.0   90.0   0.0
-250.0   60.0   16.666666666666668
-200.0   60.0   16.666666666666668
-250.0   90.0   16.666666666666668
-250.0   60.0   33.333333333333336
-200.0   60.0   16.666666666666668
-200.0   90.0   16.666666666666668
-250.0   90.0   16.666666666666668
-200.0   90.0   33.333333333333336
-250.0   60.0   33.333333333333336
-250.0   90.0   33.333333333333336
-200.0   90.0   33.333333333333336
-250.0   90.0   16.666666666666668
-250.0   60.0   33.333333333333336
-200.0   90.0   33.333333333333336
-200.0   60.0   33.333333333333336
-200.0   60.0   16.666666666666668
-250.0   60.0   33.333333333333336
-200.0   90.0   33.333333333333336
-200.0   60.0   16.666666666666668
-250.0   90.0   16.666666666666668
-250.0   60.0   33.333333333333336
-200.0   60.0   33.333333333333336
-250.0   90.0   33.333333333333336
-250.0   60.0   50.0
-200.0   60.0   33.333333333333336
-200.0   90.0   33.333333333333336
-250.0   90.0   33.333333333333336
-200.0   90.0   50.0
-250.0   60.0   50.0
-250.0   90.0   50.0
-200.0   90.0   50.0
-250.0   90.0   33.333333333333336
-250.0   60.0   50.0
-200.0   90.0   50.0
-200.0   60.0   50.0
-200.0   60.0   33.333333333333336
-250.0   60.0   50.0
-200.0   90.0   50.0
-200.0   60.0   33.333333333333336
-250.0   90.0   33.333333333333336
-250.0   90.0   0.0
-200.0   90.0   0.0
-250.0   120.0   0.0
-250.0   90.0   16.666666666666668
-200.0   90.0   0.0
-200.0   120.0   0.0
-250.0   120.0   0.0
-200.0   120.0   16.666666666666668
-250.0   90.0   16.666666666666668
-250.0   120.0   16.666666666666668
-200.0   120.0   16.666666666666668
-250.0   120.0   0.0
-250.0   90.0   16.666666666666668
-200.0   120.0   16.666666666666668
-200.0   90.0   16.666666666666668
-200.0   90.0   0.0
-250.0   90.0   16.666666666666668
-200.0   120.0   16.666666666666668
-200.0   90.0   0.0
-250.0   120.0   0.0
-250.0   90.0   16.666666666666668
-200.0   90.0   16.666666666666668
-250.0   120.0   16.666666666666668
-250.0   90.0   33.333333333333336
-200.0   90.0   16.666666666666668
-200.0   120.0   16.666666666666668
-250.0   120.0   16.666666666666668
-200.0   120.0   33.333333333333336
-250.0   90.0   33.333333333333336
-250.0   120.0   33.333333333333336
-200.0   120.0   33.333333333333336
-250.0   120.0   16.666666666666668
-250.0   90.0   33.333333333333336
-200.0   120.0   33.333333333333336
-200.0   90.0   33.333333333333336
-200.0   90.0   16.666666666666668
-250.0   90.0   33.333333333333336
-200.0   120.0   33.333333333333336
-200.0   90.0   16.666666666666668
-250.0   120.0   16.666666666666668
-250.0   90.0   33.333333333333336
-200.0   90.0   33.333333333333336
-250.0   120.0   33.333333333333336
-250.0   90.0   50.0
-200.0   90.0   33.333333333333336
-200.0   120.0   33.333333333333336
-250.0   120.0   33.333333333333336
-200.0   120.0   50.0
-250.0   90.0   50.0
-250.0   120.0   50.0
-200.0   120.0   50.0
-250.0   120.0   33.333333333333336
-250.0   90.0   50.0
-200.0   120.0   50.0
-200.0   90.0   50.0
-200.0   90.0   33.333333333333336
-250.0   90.0   50.0
-200.0   120.0   50.0
-200.0   90.0   33.333333333333336
-250.0   120.0   33.333333333333336
-250.0   120.0   0.0
-200.0   120.0   0.0
-250.0   150.0   0.0
-250.0   120.0   16.666666666666668
-200.0   120.0   0.0
-200.0   150.0   0.0
-250.0   150.0   0.0
-200.0   150.0   16.666666666666668
-250.0   120.0   16.666666666666668
-250.0   150.0   16.666666666666668
-200.0   150.0   16.666666666666668
-250.0   150.0   0.0
-250.0   120.0   16.666666666666668
-200.0   150.0   16.666666666666668
-200.0   120.0   16.666666666666668
-200.0   120.0   0.0
-250.0   120.0   16.666666666666668
-200.0   150.0   16.666666666666668
-200.0   120.0   0.0
-250.0   150.0   0.0
-250.0   120.0   16.666666666666668
-200.0   120.0   16.666666666666668
-250.0   150.0   16.666666666666668
-250.0   120.0   33.333333333333336
-200.0   120.0   16.666666666666668
-200.0   150.0   16.666666666666668
-250.0   150.0   16.666666666666668
-200.0   150.0   33.333333333333336
-250.0   120.0   33.333333333333336
-250.0   150.0   33.333333333333336
-200.0   150.0   33.333333333333336
-250.0   150.0   16.666666666666668
-250.0   120.0   33.333333333333336
-200.0   150.0   33.333333333333336
-200.0   120.0   33.333333333333336
-200.0   120.0   16.666666666666668
-250.0   120.0   33.333333333333336
-200.0   150.0   33.333333333333336
-200.0   120.0   16.666666666666668
-250.0   150.0   16.666666666666668
-250.0   120.0   33.333333333333336
-200.0   120.0   33.333333333333336
-250.0   150.0   33.333333333333336
-250.0   120.0   50.0
-200.0   120.0   33.333333333333336
-200.0   150.0   33.333333333333336
-250.0   150.0   33.333333333333336
-200.0   150.0   50.0
-250.0   120.0   50.0
-250.0   150.0   50.0
-200.0   150.0   50.0
-250.0   150.0   33.333333333333336
-250.0   120.0   50.0
-200.0   150.0   50.0
-200.0   120.0   50.0
-200.0   120.0   33.333333333333336
-250.0   120.0   50.0
-200.0   150.0   50.0
-200.0   120.0   33.333333333333336
-250.0   150.0   33.333333333333336
-200.0   0.0   0.0
-150.0   0.0   0.0
-200.0   30.0   0.0
-200.0   0.0   16.666666666666668
-150.0   0.0   0.0
-150.0   30.0   0.0
-200.0   30.0   0.0
-150.0   30.0   16.666666666666668
-200.0   0.0   16.666666666666668
-200.0   30.0   16.666666666666668
-150.0   30.0   16.666666666666668
-200.0   30.0   0.0
-200.0   0.0   16.666666666666668
-150.0   30.0   16.666666666666668
-150.0   0.0   16.666666666666668
-150.0   0.0   0.0
-200.0   0.0   16.666666666666668
-150.0   30.0   16.666666666666668
-150.0   0.0   0.0
-200.0   30.0   0.0
-200.0   0.0   16.666666666666668
-150.0   0.0   16.666666666666668
-200.0   30.0   16.666666666666668
-200.0   0.0   33.333333333333336
-150.0   0.0   16.666666666666668
-150.0   30.0   16.666666666666668
-200.0   30.0   16.666666666666668
-150.0   30.0   33.333333333333336
-200.0   0.0   33.333333333333336
-200.0   30.0   33.333333333333336
-150.0   30.0   33.333333333333336
-200.0   30.0   16.666666666666668
-200.0   0.0   33.333333333333336
-150.0   30.0   33.333333333333336
-150.0   0.0   33.333333333333336
-150.0   0.0   16.666666666666668
-200.0   0.0   33.333333333333336
-150.0   30.0   33.333333333333336
-150.0   0.0   16.666666666666668
-200.0   30.0   16.666666666666668
-200.0   0.0   33.333333333333336
-150.0   0.0   33.333333333333336
-200.0   30.0   33.333333333333336
-200.0   0.0   50.0
-150.0   0.0   33.333333333333336
-150.0   30.0   33.333333333333336
-200.0   30.0   33.333333333333336
-150.0   30.0   50.0
-200.0   0.0   50.0
-200.0   30.0   50.0
-150.0   30.0   50.0
-200.0   30.0   33.333333333333336
-200.0   0.0   50.0
-150.0   30.0   50.0
-150.0   0.0   50.0
-150.0   0.0   33.333333333333336
-200.0   0.0   50.0
-150.0   30.0   50.0
-150.0   0.0   33.333333333333336
-200.0   30.0   33.333333333333336
-200.0   30.0   0.0
-150.0   30.0   0.0
-200.0   60.0   0.0
-200.0   30.0   16.666666666666668
-150.0   30.0   0.0
-150.0   60.0   0.0
-200.0   60.0   0.0
-150.0   60.0   16.666666666666668
-200.0   30.0   16.666666666666668
-200.0   60.0   16.666666666666668
-150.0   60.0   16.666666666666668
-200.0   60.0   0.0
-200.0   30.0   16.666666666666668
-150.0   60.0   16.666666666666668
-150.0   30.0   16.666666666666668
-150.0   30.0   0.0
-200.0   30.0   16.666666666666668
-150.0   60.0   16.666666666666668
-150.0   30.0   0.0
-200.0   60.0   0.0
-200.0   30.0   16.666666666666668
-150.0   30.0   16.666666666666668
-200.0   60.0   16.666666666666668
-200.0   30.0   33.333333333333336
-150.0   30.0   16.666666666666668
-150.0   60.0   16.666666666666668
-200.0   60.0   16.666666666666668
-150.0   60.0   33.333333333333336
-200.0   30.0   33.333333333333336
-200.0   60.0   33.333333333333336
-150.0   60.0   33.333333333333336
-200.0   60.0   16.666666666666668
-200.0   30.0   33.333333333333336
-150.0   60.0   33.333333333333336
-150.0   30.0   33.333333333333336
-150.0   30.0   16.666666666666668
-200.0   30.0   33.333333333333336
-150.0   60.0   33.333333333333336
-150.0   30.0   16.666666666666668
-200.0   60.0   16.666666666666668
-200.0   30.0   33.333333333333336
-150.0   30.0   33.333333333333336
-200.0   60.0   33.333333333333336
-200.0   30.0   50.0
-150.0   30.0   33.333333333333336
-150.0   60.0   33.333333333333336
-200.0   60.0   33.333333333333336
-150.0   60.0   50.0
-200.0   30.0   50.0
-200.0   60.0   50.0
-150.0   60.0   50.0
-200.0   60.0   33.333333333333336
-200.0   30.0   50.0
-150.0   60.0   50.0
-150.0   30.0   50.0
-150.0   30.0   33.333333333333336
-200.0   30.0   50.0
-150.0   60.0   50.0
-150.0   30.0   33.333333333333336
-200.0   60.0   33.333333333333336
-200.0   60.0   0.0
-150.0   60.0   0.0
-200.0   90.0   0.0
-200.0   60.0   16.666666666666668
-150.0   60.0   0.0
-150.0   90.0   0.0
-200.0   90.0   0.0
-150.0   90.0   16.666666666666668
-200.0   60.0   16.666666666666668
-200.0   90.0   16.666666666666668
-150.0   90.0   16.666666666666668
-200.0   90.0   0.0
-200.0   60.0   16.666666666666668
-150.0   90.0   16.666666666666668
-150.0   60.0   16.666666666666668
-150.0   60.0   0.0
-200.0   60.0   16.666666666666668
-150.0   90.0   16.666666666666668
-150.0   60.0   0.0
-200.0   90.0   0.0
-200.0   60.0   16.666666666666668
-150.0   60.0   16.666666666666668
-200.0   90.0   16.666666666666668
-200.0   60.0   33.333333333333336
-150.0   60.0   16.666666666666668
-150.0   90.0   16.666666666666668
-200.0   90.0   16.666666666666668
-150.0   90.0   33.333333333333336
-200.0   60.0   33.333333333333336
-200.0   90.0   33.333333333333336
-150.0   90.0   33.333333333333336
-200.0   90.0   16.666666666666668
-200.0   60.0   33.333333333333336
-150.0   90.0   33.333333333333336
-150.0   60.0   33.333333333333336
-150.0   60.0   16.666666666666668
-200.0   60.0   33.333333333333336
-150.0   90.0   33.333333333333336
-150.0   60.0   16.666666666666668
-200.0   90.0   16.666666666666668
-200.0   60.0   33.333333333333336
-150.0   60.0   33.333333333333336
-200.0   90.0   33.333333333333336
-200.0   60.0   50.0
-150.0   60.0   33.333333333333336
-150.0   90.0   33.333333333333336
-200.0   90.0   33.333333333333336
-150.0   90.0   50.0
-200.0   60.0   50.0
-200.0   90.0   50.0
-150.0   90.0   50.0
-200.0   90.0   33.333333333333336
-200.0   60.0   50.0
-150.0   90.0   50.0
-150.0   60.0   50.0
-150.0   60.0   33.333333333333336
-200.0   60.0   50.0
-150.0   90.0   50.0
-150.0   60.0   33.333333333333336
-200.0   90.0   33.333333333333336
-200.0   90.0   0.0
-150.0   90.0   0.0
-200.0   120.0   0.0
-200.0   90.0   16.666666666666668
-150.0   90.0   0.0
-150.0   120.0   0.0
-200.0   120.0   0.0
-150.0   120.0   16.666666666666668
-200.0   90.0   16.666666666666668
-200.0   120.0   16.666666666666668
-150.0   120.0   16.666666666666668
-200.0   120.0   0.0
-200.0   90.0   16.666666666666668
-150.0   120.0   16.666666666666668
-150.0   90.0   16.666666666666668
-150.0   90.0   0.0
-200.0   90.0   16.666666666666668
-150.0   120.0   16.666666666666668
-150.0   90.0   0.0
-200.0   120.0   0.0
-200.0   90.0   16.666666666666668
-150.0   90.0   16.666666666666668
-200.0   120.0   16.666666666666668
-200.0   90.0   33.333333333333336
-150.0   90.0   16.666666666666668
-150.0   120.0   16.666666666666668
-200.0   120.0   16.666666666666668
-150.0   120.0   33.333333333333336
-200.0   90.0   33.333333333333336
-200.0   120.0   33.333333333333336
-150.0   120.0   33.333333333333336
-200.0   120.0   16.666666666666668
-200.0   90.0   33.333333333333336
-150.0   120.0   33.333333333333336
-150.0   90.0   33.333333333333336
-150.0   90.0   16.666666666666668
-200.0   90.0   33.333333333333336
-150.0   120.0   33.333333333333336
-150.0   90.0   16.666666666666668
-200.0   120.0   16.666666666666668
-200.0   90.0   33.333333333333336
-150.0   90.0   33.333333333333336
-200.0   120.0   33.333333333333336
-200.0   90.0   50.0
-150.0   90.0   33.333333333333336
-150.0   120.0   33.333333333333336
-200.0   120.0   33.333333333333336
-150.0   120.0   50.0
-200.0   90.0   50.0
-200.0   120.0   50.0
-150.0   120.0   50.0
-200.0   120.0   33.333333333333336
-200.0   90.0   50.0
-150.0   120.0   50.0
-150.0   90.0   50.0
-150.0   90.0   33.333333333333336
-200.0   90.0   50.0
-150.0   120.0   50.0
-150.0   90.0   33.333333333333336
-200.0   120.0   33.333333333333336
-200.0   120.0   0.0
-150.0   120.0   0.0
-200.0   150.0   0.0
-200.0   120.0   16.666666666666668
-150.0   120.0   0.0
-150.0   150.0   0.0
-200.0   150.0   0.0
-150.0   150.0   16.666666666666668
-200.0   120.0   16.666666666666668
-200.0   150.0   16.666666666666668
-150.0   150.0   16.666666666666668
-200.0   150.0   0.0
-200.0   120.0   16.666666666666668
-150.0   150.0   16.666666666666668
-150.0   120.0   16.666666666666668
-150.0   120.0   0.0
-200.0   120.0   16.666666666666668
-150.0   150.0   16.666666666666668
-150.0   120.0   0.0
-200.0   150.0   0.0
-200.0   120.0   16.666666666666668
-150.0   120.0   16.666666666666668
-200.0   150.0   16.666666666666668
-200.0   120.0   33.333333333333336
-150.0   120.0   16.666666666666668
-150.0   150.0   16.666666666666668
-200.0   150.0   16.666666666666668
-150.0   150.0   33.333333333333336
-200.0   120.0   33.333333333333336
-200.0   150.0   33.333333333333336
-150.0   150.0   33.333333333333336
-200.0   150.0   16.666666666666668
-200.0   120.0   33.333333333333336
-150.0   150.0   33.333333333333336
-150.0   120.0   33.333333333333336
-150.0   120.0   16.666666666666668
-200.0   120.0   33.333333333333336
-150.0   150.0   33.333333333333336
-150.0   120.0   16.666666666666668
-200.0   150.0   16.666666666666668
-200.0   120.0   33.333333333333336
-150.0   120.0   33.333333333333336
-200.0   150.0   33.333333333333336
-200.0   120.0   50.0
-150.0   120.0   33.333333333333336
-150.0   150.0   33.333333333333336
-200.0   150.0   33.333333333333336
-150.0   150.0   50.0
-200.0   120.0   50.0
-200.0   150.0   50.0
-150.0   150.0   50.0
-200.0   150.0   33.333333333333336
-200.0   120.0   50.0
-150.0   150.0   50.0
-150.0   120.0   50.0
-150.0   120.0   33.333333333333336
-200.0   120.0   50.0
-150.0   150.0   50.0
-150.0   120.0   33.333333333333336
-200.0   150.0   33.333333333333336
-150.0   0.0   0.0
-100.0   0.0   0.0
-150.0   30.0   0.0
-150.0   0.0   16.666666666666668
-100.0   0.0   0.0
-100.0   30.0   0.0
-150.0   30.0   0.0
-100.0   30.0   16.666666666666668
-150.0   0.0   16.666666666666668
-150.0   30.0   16.666666666666668
-100.0   30.0   16.666666666666668
-150.0   30.0   0.0
-150.0   0.0   16.666666666666668
-100.0   30.0   16.666666666666668
-100.0   0.0   16.666666666666668
-100.0   0.0   0.0
-150.0   0.0   16.666666666666668
-100.0   30.0   16.666666666666668
-100.0   0.0   0.0
-150.0   30.0   0.0
-150.0   0.0   16.666666666666668
-100.0   0.0   16.666666666666668
-150.0   30.0   16.666666666666668
-150.0   0.0   33.333333333333336
-100.0   0.0   16.666666666666668
-100.0   30.0   16.666666666666668
-150.0   30.0   16.666666666666668
-100.0   30.0   33.333333333333336
-150.0   0.0   33.333333333333336
-150.0   30.0   33.333333333333336
-100.0   30.0   33.333333333333336
-150.0   30.0   16.666666666666668
-150.0   0.0   33.333333333333336
-100.0   30.0   33.333333333333336
-100.0   0.0   33.333333333333336
-100.0   0.0   16.666666666666668
-150.0   0.0   33.333333333333336
-100.0   30.0   33.333333333333336
-100.0   0.0   16.666666666666668
-150.0   30.0   16.666666666666668
-150.0   0.0   33.333333333333336
-100.0   0.0   33.333333333333336
-150.0   30.0   33.333333333333336
-150.0   0.0   50.0
-100.0   0.0   33.333333333333336
-100.0   30.0   33.333333333333336
-150.0   30.0   33.333333333333336
-100.0   30.0   50.0
-150.0   0.0   50.0
-150.0   30.0   50.0
-100.0   30.0   50.0
-150.0   30.0   33.333333333333336
-150.0   0.0   50.0
-100.0   30.0   50.0
-100.0   0.0   50.0
-100.0   0.0   33.333333333333336
-150.0   0.0   50.0
-100.0   30.0   50.0
-100.0   0.0   33.333333333333336
-150.0   30.0   33.333333333333336
-150.0   30.0   0.0
-100.0   30.0   0.0
-150.0   60.0   0.0
-150.0   30.0   16.666666666666668
-100.0   30.0   0.0
-100.0   60.0   0.0
-150.0   60.0   0.0
-100.0   60.0   16.666666666666668
-150.0   30.0   16.666666666666668
-150.0   60.0   16.666666666666668
-100.0   60.0   16.666666666666668
-150.0   60.0   0.0
-150.0   30.0   16.666666666666668
-100.0   60.0   16.666666666666668
-100.0   30.0   16.666666666666668
-100.0   30.0   0.0
-150.0   30.0   16.666666666666668
-100.0   60.0   16.666666666666668
-100.0   30.0   0.0
-150.0   60.0   0.0
-150.0   30.0   16.666666666666668
-100.0   30.0   16.666666666666668
-150.0   60.0   16.666666666666668
-150.0   30.0   33.333333333333336
-100.0   30.0   16.666666666666668
-100.0   60.0   16.666666666666668
-150.0   60.0   16.666666666666668
-100.0   60.0   33.333333333333336
-150.0   30.0   33.333333333333336
-150.0   60.0   33.333333333333336
-100.0   60.0   33.333333333333336
-150.0   60.0   16.666666666666668
-150.0   30.0   33.333333333333336
-100.0   60.0   33.333333333333336
-100.0   30.0   33.333333333333336
-100.0   30.0   16.666666666666668
-150.0   30.0   33.333333333333336
-100.0   60.0   33.333333333333336
-100.0   30.0   16.666666666666668
-150.0   60.0   16.666666666666668
-150.0   30.0   33.333333333333336
-100.0   30.0   33.333333333333336
-150.0   60.0   33.333333333333336
-150.0   30.0   50.0
-100.0   30.0   33.333333333333336
-100.0   60.0   33.333333333333336
-150.0   60.0   33.333333333333336
-100.0   60.0   50.0
-150.0   30.0   50.0
-150.0   60.0   50.0
-100.0   60.0   50.0
-150.0   60.0   33.333333333333336
-150.0   30.0   50.0
-100.0   60.0   50.0
-100.0   30.0   50.0
-100.0   30.0   33.333333333333336
-150.0   30.0   50.0
-100.0   60.0   50.0
-100.0   30.0   33.333333333333336
-150.0   60.0   33.333333333333336
-150.0   60.0   0.0
-100.0   60.0   0.0
-150.0   90.0   0.0
-150.0   60.0   16.666666666666668
-100.0   60.0   0.0
-100.0   90.0   0.0
-150.0   90.0   0.0
-100.0   90.0   16.666666666666668
-150.0   60.0   16.666666666666668
-150.0   90.0   16.666666666666668
-100.0   90.0   16.666666666666668
-150.0   90.0   0.0
-150.0   60.0   16.666666666666668
-100.0   90.0   16.666666666666668
-100.0   60.0   16.666666666666668
-100.0   60.0   0.0
-150.0   60.0   16.666666666666668
-100.0   90.0   16.666666666666668
-100.0   60.0   0.0
-150.0   90.0   0.0
-150.0   60.0   16.666666666666668
-100.0   60.0   16.666666666666668
-150.0   90.0   16.666666666666668
-150.0   60.0   33.333333333333336
-100.0   60.0   16.666666666666668
-100.0   90.0   16.666666666666668
-150.0   90.0   16.666666666666668
-100.0   90.0   33.333333333333336
-150.0   60.0   33.333333333333336
-150.0   90.0   33.333333333333336
-100.0   90.0   33.333333333333336
-150.0   90.0   16.666666666666668
-150.0   60.0   33.333333333333336
-100.0   90.0   33.333333333333336
-100.0   60.0   33.333333333333336
-100.0   60.0   16.666666666666668
-150.0   60.0   33.333333333333336
-100.0   90.0   33.333333333333336
-100.0   60.0   16.666666666666668
-150.0   90.0   16.666666666666668
-150.0   60.0   33.333333333333336
-100.0   60.0   33.333333333333336
-150.0   90.0   33.333333333333336
-150.0   60.0   50.0
-100.0   60.0   33.333333333333336
-100.0   90.0   33.333333333333336
-150.0   90.0   33.333333333333336
-100.0   90.0   50.0
-150.0   60.0   50.0
-150.0   90.0   50.0
-100.0   90.0   50.0
-150.0   90.0   33.333333333333336
-150.0   60.0   50.0
-100.0   90.0   50.0
-100.0   60.0   50.0
-100.0   60.0   33.333333333333336
-150.0   60.0   50.0
-100.0   90.0   50.0
-100.0   60.0   33.333333333333336
-150.0   90.0   33.333333333333336
-150.0   90.0   0.0
-100.0   90.0   0.0
-150.0   120.0   0.0
-150.0   90.0   16.666666666666668
-100.0   90.0   0.0
-100.0   120.0   0.0
-150.0   120.0   0.0
-100.0   120.0   16.666666666666668
-150.0   90.0   16.666666666666668
-150.0   120.0   16.666666666666668
-100.0   120.0   16.666666666666668
-150.0   120.0   0.0
-150.0   90.0   16.666666666666668
-100.0   120.0   16.666666666666668
-100.0   90.0   16.666666666666668
-100.0   90.0   0.0
-150.0   90.0   16.666666666666668
-100.0   120.0   16.666666666666668
-100.0   90.0   0.0
-150.0   120.0   0.0
-150.0   90.0   16.666666666666668
-100.0   90.0   16.666666666666668
-150.0   120.0   16.666666666666668
-150.0   90.0   33.333333333333336
-100.0   90.0   16.666666666666668
-100.0   120.0   16.666666666666668
-150.0   120.0   16.666666666666668
-100.0   120.0   33.333333333333336
-150.0   90.0   33.333333333333336
-150.0   120.0   33.333333333333336
-100.0   120.0   33.333333333333336
-150.0   120.0   16.666666666666668
-150.0   90.0   33.333333333333336
-100.0   120.0   33.333333333333336
-100.0   90.0   33.333333333333336
-100.0   90.0   16.666666666666668
-150.0   90.0   33.333333333333336
-100.0   120.0   33.333333333333336
-100.0   90.0   16.666666666666668
-150.0   120.0   16.666666666666668
-150.0   90.0   33.333333333333336
-100.0   90.0   33.333333333333336
-150.0   120.0   33.333333333333336
-150.0   90.0   50.0
-100.0   90.0   33.333333333333336
-100.0   120.0   33.333333333333336
-150.0   120.0   33.333333333333336
-100.0   120.0   50.0
-150.0   90.0   50.0
-150.0   120.0   50.0
-100.0   120.0   50.0
-150.0   120.0   33.333333333333336
-150.0   90.0   50.0
-100.0   120.0   50.0
-100.0   90.0   50.0
-100.0   90.0   33.333333333333336
-150.0   90.0   50.0
-100.0   120.0   50.0
-100.0   90.0   33.333333333333336
-150.0   120.0   33.333333333333336
-150.0   120.0   0.0
-100.0   120.0   0.0
-150.0   150.0   0.0
-150.0   120.0   16.666666666666668
-100.0   120.0   0.0
-100.0   150.0   0.0
-150.0   150.0   0.0
-100.0   150.0   16.666666666666668
-150.0   120.0   16.666666666666668
-150.0   150.0   16.666666666666668
-100.0   150.0   16.666666666666668
-150.0   150.0   0.0
-150.0   120.0   16.666666666666668
-100.0   150.0   16.666666666666668
-100.0   120.0   16.666666666666668
-100.0   120.0   0.0
-150.0   120.0   16.666666666666668
-100.0   150.0   16.666666666666668
-100.0   120.0   0.0
-150.0   150.0   0.0
-150.0   120.0   16.666666666666668
-100.0   120.0   16.666666666666668
-150.0   150.0   16.666666666666668
-150.0   120.0   33.333333333333336
-100.0   120.0   16.666666666666668
-100.0   150.0   16.666666666666668
-150.0   150.0   16.666666666666668
-100.0   150.0   33.333333333333336
-150.0   120.0   33.333333333333336
-150.0   150.0   33.333333333333336
-100.0   150.0   33.333333333333336
-150.0   150.0   16.666666666666668
-150.0   120.0   33.333333333333336
-100.0   150.0   33.333333333333336
-100.0   120.0   33.333333333333336
-100.0   120.0   16.666666666666668
-150.0   120.0   33.333333333333336
-100.0   150.0   33.333333333333336
-100.0   120.0   16.666666666666668
-150.0   150.0   16.666666666666668
-150.0   120.0   33.333333333333336
-100.0   120.0   33.333333333333336
-150.0   150.0   33.333333333333336
-150.0   120.0   50.0
-100.0   120.0   33.333333333333336
-100.0   150.0   33.333333333333336
-150.0   150.0   33.333333333333336
-100.0   150.0   50.0
-150.0   120.0   50.0
-150.0   150.0   50.0
-100.0   150.0   50.0
-150.0   150.0   33.333333333333336
-150.0   120.0   50.0
-100.0   150.0   50.0
-100.0   120.0   50.0
-100.0   120.0   33.333333333333336
-150.0   120.0   50.0
-100.0   150.0   50.0
-100.0   120.0   33.333333333333336
-150.0   150.0   33.333333333333336
-100.0   0.0   0.0
-50.0   0.0   0.0
-100.0   30.0   0.0
-100.0   0.0   16.666666666666668
-50.0   0.0   0.0
-50.0   30.0   0.0
-100.0   30.0   0.0
-50.0   30.0   16.666666666666668
-100.0   0.0   16.666666666666668
-100.0   30.0   16.666666666666668
-50.0   30.0   16.666666666666668
-100.0   30.0   0.0
-100.0   0.0   16.666666666666668
-50.0   30.0   16.666666666666668
-50.0   0.0   16.666666666666668
-50.0   0.0   0.0
-100.0   0.0   16.666666666666668
-50.0   30.0   16.666666666666668
-50.0   0.0   0.0
-100.0   30.0   0.0
-100.0   0.0   16.666666666666668
-50.0   0.0   16.666666666666668
-100.0   30.0   16.666666666666668
-100.0   0.0   33.333333333333336
-50.0   0.0   16.666666666666668
-50.0   30.0   16.666666666666668
-100.0   30.0   16.666666666666668
-50.0   30.0   33.333333333333336
-100.0   0.0   33.333333333333336
-100.0   30.0   33.333333333333336
-50.0   30.0   33.333333333333336
-100.0   30.0   16.666666666666668
-100.0   0.0   33.333333333333336
-50.0   30.0   33.333333333333336
-50.0   0.0   33.333333333333336
-50.0   0.0   16.666666666666668
-100.0   0.0   33.333333333333336
-50.0   30.0   33.333333333333336
-50.0   0.0   16.666666666666668
-100.0   30.0   16.666666666666668
-100.0   0.0   33.333333333333336
-50.0   0.0   33.333333333333336
-100.0   30.0   33.333333333333336
-100.0   0.0   50.0
-50.0   0.0   33.333333333333336
-50.0   30.0   33.333333333333336
-100.0   30.0   33.333333333333336
-50.0   30.0   50.0
-100.0   0.0   50.0
-100.0   30.0   50.0
-50.0   30.0   50.0
-100.0   30.0   33.333333333333336
-100.0   0.0   50.0
-50.0   30.0   50.0
-50.0   0.0   50.0
-50.0   0.0   33.333333333333336
-100.0   0.0   50.0
-50.0   30.0   50.0
-50.0   0.0   33.333333333333336
-100.0   30.0   33.333333333333336
-100.0   30.0   0.0
-50.0   30.0   0.0
-100.0   60.0   0.0
-100.0   30.0   16.666666666666668
-50.0   30.0   0.0
-50.0   60.0   0.0
-100.0   60.0   0.0
-50.0   60.0   16.666666666666668
-100.0   30.0   16.666666666666668
-100.0   60.0   16.666666666666668
-50.0   60.0   16.666666666666668
-100.0   60.0   0.0
-100.0   30.0   16.666666666666668
-50.0   60.0   16.666666666666668
-50.0   30.0   16.666666666666668
-50.0   30.0   0.0
-100.0   30.0   16.666666666666668
-50.0   60.0   16.666666666666668
-50.0   30.0   0.0
-100.0   60.0   0.0
-100.0   30.0   16.666666666666668
-50.0   30.0   16.666666666666668
-100.0   60.0   16.666666666666668
-100.0   30.0   33.333333333333336
-50.0   30.0   16.666666666666668
-50.0   60.0   16.666666666666668
-100.0   60.0   16.666666666666668
-50.0   60.0   33.333333333333336
-100.0   30.0   33.333333333333336
-100.0   60.0   33.333333333333336
-50.0   60.0   33.333333333333336
-100.0   60.0   16.666666666666668
-100.0   30.0   33.333333333333336
-50.0   60.0   33.333333333333336
-50.0   30.0   33.333333333333336
-50.0   30.0   16.666666666666668
-100.0   30.0   33.333333333333336
-50.0   60.0   33.333333333333336
-50.0   30.0   16.666666666666668
-100.0   60.0   16.666666666666668
-100.0   30.0   33.333333333333336
-50.0   30.0   33.333333333333336
-100.0   60.0   33.333333333333336
-100.0   30.0   50.0
-50.0   30.0   33.333333333333336
-50.0   60.0   33.333333333333336
-100.0   60.0   33.333333333333336
-50.0   60.0   50.0
-100.0   30.0   50.0
-100.0   60.0   50.0
-50.0   60.0   50.0
-100.0   60.0   33.333333333333336
-100.0   30.0   50.0
-50.0   60.0   50.0
-50.0   30.0   50.0
-50.0   30.0   33.333333333333336
-100.0   30.0   50.0
-50.0   60.0   50.0
-50.0   30.0   33.333333333333336
-100.0   60.0   33.333333333333336
-100.0   60.0   0.0
-50.0   60.0   0.0
-100.0   90.0   0.0
-100.0   60.0   16.666666666666668
-50.0   60.0   0.0
-50.0   90.0   0.0
-100.0   90.0   0.0
-50.0   90.0   16.666666666666668
-100.0   60.0   16.666666666666668
-100.0   90.0   16.666666666666668
-50.0   90.0   16.666666666666668
-100.0   90.0   0.0
-100.0   60.0   16.666666666666668
-50.0   90.0   16.666666666666668
-50.0   60.0   16.666666666666668
-50.0   60.0   0.0
-100.0   60.0   16.666666666666668
-50.0   90.0   16.666666666666668
-50.0   60.0   0.0
-100.0   90.0   0.0
-100.0   60.0   16.666666666666668
-50.0   60.0   16.666666666666668
-100.0   90.0   16.666666666666668
-100.0   60.0   33.333333333333336
-50.0   60.0   16.666666666666668
-50.0   90.0   16.666666666666668
-100.0   90.0   16.666666666666668
-50.0   90.0   33.333333333333336
-100.0   60.0   33.333333333333336
-100.0   90.0   33.333333333333336
-50.0   90.0   33.333333333333336
-100.0   90.0   16.666666666666668
-100.0   60.0   33.333333333333336
-50.0   90.0   33.333333333333336
-50.0   60.0   33.333333333333336
-50.0   60.0   16.666666666666668
-100.0   60.0   33.333333333333336
-50.0   90.0   33.333333333333336
-50.0   60.0   16.666666666666668
-100.0   90.0   16.666666666666668
-100.0   60.0   33.333333333333336
-50.0   60.0   33.333333333333336
-100.0   90.0   33.333333333333336
-100.0   60.0   50.0
-50.0   60.0   33.333333333333336
-50.0   90.0   33.333333333333336
-100.0   90.0   33.333333333333336
-50.0   90.0   50.0
-100.0   60.0   50.0
-100.0   90.0   50.0
-50.0   90.0   50.0
-100.0   90.0   33.333333333333336
-100.0   60.0   50.0
-50.0   90.0   50.0
-50.0   60.0   50.0
-50.0   60.0   33.333333333333336
-100.0   60.0   50.0
-50.0   90.0   50.0
-50.0   60.0   33.333333333333336
-100.0   90.0   33.333333333333336
-100.0   90.0   0.0
-50.0   90.0   0.0
-100.0   120.0   0.0
-100.0   90.0   16.666666666666668
-50.0   90.0   0.0
-50.0   120.0   0.0
-100.0   120.0   0.0
-50.0   120.0   16.666666666666668
-100.0   90.0   16.666666666666668
-100.0   120.0   16.666666666666668
-50.0   120.0   16.666666666666668
-100.0   120.0   0.0
-100.0   90.0   16.666666666666668
-50.0   120.0   16.666666666666668
-50.0   90.0   16.666666666666668
-50.0   90.0   0.0
-100.0   90.0   16.666666666666668
-50.0   120.0   16.666666666666668
-50.0   90.0   0.0
-100.0   120.0   0.0
-100.0   90.0   16.666666666666668
-50.0   90.0   16.666666666666668
-100.0   120.0   16.666666666666668
-100.0   90.0   33.333333333333336
-50.0   90.0   16.666666666666668
-50.0   120.0   16.666666666666668
-100.0   120.0   16.666666666666668
-50.0   120.0   33.333333333333336
-100.0   90.0   33.333333333333336
-100.0   120.0   33.333333333333336
-50.0   120.0   33.333333333333336
-100.0   120.0   16.666666666666668
-100.0   90.0   33.333333333333336
-50.0   120.0   33.333333333333336
-50.0   90.0   33.333333333333336
-50.0   90.0   16.666666666666668
-100.0   90.0   33.333333333333336
-50.0   120.0   33.333333333333336
-50.0   90.0   16.666666666666668
-100.0   120.0   16.666666666666668
-100.0   90.0   33.333333333333336
-50.0   90.0   33.333333333333336
-100.0   120.0   33.333333333333336
-100.0   90.0   50.0
-50.0   90.0   33.333333333333336
-50.0   120.0   33.333333333333336
-100.0   120.0   33.333333333333336
-50.0   120.0   50.0
-100.0   90.0   50.0
-100.0   120.0   50.0
-50.0   120.0   50.0
-100.0   120.0   33.333333333333336
-100.0   90.0   50.0
-50.0   120.0   50.0
-50.0   90.0   50.0
-50.0   90.0   33.333333333333336
-100.0   90.0   50.0
-50.0   120.0   50.0
-50.0   90.0   33.333333333333336
-100.0   120.0   33.333333333333336
-100.0   120.0   0.0
-50.0   120.0   0.0
-100.0   150.0   0.0
-100.0   120.0   16.666666666666668
-50.0   120.0   0.0
-50.0   150.0   0.0
-100.0   150.0   0.0
-50.0   150.0   16.666666666666668
-100.0   120.0   16.666666666666668
-100.0   150.0   16.666666666666668
-50.0   150.0   16.666666666666668
-100.0   150.0   0.0
-100.0   120.0   16.666666666666668
-50.0   150.0   16.666666666666668
-50.0   120.0   16.666666666666668
-50.0   120.0   0.0
-100.0   120.0   16.666666666666668
-50.0   150.0   16.666666666666668
-50.0   120.0   0.0
-100.0   150.0   0.0
-100.0   120.0   16.666666666666668
-50.0   120.0   16.666666666666668
-100.0   150.0   16.666666666666668
-100.0   120.0   33.333333333333336
-50.0   120.0   16.666666666666668
-50.0   150.0   16.666666666666668
-100.0   150.0   16.666666666666668
-50.0   150.0   33.333333333333336
-100.0   120.0   33.333333333333336
-100.0   150.0   33.333333333333336
-50.0   150.0   33.333333333333336
-100.0   150.0   16.666666666666668
-100.0   120.0   33.333333333333336
-50.0   150.0   33.333333333333336
-50.0   120.0   33.333333333333336
-50.0   120.0   16.666666666666668
-100.0   120.0   33.333333333333336
-50.0   150.0   33.333333333333336
-50.0   120.0   16.666666666666668
-100.0   150.0   16.666666666666668
-100.0   120.0   33.333333333333336
-50.0   120.0   33.333333333333336
-100.0   150.0   33.333333333333336
-100.0   120.0   50.0
-50.0   120.0   33.333333333333336
-50.0   150.0   33.333333333333336
-100.0   150.0   33.333333333333336
-50.0   150.0   50.0
-100.0   120.0   50.0
-100.0   150.0   50.0
-50.0   150.0   50.0
-100.0   150.0   33.333333333333336
-100.0   120.0   50.0
-50.0   150.0   50.0
-50.0   120.0   50.0
-50.0   120.0   33.333333333333336
-100.0   120.0   50.0
-50.0   150.0   50.0
-50.0   120.0   33.333333333333336
-100.0   150.0   33.333333333333336
-50.0   0.0   0.0
0.0   0.0   0.0
-50.0   30.0   0.0
-50.0   0.0   16.666666666666668
0.0   0.0   0.0
0.0   30.0   0.0
-50.0   30.0   0.0
0.0   30.0   16.666666666666668
-50.0   0.0   16.666666666666668
-50.0   30.0   16.666666666666668
0.0   30.0   16.666666666666668
-50.0   30.0   0.0
-50.0   0.0   16.666666666666668
0.0   30.0   16.666666666666668
0.0   0.0   16.666666666666668
0.0   0.0   0.0
-50.0   0.0   16.666666666666668
0.0   30.0   16.666666666666668
0.0   0.0   0.0
-50.0   30.0   0.0
-50.0   0.0   16.666666666666668
0.0   0.0   16.666666666666668
-50.0   30.0   16.666666666666668
-50.0   0.0   33.333333333333336
0.0   0.0   16.666666666666668
0.0   30.0   16.666666666666668
-50.0   30.0   16.666666666666668
0.0   30.0   33.333333333333336
-50.0   0.0   33.333333333333336
-50.0   30.0   33.333333333333336
0.0   30.0   33.333333333333336
-50.0   30.0   16.666666666666668
-50.0   0.0   33.333333333333336
0.0   30.0   33.333333333333336
0.0   0.0   33.333333333333336
0.0   0.0   16.666666666666668
-50.0   0.0   33.333333333333336
0.0   30.0   33.333333333333336
0.0   0.0   16.666666666666668
-50.0   30.0   16.666666666666668
-50.0   0.0   33.333333333333336
0.0   0.0   33.333333333333336
-50.0   30.0   33.333333333333336
-50.0   0.0   50.0
0.0   0.0   33.333333333333336
0.0   30.0   33.333333333333336
-50.0   30.0   33.333333333333336
0.0   30.0   50.0
-50.0   0.0   50.0
-50.0   30.0   50.0
0.0   30.0   50.0
-50.0   30.0   33.333333333333336
-50.0   0.0   50.0
0.0   30.0   50.0
0.0   0.0   50.0
0.0   0.0   33.333333333333336
-50.0   0.0   50.0
0.0   30.0   50.0
0.0   0.0   33.333333333333336
-50.0   30.0   33.333333333333336
-50.0   30.0   0.0
0.0   30.0   0.0
-50.0   60.0   0.0
-50.0   30.0   16.666666666666668
0.0   30.0   0.0
0.0   60.0   0.0
-50.0   60.0   0.0
0.0   60.0   16.666666666666668
-50.0   30.0   16.666666666666668
-50.0   60.0   16.666666666666668
0.0   60.0   16.666666666666668
-50.0   60.0   0.0
-50.0   30.0   16.666666666666668
0.0   60.0   16.666666666666668
0.0   30.0   16.666666666666668
0.0   30.0   0.0
-50.0   30.0   16.666666666666668
0.0   60.0   16.666666666666668
0.0   30.0   0.0
-50.0   60.0   0.0
-50.0   30.0   16.666666666666668
0.0   30.0   16.666666666666668
-50.0   60.0   16.666666666666668
-50.0   30.0   33.333333333333336
0.0   30.0   16.666666666666668
0.0   60.0   16.666666666666668
-50.0   60.0   16.666666666666668
0.0   60.0   33.333333333333336
-50.0   30.0   33.333333333333336
-50.0   60.0   33.333333333333336
0.0   60.0   33.333333333333336
-50.0   60.0   16.666666666666668
-50.0   30.0   33.333333333333336
0.0   60.0   33.333333333333336
0.0   30.0   33.333333333333336
0.0   30.0   16.666666666666668
-50.0   30.0   33.333333333333336
0.0   60.0   33.333333333333336
0.0   30.0   16.666666666666668
-50.0   60.0   16.666666666666668
-50.0   30.0   33.333333333333336
0.0   30.0   33.333333333333336
-50.0   60.0   33.333333333333336
-50.0   30.0   50.0
0.0   30.0   33.333333333333336
0.0   60.0   33.333333333333336
-50.0   60.0   33.333333333333336
0.0   60.0   50.0
-50.0   30.0   50.0
-50.0   60.0   50.0
0.0   60.0   50.0
-50.0   60.0   33.333333333333336
-50.0   30.0   50.0
0.0   60.0   50.0
0.0   30.0   50.0
0.0   30.0   33.333333333333336
-50.0   30.0   50.0
0.0   60.0   50.0
0.0   30.0   33.333333333333336
-50.0   60.0   33.333333333333336
-50.0   60.0   0.0
0.0   60.0   0.0
-50.0   90.0   0.0
-50.0   60.0   16.666666666666668
0.0   60.0   0.0
0.0   90.0   0.0
-50.0   90.0   0.0
0.0   90.0   16.666666666666668
-50.0   60.0   16.666666666666668
-50.0   90.0   16.666666666666668
0.0   90.0   16.666666666666668
-50.0   90.0   0.0
-50.0   60.0   16.666666666666668
0.0   90.0   16.666666666666668
0.0   60.0   16.666666666666668
0.0   60.0   0.0
-50.0   60.0   16.666666666666668
0.0   90.0   16.666666666666668
0.0   60.0   0.0
-50.0   90.0   0.0
-50.0   60.0   16.666666666666668
0.0   60.0   16.666666666666668
-50.0   90.0   16.666666666666668
-50.0   60.0   33.333333333333336
0.0   60.0   16.666666666666668
0.0   90.0   16.666666666666668
-50.0   90.0   16.666666666666668
0.0   90.0   33.333333333333336
-50.0   60.0   33.333333333333336
-50.0   90.0   33.333333333333336
0.0   90.0   33.333333333333336
-50.0   90.0   16.666666666666668
-50.0   60.0   33.333333333333336
0.0   90.0   33.333333333333336
0.0   60.0   33.333333333333336
0.0   60.0   16.666666666666668
-50.0   60.0   33.333333333333336
0.0   90.0   33.333333333333336
0.0   60.0   16.666666666666668
-50.0   90.0   16.666666666666668
-50.0   60.0   33.333333333333336
0.0   60.0   33.333333333333336
-50.0   90.0   33.333333333333336
-50.0   60.0   50.0
0.0   60.0   33.333333333333336
0.0   90.0   33.333333333333336
-50.0   90.0   33.333333333333336
0.0   90.0   50.0
-50.0   60.0   50.0
-50.0   90.0   50.0
0.0   90.0   50.0
-50.0   90.0   33.333333333333336
-50.0   60.0   50.0
0.0   90.0   50.0
0.0   60.0   50.0
0.0   60.0   33.333333333333336
-50.0   60.0   50.0
0.0   90.0   50.0
0.0   60.0   33.333333333333336
-50.0   90.0   33.333333333333336
-50.0   90.0   0.0
0.0   90.0   0.0
-50.0   120.0   0.0
-50.0   90.0   16.666666666666668
0.0   90.0   0.0
0.0   120.0   0.0
-50.0   120.0   0.0
0.0   120.0   16.666666666666668
-50.0   90.0   16.666666666666668
-50.0   120.0   16.666666666666668
0.0   120.0   16.666666666666668
-50.0   120.0   0.0
-50.0   90.0   16.666666666666668
0.0   120.0   16.666666666666668
0.0   90.0   16.666666666666668
0.0   90.0   0.0
-50.0   90.0   16.666666666666668
0.0   120.0   16.666666666666668
0.0   90.0   0.0
-50.0   120.0   0.0
-50.0   90.0   16.666666666666668
0.0   90.0   16.666666666666668
-50.0   120.0   16.666666666666668
-50.0   90.0   33.333333333333336
0.0   90.0   16.666666666666668
0.0   120.0   16.666666666666668
-50.0   120.0   16.666666666666668
0.0   120.0   33.333333333333336
-50.0   90.0   33.333333333333336
-50.0   120.0   33.333333333333336
0.0   120.0   33.333333333333336
-50.0   120.0   16.666666666666668
-50.0   90.0   33.333333333333336
0.0   120.0   33.333333333333336
0.0   90.0   33.333333333333336
0.0   90.0   16.666666666666668
-50.0   90.0   33.333333333333336
0.0   120.0   33.333333333333336
0.0   90.0   16.666666666666668
-50.0   120.0   16.666666666666668
-50.0   90.0   33.333333333333336
0.0   90.0   33.333333333333336
-50.0   120.0   33.333333333333336
-50.0   90.0   50.0
0.0   90.0   33.333333333333336
0.0   120.0   33.333333333333336
-50.0   120.0   33.333333333333336
0.0   120.0   50.0
-50.0   90.0   50.0
-50.0   120.0   50.0
0.0   120.0   50.0
-50.0   120.0   33.333333333333336
-50.0   90.0   50.0
0.0   120.0   50.0
0.0   90.0   50.0
0.0   90.0   33.333333333333336
-50.0   90.0   50.0
0.0   120.0   50.0
0.0   90.0   33.333333333333336
-50.0   120.0   33.333333333333336
-50.0   120.0   0.0
0.0   120.0   0.0
-50.0   150.0   0.0
-50.0   120.0   16.666666666666668
0.0   120.0   0.0
0.0   150.0   0.0
-50.0   150.0   0.0
0.0   150.0   16.666666666666668
-50.0   120.0   16.666666666666668
-50.0   150.0   16.666666666666668
0.0   150.0   16.666666666666668
-50.0   150.0   0.0
-50.0   120.0   16.666666666666668
0.0   150.0   16.666666666666668
0.0   120.0   16.666666666666668
0.0   120.0   0.0
-50.0   120.0   16.666666666666668
0.0   150.0   16.666666666666668
0.0   120.0   0.0
-50.0   150.0   0.0
-50.0   120.0   16.666666666666668
0.0   120.0   16.666666666666668
-50.0   150.0   16.666666666666668
-50.0   120.0   33.333333333333336
0.0   120.0   16.666666666666668
0.0   150.0   16.666666666666668
-50.0   150.0   16.666666666666668
0.0   150.0   33.333333333333336
-50.0   120.0   33.333333333333336
-50.0   150.0   33.333333333333336
0.0   150.0   33.333333333333336
-50.0   150.0   16.666666666666668
-50.0   120.0   33.333333333333336
0.0   150.0   33.333333333333336
0.0   120.0   33.333333333333336
0.0   120.0   16.666666666666668
-50.0   120.0   33.333333333333336
0.0   150.0   33.333333333333336
0.0   120.0   16.666666666666668
-50.0   150.0   16.666666666666668
-50.0   120.0   33.333333333333336
0.0   120.0   33.333333333333336
-50.0   150.0   33.333333333333336
-50.0   120.0   50.0
0.0   120.0   33.333333333333336
0.0   150.0   33.333333333333336
-50.0   150.0   33.333333333333336
0.0   150.0   50.0
-50.0   120.0   50.0
-50.0   150.0   50.0
0.0   150.0   50.0
-50.0   150.0   33.333333333333336
-50.0   120.0   50.0
0.0   150.0   50.0
0.0   120.0   50.0
0.0   120.0   33.333333333333336
-50.0   120.0   50.0
0.0   150.0   50.0
0.0   120.0   33.333333333333336
-50.0   150.0   33.333333333333336
0.0   0.0   0.0
50.0   0.0   0.0
0.0   30.0   0.0
0.0   0.0   16.666666666666668
50.0   0.0   0.0
50.0   30.0   0.0
0.0   30.0   0.0
50.0   30.0   16.666666666666668
0.0   0.0   16.666666666666668
0.0   30.0   16.666666666666668
50.0   30.0   16.666666666666668
0.0   30.0   0.0
0.0   0.0   16.666666666666668
50.0   30.0   16.666666666666668
50.0   0.0   16.666666666666668
50.0   0.0   0.0
0.0   0.0   16.666666666666668
50.0   30.0   16.666666666666668
50.0   0.0   0.0
0.0   30.0   0.0
0.0   0.0   16.666666666666668
50.0   0.0   16.666666666666668
0.0   30.0   16.666666666666668
0.0   0.0   33.333333333333336
50.0   0.0   16.666666666666668
50.0   30.0   16.666666666666668
0.0   30.0   16.666666666666668
50.0   30.0   33.333333333333336
0.0   0.0   33.333333333333336
0.0   30.0   33.333333333333336
50.0   30.0   33.333333333333336
0.0   30.0   16.666666666666668
0.0   0.0   33.333333333333336
50.0   30.0   33.333333333333336
50.0   0.0   33.333333333333336
50.0   0.0   16.666666666666668
0.0   0.0   33.333333333333336
50.0   30.0   33.333333333333336
50.0   0.0   16.666666666666668
0.0   30.0   16.666666666666668
0.0   0.0   33.333333333333336
50.0   0.0   33.333333333333336
0.0   30.0   33.333333333333336
0.0   0.0   50.0
50.0   0.0   33.333333333333336
50.0   30.0   33.333333333333336
0.0   30.0   33.333333333333336
50.0   30.0   50.0
0.0   0.0   50.0
0.0   30.0   50.0
50.0   30.0   50.0
0.0   30.0   33.333333333333336
0.0   0.0   50.0
50.0   30.0   50.0
50.0   0.0   50.0
50.0   0.0   33.333333333333336
0.0   0.0   50.0
50.0   30.0   50.0
50.0   0.0   33.333333333333336
0.0   30.0   33.333333333333336
0.0   30.0   0.0
50.0   30.0   0.0
0.0   60.0   0.0
0.0   30.0   16.666666666666668
50.0   30.0   0.0
50.0   60.0   0.0
0.0   60.0   0.0
50.0   60.0   16.666666666666668
0.0   30.0   16.666666666666668
0.0   60.0   16.666666666666668
50.0   60.0   16.666666666666668
0.0   60.0   0.0
0.0   30.0   16.666666666666668
50.0   60.0   16.666666666666668
50.0   30.0   16.666666666666668
50.0   30.0   0.0
0.0   30.0   16.666666666666668
50.0   60.0   16.666666666666668
50.0   30.0   0.0
0.0   60.0   0.0
0.0   30.0   16.666666666666668
50.0   30.0   16.666666666666668
0.0   60.0   16.666666666666668
0.0   30.0   33.333333333333336
50.0   30.0   16.666666666666668
50.0   60.0   16.666666666666668
0.0   60.0   16.666666666666668
50.0   60.0   33.333333333333336
0.0   30.0   33.333333333333336
0.0   60.0   33.333333333333336
50.0   60.0   33.333333333333336
0.0   60.0   16.666666666666668
0.0   30.0   33.333333333333336
50.0   60.0   33.333333333333336
50.0   30.0   33.333333333333336
50.0   30.0   16.666666666666668
0.0   30.0   33.333333333333336
50.0   60.0   33.333333333333336
50.0   30.0   16.666666666666668
0.0   60.0   16.666666666666668
0.0   30.0   33.333333333333336
50.0   30.0   33.333333333333336
0.0   60.0   33.333333333333336
0.0   30.0   50.0
50.0   30.0   33.333333333333336
50.0   60.0   33.333333333333336
0.0   60.0   33.333333333333336
50.0   60.0   50.0
0.0   30.0   50.0
0.0   60.0   50.0
50.0   60.0   50.0
0.0   60.0   33.333333333333336
0.0   30.0   50.0
50.0   60.0   50.0
50.0   30.0   50.0
50.0   30.0   33.333333333333336
0.0   30.0   50.0
50.0   60.0   50.0
50.0   30.0   33.333333333333336
0.0   60.0   33.333333333333336
0.0   60.0   0.0
50.0   60.0   0.0
0.0   90.0   0.0
0.0   60.0   16.666666666666668
50.0   60.0   0.0
50.0   90.0   0.0
0.0   90.0   0.0
50.0   90.0   16.666666666666668
0.0   60.0   16.666666666666668
0.0   90.0   16.666666666666668
50.0   90.0   16.666666666666668
0.0   90.0   0.0
0.0   60.0   16.666666666666668
50.0   90.0   16.666666666666668
50.0   60.0   16.666666666666668
50.0   60.0   0.0
0.0   60.0   16.666666666666668
50.0   90.0   16.666666666666668
50.0   60.0   0.0
0.0   90.0   0.0
0.0   60.0   16.666666666666668
50.0   60.0   16.666666666666668
0.0   90.0   16.666666666666668
0.0   60.0   33.333333333333336
50.0   60.0   16.666666666666668
50.0   90.0   16.666666666666668
0.0   90.0   16.666666666666668
50.0   90.0   33.333333333333336
0.0   60.0   33.333333333333336
0.0   90.0   33.333333333333336
50.0   90.0   33.333333333333336
0.0   90.0   16.666666666666668
0.0   60.0   33.333333333333336
50.0   90.0   33.333333333333336
50.0   60.0   33.333333333333336
50.0   60.0   16.666666666666668
0.0   60.0   33.333333333333336
50.0   90.0   33.333333333333336
50.0   60.0   16.666666666666668
0.0   90.0   16.666666666666668
0.0   60.0   33.333333333333336
50.0   60.0   33.333333333333336
0.0   90.0   33.333333333333336
0.0   60.0   50.0
50.0   60.0   33.333333333333336
50.0   90.0   33.333333333333336
0.0   90.0   33.333333333333336
50.0   90.0   50.0
0.0   60.0   50.0
0.0   90.0   50.0
50.0   90.0   50.0
0.0   90.0   33.333333333333336
0.0   60.0   50.0
50.0   90.0   50.0
50.0   60.0   50.0
50.0   60.0   33.333333333333336
0.0   60.0   50.0
50.0   90.0   50.0
50.0   60.0   33.333333333333336
0.0   90.0   33.333333333333336
0.0   90.0   0.0
50.0   90.0   0.0
0.0   120.0   0.0
0.0   90.0   16.666666666666668
50.0   90.0   0.0
50.0   120.0   0.0
0.0   120.0   0.0
50.0   120.0   16.666666666666668
0.0   90.0   16.666666666666668
0.0   120.0   16.666666666666668
50.0   120.0   16.666666666666668
0.0   120.0   0.0
0.0   90.0   16.666666666666668
50.0   120.0   16.666666666666668
50.0   90.0   16.666666666666668
50.0   90.0   0.0
0.0   90.0   16.666666666666668
50.0   120.0   16.666666666666668
50.0   90.0   0.0
0.0   120.0   0.0
0.0   90.0   16.666666666666668
50.0   90.0   16.666666666666668
0.0   120.0   16.666666666666668
0.0   90.0   33.333333333333336
50.0   90.0   16.666666666666668
50.0   120.0   16.666666666666668
0.0   120.0   16.666666666666668
50.0   120.0   33.333333333333336
0.0   90.0   33.333333333333336
0.0   120.0   33.333333333333336
50.0   120.0   33.333333333333336
0.0   120.0   16.666666666666668
0.0   90.0   33.333333333333336
50.0   120.0   33.333333333333336
50.0   90.0   33.333333333333336
50.0   90.0   16.666666666666668
0.0   90.0   33.333333333333336
50.0   120.0   33.333333333333336
50.0   90.0   16.666666666666668
0.0   120.0   16.666666666666668
0.0   90.0   33.333333333333336
50.0   90.0   33.333333333333336
0.0   120.0   33.333333333333336
0.0   90.0   50.0
50.0   90.0   33.333333333333336
50.0   120.0   33.333333333333336
0.0   120.0   33.333333333333336
50.0   120.0   50.0
0.0   90.0   50.0
0.0   120.0   50.0
50.0   120.0   50.0
0.0   120.0   33.333333333333336
0.0   90.0   50.0
50.0   120.0   50.0
50.0   90.0   50.0
50.0   90.0   33.333333333333336
0.0   90.0   50.0
50.0   120.0   50.0
50.0   90.0   33.333333333333336
0.0   120.0   33.333333333333336
0.0   120.0   0.0
50.0   120.0   0.0
0.0   150.0   0.0
0.0   120.0   16.666666666666668
50.0   120.0   0.0
50.0   150.0   0.0
0.0   150.0   0.0
50.0   150.0   16.666666666666668
0.0   120.0   16.666666666666668
0.0   150.0   16.666666666666668
50.0   150.0   16.666666666666668
0.0   150.0   0.0
0.0   120.0   16.666666666666668
50.0   150.0   16.666666666666668
50.0   120.0   16.666666666666668
50.0   120.0   0.0
0.0   120.0   16.666666666666668
50.0   150.0   16.666666666666668
50.0   120.0   0.0
0.0   150.0   0.0
0.0   120.0   16.666666666666668
50.0   120.0   16.666666666666668
0.0   150.0   16.666666666666668
0.0   120.0   33.333333333333336
50.0   120.0   16.666666666666668
50.0   150.0   16.666666666666668
0.0   150.0   16.666666666666668
50.0   150.0   33.333333333333336
0.0   120.0   33.333333333333336
0.0   150.0   33.333333333333336
50.0   150.0   33.333333333333336
0.0   150.0   16.666666666666668
0.0   120.0   33.333333333333336
50.0   150.0   33.333333333333336
50.0   120.0   33.333333333333336
50.0   120.0   16.666666666666668
0.0   120.0   33.333333333333336
50.0   150.0   33.333333333333336
50.0   120.0   16.666666666666668
0.0   150.0   16.666666666666668
0.0   120.0   33.333333333333336
50.0   120.0   33.333333333333336
0.0   150.0   33.333333333333336
0.0   120.0   50.0
50.0   120.0   33.333333333333336
50.0   150.0   33.333333333333336
0.0   150.0   33.333333333333336
50.0   150.0   50.0
0.0   120.0   50.0
0.0   150.0   50.0
50.0   150.0   50.0
0.0   150.0   33.333333333333336
0.0   120.0   50.0
50.0   150.0   50.0
50.0   120.0   50.0
50.0   120.0   33.333333333333336
0.0   120.0   50.0
50.0   150.0   50.0
50.0   120.0   33.333333333333336
0.0   150.0   33.333333333333336
50.0   0.0   0.0
100.0   0.0   0.0
50.0   30.0   0.0
50.0   0.0   16.666666666666668
100.0   0.0   0.0
100.0   30.0   0.0
50.0   30.0   0.0
100.0   30.0   16.666666666666668
50.0   0.0   16.666666666666668
50.0   30.0   16.666666666666668
100.0   30.0   16.666666666666668
50.0   30.0   0.0
50.0   0.0   16.666666666666668
100.0   30.0   16.666666666666668
100.0   0.0   16.666666666666668
100.0   0.0   0.0
50.0   0.0   16.666666666666668
100.0   30.0   16.666666666666668
100.0   0.0   0.0
50.0   30.0   0.0
50.0   0.0   16.666666666666668
100.0   0.0   16.666666666666668
50.0   30.0   16.666666666666668
50.0   0.0   33.333333333333336
100.0   0.0   16.666666666666668
100.0   30.0   16.666666666666668
50.0   30.0   16.666666666666668
100.0   30.0   33.333333333333336
50.0   0.0   33.333333333333336
50.0   30.0   33.333333333333336
100.0   30.0   33.333333333333336
50.0   30.0   16.666666666666668
50.0   0.0   33.333333333333336
100.0   30.0   33.333333333333336
100.0   0.0   33.333333333333336
100.0   0.0   16.666666666666668
50.0   0.0   33.333333333333336
100.0   30.0   33.333333333333336
100.0   0.0   16.666666666666668
50.0   30.0   16.666666666666668
50.0   0.0   33.333333333333336
100.0   0.0   33.333333333333336
50.0   30.0   33.333333333333336
50.0   0.0   50.0
100.0   0.0   33.333333333333336
100.0   30.0   33.333333333333336
50.0   30.0   33.333333333333336
100.0   30.0   50.0
50.0   0.0   50.0
50.0   30.0   50.0
100.0   30.0   50.0
50.0   30.0   33.333333333333336
50.0   0.0   50.0
100.0   30.0   50.0
100.0   0.0   50.0
100.0   0.0   33.333333333333336
50.0   0.0   50.0
100.0   30.0   50.0
100.0   0.0   33.333333333333336
50.0   30.0   33.333333333333336
50.0   30.0   0.0
100.0   30.0   0.0
50.0   60.0   0.0
50.0   30.0   16.666666666666668
100.0   30.0   0.0
100.0   60.0   0.0
50.0   60.0   0.0
100.0   60.0   16.666666666666668
50.0   30.0   16.666666666666668
50.0   60.0   16.666666666666668
100.0   60.0   16.666666666666668
50.0   60.0   0.0
50.0   30.0   16.666666666666668
100.0   60.0   16.666666666666668
100.0   30.0   16.666666666666668
100.0   30.0   0.0
50.0   30.0   16.666666666666668
100.0   60.0   16.666666666666668
100.0   30.0   0.0
50.0   60.0   0.0
50.0   30.0   16.666666666666668
100.0   30.0   16.666666666666668
50.0   60.0   16.666666666666668
50.0   30.0   33.333333333333336
100.0   30.0   16.666666666666668
100.0   60.0   16.666666666666668
50.0   60.0   16.666666666666668
100.0   60.0   33.333333333333336
50.0   30.0   33.333333333333336
50.0   60.0   33.333333333333336
100.0   60.0   33.333333333333336
50.0   60.0   16.666666666666668
50.0   30.0   33.333333333333336
100.0   60.0   33.333333333333336
100.0   30.0   33.333333333333336
100.0   30.0   16.666666666666668
50.0   30.0   33.333333333333336
100.0   60.0   33.333333333333336
100.0   30.0   16.666666666666668
50.0   60.0   16.666666666666668
50.0   30.0   33.333333333333336
100.0   30.0   33.333333333333336
50.0   60.0   33.333333333333336
50.0   30.0   50.0
100.0   30.0   33.333333333333336
100.0   60.0   33.333333333333336
50.0   60.0   33.333333333333336
100.0   60.0   50.0
50.0   30.0   50.0
50.0   60.0   50.0
100.0   60.0   50.0
50.0   60.0   33.333333333333336
50.0   30.0   50.0
100.0   60.0   50.0
100.0   30.0   50.0
100.0   30.0   33.333333333333336
50.0   30.0   50.0
100.0   60.0   50.0
100.0   30.0   33.333333333333336
50.0   60.0   33.333333333333336
50.0   60.0   0.0
100.0   60.0   0.0
50.0   90.0   0.0
50.0   60.0   16.666666666666668
100.0   60.0   0.0
100.0   90.0   0.0
50.0   90.0   0.0
100.0   90.0   16.666666666666668
50.0   60.0   16.666666666666668
50.0   90.0   16.666666666666668
100.0   90.0   16.666666666666668
50.0   90.0   0.0
50.0   60.0   16.666666666666668
100.0   90.0   16.666666666666668
100.0   60.0   16.666666666666668
100.0   60.0   0.0
50.0   60.0   16.666666666666668
100.0   90.0   16.666666666666668
100.0   60.0   0.0
50.0   90.0   0.0
50.0   60.0   16.666666666666668
100.0   60.0   16.666666666666668
50.0   90.0   16.666666666666668
50.0   60.0   33.333333333333336
100.0   60.0   16.666666666666668
100.0   90.0   16.666666666666668
50.0   90.0   16.666666666666668
100.0   90.0   33.333333333333336
50.0   60.0   33.333333333333336
50.0   90.0   33.333333333333336
100.0   90.0   33.333333333333336
50.0   90.0   16.666666666666668
50.0   60.0   33.333333333333336
100.0   90.0   33.333333333333336
100.0   60.0   33.333333333333336
100.0   60.0   16.666666666666668
50.0   60.0   33.333333333333336
100.0   90.0   33.333333333333336
100.0   60.0   16.666666666666668
50.0   90.0   16.666666666666668
50.0   60.0   33.333333333333336
100.0   60.0   33.333333333333336
50.0   90.0   33.333333333333336
50.0   60.0   50.0
100.0   60.0   33.333333333333336
100.0   90.0   33.333333333333336
50.0   90.0   33.333333333333336
100.0   90.0   50.0
50.0   60.0   50.0
50.0   90.0   50.0
100.0   90.0   50.0
50.0   90.0   33.333333333333336
50.0   60.0   50.0
100.0   90.0   50.0
100.0   60.0   50.0
100.0   60.0   33.333333333333336
50.0   60.0   50.0
100.0   90.0   50.0
100.0   60.0   33.333333333333336
50.0   90.0   33.333333333333336
50.0   90.0   0.0
100.0   90.0   0.0
50.0   120.0   0.0
50.0   90.0   16.666666666666668
100.0   90.0   0.0
100.0   120.0   0.0
50.0   120.0   0.0
100.0   120.0   16.666666666666668
50.0   90.0   16.666666666666668
50.0   120.0   16.666666666666668
100.0   120.0   16.666666666666668
50.0   120.0   0.0
50.0   90.0   16.666666666666668
100.0   120.0   16.666666666666668
100.0   90.0   16.666666666666668
100.0   90.0   0.0
50.0   90.0   16.666666666666668
100.0   120.0   16.666666666666668
100.0   90.0   0.0
50.0   120.0   0.0
50.0   90.0   16.666666666666668
100.0   90.0   16.666666666666668
50.0   120.0   16.666666666666668
50.0   90.0   33.333333333333336
100.0   90.0   16.666666666666668
100.0   120.0   16.666666666666668
50.0   120.0   16.666666666666668
100.0   120.0   33.333333333333336
50.0   90.0   33.333333333333336
50.0   120.0   33.333333333333336
100.0   120.0   33.333333333333336
50.0   120.0   16.666666666666668
50.0   90.0   33.333333333333336
100.0   120.0   33.333333333333336
100.0   90.0   33.333333333333336
100.0   90.0   16.666666666666668
50.0   90.0   33.333333333333336
100.0   120.0   33.333333333333336
100.0   90.0   16.666666666666668
50.0   120.0   16.666666666666668
50.0   90.0   33.333333333333336
100.0   90.0   33.333333333333336
50.0   120.0   33.333333333333336
50.0   90.0   50.0
100.0   90.0   33.333333333333336
100.0   120.0   33.333333333333336
50.0   120.0   33.333333333333336
100.0   120.0   50.0
50.0   90.0   50.0
50.0   120.0   50.0
100.0   120.0   50.0
50.0   120.0   33.333333333333336
50.0   90.0   50.0
100.0   120.0   50.0
100.0   90.0   50.0
100.0   90.0   33.333333333333336
50.0   90.0   50.0
100.0   120.0   50.0
100.0   90.0   33.333333333333336
50.0   120.0   33.333333333333336
50.0   120.0   0.0
100.0   120.0   0.0
50.0   150.0   0.0
50.0   120.0   16.666666666666668
100.0   120.0   0.0
100.0   150.0   0.0
50.0   150.0   0.0
100.0   150.0   16.666666666666668
50.0   120.0   16.666666666666668
50.0   150.0   16.666666666666668
100.0   150.0   16.666666666666668
50.0   150.0   0.0
50.0   120.0   16.666666666666668
100.0   150.0   16.666666666666668
100.0   120.0   16.666666666666668
100.0   120.0   0.0
50.0   120.0   16.666666666666668
100.0   150.0   16.666666666666668
100.0   120.0   0.0
50.0   150.0   0.0
50.0   120.0   16.666666666666668
100.0   120.0   16.666666666666668
50.0   150.0   16.666666666666668
50.0   120.0   33.333333333333336
100.0   120.0   16.666666666666668
100.0   150.0   16.666666666666668
50.0   150.0   16.666666666666668
100.0   150.0   33.333333333333336
50.0   120.0   33.333333333333336
50.0   150.0   33.333333333333336
100.0   150.0   33.333333333333336
50.0   150.0   16.666666666666668
50.0   120.0   33.333333333333336
100.0   150.0   33.333333333333336
100.0   120.0   33.333333333333336
100.0   120.0   16.666666666666668
50.0   120.0   33.333333333333336
100.0   150.0   33.333333333333336
100.0   120.0   16.666666666666668
50.0   150.0   16.666666666666668
50.0   120.0   33.333333333333336
100.0   120.0   33.333333333333336
50.0   150.0   33.333333333333336
50.0   120.0   50.0
100.0   120.0   33.333333333333336
100.0   150.0   33.333333333333336
50.0   150.0   33.333333333333336
100.0   150.0   50.0
50.0   120.0   50.0
50.0   150.0   50.0
100.0   150.0   50.0
50.0   150.0   33.333333333333336
50.0   120.0   50.0
100.0   150.0   50.0
100.0   120.0   50.0
100.0   120.0   33.333333333333336
50.0   120.0   50.0
100.0   150.0   50.0
100.0   120.0   33.333333333333336
50.0   150.0   33.333333333333336
100.0   0.0   0.0
150.0   0.0   0.0
100.0   30.0   0.0
100.0   0.0   16.666666666666668
150.0   0.0   0.0
150.0   30.0   0.0
100.0   30.0   0.0
150.0   30.0   16.666666666666668
100.0   0.0   16.666666666666668
100.0   30.0   16.666666666666668
150.0   30.0   16.666666666666668
100.0   30.0   0.0
100.0   0.0   16.666666666666668
150.0   30.0   16.666666666666668
150.0   0.0   16.666666666666668
150.0   0.0   0.0
100.0   0.0   16.666666666666668
150.0   30.0   16.666666666666668
150.0   0.0   0.0
100.0   30.0   0.0
100.0   0.0   16.666666666666668
150.0   0.0   16.666666666666668
100.0   30.0   16.666666666666668
100.0   0.0   33.333333333333336
150.0   0.0   16.666666666666668
150.0   30.0   16.666666666666668
100.0   30.0   16.666666666666668
150.0   30.0   33.333333333333336
100.0   0.0   33.333333333333336
100.0   30.0   33.333333333333336
150.0   30.0   33.333333333333336
100.0   30.0   16.666666666666668
100.0   0.0   33.333333333333336
150.0   30.0   33.333333333333336
150.0   0.0   33.333333333333336
150.0   0.0   16.666666666666668
100.0   0.0   33.333333333333336
150.0   30.0   33.333333333333336
150.0   0.0   16.666666666666668
100.0   30.0   16.666666666666668
100.0   0.0   33.333333333333336
150.0   0.0   33.333333333333336
100.0   30.0   33.333333333333336
100.0   0.0   50.0
150.0   0.0   33.333333333333336
150.0   30.0   33.333333333333336
100.0   30.0   33.333333333333336
150.0   30.0   50.0
100.0   0.0   50.0
100.0   30.0   50.0
150.0   30.0   50.0
100.0   30.0   33.333333333333336
100.0   0.0   50.0
150.0   30.0   50.0
150.0   0.0   50.0
150.0   0.0   33.333333333333336
100.0   0.0   50.0
150.0   30.0   50.0
150.0   0.0   33.333333333333336
100.0   30.0   33.333333333333336
100.0   30.0   0.0
150.0   30.0   0.0
100.0   60.0   0.0
100.0   30.0   16.666666666666668
150.0   30.0   0.0
150.0   60.0   0.0
100.0   60.0   0.0
150.0   60.0   16.666666666666668
100.0   30.0   16.666666666666668
100.0   60.0   16.666666666666668
150.0   60.0   16.666666666666668
100.0   60.0   0.0
100.0   30.0   16.666666666666668
150.0   60.0   16.666666666666668
150.0   30.0   16.666666666666668
150.0   30.0   0.0
100.0   30.0   16.666666666666668
150.0   60.0   16.666666666666668
150.0   30.0   0.0
100.0   60.0   0.0
100.0   30.0   16.666666666666668
150.0   30.0   16.666666666666668
100.0   60.0   16.666666666666668
100.0   30.0   33.333333333333336
150.0   30.0   16.666666666666668
150.0   60.0   16.666666666666668
100.0   60.0   16.666666666666668
150.0   60.0   33.333333333333336
100.0   30.0   33.333333333333336
100.0   60.0   33.333333333333336
150.0   60.0   33.333333333333336
100.0   60.0   16.666666666666668
100.0   30.0   33.333333333333336
150.0   60.0   33.333333333333336
150.0   30.0   33.333333333333336
150.0   30.0   16.666666666666668
100.0   30.0   33.333333333333336
150.0   60.0   33.333333333333336
150.0   30.0   16.666666666666668
100.0   60.0   16.666666666666668
100.0   30.0   33.333333333333336
150.0   30.0   33.333333333333336
100.0   60.0   33.333333333333336
100.0   30.0   50.0
150.0   30.0   33.333333333333336
150.0   60.0   33.333333333333336
100.0   60.0   33.333333333333336
150.0   60.0   50.0
100.0   30.0   50.0
100.0   60.0   50.0
150.0   60.0   50.0
100.0   60.0   33.333333333333336
100.0   30.0   50.0
150.0   60.0   50.0
150.0   30.0   50.0
150.0   30.0   33.333333333333336
100.0   30.0   50.0
150.0   60.0   50.0
150.0   30.0   33.333333333333336
100.0   60.0   33.333333333333336
100.0   60.0   0.0
150.0   60.0   0.0
100.0   90.0   0.0
100.0   60.0   16.666666666666668
150.0   60.0   0.0
150.0   90.0   0.0
100.0   90.0   0.0
150.0   90.0   16.666666666666668
100.0   60.0   16.666666666666668
100.0   90.0   16.666666666666668
150.0   90.0   16.666666666666668
100.0   90.0   0.0
100.0   60.0   16.666666666666668
150.0   90.0   16.666666666666668
150.0   60.0   16.666666666666668
150.0   60.0   0.0
100.0   60.0   16.666666666666668
150.0   90.0   16.666666666666668
150.0   60.0   0.0
100.0   90.0   0.0
100.0   60.0   16.666666666666668
150.0   60.0   16.666666666666668
100.0   90.0   16.666666666666668
100.0   60.0   33.333333333333336
150.0   60.0   16.666666666666668
150.0   90.0   16.666666666666668
100.0   90.0   16.666666666666668
150.0   90.0   33.333333333333336
100.0   60.0   33.333333333333336
100.0   90.0   33.333333333333336
150.0   90.0   33.333333333333336
100.0   90.0   16.666666666666668
100.0   60.0   33.333333333333336
150.0   90.0   33.333333333333336
150.0   60.0   33.333333333333336
150.0   60.0   16.666666666666668
100.0   60.0   33.333333333333336
150.0   90.0   33.333333333333336
150.0   60.0   16.666666666666668
100.0   90.0   16.666666666666668
100.0   60.0   33.333333333333336
150.0   60.0   33.333333333333336
100.0   90.0   33.333333333333336
100.0   60.0   50.0
150.0   60.0   33.333333333333336
150.0   90.0   33.333333333333336
100.0   90.0   33.333333333333336
150.0   90.0   50.0
100.0   60.0   50.0
100.0   90.0   50.0
150.0   90.0   50.0
100.0   90.0   33.333333333333336
100.0   60.0   50.0
150.0   90.0   50.0
150.0   60.0   50.0
150.0   60.0   33.333333333333336
100.0   60.0   50.0
150.0   90.0   50.0
150.0   60.0   33.333333333333336
100.0   90.0   33.333333333333336
100.0   90.0   0.0
150.0   90.0   0.0
100.0   120.0   0.0
100.0   90.0   16.666666666666668
150.0   90.0   0.0
150.0   120.0   0.0
100.0   120.0   0.0
150.0   120.0   16.666666666666668
100.0   90.0   16.666666666666668
100.0   120.0   16.666666666666668
150.0   120.0   16.666666666666668
100.0   120.0   0.0
100.0   90.0   16.666666666666668
150.0   120.0   16.666666666666668
150.0   90.0   16.666666666666668
150.0   90.0   0.0
100.0   90.0   16.666666666666668
150.0   120.0   16.666666666666668
150.0   90.0   0.0
100.0   120.0   0.0
100.0   90.0   16.666666666666668
150.0   90.0   16.666666666666668
100.0   120.0   16.666666666666668
100.0   90.0   33.333333333333336
150.0   90.0   16.666666666666668
150.0   120.0   16.666666666666668
100.0   120.0   16.666666666666668
150.0   120.0   33.333333333333336
100.0   90.0   33.333333333333336
100.0   120.0   33.333333333333336
150.0   120.0   33.333333333333336
100.0   120.0   16.666666666666668
100.0   90.0   33.333333333333336
150.0   120.0   33.333333333333336
150.0   90.0   33.333333333333336
150.0   90.0   16.666666666666668
100.0   90.0   33.333333333333336
150.0   120.0   33.333333333333336
150.0   90.0   16.666666666666668
100.0   120.0   16.666666666666668
100.0   90.0   33.333333333333336
150.0   90.0   33.333333333333336
100.0   120.0   33.333333333333336
100.0   90.0   50.0
150.0   90.0   33.333333333333336
150.0   120.0   33.333333333333336
100.0   120.0   33.333333333333336
150.0   120.0   50.0
100.0   90.0   50.0
100.0   120.0   50.0
150.0   120.0   50.0
100.0   120.0   33.333333333333336
100.0   90.0   50.0
150.0   120.0   50.0
150.0   90.0   50.0
150.0   90.0   33.333333333333336
100.0   90.0   50.0
150.0   120.0   50.0
150.0   90.0   33.333333333333336
100.0   120.0   33.333333333333336
100.0   120.0   0.0
150.0   120.0   0.0
100.0   150.0   0.0
100.0   120.0   16.666666666666668
150.0   120.0   0.0
150.0   150.0   0.0
100.0   150.0   0.0
150.0   150.0   16.666666666666668
100.0   120.0   16.666666666666668
100.0   150.0   16.666666666666668
150.0   150.0   16.666666666666668
100.0   150.0   0.0
100.0   120.0   16.666666666666668
150.0   150.0   16.666666666666668
150.0   120.0   16.666666666666668
150.0   120.0   0.0
100.0   120.0   16.666666666666668
150.0   150.0   16.666666666666668
150.0   120.0   0.0
100.0   150.0   0.0
100.0   120.0   16.666666666666668
150.0   120.0   16.666666666666668
100.0   150.0   16.666666666666668
100.0   120.0   33.333333333333336
150.0   120.0   16.666666666666668
150.0   150.0   16.666666666666668
100.0   150.0   16.666666666666668
150.0   150.0   33.333333333333336
100.0   120.0   33.333333333333336
100.0   150.0   33.333333333333336
150.0   150.0   33.333333333333336
100.0   150.0   16.666666666666668
100.0   120.0   33.333333333333336
150.0   150.0   33.333333333333336
150.0   120.0   33.333333333333336
150.0   120.0   16.666666666666668
100.0   120.0   33.333333333333336
150.0   150.0   33.333333333333336
150.0   120.0   16.666666666666668
100.0   150.0   16.666666666666668
100.0   120.0   33.333333333333336
150.0   120.0   33.333333333333336
100.0   150.0   33.333333333333336
100.0   120.0   50.0
150.0   120.0   33.333333333333336
150.0   150.0   33.333333333333336
100.0   150.0   33.333333333333336
150.0   150.0   50.0
100.0   120.0   50.0
100.0   150.0   50.0
150.0   150.0   50.0
100.0   150.0   33.333333333333336
100.0   120.0   50.0
150.0   150.0   50.0
150.0   120.0   50.0
150.0   120.0   33.333333333333336
100.0   120.0   50.0
150.0   150.0   50.0
150.0   120.0   33.333333333333336
100.0   150.0   33.333333333333336
150.0   0.0   0.0
200.0   0.0   0.0
150.0   30.0   0.0
150.0   0.0   16.666666666666668
200.0   0.0   0.0
200.0   30.0   0.0
150.0   30.0   0.0
200.0   30.0   16.666666666666668
150.0   0.0   16.666666666666668
150.0   30.0   16.666666666666668
200.0   30.0   16.666666666666668
150.0   30.0   0.0
150.0   0.0   16.666666666666668
200.0   30.0   16.666666666666668
200.0   0.0   16.666666666666668
200.0   0.0   0.0
150.0   0.0   16.666666666666668
200.0   30.0   16.666666666666668
200.0   0.0   0.0
150.0   30.0   0.0
150.0   0.0   16.666666666666668
200.0   0.0   16.666666666666668
150.0   30.0   16.666666666666668
150.0   0.0   33.333333333333336
200.0   0.0   16.666666666666668
200.0   30.0   16.666666666666668
150.0   30.0   16.666666666666668
200.0   30.0   33.333333333333336
150.0   0.0   33.333333333333336
150.0   30.0   33.333333333333336
200.0   30.0   33.333333333333336
150.0   30.0   16.666666666666668
150.0   0.0   33.333333333333336
200.0   30.0   33.333333333333336
200.0   0.0   33.333333333333336
200.0   0.0   16.666666666666668
150.0   0.0   33.333333333333336
200.0   30.0   33.333333333333336
200.0   0.0   16.666666666666668
150.0   30.0   16.666666666666668
150.0   0.0   33.333333333333336
200.0   0.0   33.333333333333336
150.0   30.0   33.333333333333336
150.0   0.0   50.0
200.0   0.0   33.333333333333336
200.0   30.0   33.333333333333336
150.0   30.0   33.333333333333336
200.0   30.0   50.0
150.0   0.0   50.0
150.0   30.0   50.0
200.0   30.0   50.0
150.0   30.0   33.333333333333336
150.0   0.0   50.0
200.0   30.0   50.0
200.0   0.0   50.0
200.0   0.0   33.333333333333336
150.0   0.0   50.0
200.0   30.0   50.0
200.0   0.0   33.333333333333336
150.0   30.0   33.333333333333336
150.0   30.0   0.0
200.0   30.0   0.0
150.0   60.0   0.0
150.0   30.0   16.666666666666668
200.0   30.0   0.0
200.0   60.0   0.0
150.0   60.0   0.0
200.0   60.0   16.666666666666668
150.0   30.0   16.666666666666668
150.0   60.0   16.666666666666668
200.0   60.0   16.666666666666668
150.0   60.0   0.0
150.0   30.0   16.666666666666668
200.0   60.0   16.666666666666668
200.0   30.0   16.666666666666668
200.0   30.0   0.0
150.0   30.0   16.666666666666668
200.0   60.0   16.666666666666668
200.0   30.0   0.0
150.0   60.0   0.0
150.0   30.0   16.666666666666668
200.0   30.0   16.666666666666668
150.0   60.0   16.666666666666668
150.0   30.0   33.333333333333336
200.0   30.0   16.666666666666668
200.0   60.0   16.666666666666668
150.0   60.0   16.666666666666668
200.0   60.0   33.333333333333336
150.0   30.0   33.333333333333336
150.0   60.0   33.333333333333336
200.0   60.0   33.333333333333336
150.0   60.0   16.666666666666668
150.0   30.0   33.333333333333336
200.0   60.0   33.333333333333336
200.0   30.0   33.333333333333336
200.0   30.0   16.666666666666668
150.0   30.0   33.333333333333336
200.0   60.0   33.333333333333336
200.0   30.0   16.666666666666668
150.0   60.0   16.666666666666668
150.0   30.0   33.333333333333336
200.0   30.0   33.333333333333336
150.0   60.0   33.333333333333336
150.0   30.0   50.0
200.0   30.0   33.333333333333336
200.0   60.0   33.333333333333336
150.0   60.0   33.333333333333336
200.0   60.0   50.0
150.0   30.0   50.0
150.0   60.0   50.0
200.0   60.0   50.0
150.0   60.0   33.333333333333336
150.0   30.0   50.0
200.0   60.0   50.0
200.0   30.0   50.0
200.0   30.0   33.333333333333336
150.0   30.0   50.0
200.0   60.0   50.0
200.0   30.0   33.333333333333336
150.0   60.0   33.333333333333336
150.0   60.0   0.0
200.0   60.0   0.0
150.0   90.0   0.0
150.0   60.0   16.666666666666668
200.0   60.0   0.0
200.0   90.0   0.0
150.0   90.0   0.0
200.0   90.0   16.666666666666668
150.0   60.0   16.666666666666668
150.0   90.0   16.666666666666668
200.0   90.0   16.666666666666668
150.0   90.0   0.0
150.0   60.0   16.666666666666668
200.0   90.0   16.666666666666668
200.0   60.0   16.666666666666668
200.0   60.0   0.0
150.0   60.0   16.666666666666668
200.0   90.0   16.666666666666668
200.0   60.0   0.0
150.0   90.0   0.0
150.0   60.0   16.666666666666668
200.0   60.0   16.666666666666668
150.0   90.0   16.666666666666668
150.0   60.0   33.333333333333336
200.0   60.0   16.666666666666668
200.0   90.0   16.666666666666668
150.0   90.0   16.666666666666668
200.0   90.0   33.333333333333336
150.0   60.0   33.333333333333336
150.0   90.0   33.333333333333336
200.0   90.0   33.333333333333336
150.0   90.0   16.666666666666668
150.0   60.0   33.333333333333336
200.0   90.0   33.333333333333336
200.0   60.0   33.333333333333336
200.0   60.0   16.666666666666668
150.0   60.0   33.333333333333336
200.0   90.0   33.333333333333336
200.0   60.0   16.666666666666668
150.0   90.0   16.666666666666668
150.0   60.0   33.333333333333336
200.0   60.0   33.333333333333336
150.0   90.0   33.333333333333336
150.0   60.0   50.0
200.0   60.0   33.333333333333336
200.0   90.0   33.333333333333336
150.0   90.0   33.333333333333336
200.0   90.0   50.0
150.0   60.0   50.0
150.0   90.0   50.0
200.0   90.0   50.0
150.0   90.0   33.333333333333336
150.0   60.0   50.0
200.0   90.0   50.0
200.0   60.0   50.0
200.0   60.0   33.333333333333336
150.0   60.0   50.0
200.0   90.0   50.0
200.0   60.0   33.333333333333336
150.0   90.0   33.333333333333336
150.0   90.0   0.0
200.0   90.0   0.0
150.0   120.0   0.0
150.0   90.0   16.666666666666668
200.0   90.0   0.0
200.0   120.0   0.0
150.0   120.0   0.0
200.0   120.0   16.666666666666668
150.0   90.0   16.666666666666668
150.0   120.0   16.666666666666668
200.0   120.0   16.666666666666668
150.0   120.0   0.0
150.0   90.0   16.666666666666668
200.0   120.0   16.666666666666668
200.0   90.0   16.666666666666668
200.0   90.0   0.0
150.0   90.0   16.666666666666668
200.0   120.0   16.666666666666668
200.0   90.0   0.0
150.0   120.0   0.0
150.0   90.0   16.666666666666668
200.0   90.0   16.666666666666668
150.0   120.0   16.666666666666668
150.0   90.0   33.333333333333336
200.0   90.0   16.666666666666668
200.0   120.0   16.666666666666668
150.0   120.0   16.666666666666668
200.0   120.0   33.333333333333336
150.0   90.0   33.333333333333336
150.0   120.0   33.333333333333336
200.0   120.0   33.333333333333336
150.0   120.0   16.666666666666668
150.0   90.0   33.333333333333336
200.0   120.0   33.333333333333336
200.0   90.0   33.333333333333336
200.0   90.0   16.666666666666668
150.0   90.0   33.333333333333336
200.0   120.0   33.333333333333336
200.0   90.0   16.666666666666668
150.0   120.0   16.666666666666668
150.0   90.0   33.333333333333336
200.0   90.0   33.333333333333336
150.0   120.0   33.333333333333336
150.0   90.0   50.0
200.0   90.0   33.333333333333336
200.0   120.0   33.333333333333336
150.0   120.0   33.333333333333336
200.0   120.0   50.0
150.0   90.0   50.0
150.0   120.0   50.0
200.0   120.0   50.0
150.0   120.0   33.333333333333336
150.0   90.0   50.0
200.0   120.0   50.0
200.0   90.0   50.0
200.0   90.0   33.333333333333336
150.0   90.0   50.0
200.0   120.0   50.0
200.0   90.0   33.333333333333336
150.0   120.0   33.333333333333336
150.0   120.0   0.0
200.0   120.0   0.0
150.0   150.0   0.0
150.0   120.0   16.666666666666668
200.0   120.0   0.0
200.0   150.0   0.0
150.0   150.0   0.0
200.0   150.0   16.666666666666668
150.0   120.0   16.666666666666668
150.0   150.0   16.666666666666668
200.0   150.0   16.666666666666668
150.0   150.0   0.0
150.0   120.0   16.666666666666668
200.0   150.0   16.666666666666668
200.0   120.0   16.666666666666668
200.0   120.0   0.0
150.0   120.0   16.666666666666668
200.0   150.0   16.666666666666668
200.0   120.0   0.0
150.0   150.0   0.0
150.0   120.0   16.666666666666668
200.0   120.0   16.666666666666668
150.0   150.0   16.666666666666668
150.0   120.0   33.333333333333336
200.0   120.0   16.666666666666668
200.0   150.0   16.666666666666668
150.0   150.0   16.666666666666668
200.0   150.0   33.333333333333336
150.0   120.0   33.333333333333336
150.0   150.0   33.333333333333336
200.0   150.0   33.333333333333336
150.0   150.0   16.666666666666668
150.0   120.0   33.333333333333336
200.0   150.0   33.333333333333336
200.0   120.0   33.333333333333336
200.0   120.0   16.666666666666668
150.0   120.0   33.333333333333336
200.0   150.0   33.333333333333336
200.0   120.0   16.666666666666668
150.0   150.0   16.666666666666668
150.0   120.0   33.333333333333336
200.0   120.0   33.333333333333336
150.0   150.0   33.333333333333336
150.0   120.0   50.0
200.0   120.0   33.333333333333336
200.0   150.0   33.333333333333336
150.0   150.0   33.333333333333336
200.0   150.0   50.0
150.0   120.0   50.0
150.0   150.0   50.0
200.0   150.0   50.0
150.0   150.0   33.333333333333336
150.0   120.0   50.0
200.0   150.0   50.0
200.0   120.0   50.0
200.0   120.0   33.333333333333336
150.0   120.0   50.0
200.0   150.0   50.0
200.0   120.0   33.333333333333336
150.0   150.0   33.333333333333336
200.0   0.0   0.0
250.0   0.0   0.0
200.0   30.0   0.0
200.0   0.0   16.666666666666668
250.0   0.0   0.0
250.0   30.0   0.0
200.0   30.0   0.0
250.0   30.0   16.666666666666668
200.0   0.0   16.666666666666668
200.0   30.0   16.666666666666668
250.0   30.0   16.666666666666668
200.0   30.0   0.0
200.0   0.0   16.666666666666668
250.0   30.0   16.666666666666668
250.0   0.0   16.666666666666668
250.0   0.0   0.0
200.0   0.0   16.666666666666668
250.0   30.0   16.666666666666668
250.0   0.0   0.0
200.0   30.0   0.0
200.0   0.0   16.666666666666668
250.0   0.0   16.666666666666668
200.0   30.0   16.666666666666668
200.0   0.0   33.333333333333336
250.0   0.0   16.666666666666668
250.0   30.0   16.666666666666668
200.0   30.0   16.666666666666668
250.0   30.0   33.333333333333336
200.0   0.0   33.333333333333336
200.0   30.0   33.333333333333336
250.0   30.0   33.333333333333336
200.0   30.0   16.666666666666668
200.0   0.0   33.333333333333336
250.0   30.0   33.333333333333336
250.0   0.0   33.333333333333336
250.0   0.0   16.666666666666668
200.0   0.0   33.333333333333336
250.0   30.0   33.333333333333336
250.0   0.0   16.666666666666668
200.0   30.0   16.666666666666668
200.0   0.0   33.333333333333336
250.0   0.0   33.333333333333336
200.0   30.0   33.333333333333336
200.0   0.0   50.0
250.0   0.0   33.333333333333336
250.0   30.0   33.333333333333336
200.0   30.0   33.333333333333336
250.0   30.0   50.0
200.0   0.0   50.0
200.0   30.0   50.0
250.0   30.0   50.0
200.0   30.0   33.333333333333336
200.0   0.0   50.0
250.0   30.0   50.0
250.0   0.0   50.0
250.0   0.0   33.333333333333336
200.0   0.0   50.0
250.0   30.0   50.0
250.0   0.0   33.333333333333336
200.0   30.0   33.333333333333336
200.0   30.0   0.0
250.0   30.0   0.0
200.0   60.0   0.0
200.0   30.0   16.666666666666668
250.0   30.0   0.0
250.0   60.0   0.0
200.0   60.0   0.0
250.0   60.0   16.666666666666668
200.0   30.0   16.666666666666668
200.0   60.0   16.666666666666668
250.0   60.0   16.666666666666668
200.0   60.0   0.0
200.0   30.0   16.666666666666668
250.0   60.0   16.666666666666668
250.0   30.0   16.666666666666668
250.0   30.0   0.0
200.0   30.0   16.666666666666668
250.0   60.0   16.666666666666668
250.0   30.0   0.0
200.0   60.0   0.0
200.0   30.0   16.666666666666668
250.0   30.0   16.666666666666668
200.0   60.0   16.666666666666668
200.0   30.0   33.333333333333336
250.0   30.0   16.666666666666668
250.0   60.0   16.666666666666668
200.0   60.0   16.666666666666668
250.0   60.0   33.333333333333336
200.0   30.0   33.333333333333336
200.0   60.0   33.333333333333336
250.0   60.0   33.333333333333336
200.0   60.0   16.666666666666668
200.0   30.0   33.333333333333336
250.0   60.0   33.333333333333336
250.0   30.0   33.333333333333336
250.0   30.0   16.666666666666668
200.0   30.0   33.333333333333336
250.0   60.0   33.333333333333336
250.0   30.0   16.666666666666668
200.0   60.0   16.666666666666668
200.0   30.0   33.333333333333336
250.0   30.0   33.333333333333336
200.0   60.0   33.333333333333336
200.0   30.0   50.0
250.0   30.0   33.333333333333336
250.0   60.0   33.333333333333336
200.0   60.0   33.333333333333336
250.0   60.0   50.0
200.0   30.0   50.0
200.0   60.0   50.0
250.0   60.0   50.0
200.0   60.0   33.333333333333336
200.0   30.0   50.0
250.0   60.0   50.0
250.0   30.0   50.0
250.0   30.0   33.333333333333336
200.0   30.0   50.0
250.0   60.0   50.0
250.0   30.0   33.333333333333336
200.0   60.0   33.333333333333336
200.0   60.0   0.0
250.0   60.0   0.0
200.0   90.0   0.0
200.0   60.0   16.666666666666668
250.0   60.0   0.0
250.0   90.0   0.0
200.0   90.0   0.0
250.0   90.0   16.666666666666668
200.0   60.0   16.666666666666668
200.0   90.0   16.666666666666668
250.0   90.0   16.666666666666668
200.0   90.0   0.0
200.0   60.0   16.666666666666668
250.0   90.0   16.666666666666668
250.0   60.0   16.666666666666668
250.0   60.0   0.0
200.0   60.0   16.666666666666668
250.0   90.0   16.666666666666668
250.0   60.0   0.0
200.0   90.0   0.0
200.0   60.0   16.666666666666668
250.0   60.0   16.666666666666668
200.0   90.0   16.666666666666668
200.0   60.0   33.333333333333336
250.0   60.0   16.666666666666668
250.0   90.0   16.666666666666668
200.0   90.0   16.666666666666668
250.0   90.0   33.333333333333336
200.0   60.0   33.333333333333336
200.0   90.0   33.333333333333336
250.0   90.0   33.333333333333336
200.0   90.0   16.666666666666668
200.0   60.0   33.333333333333336
250.0   90.0   33.333333333333336
250.0   60.0   33.333333333333336
250.0   60.0   16.666666666666668
200.0   60.0   33.333333333333336
250.0   90.0   33.333333333333336
250.0   60.0   16.666666666666668
200.0   90.0   16.666666666666668
200.0   60.0   33.333333333333336
250.0   60.0   33.333333333333336
200.0   90.0   33.333333333333336
200.0   60.0   50.0
250.0   60.0   33.333333333333336
250.0   90.0   33.333333333333336
200.0   90.0   33.333333333333336
250.0   90.0   50.0
200.0   60.0   50.0
200.0   90.0   50.0
250.0   90.0   50.0
200.0   90.0   33.333333333333336
200.0   60.0   50.0
250.0   90.0   50.0
250.0   60.0   50.0
250.0   60.0   33.333333333333336
200.0   60.0   50.0
250.0   90.0   50.0
250.0   60.0   33.333333333333336
200.0   90.0   33.333333333333336
200.0   90.0   0.0
250.0   90.0   0.0
200.0   120.0   0.0
200.0   90.0   16.666666666666668
250.0   90.0   0.0
250.0   120.0   0.0
200.0   120.0   0.0
250.0   120.0   16.666666666666668
200.0   90.0   16.666666666666668
200.0   120.0   16.666666666666668
250.0   120.0   16.666666666666668
200.0   120.0   0.0
200.0   90.0   16.666666666666668
250.0   120.0   16.666666666666668
250.0   90.0   16.666666666666668
250.0   90.0   0.0
200.0   90.0   16.666666666666668
250.0   120.0   16.666666666666668
250.0   90.0   0.0
200.0   120.0   0.0
200.0   90.0   16.666666666666668
250.0   90.0   16.666666666666668
200.0   120.0   16.666666666666668
200.0   90.0   33.333333333333336
250.0   90.0   16.666666666666668
250.0   120.0   16.666666666666668
200.0   120.0   16.666666666666668
250.0   120.0   33.333333333333336
200.0   90.0   33.333333333333336
200.0   120.0   33.333333333333336
250.0   120.0   33.333333333333336
200.0   120.0   16.666666666666668
200.0   90.0   33.333333333333336
250.0   120.0   33.333333333333336
250.0   90.0   33.333333333333336
250.0   90.0   16.666666666666668
200.0   90.0   33.333333333333336
250.0   120.0   33.333333333333336
250.0   90.0   16.666666666666668
200.0   120.0   16.666666666666668
200.0   90.0   33.333333333333336
250.0   90.0   33.333333333333336
200.0   120.0   33.333333333333336
200.0   90.0   50.0
250.0   90.0   33.333333333333336
250.0   120.0   33.333333333333336
200.0   120.0   33.333333333333336
250.0   120.0   50.0
200.0   90.0   50.0
200.0   120.0   50.0
250.0   120.0   50.0
200.0   120.0   33.333333333333336
200.0   90.0   50.0
250.0   120.0   50.0
250.0   90.0   50.0
250.0   90.0   33.333333333333336
200.0   90.0   50.0
250.0   120.0   50.0
250.0   90.0   33.333333333333336
200.0   120.0   33.333333333333336
200.0   120.0   0.0
250.0   120.0   0.0
200.0   150.0   0.0
200.0   120.0   16.666666666666668
250.0   120.0   0.0
250.0   150.0   0.0
200.0   150.0   0.0
250.0   150.0   16.666666666666668
200.0   120.0   16.666666666666668
200.0   150.0   16.666666666666668
250.0   150.0   16.666666666666668
200.0   150.0   0.0
200.0   120.0   16.666666666666668
250.0   150.0   16.666666666666668
250.0   120.0   16.666666666666668
250.0   120.0   0.0
200.0   120.0   16.666666666666668
250.0   150.0   16.666666666666668
250.0   120.0   0.0
200.0   150.0   0.0
200.0   120.0   16.666666666666668
250.0   120.0   16.666666666666668
200.0   150.0   16.666666666666668
200.0   120.0   33.333333333333336
250.0   120.0   16.666666666666668
250.0   150.0   16.666666666666668
200.0   150.0   16.666666666666668
250.0   150.0   33.333333333333336
200.0   120.0   33.333333333333336
200.0   150.0   33.333333333333336
250.0   150.0   33.333333333333336
200.0   150.0   16.666666666666668
200.0   120.0   33.333333333333336
250.0   150.0   33.333333333333336
250.0   120.0   33.333333333333336
250.0   120.0   16.666666666666668
200.0   120.0   33.333333333333336
250.0   150.0   33.333333333333336
250.0   120.0   16.666666666666668
200.0   150.0   16.666666666666668
200.0   120.0   33.333333333333336
250.0   120.0   33.333333333333336
200.0   150.0   33.333333333333336
200.0   120.0   50.0
250.0   120.0   33.333333333333336
250.0   150.0   33.333333333333336
200.0   150.0   33.333333333333336
250.0   150.0   50.0
200.0   120.0   50.0
200.0   150.0   50.0
250.0   150.0   50.0
200.0   150.0   33.333333333333336
200.0   120.0   50.0
250.0   150.0   50.0
250.0   120.0   50.0
250.0   120.0   33.333333333333336
200.0   120.0   50.0
250.0   150.0   50.0
250.0   120.0   33.333333333333336
200.0   150.0   33.333333333333336
250.0   0.0   0.0
300.0   0.0   0.0
250.0   30.0   0.0
250.0   0.0   16.666666666666668
300.0   0.0   0.0
300.0   30.0   0.0
250.0   30.0   0.0
300.0   30.0   16.666666666666668
250.0   0.0   16.666666666666668
250.0   30.0   16.666666666666668
300.0   30.0   16.666666666666668
250.0   30.0   0.0
250.0   0.0   16.666666666666668
300.0   30.0   16.666666666666668
300.0   0.0   16.666666666666668
300.0   0.0   0.0
250.0   0.0   16.666666666666668
300.0   30.0   16.666666666666668
300.0   0.0   0.0
250.0   30.0   0.0
250.0   0.0   16.666666666666668
300.0   0.0   16.666666666666668
250.0   30.0   16.666666666666668
250.0   0.0   33.333333333333336
300.0   0.0   16.666666666666668
300.0   30.0   16.666666666666668
250.0   30.0   16.666666666666668
300.0   30.0   33.333333333333336
250.0   0.0   33.333333333333336
250.0   30.0   33.333333333333336
300.0   30.0   33.333333333333336
250.0   30.0   16.666666666666668
250.0   0.0   33.333333333333336
300.0   30.0   33.333333333333336
300.0   0.0   33.333333333333336
300.0   0.0   16.666666666666668
250.0   0.0   33.333333333333336
300.0   30.0   33.333333333333336
300.0   0.0   16.666666666666668
250.0   30.0   16.666666666666668
250.0   0.0   33.333333333333336
300.0   0.0   33.333333333333336
250.0   30.0   33.333333333333336
250.0   0.0   50.0
300.0   0.0   33.333333333333336
300.0   30.0   33.333333333333336
250.0   30.0   33.333333333333336
300.0   30.0   50.0
250.0   0.0   50.0
250.0   30.0   50.0
300.0   30.0   50.0
250.0   30.0   33.333333333333336
250.0   0.0   50.0
300.0   30.0   50.0
300.0   0.0   50.0
300.0   0.0   33.333333333333336
250.0   0.0   50.0
300.0   30.0   50.0
300.0   0.0   33.333333333333336
250.0   30.0   33.333333333333336
250.0   30.0   0.0
300.0   30.0   0.0
250.0   60.0   0.0
250.0   30.0   16.666666666666668
300.0   30.0   0.0
300.0   60.0   0.0
250.0   60.0   0.0
300.0   60.0   16.666666666666668
250.0   30.0   16.666666666666668
250.0   60.0   16.666666666666668
300.0   60.0   16.666666666666668
250.0   60.0   0.0
250.0   30.0   16.666666666666668
300.0   60.0   16.666666666666668
300.0   30.0   16.666666666666668
300.0   30.0   0.0
250.0   30.0   16.666666666666668
300.0   60.0   16.666666666666668
300.0   30.0   0.0
250.0   60.0   0.0
250.0   30.0   16.666666666666668
300.0   30.0   16.666666666666668
250.0   60.0   16.666666666666668
250.0   30.0   33.333333333333336
300.0   30.0   16.666666666666668
300.0   60.0   16.666666666666668
250.0   60.0   16.666666666666668
300.0   60.0   33.333333333333336
250.0   30.0   33.333333333333336
250.0   60.0   33.333333333333336
300.0   60.0   33.333333333333336
250.0   60.0   16.666666666666668
250.0   30.0   33.333333333333336
300.0   60.0   33.333333333333336
300.0   30.0   33.333333333333336
300.0   30.0   16.666666666666668
250.0   30.0   33.333333333333336
300.0   60.0   33.333333333333336
300.0   30.0   16.666666666666668
250.0   60.0   16.666666666666668
250.0   30.0   33.333333333333336
300.0   30.0   33.333333333333336
250.0   60.0   33.333333333333336
250.0   30.0   50.0
300.0   30.0   33.333333333333336
300.0   60.0   33.333333333333336
250.0   60.0   33.333333333333336
300.0   60.0   50.0
250.0   30.0   50.0
250.0   60.0   50.0
300.0   60.0   50.0
250.0   60.0   33.333333333333336
250.0   30.0   50.0
300.0   60.0   50.0
300.0   30.0   50.0
300.0   30.0   33.333333333333336
250.0   30.0   50.0
300.0   60.0   50.0
300.0   30.0   33.333333333333336
250.0   60.0   33.333333333333336
250.0   60.0   0.0
300.0   60.0   0.0
250.0   90.0   0.0
250.0   60.0   16.666666666666668
300.0   60.0   0.0
300.0   90.0   0.0
250.0   90.0   0.0
300.0   90.0   16.666666666666668
250.0   60.0   16.666666666666668
250.0   90.0   16.666666666666668
300.0   90.0   16.666666666666668
250.0   90.0   0.0
250.0   60.0   16.666666666666668
300.0   90.0   16.666666666666668
300.0   60.0   16.666666666666668
300.0   60.0   0.0
250.0   60.0   16.666666666666668
300.0   90.0   16.666666666666668
300.0   60.0   0.0
250.0   90.0   0.0
250.0   60.0   16.666666666666668
300.0   60.0   16.666666666666668
250.0   90.0   16.666666666666668
250.0   60.0   33.333333333333336
300.0   60.0   16.666666666666668
300.0   90.0   16.666666666666668
250.0   90.0   16.666666666666668
300.0   90.0   33.333333333333336
250.0   60.0   33.333333333333336
250.0   90.0   33.333333333333336
300.0   90.0   33.333333333333336
250.0   90.0   16.666666666666668
250.0   60.0   33.333333333333336
300.0   90.0   33.333333333333336
300.0   60.0   33.333333333333336
300.0   60.0   16.666666666666668
250.0   60.0   33.333333333333336
300.0   90.0   33.333333333333336
300.0   60.0   16.666666666666668
250.0   90.0   16.666666666666668
250.0   60.0   33.333333333333336
300.0   60.0   33.333333333333336
250.0   90.0   33.333333333333336
250.0   60.0   50.0
300.0   60.0   33.333333333333336
300.0   90.0   33.333333333333336
250.0   90.0   33.333333333333336
300.0   90.0   50.0
250.0   60.0   50.0
250.0   90.0   50.0
300.0   90.0   50.0
250.0   90.0   33.333333333333336
250.0   60.0   50.0
300.0   90.0   50.0
300.0   60.0   50.0
300.0   60.0   33.333333333333336
250.0   60.0   50.0
300.0   90.0   50.0
300.0   60.0   33.333333333333336
250.0   90.0   33.333333333333336
250.0   90.0   0.0
300.0   90.0   0.0
250.0   120.0   0.0
250.0   90.0   16.666666666666668
300.0   90.0   0.0
300.0   120.0   0.0
250.0   120.0   0.0
300.0   120.0   16.666666666666668
250.0   90.0   16.666666666666668
250.0   120.0   16.666666666666668
300.0   120.0   16.666666666666668
250.0   120.0   0.0
250.0   90.0   16.666666666666668
300.0   120.0   16.666666666666668
300.0   90.0   16.666666666666668
300.0   90.0   0.0
250.0   90.0   16.666666666666668
300.0   120.0   16.666666666666668
300.0   90.0   0.0
250.0   120.0   0.0
250.0   90.0   16.666666666666668
300.0   90.0   16.666666666666668
250.0   120.0   16.666666666666668
250.0   90.0   33.333333333333336
300.0   90.0   16.666666666666668
300.0   120.0   16.666666666666668
250.0   120.0   16.666666666666668
300.0   120.0   33.333333333333336
250.0   90.0   33.333333333333336
250.0   120.0   33.333333333333336
300.0   120.0   33.333333333333336
250.0   120.0   16.666666666666668
250.0   90.0   33.333333333333336
300.0   120.0   33.333333333333336
300.0   90.0   33.333333333333336
300.0   90.0   16.666666666666668
250.0   90.0   33.333333333333336
300.0   120.0   33.333333333333336
300.0   90.0   16.666666666666668
250.0   120.0   16.666666666666668
250.0   90.0   33.333333333333336
300.0   90.0   33.333333333333336
250.0   120.0   33.333333333333336
250.0   90.0   50.0
300.0   90.0   33.333333333333336
300.0   120.0   33.333333333333336
250.0   120.0   33.333333333333336
300.0   120.0   50.0
250.0   90.0   50.0
250.0   120.0   50.0
300.0   120.0   50.0
250.0   120.0   33.333333333333336
250.0   90.0   50.0
300.0   120.0   50.0
300.0   90.0   50.0
300.0   90.0   33.333333333333336
250.0   90.0   50.0
300.0   120.0   50.0
300.0   90.0   33.333333333333336
250.0   120.0   33.333333333333336
250.0   120.0   0.0
300.0   120.0   0.0
250.0   150.0   0.0
250.0   120.0   16.666666666666668
300.0   120.0   0.0
300.0   150.0   0.0
250.0   150.0   0.0
300.0   150.0   16.666666666666668
250.0   120.0   16.666666666666668
250.0   150.0   16.666666666666668
300.0   150.0   16.666666666666668
250.0   150.0   0.0
250.0   120.0   16.666666666666668
300.0   150.0   16.666666666666668
300.0   120.0   16.666666666666668
300.0   120.0   0.0
250.0   120.0   16.666666666666668
300.0   150.0   16.666666666666668
300.0   120.0   0.0
250.0   150.0   0.0
250.0   120.0   16.666666666666668
300.0   120.0   16.666666666666668
250.0   150.0   16.666666666666668
250.0   120.0   33.333333333333336
300.0   120.0   16.666666666666668
300.0   150.0   16.666666666666668
250.0   150.0   16.666666666666668
300.0   150.0   33.333333333333336
250.0   120.0   33.333333333333336
250.0   150.0   33.333333333333336
300.0   150.0   33.333333333333336
250.0   150.0   16.666666666666668
250.0   120.0   33.333333333333336
300.0   150.0   33.333333333333336
300.0   120.0   33.333333333333336
300.0   120.0   16.666666666666668
250.0   120.0   33.333333333333336
300.0   150.0   33.333333333333336
300.0   120.0   16.666666666666668
250.0   150.0   16.666666666666668
250.0   120.0   33.333333333333336
300.0   120.0   33.333333333333336
250.0   150.0   33.333333333333336
250.0   120.0   50.0
300.0   120.0   33.333333333333336
300.0   150.0   33.333333333333336
250.0   150.0   33.333333333333336
300.0   150.0   50.0
250.0   120.0   50.0
250.0   150.0   50.0
300.0   150.0   50.0
250.0   150.0   33.333333333333336
250.0   120.0   50.0
300.0   150.0   50.0
300.0   120.0   50.0
300.0   120.0   33.333333333333336
250.0   120.0   50.0
300.0   150.0   50.0
300.0   120.0   33.333333333333336
250.0   150.0   33.333333333333336
300.0   0.0   0.0
350.0   0.0   0.0
300.0   30.0   0.0
300.0   0.0   16.666666666666668
350.0   0.0   0.0
350.0   30.0   0.0
300.0   30.0   0.0
350.0   30.0   16.666666666666668
300.0   0.0   16.666666666666668
300.0   30.0   16.666666666666668
350.0   30.0   16.666666666666668
300.0   30.0   0.0
300.0   0.0   16.666666666666668
350.0   30.0   16.666666666666668
350.0   0.0   16.666666666666668
350.0   0.0   0.0
300.0   0.0   16.666666666666668
350.0   30.0   16.666666666666668
350.0   0.0   0.0
300.0   30.0   0.0
300.0   0.0   16.666666666666668
350.0   0.0   16.666666666666668
300.0   30.0   16.666666666666668
300.0   0.0   33.333333333333336
350.0   0.0   16.666666666666668
350.0   30.0   16.666666666666668
300.0   30.0   16.666666666666668
350.0   30.0   33.333333333333336
300.0   0.0   33.333333333333336
300.0   30.0   33.333333333333336
350.0   30.0   33.333333333333336
300.0   30.0   16.666666666666668
300.0   0.0   33.333333333333336
350.0   30.0   33.333333333333336
350.0   0.0   33.333333333333336
350.0   0.0   16.666666666666668
300.0   0.0   33.333333333333336
350.0   30.0   33.333333333333336
350.0   0.0   16.666666666666668
300.0   30.0   16.666666666666668
300.0   0.0   33.333333333333336
350.0   0.0   33.333333333333336
300.0   30.0   33.333333333333336
300.0   0.0   50.0
350.0   0.0   33.333333333333336
350.0   30.0   33.333333333333336
300.0   30.0   33.333333333333336
350.0   30.0   50.0
300.0   0.0   50.0
300.0   30.0   50.0
350.0   30.0   50.0
300.0   30.0   33.333333333333336
300.0   0.0   50.0
350.0   30.0   50.0
350.0   0.0   50.0
350.0   0.0   33.333333333333336
300.0   0.0   50.0
350.0   30.0   50.0
350.0   0.0   33.333333333333336
300.0   30.0   33.333333333333336
300.0   30.0   0.0
350.0   30.0   0.0
300.0   60.0   0.0
300.0   30.0   16.666666666666668
350.0   30.0   0.0
350.0   60.0   0.0
300.0   60.0   0.0
350.0   60.0   16.666666666666668
300.0   30.0   16.666666666666668
300.0   60.0   16.666666666666668
350.0   60.0   16.666666666666668
300.0   60.0   0.0
300.0   30.0   16.666666666666668
350.0   60.0   16.666666666666668
350.0   30.0   16.666666666666668
350.0   30.0   0.0
300.0   30.0   16.666666666666668
350.0   60.0   16.666666666666668
350.0   30.0   0.0
300.0   60.0   0.0
300.0   30.0   16.666666666666668
350.0   30.0   16.666666666666668
300.0   60.0   16.666666666666668
300.0   30.0   33.333333333333336
350.0   30.0   16.666666666666668
350.0   60.0   16.666666666666668
300.0   60.0   16.666666666666668
350.0   60.0   33.333333333333336
300.0   30.0   33.333333333333336
300.0   60.0   33.333333333333336
350.0   60.0   33.333333333333336
300.0   60.0   16.666666666666668
300.0   30.0   33.333333333333336
350.0   60.0   33.333333333333336
350.0   30.0   33.333333333333336
350.0   30.0   16.666666666666668
300.0   30.0   33.333333333333336
350.0   60.0   33.333333333333336
350.0   30.0   16.666666666666668
300.0   60.0   16.666666666666668
300.0   30.0   33.333333333333336
350.0   30.0   33.333333333333336
300.0   60.0   33.333333333333336
300.0   30.0   50.0
350.0   30.0   33.333333333333336
350.0   60.0   33.333333333333336
300.0   60.0   33.333333333333336
350.0   60.0   50.0
300.0   30.0   50.0
300.0   60.0   50.0
350.0   60.0   50.0
300.0   60.0   33.333333333333336
300.0   30.0   50.0
350.0   60.0   50.0
350.0   30.0   50.0
350.0   30.0   33.333333333333336
300.0   30.0   50.0
350.0   60.0   50.0
350.0   30.0   33.333333333333336
300.0   60.0   33.333333333333336
300.0   60.0   0.0
350.0   60.0   0.0
300.0   90.0   0.0
300.0   60.0   16.666666666666668
350.0   60.0   0.0
350.0   90.0   0.0
300.0   90.0   0.0
350.0   90.0   16.666666666666668
300.0   60.0   16.666666666666668
300.0   90.0   16.666666666666668
350.0   90.0   16.666666666666668
300.0   90.0   0.0
300.0   60.0   16.666666666666668
350.0   90.0   16.666666666666668
350.0   60.0   16.666666666666668
350.0   60.0   0.0
300.0   60.0   16.666666666666668
350.0   90.0   16.666666666666668
350.0   60.0   0.0
300.0   90.0   0.0
300.0   60.0   16.666666666666668
350.0   60.0   16.666666666666668
300.0   90.0   16.666666666666668
300.0   60.0   33.333333333333336
350.0   60.0   16.666666666666668
350.0   90.0   16.666666666666668
300.0   90.0   16.666666666666668
350.0   90.0   33.333333333333336
300.0   60.0   33.333333333333336
300.0   90.0   33.333333333333336
350.0   90.0   33.333333333333336
300.0   90.0   16.666666666666668
300.0   60.0   33.333333333333336
350.0   90.0   33.333333333333336
350.0   60.0   33.333333333333336
350.0   60.0   16.666666666666668
300.0   60.0   33.333333333333336
350.0   90.0   33.333333333333336
350.0   60.0   16.666666666666668
300.0   90.0   16.666666666666668
300.0   60.0   33.333333333333336
350.0   60.0   33.333333333333336
300.0   90.0   33.333333333333336
300.0   60.0   50.0
350.0   60.0   33.333333333333336
350.0   90.0   33.333333333333336
300.0   90.0   33.333333333333336
350.0   90.0   50.0
300.0   60.0   50.0
300.0   90.0   50.0
350.0   90.0   50.0
300.0   90.0   33.333333333333336
300.0   60.0   50.0
350.0   90.0   50.0
350.0   60.0   50.0
350.0   60.0   33.333333333333336
300.0   60.0   50.0
350.0   90.0   50.0
350.0   60.0   33.333333333333336
300.0   90.0   33.333333333333336
300.0   90.0   0.0
350.0   90.0   0.0
300.0   120.0   0.0
300.0   90.0   16.666666666666668
350.0   90.0   0.0
350.0   120.0   0.0
300.0   120.0   0.0
350.0   120.0   16.666666666666668
300.0   90.0   16.666666666666668
300.0   120.0   16.666666666666668
350.0   120.0   16.666666666666668
300.0   120.0   0.0
300.0   90.0   16.666666666666668
350.0   120.0   16.666666666666668
350.0   90.0   16.666666666666668
350.0   90.0   0.0
300.0   90.0   16.666666666666668
350.0   120.0   16.666666666666668
350.0   90.0   0.0
300.0   120.0   0.0
300.0   90.0   16.666666666666668
350.0   90.0   16.666666666666668
300.0   120.0   16.666666666666668
300.0   90.0   33.333333333333336
350.0   90.0   16.666666666666668
350.0   120.0   16.666666666666668
300.0   120.0   16.666666666666668
350.0   120.0   33.333333333333336
300.0   90.0   33.333333333333336
300.0   120.0   33.333333333333336
350.0   120.0   33.333333333333336
300.0   120.0   16.666666666666668
300.0   90.0   33.333333333333336
350.0   120.0   33.333333333333336
350.0   90.0   33.333333333333336
350.0   90.0   16.666666666666668
300.0   90.0   33.333333333333336
350.0   120.0   33.333333333333336
350.0   90.0   16.666666666666668
300.0   120.0   16.666666666666668
300.0   90.0   33.333333333333336
350.0   90.0   33.333333333333336
300.0   120.0   33.333333333333336
300.0   90.0   50.0
350.0   90.0   33.333333333333336
350.0   120.0   33.333333333333336
300.0   120.0   33.333333333333336
350.0   120.0   50.0
300.0   90.0   50.0
300.0   120.0   50.0
350.0   120.0   50.0
300.0   120.0   33.333333333333336
300.0   90.0   50.0
350.0   120.0   50.0
350.0   90.0   50.0
350.0   90.0   33.333333333333336
300.0   90.0   50.0
350.0   120.0   50.0
350.0   90.0   33.333333333333336
300.0   120.0   33.333333333333336
300.0   120.0   0.0
350.0   120.0   0.0
300.0   150.0   0.0
300.0   120.0   16.666666666666668
350.0   120.0   0.0
350.0   150.0   0.0
300.0   150.0   0.0
350.0   150.0   16.666666666666668
300.0   120.0   16.666666666666668
300.0   150.0   16.666666666666668
350.0   150.0   16.666666666666668
300.0   150.0   0.0
300.0   120.0   16.666666666666668
350.0   150.0   16.666666666666668
350.0   120.0   16.666666666666668
350.0   120.0   0.0
300.0   120.0   16.666666666666668
350.0   150.0   16.666666666666668
350.0   120.0   0.0
300.0   150.0   0.0
300.0   120.0   16.666666666666668
350.0   120.0   16.666666666666668
300.0   150.0   16.666666666666668
300.0   120.0   33.333333333333336
350.0   120.0   16.666666666666668
350.0   150.0   16.666666666666668
300.0   150.0   16.666666666666668
350.0   150.0   33.333333333333336
300.0   120.0   33.333333333333336
300.0   150.0   33.333333333333336
350.0   150.0   33.333333333333336
300.0   150.0   16.666666666666668
300.0   120.0   33.333333333333336
350.0   150.0   33.333333333333336
350.0   120.0   33.333333333333336
350.0   120.0   16.666666666666668
300.0   120.0   33.333333333333336
350.0   150.0   33.333333333333336
350.0   120.0   16.666666666666668
300.0   150.0   16.666666666666668
300.0   120.0   33.333333333333336
350.0   120.0   33.333333333333336
300.0   150.0   33.333333333333336
300.0   120.0   50.0
350.0   120.0   33.333333333333336
350.0   150.0   33.333333333333336
300.0   150.0   33.333333333333336
350.0   150.0   50.0
300.0   120.0   50.0
300.0   150.0   50.0
350.0   150.0   50.0
300.0   150.0   33.333333333333336
300.0   120.0   50.0
350.0   150.0   50.0
350.0   120.0   50.0
350.0   120.0   33.333333333333336
300.0   120.0   50.0
350.0   150.0   50.0
350.0   120.0   33.333333333333336
300.0   150.0   33.333333333333336
350.0   0.0   0.0
400.0   0.0   0.0
350.0   30.0   0.0
350.0   0.0   16.666666666666668
400.0   0.0   0.0
400.0   30.0   0.0
350.0   30.0   0.0
400.0   30.0   16.666666666666668
350.0   0.0   16.666666666666668
350.0   30.0   16.666666666666668
400.0   30.0   16.666666666666668
350.0   30.0   0.0
350.0   0.0   16.666666666666668
400.0   30.0   16.666666666666668
400.0   0.0   16.666666666666668
400.0   0.0   0.0
350.0   0.0   16.666666666666668
400.0   30.0   16.666666666666668
400.0   0.0   0.0
350.0   30.0   0.0
350.0   0.0   16.666666666666668
400.0   0.0   16.666666666666668
350.0   30.0   16.666666666666668
350.0   0.0   33.333333333333336
400.0   0.0   16.666666666666668
400.0   30.0   16.666666666666668
350.0   30.0   16.666666666666668
400.0   30.0   33.333333333333336
350.0   0.0   33.333333333333336
350.0   30.0   33.333333333333336
400.0   30.0   33.333333333333336
350.0   30.0   16.666666666666668
350.0   0.0   33.333333333333336
400.0   30.0   33.333333333333336
400.0   0.0   33.333333333333336
400.0   0.0   16.666666666666668
350.0   0.0   33.333333333333336
400.0   30.0   33.333333333333336
400.0   0.0   16.666666666666668
350.0   30.0   16.666666666666668
350.0   0.0   33.333333333333336
400.0   0.0   33.333333333333336
350.0   30.0   33.333333333333336
350.0   0.0   50.0
400.0   0.0   33.333333333333336
400.0   30.0   33.333333333333336
350.0   30.0   33.333333333333336
400.0   30.0   50.0
350.0   0.0   50.0
350.0   30.0   50.0
400.0   30.0   50.0
350.0   30.0   33.333333333333336
350.0   0.0   50.0
400.0   30.0   50.0
400.0   0.0   50.0
400.0   0.0   33.333333333333336
350.0   0.0   50.0
400.0   30.0   50.0
400.0   0.0   33.333333333333336
350.0   30.0   33.333333333333336
350.0   30.0   0.0
400.0   30.0   0.0
350.0   60.0   0.0
350.0   30.0   16.666666666666668
400.0   30.0   0.0
400.0   60.0   0.0
350.0   60.0   0.0
400.0   60.0   16.666666666666668
350.0   30.0   16.666666666666668
350.0   60.0   16.666666666666668
400.0   60.0   16.666666666666668
350.0   60.0   0.0
350.0   30.0   16.666666666666668
400.0   60.0   16.666666666666668
400.0   30.0   16.666666666666668
400.0   30.0   0.0
350.0   30.0   16.666666666666668
400.0   60.0   16.666666666666668
400.0   30.0   0.0
350.0   60.0   0.0
350.0   30.0   16.666666666666668
400.0   30.0   16.666666666666668
350.0   60.0   16.666666666666668
350.0   30.0   33.333333333333336
400.0   30.0   16.666666666666668
400.0   60.0   16.666666666666668
350.0   60.0   16.666666666666668
400.0   60.0   33.333333333333336
350.0   30.0   33.333333333333336
350.0   60.0   33.333333333333336
400.0   60.0   33.333333333333336
350.0   60.0   16.666666666666668
350.0   30.0   33.333333333333336
400.0   60.0   33.333333333333336
400.0   30.0   33.333333333333336
400.0   30.0   16.666666666666668
350.0   30.0   33.333333333333336
400.0   60.0   33.333333333333336
400.0   30.0   16.666666666666668
350.0   60.0   16.666666666666668
350.0   30.0   33.333333333333336
400.0   30.0   33.333333333333336
350.0   60.0   33.333333333333336
350.0   30.0   50.0
400.0   30.0   33.333333333333336
400.0   60.0   33.333333333333336
350.0   60.0   33.333333333333336
400.0   60.0   50.0
350.0   30.0   50.0
350.0   60.0   50.0
400.0   60.0   50.0
350.0   60.0   33.333333333333336
350.0   30.0   50.0
400.0   60.0   50.0
400.0   30.0   50.0
400.0   30.0   33.333333333333336
350.0   30.0   50.0
400.0   60.0   50.0
400.0   30.0   33.333333333333336
350.0   60.0   33.333333333333336
350.0   60.0   0.0
400.0   60.0   0.0
350.0   90.0   0.0
350.0   60.0   16.666666666666668
400.0   60.0   0.0
400.0   90.0   0.0
350.0   90.0   0.0
400.0   90.0   16.666666666666668
350.0   60.0   16.666666666666668
350.0   90.0   16.666666666666668
400.0   90.0   16.666666666666668
350.0   90.0   0.0
350.0   60.0   16.666666666666668
400.0   90.0   16.666666666666668
400.0   60.0   16.666666666666668
400.0   60.0   0.0
350.0   60.0   16.666666666666668
400.0   90.0   16.666666666666668
400.0   60.0   0.0
350.0   90.0   0.0
350.0   60.0   16.666666666666668
400.0   60.0   16.666666666666668
350.0   90.0   16.666666666666668
350.0   60.0   33.333333333333336
400.0   60.0   16.666666666666668
400.0   90.0   16.666666666666668
350.0   90.0   16.666666666666668
400.0   90.0   33.333333333333336
350.0   60.0   33.333333333333336
350.0   90.0   33.333333333333336
400.0   90.0   33.333333333333336
350.0   90.0   16.666666666666668
350.0   60.0   33.333333333333336
400.0   90.0   33.333333333333336
400.0   60.0   33.333333333333336
400.0   60.0   16.666666666666668
350.0   60.0   33.333333333333336
400.0   90.0   33.333333333333336
400.0   60.0   16.666666666666668
350.0   90.0   16.666666666666668
350.0   60.0   33.333333333333336
400.0   60.0   33.333333333333336
350.0   90.0   33.333333333333336
350.0   60.0   50.0
400.0   60.0   33.333333333333336
400.0   90.0   33.333333333333336
350.0   90.0   33.333333333333336
400.0   90.0   50.0
350.0   60.0   50.0
350.0   90.0   50.0
400.0   90.0   50.0
350.0   90.0   33.333333333333336
350.0   60.0   50.0
400.0   90.0   50.0
400.0   60.0   50.0
400.0   60.0   33.333333333333336
350.0   60.0   50.0
400.0   90.0   50.0
400.0   60.0   33.333333333333336
350.0   90.0   33.333333333333336
350.0   90.0   0.0
400.0   90.0   0.0
350.0   120.0   0.0
350.0   90.0   16.666666666666668
400.0   90.0   0.0
400.0   120.0   0.0
350.0   120.0   0.0
400.0   120.0   16.666666666666668
350.0   90.0   16.666666666666668
350.0   120.0   16.666666666666668
400.0   120.0   16.666666666666668
350.0   120.0   0.0
350.0   90.0   16.666666666666668
400.0   120.0   16.666666666666668
400.0   90.0   16.666666666666668
400.0   90.0   0.0
350.0   90.0   16.666666666666668
400.0   120.0   16.666666666666668
400.0   90.0   0.0
350.0   120.0   0.0
350.0   90.0   16.666666666666668
400.0   90.0   16.666666666666668
350.0   120.0   16.666666666666668
350.0   90.0   33.333333333333336
400.0   90.0   16.666666666666668
400.0   120.0   16.666666666666668
350.0   120.0   16.666666666666668
400.0   120.0   33.333333333333336
350.0   90.0   33.333333333333336
350.0   120.0   33.333333333333336
400.0   120.0   33.333333333333336
350.0   120.0   16.666666666666668
350.0   90.0   33.333333333333336
400.0   120.0   33.333333333333336
400.0   90.0   33.333333333333336
400.0   90.0   16.666666666666668
350.0   90.0   33.333333333333336
400.0   120.0   33.333333333333336
400.0   90.0   16.666666666666668
350.0   120.0   16.666666666666668
350.0   90.0   33.333333333333336
400.0   90.0   33.333333333333336
350.0   120.0   33.333333333333336
350.0   90.0   50.0
400.0   90.0   33.333333333333336
400.0   120.0   33.333333333333336
350.0   120.0   33.333333333333336
400.0   120.0   50.0
350.0   90.0   50.0
350.0   120.0   50.0
400.0   120.0   50.0
350.0   120.0   33.333333333333336
350.0   90.0   50.0
400.0   120.0   50.0
400.0   90.0   50.0
400.0   90.0   33.333333333333336
350.0   90.0   50.0
400.0   120.0   50.0
400.0   90.0   33.333333333333336
350.0   120.0   33.333333333333336
350.0   120.0   0.0
400.0   120.0   0.0
350.0   150.0   0.0
350.0   120.0   16.666666666666668
400.0   120.0   0.0
400.0   150.0   0.0
350.0   150.0   0.0
400.0   150.0   16.666666666666668
350.0   120.0   16.666666666666668
350.0   150.0   16.666666666666668
400.0   150.0   16.666666666666668
350.0   150.0   0.0
350.0   120.0   16.666666666666668
400.0   150.0   16.666666666666668
400.0   120.0   16.666666666666668
400.0   120.0   0.0
350.0   120.0   16.666666666666668
400.0   150.0   16.666666666666668
400.0   120.0   0.0
350.0   150.0   0.0
350.0   120.0   16.666666666666668
400.0   120.0   16.666666666666668
350.0   150.0   16.666666666666668
350.0   120.0   33.333333333333336
400.0   120.0   16.666666666666668
400.0   150.0   16.666666666666668
350.0   150.0   16.666666666666668
400.0   150.0   33.333333333333336
350.0   120.0   33.333333333333336
350.0   150.0   33.333333333333336
400.0   150.0   33.333333333333336
350.0   150.0   16.666666666666668
350.0   120.0   33.333333333333336
400.0   150.0   33.333333333333336
400.0   120.0   33.333333333333336
400.0   120.0   16.666666666666668
350.0   120.0   33.333333333333336
400.0   150.0   33.333333333333336
400.0   120.0   16.666666666666668
350.0   150.0   16.666666666666668
350.0   120.0   33.333333333333336
400.0   120.0   33.333333333333336
350.0   150.0   33.333333333333336
350.0   120.0   50.0
400.0   120.0   33.333333333333336
400.0   150.0   33.333333333333336
350.0   150.0   33.333333333333336
400.0   150.0   50.0
350.0   120.0   50.0
350.0   150.0   50.0
400.0   150.0   50.0
350.0   150.0   33.333333333333336
350.0   120.0   50.0
400.0   150.0   50.0
400.0   120.0   50.0
400.0   120.0   33.333333333333336
350.0   120.0   50.0
400.0   150.0   50.0
400.0   120.0   33.333333333333336
350.0   150.0   33.333333333333336
400.0   0.0   0.0
450.0   0.0   0.0
400.0   30.0   0.0
400.0   0.0   16.666666666666668
450.0   0.0   0.0
450.0   30.0   0.0
400.0   30.0   0.0
450.0   30.0   16.666666666666668
400.0   0.0   16.666666666666668
400.0   30.0   16.666666666666668
450.0   30.0   16.666666666666668
400.0   30.0   0.0
400.0   0.0   16.666666666666668
450.0   30.0   16.666666666666668
450.0   0.0   16.666666666666668
450.0   0.0   0.0
400.0   0.0   16.666666666666668
450.0   30.0   16.666666666666668
450.0   0.0   0.0
400.0   30.0   0.0
400.0   0.0   16.666666666666668
450.0   0.0   16.666666666666668
400.0   30.0   16.666666666666668
400.0   0.0   33.333333333333336
450.0   0.0   16.666666666666668
450.0   30.0   16.666666666666668
400.0   30.0   16.666666666666668
450.0   30.0   33.333333333333336
400.0   0.0   33.333333333333336
400.0   30.0   33.333333333333336
450.0   30.0   33.333333333333336
400.0   30.0   16.666666666666668
400.0   0.0   33.333333333333336
450.0   30.0   33.333333333333336
450.0   0.0   33.333333333333336
450.0   0.0   16.666666666666668
400.0   0.0   33.333333333333336
450.0   30.0   33.333333333333336
450.0   0.0   16.666666666666668
400.0   30.0   16.666666666666668
400.0   0.0   33.333333333333336
450.0   0.0   33.333333333333336
400.0   30.0   33.333333333333336
400.0   0.0   50.0
450.0   0.0   33.333333333333336
450.0   30.0   33.333333333333336
400.0   30.0   33.333333333333336
450.0   30.0   50.0
400.0   0.0   50.0
400.0   30.0   50.0
450.0   30.0   50.0
400.0   30.0   33.333333333333336
400.0   0.0   50.0
450.0   30.0   50.0
450.0   0.0   50.0
450.0   0.0   33.333333333333336
400.0   0.0   50.0
450.0   30.0   50.0
450.0   0.0   33.333333333333336
400.0   30.0   33.333333333333336
400.0   30.0   0.0
450.0   30.0   0.0
400.0   60.0   0.0
400.0   30.0   16.666666666666668
450.0   30.0   0.0
450.0   60.0   0.0
400.0   60.0   0.0
450.0   60.0   16.666666666666668
400.0   30.0   16.666666666666668
400.0   60.0   16.666666666666668
450.0   60.0   16.666666666666668
400.0   60.0   0.0
400.0   30.0   16.666666666666668
450.0   60.0   16.666666666666668
450.0   30.0   16.666666666666668
450.0   30.0   0.0
400.0   30.0   16.666666666666668
450.0   60.0   16.666666666666668
450.0   30.0   0.0
400.0   60.0   0.0
400.0   30.0   16.666666666666668
450.0   30.0   16.666666666666668
400.0   60.0   16.666666666666668
400.0   30.0   33.333333333333336
450.0   30.0   16.666666666666668
450.0   60.0   16.666666666666668
400.0   60.0   16.666666666666668
450.0   60.0   33.333333333333336
400.0   30.0   33.333333333333336
400.0   60.0   33.333333333333336
450.0   60.0   33.333333333333336
400.0   60.0   16.666666666666668
400.0   30.0   33.333333333333336
450.0   60.0   33.333333333333336
450.0   30.0   33.333333333333336
450.0   30.0   16.666666666666668
400.0   30.0   33.333333333333336
450.0   60.0   33.333333333333336
450.0   30.0   16.666666666666668
400.0   60.0   16.666666666666668
400.0   30.0   33.333333333333336
450.0   30.0   33.333333333333336
400.0   60.0   33.333333333333336
400.0   30.0   50.0
450.0   30.0   33.333333333333336
450.0   60.0   33.333333333333336
400.0   60.0   33.333333333333336
450.0   60.0   50.0
400.0   30.0   50.0
400.0   60.0   50.0
450.0   60.0   50.0
400.0   60.0   33.333333333333336
400.0   30.0   50.0
450.0   60.0   50.0
450.0   30.0   50.0
450.0   30.0   33.333333333333336
400.0   30.0   50.0
450.0   60.0   50.0
450.0   30.0   33.333333333333336
400.0   60.0   33.333333333333336
400.0   60.0   0.0
450.0   60.0   0.0
400.0   90.0   0.0
400.0   60.0   16.666666666666668
450.0   60.0   0.0
450.0   90.0   0.0
400.0   90.0   0.0
450.0   90.0   16.666666666666668
400.0   60.0   16.666666666666668
400.0   90.0   16.666666666666668
450.0   90.0   16.666666666666668
400.0   90.0   0.0
400.0   60.0   16.666666666666668
450.0   90.0   16.666666666666668
450.0   60.0   16.666666666666668
450.0   60.0   0.0
400.0   60.0   16.666666666666668
450.0   90.0   16.666666666666668
450.0   60.0   0.0
400.0   90.0   0.0
400.0   60.0   16.666666666666668
450.0   60.0   16.666666666666668
400.0   90.0   16.666666666666668
400.0   60.0   33.333333333333336
450.0   60.0   16.666666666666668
450.0   90.0   16.666666666666668
400.0   90.0   16.666666666666668
450.0   90.0   33.333333333333336
400.0   60.0   33.333333333333336
400.0   90.0   33.333333333333336
450.0   90.0   33.333333333333336
400.0   90.0   16.666666666666668
400.0   60.0   33.333333333333336
450.0   90.0   33.333333333333336
450.0   60.0   33.333333333333336
450.0   60.0   16.666666666666668
400.0   60.0   33.333333333333336
450.0   90.0   33.333333333333336
450.0   60.0   16.666666666666668
400.0   90.0   16.666666666666668
400.0   60.0   33.333333333333336
450.0   60.0   33.333333333333336
400.0   90.0   33.333333333333336
400.0   60.0   50.0
450.0   60.0   33.333333333333336
450.0   90.0   33.333333333333336
400.0   90.0   33.333333333333336
450.0   90.0   50.0
400.0   60.0   50.0
400.0   90.0   50.0
450.0   90.0   50.0
400.0   90.0   33.333333333333336
400.0   60.0   50.0
450.0   90.0   50.0
450.0   60.0   50.0
450.0   60.0   33.333333333333336
400.0   60.0   50.0
450.0   90.0   50.0
450.0   60.0   33.333333333333336
400.0   90.0   33.333333333333336
400.0   90.0   0.0
450.0   90.0   0.0
400.0   120.0   0.0
400.0   90.0   16.666666666666668
450.0   90.0   0.0
450.0   120.0   0.0
400.0   120.0   0.0
450.0   120.0   16.666666666666668
400.0   90.0   16.666666666666668
400.0   120.0   16.666666666666668
450.0   120.0   16.666666666666668
400.0   120.0   0.0
400.0   90.0   16.666666666666668
450.0   120.0   16.666666666666668
450.0   90.0   16.666666666666668
450.0   90.0   0.0
400.0   90.0   16.666666666666668
450.0   120.0   16.666666666666668
450.0   90.0   0.0
400.0   120.0   0.0
400.0   90.0   16.666666666666668
450.0   90.0   16.666666666666668
400.0   120.0   16.666666666666668
400.0   90.0   33.333333333333336
450.0   90.0   16.666666666666668
450.0   120.0   16.666666666666668
400.0   120.0   16.666666666666668
450.0   120.0   33.333333333333336
400.0   90.0   33.333333333333336
400.0   120.0   33.333333333333336
450.0   120.0   33.333333333333336
400.0   120.0   16.666666666666668
400.0   90.0   33.333333333333336
450.0   120.0   33.333333333333336
450.0   90.0   33.333333333333336
450.0   90.0   16.666666666666668
400.0   90.0   33.333333333333336
450.0   120.0   33.333333333333336
450.0   90.0   16.666666666666668
400.0   120.0   16.666666666666668
400.0   90.0   33.333333333333336
450.0   90.0   33.333333333333336
400.0   120.0   33.333333333333336
400.0   90.0   50.0
450.0   90.0   33.333333333333336
450.0   120.0   33.333333333333336
400.0   120.0   33.333333333333336
450.0   120.0   50.0
400.0   90.0   50.0
400.0   120.0   50.0
450.0   120.0   50.0
400.0   120.0   33.333333333333336
400.0   90.0   50.0
450.0   120.0   50.0
450.0   90.0   50.0
450.0   90.0   33.333333333333336
400.0   90.0   50.0
450.0   120.0   50.0
450.0   90.0   33.333333333333336
400.0   120.0   33.333333333333336
400.0   120.0   0.0
450.0   120.0   0.0
400.0   150.0   0.0
400.0   120.0   16.666666666666668
450.0   120.0   0.0
450.0   150.0   0.0
400.0   150.0   0.0
450.0   150.0   16.666666666666668
400.0   120.0   16.666666666666668
400.0   150.0   16.666666666666668
450.0   150.0   16.666666666666668
400.0   150.0   0.0
400.0   120.0   16.666666666666668
450.0   150.0   16.666666666666668
450.0   120.0   16.666666666666668
450.0   120.0   0.0
400.0   120.0   16.666666666666668
450.0   150.0   16.666666666666668
450.0   120.0   0.0
400.0   150.0   0.0
400.0   120.0   16.666666666666668
450.0   120.0   16.666666666666668
400.0   150.0   16.666666666666668
400.0   120.0   33.333333333333336
450.0   120.0   16.666666666666668
450.0   150.0   16.666666666666668
400.0   150.0   16.666666666666668
450.0   150.0   33.333333333333336
400.0   120.0   33.333333333333336
400.0   150.0   33.333333333333336
450.0   150.0   33.333333333333336
400.0   150.0   16.666666666666668
400.0   120.0   33.333333333333336
450.0   150.0   33.333333333333336
450.0   120.0   33.333333333333336
450.0   120.0   16.666666666666668
400.0   120.0   33.333333333333336
450.0   150.0   33.333333333333336
450.0   120.0   16.666666666666668
400.0   150.0   16.666666666666668
400.0   120.0   33.333333333333336
450.0   120.0   33.333333333333336
400.0   150.0   33.333333333333336
400.0   120.0   50.0
450.0   120.0   33.333333333333336
450.0   150.0   33.333333333333336
400.0   150.0   33.333333333333336
450.0   150.0   50.0
400.0   120.0   50.0
400.0   150.0   50.0
450.0   150.0   50.0
400.0   150.0   33.333333333333336
400.0   120.0   50.0
450.0   150.0   50.0
450.0   120.0   50.0
450.0   120.0   33.333333333333336
400.0   120.0   50.0
450.0   150.0   50.0
450.0   120.0   33.333333333333336
400.0   150.0   33.333333333333336
450.0   0.0   0.0
500.0   0.0   0.0
450.0   30.0   0.0
450.0   0.0   16.666666666666668
500.0   0.0   0.0
500.0   30.0   0.0
450.0   30.0   0.0
500.0   30.0   16.666666666666668
450.0   0.0   16.666666666666668
450.0   30.0   16.666666666666668
500.0   30.0   16.666666666666668
450.0   30.0   0.0
450.0   0.0   16.666666666666668
500.0   30.0   16.666666666666668
500.0   0.0   16.666666666666668
500.0   0.0   0.0
450.0   0.0   16.666666666666668
500.0   30.0   16.666666666666668
500.0   0.0   0.0
450.0   30.0   0.0
450.0   0.0   16.666666666666668
500.0   0.0   16.666666666666668
450.0   30.0   16.666666666666668
450.0   0.0   33.333333333333336
500.0   0.0   16.666666666666668
500.0   30.0   16.666666666666668
450.0   30.0   16.666666666666668
500.0   30.0   33.333333333333336
450.0   0.0   33.333333333333336
450.0   30.0   33.333333333333336
500.0   30.0   33.333333333333336
450.0   30.0   16.666666666666668
450.0   0.0   33.333333333333336
500.0   30.0   33.333333333333336
500.0   0.0   33.333333333333336
500.0   0.0   16.666666666666668
450.0   0.0   33.333333333333336
500.0   30.0   33.333333333333336
500.0   0.0   16.666666666666668
450.0   30.0   16.666666666666668
450.0   0.0   33.333333333333336
500.0   0.0   33.333333333333336
450.0   30.0   33.333333333333336
450.0   0.0   50.0
500.0   0.0   33.333333333333336
500.0   30.0   33.333333333333336
450.0   30.0   33.333333333333336
500.0   30.0   50.0
450.0   0.0   50.0
450.0   30.0   50.0
500.0   30.0   50.0
450.0   30.0   33.333333333333336
450.0   0.0   50.0
500.0   30.0   50.0
500.0   0.0   50.0
500.0   0.0   33.333333333333336
450.0   0.0   50.0
500.0   30.0   50.0
500.0   0.0   33.333333333333336
450.0   30.0   33.333333333333336
450.0   30.0   0.0
500.0   30.0   0.0
450.0   60.0   0.0
450.0   30.0   16.666666666666668
500.0   30.0   0.0
500.0   60.0   0.0
450.0   60.0   0.0
500.0   60.0   16.666666666666668
450.0   30.0   16.666666666666668
450.0   60.0   16.666666666666668
500.0   60.0   16.666666666666668
450.0   60.0   0.0
450.0   30.0   16.666666666666668
500.0   60.0   16.666666666666668
500.0   30.0   16.666666666666668
500.0   30.0   0.0
450.0   30.0   16.666666666666668
500.0   60.0   16.666666666666668
500.0   30.0   0.0
450.0   60.0   0.0
450.0   30.0   16.666666666666668
500.0   30.0   16.666666666666668
450.0   60.0   16.666666666666668
450.0   30.0   33.333333333333336
500.0   30.0   16.666666666666668
500.0   60.0   16.666666666666668
450.0   60.0   16.666666666666668
500.0   60.0   33.333333333333336
450.0   30.0   33.333333333333336
450.0   60.0   33.333333333333336
500.0   60.0   33.333333333333336
450.0   60.0   16.666666666666668
450.0   30.0   33.333333333333336
500.0   60.0   33.333333333333336
500.0   30.0   33.333333333333336
500.0   30.0   16.666666666666668
450.0   30.0   33.333333333333336
500.0   60.0   33.333333333333336
500.0   30.0   16.666666666666668
450.0   60.0   16.666666666666668
450.0   30.0   33.333333333333336
500.0   30.0   33.333333333333336
450.0   60.0   33.333333333333336
450.0   30.0   50.0
500.0   30.0   33.333333333333336
500.0   60.0   33.333333333333336
450.0   60.0   33.333333333333336
500.0   60.0   50.0
450.0   30.0   50.0
450.0   60.0   50.0
500.0   60.0   50.0
450.0   60.0   33.333333333333336
450.0   30.0   50.0
500.0   60.0   50.0
500.0   30.0   50.0
500.0   30.0   33.333333333333336
450.0   30.0   50.0
500.0   60.0   50.0
500.0   30.0   33.333333333333336
450.0   60.0   33.333333333333336
450.0   60.0   0.0
500.0   60.0   0.0
450.0   90.0   0.0
450.0   60.0   16.666666666666668
500.0   60.0   0.0
500.0   90.0   0.0
450.0   90.0   0.0
500.0   90.0   16.666666666666668
450.0   60.0   16.666666666666668
450.0   90.0   16.666666666666668
500.0   90.0   16.666666666666668
450.0   90.0   0.0
450.0   60.0   16.666666666666668
500.0   90.0   16.666666666666668
500.0   60.0   16.666666666666668
500.0   60.0   0.0
450.0   60.0   16.666666666666668
500.0   90.0   16.666666666666668
500.0   60.0   0.0
450.0   90.0   0.0
450.0   60.0   16.666666666666668
500.0   60.0   16.666666666666668
450.0   90.0   16.666666666666668
450.0   60.0   33.333333333333336
500.0   60.0   16.666666666666668
500.0   90.0   16.666666666666668
450.0   90.0   16.666666666666668
500.0   90.0   33.333333333333336
450.0   60.0   33.333333333333336
450.0   90.0   33.333333333333336
500.0   90.0   33.333333333333336
450.0   90.0   16.666666666666668
450.0   60.0   33.333333333333336
500.0   90.0   33.333333333333336
500.0   60.0   33.333333333333336
500.0   60.0   16.666666666666668
450.0   60.0   33.333333333333336
500.0   90.0   33.333333333333336
500.0   60.0   16.666666666666668
450.0   90.0   16.666666666666668
450.0   60.0   33.333333333333336
500.0   60.0   33.333333333333336
450.0   90.0   33.333333333333336
450.0   60.0   50.0
500.0   60.0   33.333333333333336
500.0   90.0   33.333333333333336
450.0   90.0   33.333333333333336
500.0   90.0   50.0
450.0   60.0   50.0
450.0   90.0   50.0
500.0   90.0   50.0
450.0   90.0   33.333333333333336
450.0   60.0   50.0
500.0   90.0   50.0
500.0   60.0   50.0
500.0   60.0   33.333333333333336
450.0   60.0   50.0
500.0   90.0   50.0
500.0   60.0   33.333333333333336
450.0   90.0   33.333333333333336
450.0   90.0   0.0
500.0   90.0   0.0
450.0   120.0   0.0
450.0   90.0   16.666666666666668
500.0   90.0   0.0
500.0   120.0   0.0
450.0   120.0   0.0
500.0   120.0   16.666666666666668
450.0   90.0   16.666666666666668
450.0   120.0   16.666666666666668
500.0   120.0   16.666666666666668
450.0   120.0   0.0
450.0   90.0   16.666666666666668
500.0   120.0   16.666666666666668
500.0   90.0   16.666666666666668
500.0   90.0   0.0
450.0   90.0   16.666666666666668
500.0   120.0   16.666666666666668
500.0   90.0   0.0
450.0   120.0   0.0
450.0   90.0   16.666666666666668
500.0   90.0   16.666666666666668
450.0   120.0   16.666666666666668
450.0   90.0   33.333333333333336
500.0   90.0   16.666666666666668
500.0   120.0   16.666666666666668
450.0   120.0   16.666666666666668
500.0   120.0   33.333333333333336
450.0   90.0   33.333333333333336
450.0   120.0   33.333333333333336
500.0   120.0   33.333333333333336
450.0   120.0   16.666666666666668
450.0   90.0   33.333333333333336
500.0   120.0   33.333333333333336
500.0   90.0   33.333333333333336
500.0   90.0   16.666666666666668
450.0   90.0   33.333333333333336
500.0   120.0   33.333333333333336
500.0   90.0   16.666666666666668
450.0   120.0   16.666666666666668
450.0   90.0   33.333333333333336
500.0   90.0   33.333333333333336
450.0   120.0   33.333333333333336
450.0   90.0   50.0
500.0   90.0   33.333333333333336
500.0   120.0   33.333333333333336
450.0   120.0   33.333333333333336
500.0   120.0   50.0
450.0   90.0   50.0
450.0   120.0   50.0
500.0   120.0   50.0
450.0   120.0   33.333333333333336
450.0   90.0   50.0
500.0   120.0   50.0
500.0   90.0   50.0
500.0   90.0   33.333333333333336
450.0   90.0   50.0
500.0   120.0   50.0
500.0   90.0   33.333333333333336
450.0   120.0   33.333333333333336
450.0   120.0   0.0
500.0   120.0   0.0
450.0   150.0   0.0
450.0   120.0   16.666666666666668
500.0   120.0   0.0
500.0   150.0   0.0
450.0   150.0   0.0
500.0   150.0   16.666666666666668
450.0   120.0   16.666666666666668
450.0   150.0   16.666666666666668
500.0   150.0   16.666666666666668
450.0   150.0   0.0
450.0   120.0   16.666666666666668
500.0   150.0   16.666666666666668
500.0   120.0   16.666666666666668
500.0   120.0   0.0
450.0   120.0   16.666666666666668
500.0   150.0   16.666666666666668
500.0   120.0   0.0
450.0   150.0   0.0
450.0   120.0   16.666666666666668
500.0   120.0   16.666666666666668
450.0   150.0   16.666666666666668
450.0   120.0   33.333333333333336
500.0   120.0   16.666666666666668
500.0   150.0   16.666666666666668
450.0   150.0   16.666666666666668
500.0   150.0   33.333333333333336
450.0   120.0   33.333333333333336
450.0   150.0   33.333333333333336
500.0   150.0   33.333333333333336
450.0   150.0   16.666666666666668
450.0   120.0   33.333333333333336
500.0   150.0   33.333333333333336
500.0   120.0   33.333333333333336
500.0   120.0   16.666666666666668
450.0   120.0   33.333333333333336
500.0   150.0   33.333333333333336
500.0   120.0   16.666666666666668
450.0   150.0   16.666666666666668
450.0   120.0   33.333333333333336
500.0   120.0   33.333333333333336
450.0   150.0   33.333333333333336
450.0   120.0   50.0
500.0   120.0   33.333333333333336
500.0   150.0   33.333333333333336
450.0   150.0   33.333333333333336
500.0   150.0   50.0
450.0   120.0   50.0
450.0   150.0   50.0
500.0   150.0   50.0
450.0   150.0   33.333333333333336
450.0   120.0   50.0
500.0   150.0   50.0
500.0   120.0   50.0
500.0   120.0   33.333333333333336
450.0   120.0   50.0
500.0   150.0   50.0
500.0   120.0   33.333333333333336
450.0   150.0   33.333333333333336
             </DataArray>   
          </Points>  
          <Cells>  
             <DataArray type="Int32" Name="connectivity" format="ascii">   
0   1   2   3
4   5   6   7
8   9   10   11
12   13   14   15
16   17   18   19
20   21   22   23
24   25   26   27
28   29   30   31
32   33   34   35
36   37   38   39
40   41   42   43
44   45   46   47
48   49   50   51
52   53   54   55
56   57   58   59
60   61   62   63
64   65   66   67
68   69   70   71
72   73   74   75
76   77   78   79
80   81   82   83
84   85   86   87
88   89   90   91
92   93   94   95
96   97   98   99
100   101   102   103
104   105   106   107
108   109   110   111
112   113   114   115
116   117   118   119
120   121   122   123
124   125   126   127
128   129   130   131
132   133   134   135
136   137   138   139
140   141   142   143
144   145   146   147
148   149   150   151
152   153   154   155
156   157   158   159
160   161   162   163
164   165   166   167
168   169   170   171
172   173   174   175
176   177   178   179
180   181   182   183
184   185   186   187
188   189   190   191
192   193   194   195
196   197   198   199
200   201   202   203
204   205   206   207
208   209   210   211
212   213   214   215
216   217   218   219
220   221   222   223
224   225   226   227
228   229   230   231
232   233   234   235
236   237   238   239
240   241   242   243
244   245   246   247
248   249   250   251
252   253   254   255
256   257   258   259
260   261   262   263
264   265   266   267
268   269   270   271
272   273   274   275
276   277   278   279
280   281   282   283
284   285   286   287
288   289   290   291
292   293   294   295
296   297   298   299
300   301   302   303
304   305   306   307
308   309   310   311
312   313   314   315
316   317   318   319
320   321   322   323
324   325   326   327
328   329   330   331
332   333   334   335
336   337   338   339
340   341   342   343
344   345   346   347
348   349   350   351
352   353   354   355
356   357   358   359
360   361   362   363
364   365   366   367
368   369   370   371
372   373   374   375
376   377   378   379
380   381   382   383
384   385   386   387
388   389   390   391
392   393   394   395
396   397   398   399
400   401   402   403
404   405   406   407
408   409   410   411
412   413   414   415
416   417   418   419
420   421   422   423
424   425   426   427
428   429   430   431
432   433   434   435
436   437   438   439
440   441   442   443
444   445   446   447
448   449   450   451
452   453   454   455
456   457   458   459
460   461   462   463
464   465   466   467
468   469   470   471
472   473   474   475
476   477   478   479
480   481   482   483
484   485   486   487
488   489   490   491
492   493   494   495
496   497   498   499
500   501   502   503
504   505   506   507
508   509   510   511
512   513   514   515
516   517   518   519
520   521   522   523
524   525   526   527
528   529   530   531
532   533   534   535
536   537   538   539
540   541   542   543
544   545   546   547
548   549   550   551
552   553   554   555
556   557   558   559
560   561   562   563
564   565   566   567
568   569   570   571
572   573   574   575
576   577   578   579
580   581   582   583
584   585   586   587
588   589   590   591
592   593   594   595
596   597   598   599
600   601   602   603
604   605   606   607
608   609   610   611
612   613   614   615
616   617   618   619
620   621   622   623
624   625   626   627
628   629   630   631
632   633   634   635
636   637   638   639
640   641   642   643
644   645   646   647
648   649   650   651
652   653   654   655
656   657   658   659
660   661   662   663
664   665   666   667
668   669   670   671
672   673   674   675
676   677   678   679
680   681   682   683
684   685   686   687
688   689   690   691
692   693   694   695
696   697   698   699
700   701   702   703
704   705   706   707
708   709   710   711
712   713   714   715
716   717   718   719
720   721   722   723
724   725   726   727
728   729   730   731
732   733   734   735
736   737   738   739
740   741   742   743
744   745   746   747
748   749   750   751
752   753   754   755
756   757   758   759
760   761   762   763
764   765   766   767
768   769   770   771
772   773   774   775
776   777   778   779
780   781   782   783
784   785   786   787
788   789   790   791
792   793   794   795
796   797   798   799
800   801   802   803
804   805   806   807
808   809   810   811
812   813   814   815
816   817   818   819
820   821   822   823
824   825   826   827
828   829   830   831
832   833   834   835
836   837   838   839
840   841   842   843
844   845   846   847
848   849   850   851
852   853   854   855
856   857   858   859
860   861   862   863
864   865   866   867
868   869   870   871
872   873   874   875
876   877   878   879
880   881   882   883
884   885   886   887
888   889   890   891
892   893   894   895
896   897   898   899
900   901   902   903
904   905   906   907
908   909   910   911
912   913   914   915
916   917   918   919
920   921   922   923
924   925   926   927
928   929   930   931
932   933   934   935
936   937   938   939
940   941   942   943
944   945   946   947
948   949   950   951
952   953   954   955
956   957   958   959
960   961   962   963
964   965   966   967
968   969   970   971
972   973   974   975
976   977   978   979
980   981   982   983
984   985   986   987
988   989   990   991
992   993   994   995
996   997   998   999
1000   1001   1002   1003
1004   1005   1006   1007
1008   1009   1010   1011
1012   1013   1014   1015
1016   1017   1018   1019
1020   1021   1022   1023
1024   1025   1026   1027
1028   1029   1030   1031
1032   1033   1034   1035
1036   1037   1038   1039
1040   1041   1042   1043
1044   1045   1046   1047
1048   1049   1050   1051
1052   1053   1054   1055
1056   1057   1058   1059
1060   1061   1062   1063
1064   1065   1066   1067
1068   1069   1070   1071
1072   1073   1074   1075
1076   1077   1078   1079
1080   1081   1082   1083
1084   1085   1086   1087
1088   1089   1090   1091
1092   1093   1094   1095
1096   1097   1098   1099
1100   1101   1102   1103
1104   1105   1106   1107
1108   1109   1110   1111
1112   1113   1114   1115
1116   1117   1118   1119
1120   1121   1122   1123
1124   1125   1126   1127
1128   1129   1130   1131
1132   1133   1134   1135
1136   1137   1138   1139
1140   1141   1142   1143
1144   1145   1146   1147
1148   1149   1150   1151
1152   1153   1154   1155
1156   1157   1158   1159
1160   1161   1162   1163
1164   1165   1166   1167
1168   1169   1170   1171
1172   1173   1174   1175
1176   1177   1178   1179
1180   1181   1182   1183
1184   1185   1186   1187
1188   1189   1190   1191
1192   1193   1194   1195
1196   1197   1198   1199
1200   1201   1202   1203
1204   1205   1206   1207
1208   1209   1210   1211
1212   1213   1214   1215
1216   1217   1218   1219
1220   1221   1222   1223
1224   1225   1226   1227
1228   1229   1230   1231
1232   1233   1234   1235
1236   1237   1238   1239
1240   1241   1242   1243
1244   1245   1246   1247
1248   1249   1250   1251
1252   1253   1254   1255
1256   1257   1258   1259
1260   1261   1262   1263
1264   1265   1266   1267
1268   1269   1270   1271
1272   1273   1274   1275
1276   1277   1278   1279
1280   1281   1282   1283
1284   1285   1286   1287
1288   1289   1290   1291
1292   1293   1294   1295
1296   1297   1298   1299
1300   1301   1302   1303
1304   1305   1306   1307
1308   1309   1310   1311
1312   1313   1314   1315
1316   1317   1318   1319
1320   1321   1322   1323
1324   1325   1326   1327
1328   1329   1330   1331
1332   1333   1334   1335
1336   1337   1338   1339
1340   1341   1342   1343
1344   1345   1346   1347
1348   1349   1350   1351
1352   1353   1354   1355
1356   1357   1358   1359
1360   1361   1362   1363
1364   1365   1366   1367
1368   1369   1370   1371
1372   1373   1374   1375
1376   1377   1378   1379
1380   1381   1382   1383
1384   1385   1386   1387
1388   1389   1390   1391
1392   1393   1394   1395
1396   1397   1398   1399
1400   1401   1402   1403
1404   1405   1406   1407
1408   1409   1410   1411
1412   1413   1414   1415
1416   1417   1418   1419
1420   1421   1422   1423
1424   1425   1426   1427
1428   1429   1430   1431
1432   1433   1434   1435
1436   1437   1438   1439
1440   1441   1442   1443
1444   1445   1446   1447
1448   1449   1450   1451
1452   1453   1454   1455
1456   1457   1458   1459
1460   1461   1462   1463
1464   1465   1466   1467
1468   1469   1470   1471
1472   1473   1474   1475
1476   1477   1478   1479
1480   1481   1482   1483
1484   1485   1486   1487
1488   1489   1490   1491
1492   1493   1494   1495
1496   1497   1498   1499
1500   1501   1502   1503
1504   1505   1506   1507
1508   1509   1510   1511
1512   1513   1514   1515
1516   1517   1518   1519
1520   1521   1522   1523
1524   1525   1526   1527
1528   1529   1530   1531
1532   1533   1534   1535
1536   1537   1538   1539
1540   1541   1542   1543
1544   1545   1546   1547
1548   1549   1550   1551
1552   1553   1554   1555
1556   1557   1558   1559
1560   1561   1562   1563
1564   1565   1566   1567
1568   1569   1570   1571
1572   1573   1574   1575
1576   1577   1578   1579
1580   1581   1582   1583
1584   1585   1586   1587
1588   1589   1590   1591
1592   1593   1594   1595
1596   1597   1598   1599
1600   1601   1602   1603
1604   1605   1606   1607
1608   1609   1610   1611
1612   1613   1614   1615
1616   1617   1618   1619
1620   1621   1622   1623
1624   1625   1626   1627
1628   1629   1630   1631
1632   1633   1634   1635
1636   1637   1638   1639
1640   1641   1642   1643
1644   1645   1646   1647
1648   1649   1650   1651
1652   1653   1654   1655
1656   1657   1658   1659
1660   1661   1662   1663
1664   1665   1666   1667
1668   1669   1670   1671
1672   1673   1674   1675
1676   1677   1678   1679
1680   1681   1682   1683
1684   1685   1686   1687
1688   1689   1690   1691
1692   1693   1694   1695
1696   1697   1698   1699
1700   1701   1702   1703
1704   1705   1706   1707
1708   1709   1710   1711
1712   1713   1714   1715
1716   1717   1718   1719
1720   1721   1722   1723
1724   1725   1726   1727
1728   1729   1730   1731
1732   1733   1734   1735
1736   1737   1738   1739
1740   1741   1742   1743
1744   1745   1746   1747
1748   1749   1750   1751
1752   1753   1754   1755
1756   1757   1758   1759
1760   1761   1762   1763
1764   1765   1766   1767
1768   1769   1770   1771
1772   1773   1774   1775
1776   1777   1778   1779
1780   1781   1782   1783
1784   1785   1786   1787
1788   1789   1790   1791
1792   1793   1794   1795
1796   1797   1798   1799
1800   1801   1802   1803
1804   1805   1806   1807
1808   1809   1810   1811
1812   1813   1814   1815
1816   1817   1818   1819
1820   1821   1822   1823
1824   1825   1826   1827
1828   1829   1830   1831
1832   1833   1834   1835
1836   1837   1838   1839
1840   1841   1842   1843
1844   1845   1846   1847
1848   1849   1850   1851
1852   1853   1854   1855
1856   1857   1858   1859
1860   1861   1862   1863
1864   1865   1866   1867
1868   1869   1870   1871
1872   1873   1874   1875
1876   1877   1878   1879
1880   1881   1882   1883
1884   1885   1886   1887
1888   1889   1890   1891
1892   1893   1894   1895
1896   1897   1898   1899
1900   1901   1902   1903
1904   1905   1906   1907
1908   1909   1910   1911
1912   1913   1914   1915
1916   1917   1918   1919
1920   1921   1922   1923
1924   1925   1926   1927
1928   1929   1930   1931
1932   1933   1934   1935
1936   1937   1938   1939
1940   1941   1942   1943
1944   1945   1946   1947
1948   1949   1950   1951
1952   1953   1954   1955
1956   1957   1958   1959
1960   1961   1962   1963
1964   1965   1966   1967
1968   1969   1970   1971
1972   1973   1974   1975
1976   1977   1978   1979
1980   1981   1982   1983
1984   1985   1986   1987
1988   1989   1990   1991
1992   1993   1994   1995
1996   1997   1998   1999
2000   2001   2002   2003
2004   2005   2006   2007
2008   2009   2010   2011
2012   2013   2014   2015
2016   2017   2018   2019
2020   2021   2022   2023
2024   2025   2026   2027
2028   2029   2030   2031
2032   2033   2034   2035
2036   2037   2038   2039
2040   2041   2042   2043
2044   2045   2046   2047
2048   2049   2050   2051
2052   2053   2054   2055
2056   2057   2058   2059
2060   2061   2062   2063
2064   2065   2066   2067
2068   2069   2070   2071
2072   2073   2074   2075
2076   2077   2078   2079
2080   2081   2082   2083
2084   2085   2086   2087
2088   2089   2090   2091
2092   2093   2094   2095
2096   2097   2098   2099
2100   2101   2102   2103
2104   2105   2106   2107
2108   2109   2110   2111
2112   2113   2114   2115
2116   2117   2118   2119
2120   2121   2122   2123
2124   2125   2126   2127
2128   2129   2130   2131
2132   2133   2134   2135
2136   2137   2138   2139
2140   2141   2142   2143
2144   2145   2146   2147
2148   2149   2150   2151
2152   2153   2154   2155
2156   2157   2158   2159
2160   2161   2162   2163
2164   2165   2166   2167
2168   2169   2170   2171
2172   2173   2174   2175
2176   2177   2178   2179
2180   2181   2182   2183
2184   2185   2186   2187
2188   2189   2190   2191
2192   2193   2194   2195
2196   2197   2198   2199
2200   2201   2202   2203
2204   2205   2206   2207
2208   2209   2210   2211
2212   2213   2214   2215
2216   2217   2218   2219
2220   2221   2222   2223
2224   2225   2226   2227
2228   2229   2230   2231
2232   2233   2234   2235
2236   2237   2238   2239
2240   2241   2242   2243
2244   2245   2246   2247
2248   2249   2250   2251
2252   2253   2254   2255
2256   2257   2258   2259
2260   2261   2262   2263
2264   2265   2266   2267
2268   2269   2270   2271
2272   2273   2274   2275
2276   2277   2278   2279
2280   2281   2282   2283
2284   2285   2286   2287
2288   2289   2290   2291
2292   2293   2294   2295
2296   2297   2298   2299
2300   2301   2302   2303
2304   2305   2306   2307
2308   2309   2310   2311
2312   2313   2314   2315
2316   2317   2318   2319
2320   2321   2322   2323
2324   2325   2326   2327
2328   2329   2330   2331
2332   2333   2334   2335
2336   2337   2338   2339
2340   2341   2342   2343
2344   2345   2346   2347
2348   2349   2350   2351
2352   2353   2354   2355
2356   2357   2358   2359
2360   2361   2362   2363
2364   2365   2366   2367
2368   2369   2370   2371
2372   2373   2374   2375
2376   2377   2378   2379
2380   2381   2382   2383
2384   2385   2386   2387
2388   2389   2390   2391
2392   2393   2394   2395
2396   2397   2398   2399
2400   2401   2402   2403
2404   2405   2406   2407
2408   2409   2410   2411
2412   2413   2414   2415
2416   2417   2418   2419
2420   2421   2422   2423
2424   2425   2426   2427
2428   2429   2430   2431
2432   2433   2434   2435
2436   2437   2438   2439
2440   2441   2442   2443
2444   2445   2446   2447
2448   2449   2450   2451
2452   2453   2454   2455
2456   2457   2458   2459
2460   2461   2462   2463
2464   2465   2466   2467
2468   2469   2470   2471
2472   2473   2474   2475
2476   2477   2478   2479
2480   2481   2482   2483
2484   2485   2486   2487
2488   2489   2490   2491
2492   2493   2494   2495
2496   2497   2498   2499
2500   2501   2502   2503
2504   2505   2506   2507
2508   2509   2510   2511
2512   2513   2514   2515
2516   2517   2518   2519
2520   2521   2522   2523
2524   2525   2526   2527
2528   2529   2530   2531
2532   2533   2534   2535
2536   2537   2538   2539
2540   2541   2542   2543
2544   2545   2546   2547
2548   2549   2550   2551
2552   2553   2554   2555
2556   2557   2558   2559
2560   2561   2562   2563
2564   2565   2566   2567
2568   2569   2570   2571
2572   2573   2574   2575
2576   2577   2578   2579
2580   2581   2582   2583
2584   2585   2586   2587
2588   2589   2590   2591
2592   2593   2594   2595
2596   2597   2598   2599
2600   2601   2602   2603
2604   2605   2606   2607
2608   2609   2610   2611
2612   2613   2614   2615
2616   2617   2618   2619
2620   2621   2622   2623
2624   2625   2626   2627
2628   2629   2630   2631
2632   2633   2634   2635
2636   2637   2638   2639
2640   2641   2642   2643
2644   2645   2646   2647
2648   2649   2650   2651
2652   2653   2654   2655
2656   2657   2658   2659
2660   2661   2662   2663
2664   2665   2666   2667
2668   2669   2670   2671
2672   2673   2674   2675
2676   2677   2678   2679
2680   2681   2682   2683
2684   2685   2686   2687
2688   2689   2690   2691
2692   2693   2694   2695
2696   2697   2698   2699
2700   2701   2702   2703
2704   2705   2706   2707
2708   2709   2710   2711
2712   2713   2714   2715
2716   2717   2718   2719
2720   2721   2722   2723
2724   2725   2726   2727
2728   2729   2730   2731
2732   2733   2734   2735
2736   2737   2738   2739
2740   2741   2742   2743
2744   2745   2746   2747
2748   2749   2750   2751
2752   2753   2754   2755
2756   2757   2758   2759
2760   2761   2762   2763
2764   2765   2766   2767
2768   2769   2770   2771
2772   2773   2774   2775
2776   2777   2778   2779
2780   2781   2782   2783
2784   2785   2786   2787
2788   2789   2790   2791
2792   2793   2794   2795
2796   2797   2798   2799
2800   2801   2802   2803
2804   2805   2806   2807
2808   2809   2810   2811
2812   2813   2814   2815
2816   2817   2818   2819
2820   2821   2822   2823
2824   2825   2826   2827
2828   2829   2830   2831
2832   2833   2834   2835
2836   2837   2838   2839
2840   2841   2842   2843
2844   2845   2846   2847
2848   2849   2850   2851
2852   2853   2854   2855
2856   2857   2858   2859
2860   2861   2862   2863
2864   2865   2866   2867
2868   2869   2870   2871
2872   2873   2874   2875
2876   2877   2878   2879
2880   2881   2882   2883
2884   2885   2886   2887
2888   2889   2890   2891
2892   2893   2894   2895
2896   2897   2898   2899
2900   2901   2902   2903
2904   2905   2906   2907
2908   2909   2910   2911
2912   2913   2914   2915
2916   2917   2918   2919
2920   2921   2922   2923
2924   2925   2926   2927
2928   2929   2930   2931
2932   2933   2934   2935
2936   2937   2938   2939
2940   2941   2942   2943
2944   2945   2946   2947
2948   2949   2950   2951
2952   2953   2954   2955
2956   2957   2958   2959
2960   2961   2962   2963
2964   2965   2966   2967
2968   2969   2970   2971
2972   2973   2974   2975
2976   2977   2978   2979
2980   2981   2982   2983
2984   2985   2986   2987
2988   2989   2990   2991
2992   2993   2994   2995
2996   2997   2998   2999
3000   3001   3002   3003
3004   3005   3006   3007
3008   3009   3010   3011
3012   3013   3014   3015
3016   3017   3018   3019
3020   3021   3022   3023
3024   3025   3026   3027
3028   3029   3030   3031
3032   3033   3034   3035
3036   3037   3038   3039
3040   3041   3042   3043
3044   3045   3046   3047
3048   3049   3050   3051
3052   3053   3054   3055
3056   3057   3058   3059
3060   3061   3062   3063
3064   3065   3066   3067
3068   3069   3070   3071
3072   3073   3074   3075
3076   3077   3078   3079
3080   3081   3082   3083
3084   3085   3086   3087
3088   3089   3090   3091
3092   3093   3094   3095
3096   3097   3098   3099
3100   3101   3102   3103
3104   3105   3106   3107
3108   3109   3110   3111
3112   3113   3114   3115
3116   3117   3118   3119
3120   3121   3122   3123
3124   3125   3126   3127
3128   3129   3130   3131
3132   3133   3134   3135
3136   3137   3138   3139
3140   3141   3142   3143
3144   3145   3146   3147
3148   3149   3150   3151
3152   3153   3154   3155
3156   3157   3158   3159
3160   3161   3162   3163
3164   3165   3166   3167
3168   3169   3170   3171
3172   3173   3174   3175
3176   3177   3178   3179
3180   3181   3182   3183
3184   3185   3186   3187
3188   3189   3190   3191
3192   3193   3194   3195
3196   3197   3198   3199
3200   3201   3202   3203
3204   3205   3206   3207
3208   3209   3210   3211
3212   3213   3214   3215
3216   3217   3218   3219
3220   3221   3222   3223
3224   3225   3226   3227
3228   3229   3230   3231
3232   3233   3234   3235
3236   3237   3238   3239
3240   3241   3242   3243
3244   3245   3246   3247
3248   3249   3250   3251
3252   3253   3254   3255
3256   3257   3258   3259
3260   3261   3262   3263
3264   3265   3266   3267
3268   3269   3270   3271
3272   3273   3274   3275
3276   3277   3278   3279
3280   3281   3282   3283
3284   3285   3286   3287
3288   3289   3290   3291
3292   3293   3294   3295
3296   3297   3298   3299
3300   3301   3302   3303
3304   3305   3306   3307
3308   3309   3310   3311
3312   3313   3314   3315
3316   3317   3318   3319
3320   3321   3322   3323
3324   3325   3326   3327
3328   3329   3330   3331
3332   3333   3334   3335
3336   3337   3338   3339
3340   3341   3342   3343
3344   3345   3346   3347
3348   3349   3350   3351
3352   3353   3354   3355
3356   3357   3358   3359
3360   3361   3362   3363
3364   3365   3366   3367
3368   3369   3370   3371
3372   3373   3374   3375
3376   3377   3378   3379
3380   3381   3382   3383
3384   3385   3386   3387
3388   3389   3390   3391
3392   3393   3394   3395
3396   3397   3398   3399
3400   3401   3402   3403
3404   3405   3406   3407
3408   3409   3410   3411
3412   3413   3414   3415
3416   3417   3418   3419
3420   3421   3422   3423
3424   3425   3426   3427
3428   3429   3430   3431
3432   3433   3434   3435
3436   3437   3438   3439
3440   3441   3442   3443
3444   3445   3446   3447
3448   3449   3450   3451
3452   3453   3454   3455
3456   3457   3458   3459
3460   3461   3462   3463
3464   3465   3466   3467
3468   3469   3470   3471
3472   3473   3474   3475
3476   3477   3478   3479
3480   3481   3482   3483
3484   3485   3486   3487
3488   3489   3490   3491
3492   3493   3494   3495
3496   3497   3498   3499
3500   3501   3502   3503
3504   3505   3506   3507
3508   3509   3510   3511
3512   3513   3514   3515
3516   3517   3518   3519
3520   3521   3522   3523
3524   3525   3526   3527
3528   3529   3530   3531
3532   3533   3534   3535
3536   3537   3538   3539
3540   3541   3542   3543
3544   3545   3546   3547
3548   3549   3550   3551
3552   3553   3554   3555
3556   3557   3558   3559
3560   3561   3562   3563
3564   3565   3566   3567
3568   3569   3570   3571
3572   3573   3574   3575
3576   3577   3578   3579
3580   3581   3582   3583
3584   3585   3586   3587
3588   3589   3590   3591
3592   3593   3594   3595
3596   3597   3598   3599
3600   3601   3602   3603
3604   3605   3606   3607
3608   3609   3610   3611
3612   3613   3614   3615
3616   3617   3618   3619
3620   3621   3622   3623
3624   3625   3626   3627
3628   3629   3630   3631
3632   3633   3634   3635
3636   3637   3638   3639
3640   3641   3642   3643
3644   3645   3646   3647
3648   3649   3650   3651
3652   3653   3654   3655
3656   3657   3658   3659
3660   3661   3662   3663
3664   3665   3666   3667
3668   3669   3670   3671
3672   3673   3674   3675
3676   3677   3678   3679
3680   3681   3682   3683
3684   3685   3686   3687
3688   3689   3690   3691
3692   3693   3694   3695
3696   3697   3698   3699
3700   3701   3702   3703
3704   3705   3706   3707
3708   3709   3710   3711
3712   3713   3714   3715
3716   3717   3718   3719
3720   3721   3722   3723
3724   3725   3726   3727
3728   3729   3730   3731
3732   3733   3734   3735
3736   3737   3738   3739
3740   3741   3742   3743
3744   3745   3746   3747
3748   3749   3750   3751
3752   3753   3754   3755
3756   3757   3758   3759
3760   3761   3762   3763
3764   3765   3766   3767
3768   3769   3770   3771
3772   3773   3774   3775
3776   3777   3778   3779
3780   3781   3782   3783
3784   3785   3786   3787
3788   3789   3790   3791
3792   3793   3794   3795
3796   3797   3798   3799
3800   3801   3802   3803
3804   3805   3806   3807
3808   3809   3810   3811
3812   3813   3814   3815
3816   3817   3818   3819
3820   3821   3822   3823
3824   3825   3826   3827
3828   3829   3830   3831
3832   3833   3834   3835
3836   3837   3838   3839
3840   3841   3842   3843
3844   3845   3846   3847
3848   3849   3850   3851
3852   3853   3854   3855
3856   3857   3858   3859
3860   3861   3862   3863
3864   3865   3866   3867
3868   3869   3870   3871
3872   3873   3874   3875
3876   3877   3878   3879
3880   3881   3882   3883
3884   3885   3886   3887
3888   3889   3890   3891
3892   3893   3894   3895
3896   3897   3898   3899
3900   3901   3902   3903
3904   3905   3906   3907
3908   3909   3910   3911
3912   3913   3914   3915
3916   3917   3918   3919
3920   3921   3922   3923
3924   3925   3926   3927
3928   3929   3930   3931
3932   3933   3934   3935
3936   3937   3938   3939
3940   3941   3942   3943
3944   3945   3946   3947
3948   3949   3950   3951
3952   3953   3954   3955
3956   3957   3958   3959
3960   3961   3962   3963
3964   3965   3966   3967
3968   3969   3970   3971
3972   3973   3974   3975
3976   3977   3978   3979
3980   3981   3982   3983
3984   3985   3986   3987
3988   3989   3990   3991
3992   3993   3994   3995
3996   3997   3998   3999
4000   4001   4002   4003
4004   4005   4006   4007
4008   4009   4010   4011
4012   4013   4014   4015
4016   4017   4018   4019
4020   4021   4022   4023
4024   4025   4026   4027
4028   4029   4030   4031
4032   4033   4034   4035
4036   4037   4038   4039
4040   4041   4042   4043
4044   4045   4046   4047
4048   4049   4050   4051
4052   4053   4054   4055
4056   4057   4058   4059
4060   4061   4062   4063
4064   4065   4066   4067
4068   4069   4070   4071
4072   4073   4074   4075
4076   4077   4078   4079
4080   4081   4082   4083
4084   4085   4086   4087
4088   4089   4090   4091
4092   4093   4094   4095
4096   4097   4098   4099
4100   4101   4102   4103
4104   4105   4106   4107
4108   4109   4110   4111
4112   4113   4114   4115
4116   4117   4118   4119
4120   4121   4122   4123
4124   4125   4126   4127
4128   4129   4130   4131
4132   4133   4134   4135
4136   4137   4138   4139
4140   4141   4142   4143
4144   4145   4146   4147
4148   4149   4150   4151
4152   4153   4154   4155
4156   4157   4158   4159
4160   4161   4162   4163
4164   4165   4166   4167
4168   4169   4170   4171
4172   4173   4174   4175
4176   4177   4178   4179
4180   4181   4182   4183
4184   4185   4186   4187
4188   4189   4190   4191
4192   4193   4194   4195
4196   4197   4198   4199
4200   4201   4202   4203
4204   4205   4206   4207
4208   4209   4210   4211
4212   4213   4214   4215
4216   4217   4218   4219
4220   4221   4222   4223
4224   4225   4226   4227
4228   4229   4230   4231
4232   4233   4234   4235
4236   4237   4238   4239
4240   4241   4242   4243
4244   4245   4246   4247
4248   4249   4250   4251
4252   4253   4254   4255
4256   4257   4258   4259
4260   4261   4262   4263
4264   4265   4266   4267
4268   4269   4270   4271
4272   4273   4274   4275
4276   4277   4278   4279
4280   4281   4282   4283
4284   4285   4286   4287
4288   4289   4290   4291
4292   4293   4294   4295
4296   4297   4298   4299
4300   4301   4302   4303
4304   4305   4306   4307
4308   4309   4310   4311
4312   4313   4314   4315
4316   4317   4318   4319
4320   4321   4322   4323
4324   4325   4326   4327
4328   4329   4330   4331
4332   4333   4334   4335
4336   4337   4338   4339
4340   4341   4342   4343
4344   4345   4346   4347
4348   4349   4350   4351
4352   4353   4354   4355
4356   4357   4358   4359
4360   4361   4362   4363
4364   4365   4366   4367
4368   4369   4370   4371
4372   4373   4374   4375
4376   4377   4378   4379
4380   4381   4382   4383
4384   4385   4386   4387
4388   4389   4390   4391
4392   4393   4394   4395
4396   4397   4398   4399
4400   4401   4402   4403
4404   4405   4406   4407
4408   4409   4410   4411
4412   4413   4414   4415
4416   4417   4418   4419
4420   4421   4422   4423
4424   4425   4426   4427
4428   4429   4430   4431
4432   4433   4434   4435
4436   4437   4438   4439
4440   4441   4442   4443
4444   4445   4446   4447
4448   4449   4450   4451
4452   4453   4454   4455
4456   4457   4458   4459
4460   4461   4462   4463
4464   4465   4466   4467
4468   4469   4470   4471
4472   4473   4474   4475
4476   4477   4478   4479
4480   4481   4482   4483
4484   4485   4486   4487
4488   4489   4490   4491
4492   4493   4494   4495
4496   4497   4498   4499
4500   4501   4502   4503
4504   4505   4506   4507
4508   4509   4510   4511
4512   4513   4514   4515
4516   4517   4518   4519
4520   4521   4522   4523
4524   4525   4526   4527
4528   4529   4530   4531
4532   4533   4534   4535
4536   4537   4538   4539
4540   4541   4542   4543
4544   4545   4546   4547
4548   4549   4550   4551
4552   4553   4554   4555
4556   4557   4558   4559
4560   4561   4562   4563
4564   4565   4566   4567
4568   4569   4570   4571
4572   4573   4574   4575
4576   4577   4578   4579
4580   4581   4582   4583
4584   4585   4586   4587
4588   4589   4590   4591
4592   4593   4594   4595
4596   4597   4598   4599
4600   4601   4602   4603
4604   4605   4606   4607
4608   4609   4610   4611
4612   4613   4614   4615
4616   4617   4618   4619
4620   4621   4622   4623
4624   4625   4626   4627
4628   4629   4630   4631
4632   4633   4634   4635
4636   4637   4638   4639
4640   4641   4642   4643
4644   4645   4646   4647
4648   4649   4650   4651
4652   4653   4654   4655
4656   4657   4658   4659
4660   4661   4662   4663
4664   4665   4666   4667
4668   4669   4670   4671
4672   4673   4674   4675
4676   4677   4678   4679
4680   4681   4682   4683
4684   4685   4686   4687
4688   4689   4690   4691
4692   4693   4694   4695
4696   4697   4698   4699
4700   4701   4702   4703
4704   4705   4706   4707
4708   4709   4710   4711
4712   4713   4714   4715
4716   4717   4718   4719
4720   4721   4722   4723
4724   4725   4726   4727
4728   4729   4730   4731
4732   4733   4734   4735
4736   4737   4738   4739
4740   4741   4742   4743
4744   4745   4746   4747
4748   4749   4750   4751
4752   4753   4754   4755
4756   4757   4758   4759
4760   4761   4762   4763
4764   4765   4766   4767
4768   4769   4770   4771
4772   4773   4774   4775
4776   4777   4778   4779
4780   4781   4782   4783
4784   4785   4786   4787
4788   4789   4790   4791
4792   4793   4794   4795
4796   4797   4798   4799
4800   4801   4802   4803
4804   4805   4806   4807
4808   4809   4810   4811
4812   4813   4814   4815
4816   4817   4818   4819
4820   4821   4822   4823
4824   4825   4826   4827
4828   4829   4830   4831
4832   4833   4834   4835
4836   4837   4838   4839
4840   4841   4842   4843
4844   4845   4846   4847
4848   4849   4850   4851
4852   4853   4854   4855
4856   4857   4858   4859
4860   4861   4862   4863
4864   4865   4866   4867
4868   4869   4870   4871
4872   4873   4874   4875
4876   4877   4878   4879
4880   4881   4882   4883
4884   4885   4886   4887
4888   4889   4890   4891
4892   4893   4894   4895
4896   4897   4898   4899
4900   4901   4902   4903
4904   4905   4906   4907
4908   4909   4910   4911
4912   4913   4914   4915
4916   4917   4918   4919
4920   4921   4922   4923
4924   4925   4926   4927
4928   4929   4930   4931
4932   4933   4934   4935
4936   4937   4938   4939
4940   4941   4942   4943
4944   4945   4946   4947
4948   4949   4950   4951
4952   4953   4954   4955
4956   4957   4958   4959
4960   4961   4962   4963
4964   4965   4966   4967
4968   4969   4970   4971
4972   4973   4974   4975
4976   4977   4978   4979
4980   4981   4982   4983
4984   4985   4986   4987
4988   4989   4990   4991
4992   4993   4994   4995
4996   4997   4998   4999
5000   5001   5002   5003
5004   5005   5006   5007
5008   5009   5010   5011
5012   5013   5014   5015
5016   5017   5018   5019
5020   5021   5022   5023
5024   5025   5026   5027
5028   5029   5030   5031
5032   5033   5034   5035
5036   5037   5038   5039
5040   5041   5042   5043
5044   5045   5046   5047
5048   5049   5050   5051
5052   5053   5054   5055
5056   5057   5058   5059
5060   5061   5062   5063
5064   5065   5066   5067
5068   5069   5070   5071
5072   5073   5074   5075
5076   5077   5078   5079
5080   5081   5082   5083
5084   5085   5086   5087
5088   5089   5090   5091
5092   5093   5094   5095
5096   5097   5098   5099
5100   5101   5102   5103
5104   5105   5106   5107
5108   5109   5110   5111
5112   5113   5114   5115
5116   5117   5118   5119
5120   5121   5122   5123
5124   5125   5126   5127
5128   5129   5130   5131
5132   5133   5134   5135
5136   5137   5138   5139
5140   5141   5142   5143
5144   5145   5146   5147
5148   5149   5150   5151
5152   5153   5154   5155
5156   5157   5158   5159
5160   5161   5162   5163
5164   5165   5166   5167
5168   5169   5170   5171
5172   5173   5174   5175
5176   5177   5178   5179
5180   5181   5182   5183
5184   5185   5186   5187
5188   5189   5190   5191
5192   5193   5194   5195
5196   5197   5198   5199
5200   5201   5202   5203
5204   5205   5206   5207
5208   5209   5210   5211
5212   5213   5214   5215
5216   5217   5218   5219
5220   5221   5222   5223
5224   5225   5226   5227
5228   5229   5230   5231
5232   5233   5234   5235
5236   5237   5238   5239
5240   5241   5242   5243
5244   5245   5246   5247
5248   5249   5250   5251
5252   5253   5254   5255
5256   5257   5258   5259
5260   5261   5262   5263
5264   5265   5266   5267
5268   5269   5270   5271
5272   5273   5274   5275
5276   5277   5278   5279
5280   5281   5282   5283
5284   5285   5286   5287
5288   5289   5290   5291
5292   5293   5294   5295
5296   5297   5298   5299
5300   5301   5302   5303
5304   5305   5306   5307
5308   5309   5310   5311
5312   5313   5314   5315
5316   5317   5318   5319
5320   5321   5322   5323
5324   5325   5326   5327
5328   5329   5330   5331
5332   5333   5334   5335
5336   5337   5338   5339
5340   5341   5342   5343
5344   5345   5346   5347
5348   5349   5350   5351
5352   5353   5354   5355
5356   5357   5358   5359
5360   5361   5362   5363
5364   5365   5366   5367
5368   5369   5370   5371
5372   5373   5374   5375
5376   5377   5378   5379
5380   5381   5382   5383
5384   5385   5386   5387
5388   5389   5390   5391
5392   5393   5394   5395
5396   5397   5398   5399
5400   5401   5402   5403
5404   5405   5406   5407
5408   5409   5410   5411
5412   5413   5414   5415
5416   5417   5418   5419
5420   5421   5422   5423
5424   5425   5426   5427
5428   5429   5430   5431
5432   5433   5434   5435
5436   5437   5438   5439
5440   5441   5442   5443
5444   5445   5446   5447
5448   5449   5450   5451
5452   5453   5454   5455
5456   5457   5458   5459
5460   5461   5462   5463
5464   5465   5466   5467
5468   5469   5470   5471
5472   5473   5474   5475
5476   5477   5478   5479
5480   5481   5482   5483
5484   5485   5486   5487
5488   5489   5490   5491
5492   5493   5494   5495
5496   5497   5498   5499
5500   5501   5502   5503
5504   5505   5506   5507
5508   5509   5510   5511
5512   5513   5514   5515
5516   5517   5518   5519
5520   5521   5522   5523
5524   5525   5526   5527
5528   5529   5530   5531
5532   5533   5534   5535
5536   5537   5538   5539
5540   5541   5542   5543
5544   5545   5546   5547
5548   5549   5550   5551
5552   5553   5554   5555
5556   5557   5558   5559
5560   5561   5562   5563
5564   5565   5566   5567
5568   5569   5570   5571
5572   5573   5574   5575
5576   5577   5578   5579
5580   5581   5582   5583
5584   5585   5586   5587
5588   5589   5590   5591
5592   5593   5594   5595
5596   5597   5598   5599
5600   5601   5602   5603
5604   5605   5606   5607
5608   5609   5610   5611
5612   5613   5614   5615
5616   5617   5618   5619
5620   5621   5622   5623
5624   5625   5626   5627
5628   5629   5630   5631
5632   5633   5634   5635
5636   5637   5638   5639
5640   5641   5642   5643
5644   5645   5646   5647
5648   5649   5650   5651
5652   5653   5654   5655
5656   5657   5658   5659
5660   5661   5662   5663
5664   5665   5666   5667
5668   5669   5670   5671
5672   5673   5674   5675
5676   5677   5678   5679
5680   5681   5682   5683
5684   5685   5686   5687
5688   5689   5690   5691
5692   5693   5694   5695
5696   5697   5698   5699
5700   5701   5702   5703
5704   5705   5706   5707
5708   5709   5710   5711
5712   5713   5714   5715
5716   5717   5718   5719
5720   5721   5722   5723
5724   5725   5726   5727
5728   5729   5730   5731
5732   5733   5734   5735
5736   5737   5738   5739
5740   5741   5742   5743
5744   5745   5746   5747
5748   5749   5750   5751
5752   5753   5754   5755
5756   5757   5758   5759
5760   5761   5762   5763
5764   5765   5766   5767
5768   5769   5770   5771
5772   5773   5774   5775
5776   5777   5778   5779
5780   5781   5782   5783
5784   5785   5786   5787
5788   5789   5790   5791
5792   5793   5794   5795
5796   5797   5798   5799
5800   5801   5802   5803
5804   5805   5806   5807
5808   5809   5810   5811
5812   5813   5814   5815
5816   5817   5818   5819
5820   5821   5822   5823
5824   5825   5826   5827
5828   5829   5830   5831
5832   5833   5834   5835
5836   5837   5838   5839
5840   5841   5842   5843
5844   5845   5846   5847
5848   5849   5850   5851
5852   5853   5854   5855
5856   5857   5858   5859
5860   5861   5862   5863
5864   5865   5866   5867
5868   5869   5870   5871
5872   5873   5874   5875
5876   5877   5878   5879
5880   5881   5882   5883
5884   5885   5886   5887
5888   5889   5890   5891
5892   5893   5894   5895
5896   5897   5898   5899
5900   5901   5902   5903
5904   5905   5906   5907
5908   5909   5910   5911
5912   5913   5914   5915
5916   5917   5918   5919
5920   5921   5922   5923
5924   5925   5926   5927
5928   5929   5930   5931
5932   5933   5934   5935
5936   5937   5938   5939
5940   5941   5942   5943
5944   5945   5946   5947
5948   5949   5950   5951
5952   5953   5954   5955
5956   5957   5958   5959
5960   5961   5962   5963
5964   5965   5966   5967
5968   5969   5970   5971
5972   5973   5974   5975
5976   5977   5978   5979
5980   5981   5982   5983
5984   5985   5986   5987
5988   5989   5990   5991
5992   5993   5994   5995
5996   5997   5998   5999
              </DataArray>   
              <DataArray type="Int32" Name="offsets" format="ascii">   
4
8
12
16
20
24
28
32
36
40
44
48
52
56
60
64
68
72
76
80
84
88
92
96
100
104
108
112
116
120
124
128
132
136
140
144
148
152
156
160
164
168
172
176
180
184
188
192
196
200
204
208
212
216
220
224
228
232
236
240
244
248
252
256
260
264
268
272
276
280
284
288
292
296
300
304
308
312
316
320
324
328
332
336
340
344
348
352
356
360
364
368
372
376
380
384
388
392
396
400
404
408
412
416
420
424
428
432
436
440
444
448
452
456
460
464
468
472
476
480
484
488
492
496
500
504
508
512
516
520
524
528
532
536
540
544
548
552
556
560
564
568
572
576
580
584
588
592
596
600
604
608
612
616
620
624
628
632
636
640
644
648
652
656
660
664
668
672
676
680
684
688
692
696
700
704
708
712
716
720
724
728
732
736
740
744
748
752
756
760
764
768
772
776
780
784
788
792
796
800
804
808
812
816
820
824
828
832
836
840
844
848
852
856
860
864
868
872
876
880
884
888
892
896
900
904
908
912
916
920
924
928
932
936
940
944
948
952
956
960
964
968
972
976
980
984
988
992
996
1000
1004
1008
1012
1016
1020
1024
1028
1032
1036
1040
1044
1048
1052
1056
1060
1064
1068
1072
1076
1080
1084
1088
1092
1096
1100
1104
1108
1112
1116
1120
1124
1128
1132
1136
1140
1144
1148
1152
1156
1160
1164
1168
1172
1176
1180
1184
1188
1192
1196
1200
1204
1208
1212
1216
1220
1224
1228
1232
1236
1240
1244
1248
1252
1256
1260
1264
1268
1272
1276
1280
1284
1288
1292
1296
1300
1304
1308
1312
1316
1320
1324
1328
1332
1336
1340
1344
1348
1352
1356
1360
1364
1368
1372
1376
1380
1384
1388
1392
1396
1400
1404
1408
1412
1416
1420
1424
1428
1432
1436
1440
1444
1448
1452
1456
1460
1464
1468
1472
1476
1480
1484
1488
1492
1496
1500
1504
1508
1512
1516
1520
1524
1528
1532
1536
1540
1544
1548
1552
1556
1560
1564
1568
1572
1576
1580
1584
1588
1592
1596
1600
1604
1608
1612
1616
1620
1624
1628
1632
1636
1640
1644
1648
1652
1656
1660
1664
1668
1672
1676
1680
1684
1688
1692
1696
1700
1704
1708
1712
1716
1720
1724
1728
1732
1736
1740
1744
1748
1752
1756
1760
1764
1768
1772
1776
1780
1784
1788
1792
1796
1800
1804
1808
1812
1816
1820
1824
1828
1832
1836
1840
1844
1848
1852
1856
1860
1864
1868
1872
1876
1880
1884
1888
1892
1896
1900
1904
1908
1912
1916
1920
1924
1928
1932
1936
1940
1944
1948
1952
1956
1960
1964
1968
1972
1976
1980
1984
1988
1992
1996
2000
2004
2008
2012
2016
2020
2024
2028
2032
2036
2040
2044
2048
2052
2056
2060
2064
2068
2072
2076
2080
2084
2088
2092
2096
2100
2104
2108
2112
2116
2120
2124
2128
2132
2136
2140
2144
2148
2152
2156
2160
2164
2168
2172
2176
2180
2184
2188
2192
2196
2200
2204
2208
2212
2216
2220
2224
2228
2232
2236
2240
2244
2248
2252
2256
2260
2264
2268
2272
2276
2280
2284
2288
2292
2296
2300
2304
2308
2312
2316
2320
2324
2328
2332
2336
2340
2344
2348
2352
2356
2360
2364
2368
2372
2376
2380
2384
2388
2392
2396
2400
2404
2408
2412
2416
2420
2424
2428
2432
2436
2440
2444
2448
2452
2456
2460
2464
2468
2472
2476
2480
2484
2488
2492
2496
2500
2504
2508
2512
2516
2520
2524
2528
2532
2536
2540
2544
2548
2552
2556
2560
2564
2568
2572
2576
2580
2584
2588
2592
2596
2600
2604
2608
2612
2616
2620
2624
2628
2632
2636
2640
2644
2648
2652
2656
2660
2664
2668
2672
2676
2680
2684
2688
2692
2696
2700
2704
2708
2712
2716
2720
2724
2728
2732
2736
2740
2744
2748
2752
2756
2760
2764
2768
2772
2776
2780
2784
2788
2792
2796
2800
2804
2808
2812
2816
2820
2824
2828
2832
2836
2840
2844
2848
2852
2856
2860
2864
2868
2872
2876
2880
2884
2888
2892
2896
2900
2904
2908
2912
2916
2920
2924
2928
2932
2936
2940
2944
2948
2952
2956
2960
2964
2968
2972
2976
2980
2984
2988
2992
2996
3000
3004
3008
3012
3016
3020
3024
3028
3032
3036
3040
3044
3048
3052
3056
3060
3064
3068
3072
3076
3080
3084
3088
3092
3096
3100
3104
3108
3112
3116
3120
3124
3128
3132
3136
3140
3144
3148
3152
3156
3160
3164
3168
3172
3176
3180
3184
3188
3192
3196
3200
3204
3208
3212
3216
3220
3224
3228
3232
3236
3240
3244
3248
3252
3256
3260
3264
3268
3272
3276
3280
3284
3288
3292
3296
3300
3304
3308
3312
3316
3320
3324
3328
3332
3336
3340
3344
3348
3352
3356
3360
3364
3368
3372
3376
3380
3384
3388
3392
3396
3400
3404
3408
3412
3416
3420
3424
3428
3432
3436
3440
3444
3448
3452
3456
3460
3464
3468
3472
3476
3480
3484
3488
3492
3496
3500
3504
3508
3512
3516
3520
3524
3528
3532
3536
3540
3544
3548
3552
3556
3560
3564
3568
3572
3576
3580
3584
3588
3592
3596
3600
3604
3608
3612
3616
3620
3624
3628
3632
3636
3640
3644
3648
3652
3656
3660
3664
3668
3672
3676
3680
3684
3688
3692
3696
3700
3704
3708
3712
3716
3720
3724
3728
3732
3736
3740
3744
3748
3752
3756
3760
3764
3768
3772
3776
3780
3784
3788
3792
3796
3800
3804
3808
3812
3816
3820
3824
3828
3832
3836
3840
3844
3848
3852
3856
3860
3864
3868
3872
3876
3880
3884
3888
3892
3896
3900
3904
3908
3912
3916
3920
3924
3928
3932
3936
3940
3944
3948
3952
3956
3960
3964
3968
3972
3976
3980
3984
3988
3992
3996
4000
4004
4008
4012
4016
4020
4024
4028
4032
4036
4040
4044
4048
4052
4056
4060
4064
4068
4072
4076
4080
4084
4088
4092
4096
4100
4104
4108
4112
4116
4120
4124
4128
4132
4136
4140
4144
4148
4152
4156
4160
4164
4168
4172
4176
4180
4184
4188
4192
4196
4200
4204
4208
4212
4216
4220
4224
4228
4232
4236
4240
4244
4248
4252
4256
4260
4264
4268
4272
4276
4280
4284
4288
4292
4296
4300
4304
4308
4312
4316
4320
4324
4328
4332
4336
4340
4344
4348
4352
4356
4360
4364
4368
4372
4376
4380
4384
4388
4392
4396
4400
4404
4408
4412
4416
4420
4424
4428
4432
4436
4440
4444
4448
4452
4456
4460
4464
4468
4472
4476
4480
4484
4488
4492
4496
4500
4504
4508
4512
4516
4520
4524
4528
4532
4536
4540
4544
4548
4552
4556
4560
4564
4568
4572
4576
4580
4584
4588
4592
4596
4600
4604
4608
4612
4616
4620
4624
4628
4632
4636
4640
4644
4648
4652
4656
4660
4664
4668
4672
4676
4680
4684
4688
4692
4696
4700
4704
4708
4712
4716
4720
4724
4728
4732
4736
4740
4744
4748
4752
4756
4760
4764
4768
4772
4776
4780
4784
4788
4792
4796
4800
4804
4808
4812
4816
4820
4824
4828
4832
4836
4840
4844
4848
4852
4856
4860
4864
4868
4872
4876
4880
4884
4888
4892
4896
4900
4904
4908
4912
4916
4920
4924
4928
4932
4936
4940
4944
4948
4952
4956
4960
4964
4968
4972
4976
4980
4984
4988
4992
4996
5000
5004
5008
5012
5016
5020
5024
5028
5032
5036
5040
5044
5048
5052
5056
5060
5064
5068
5072
5076
5080
5084
5088
5092
5096
5100
5104
5108
5112
5116
5120
5124
5128
5132
5136
5140
5144
5148
5152
5156
5160
5164
5168
5172
5176
5180
5184
5188
5192
5196
5200
5204
5208
5212
5216
5220
5224
5228
5232
5236
5240
5244
5248
5252
5256
5260
5264
5268
5272
5276
5280
5284
5288
5292
5296
5300
5304
5308
5312
5316
5320
5324
5328
5332
5336
5340
5344
5348
5352
5356
5360
5364
5368
5372
5376
5380
5384
5388
5392
5396
5400
5404
5408
5412
5416
5420
5424
5428
5432
5436
5440
5444
5448
5452
5456
5460
5464
5468
5472
5476
5480
5484
5488
5492
5496
5500
5504
5508
5512
5516
5520
5524
5528
5532
5536
5540
5544
5548
5552
5556
5560
5564
5568
5572
5576
5580
5584
5588
5592
5596
5600
5604
5608
5612
5616
5620
5624
5628
5632
5636
5640
5644
5648
5652
5656
5660
5664
5668
5672
5676
5680
5684
5688
5692
5696
5700
5704
5708
5712
5716
5720
5724
5728
5732
5736
5740
5744
5748
5752
5756
5760
5764
5768
5772
5776
5780
5784
5788
5792
5796
5800
5804
5808
5812
5816
5820
5824
5828
5832
5836
5840
5844
5848
5852
5856
5860
5864
5868
5872
5876
5880
5884
5888
5892
5896
5900
5904
5908
5912
5916
5920
5924
5928
5932
5936
5940
5944
5948
5952
5956
5960
5964
5968
5972
5976
5980
5984
5988
5992
5996
6000
              </DataArray>   
              <DataArray type="UInt8" Name="types" format="ascii">   
10
10
10
10
10
10
10
10
10
10
10
10
10
10
10
10
10
10
10
10
10
10
10
10
10
10
10
10
10
10
10
10
10
10
10
10
10
10
10
10
10
10
10
10
10
10
10
10
10
10
10
10
10
10
10
10
10
10
10
10
10
10
10
10
10
10
10
10
10
10
10
10
10
10
10
10
10
10
10
10
10
10
10
10
10
10
10
10
10
10
10
10
10
10
10
10
10
10
10
10
10
10
10
10
10
10
10
10
10
10
10
10
10
10
10
10
10
10
10
10
10
10
10
10
10
10
10
10
10
10
10
10
10
10
10
10
10
10
10
10
10
10
10
10
10
10
10
10
10
10
10
10
10
10
10
10
10
10
10
10
10
10
10
10
10
10
10
10
10
10
10
10
10
10
10
10
10
10
10
10
10
10
10
10
10
10
10
10
10
10
10
10
10
10
10
10
10
10
10
10
10
10
10
10
10
10
10
10
10
10
10
10
10
10
10
10
10
10
10
10
10
10
10
10
10
10
10
10
10
10
10
10
10
10
10
10
10
10
10
10
10
10
10
10
10
10
10
10
10
10
10
10
10
10
10
10
10
10
10
10
10
10
10
10
10
10
10
10
10
10
10
10
10
10
10
10
10
10
10
10
10
10
10
10
10
10
10
10
10
10
10
10
10
10
10
10
10
10
10
10
10
10
10
10
10
10
10
10
10
10
10
10
10
10
10
10
10
10
10
10
10
10
10
10
10
10
10
10
10
10
10
10
10
10
10
10
10
10
10
10
10
10
10
10
10
10
10
10
10
10
10
10
10
10
10
10
10
10
10
10
10
10
10
10
10
10
10
10
10
10
10
10
10
10
10
10
10
10
10
10
10
10
10
10
10
10
10
10
10
10
10
10
10
10
10
10
10
10
10
10
10
10
10
10
10
10
10
10
10
10
10
10
10
10
10
10
10
10
10
10
10
10
10
10
10
10
10
10
10
10
10
10
10
10
10
10
10
10
10
10
10
10
10
10
10
10
10
10
10
10
10
10
10
10
10
10
10
10
10
10
10
10
10
10
10
10
10
10
10
10
10
10
10
10
10
10
10
10
10
10
10
10
10
10
10
10
10
10
10
10
10
10
10
10
10
10
10
10
10
10
10
10
10
10
10
10
10
10
10
10
10
10
10
10
10
10
10
10
10
10
10
10
10
10
10
10
10
10
10
10
10
10
10
10
10
10
10
10
10
10
10
10
10
10
10
10
10
10
10
10
10
10
10
10
10
10
10
10
10
10
10
10
10
10
10
10
10
10
10
10
10
10
10
10
10
10
10
10
10
10
10
10
10
10
10
10
10
10
10
10
10
10
10
10
10
10
10
10
10
10
10
10
10
10
10
10
10
10
10
10
10
10
10
10
10
10
10
10
10
10
10
10
10
10
10
10
10
10
10
10
10
10
10
10
10
10
10
10
10
10
10
10
10
10
10
10
10
10
10
10
10
10
10
10
10
10
10
10
10
10
10
10
10
10
10
10
10
10
10
10
10
10
10
10
10
10
10
10
10
10
10
10
10
10
10
10
10
10
10
10
10
10
10
10
10
10
10
10
10
10
10
10
10
10
10
10
10
10
10
10
10
10
10
10
10
10
10
10
10
10
10
10
10
10
10
10
10
10
10
10
10
10
10
10
10
10
10
10
10
10
10
10
10
10
10
10
10
10
10
10
10
10
10
10
10
10
10
10
10
10
10
10
10
10
10
10
10
10
10
10
10
10
10
10
10
10
10
10
10
10
10
10
10
10
10
10
10
10
10
10
10
10
10
10
10
10
10
10
10
10
10
10
10
10
10
10
10
10
10
10
10
10
10
10
10
10
10
10
10
10
10
10
10
10
10
10
10
10
10
10
10
10
10
10
10
10
10
10
10
10
10
10
10
10
10
10
10
10
10
10
10
10
10
10
10
10
10
10
10
10
10
10
10
10
10
10
10
10
10
10
10
10
10
10
10
10
10
10
10
10
10
10
10
10
10
10
10
10
10
10
10
10
10
10
10
10
10
10
10
10
10
10
10
10
10
10
10
10
10
10
10
10
10
10
10
10
10
10
10
10
10
10
10
10
10
10
10
10
10
10
10
10
10
10
10
10
10
10
10
10
10
10
10
10
10
10
10
10
10
10
10
10
10
10
10
10
10
10
10
10
10
10
10
10
10
10
10
10
10
10
10
10
10
10
10
10
10
10
10
10
10
10
10
10
10
10
10
10
10
10
10
10
10
10
10
10
10
10
10
10
10
10
10
10
10
10
10
10
10
10
10
10
10
10
10
10
10
10
10
10
10
10
10
10
10
10
10
10
10
10
10
10
10
10
10
10
10
10
10
10
10
10
10
10
10
10
10
10
10
10
10
10
10
10
10
10
10
10
10
10
10
10
10
10
10
10
10
10
10
10
10
10
10
10
10
10
10
10
10
10
10
10
10
10
10
10
10
10
10
10
10
10
10
10
10
10
10
10
10
10
10
10
10
10
10
10
10
10
10
10
10
10
10
10
10
10
10
10
10
10
10
10
10
10
10
10
10
10
10
10
10
10
10
10
10
10
10
10
10
10
10
10
10
10
10
10
10
10
10
10
10
10
10
10
10
10
10
10
10
10
10
10
10
10
10
10
10
10
10
10
10
10
10
10
10
10
10
10
10
10
10
10
10
10
10
10
10
10
10
10
10
10
10
10
10
10
10
10
10
10
10
10
10
10
10
10
10
10
10
10
10
10
10
10
10
10
10
10
10
10
10
10
10
10
10
10
10
10
10
10
10
10
10
10
10
10
10
10
10
10
10
10
10
10
10
10
10
10
10
10
10
10
10
10
10
10
10
10
10
10
10
10
10
10
10
10
10
10
10
10
10
10
10
10
10
10
10
10
10
10
10
10
10
10
10
10
10
10
10
10
10
10
10
10
10
10
10
10
10
10
10
10
10
10
10
10
10
10
10
10
10
10
10
10
10
10
10
10
10
10
10
10
10
10
10
10
10
10
10
10
10
10
10
10
10
10
10
10
10
10
10
10
10
10
10
10
10
10
10
10
10
10
10
10
10
10
10
10
10
10
10
10
10
10
10
10
10
10
10
10
10
10
10
10
10
10
10
10
10
10
10
10
10
10
10
10
10
10
10
10
10
10
10
10
10
10
10
10
10
10
10
10
10
10
10
10
10
10
10
10
10
10
10
10
10
10
10
10
10
10
10
10
10
10
10
10
10
10
10
10
10
10
10
10
10
10
10
10
10
10
10
10
10
10
10
10
10
10
10
10
10
10
10
10
10
10
10
10
10
10
10
10
10
10
10
10
10
10
10
10
10
10
10
10
10
10
10
10
10
10
10
10
10
10
10
10
10
10
10
10
10
10
10
10
10
10
10
10
10
10
              </DataArray>   
          </Cells>  
          <PointData>  
             <DataArray type="Float64" NumberOfComponents="3" Name="Strains" format="ascii">   
-1.3011568811721079e-05   0.0   -8.765400633043579e-06
-1.3011568811721079e-05   0.0   -8.765400633043579e-06
-1.3011568811721079e-05   0.0   -8.765400633043579e-06
-1.3011568811721079e-05   0.0   -8.765400633043579e-06
-8.257168956740287e-06   1.4114596980913899e-06   5.474944112557917e-09
-8.257168956740287e-06   1.4114596980913899e-06   5.474944112557917e-09
-8.257168956740287e-06   1.4114596980913899e-06   5.474944112557917e-09
-8.257168956740287e-06   1.4114596980913899e-06   5.474944112557917e-09
-8.078434054844196e-06   0.0   -8.30255878515213e-06
-8.078434054844196e-06   0.0   -8.30255878515213e-06
-8.078434054844196e-06   0.0   -8.30255878515213e-06
-8.078434054844196e-06   0.0   -8.30255878515213e-06
-1.359813578505895e-05   1.7081239535861e-06   -1.2793027361249725e-07
-1.359813578505895e-05   1.7081239535861e-06   -1.2793027361249725e-07
-1.359813578505895e-05   1.7081239535861e-06   -1.2793027361249725e-07
-1.359813578505895e-05   1.7081239535861e-06   -1.2793027361249725e-07
-1.0545001433282619e-05   3.857015399095416e-07   -4.423034078367107e-06
-1.0545001433282619e-05   3.857015399095416e-07   -4.423034078367107e-06
-1.0545001433282619e-05   3.857015399095416e-07   -4.423034078367107e-06
-1.0545001433282619e-05   3.857015399095416e-07   -4.423034078367107e-06
-1.3598135785058974e-05   0.0   -9.32743315730379e-06
-1.3598135785058974e-05   0.0   -9.32743315730379e-06
-1.3598135785058974e-05   0.0   -9.32743315730379e-06
-1.3598135785058974e-05   0.0   -9.32743315730379e-06
-8.078434054844196e-06   1.7081239535861e-06   8.969440985391631e-07
-8.078434054844196e-06   1.7081239535861e-06   8.969440985391631e-07
-8.078434054844196e-06   1.7081239535861e-06   8.969440985391631e-07
-8.078434054844196e-06   1.7081239535861e-06   8.969440985391631e-07
-8.084526561204727e-06   0.0   -8.501283916858079e-06
-8.084526561204727e-06   0.0   -8.501283916858079e-06
-8.084526561204727e-06   0.0   -8.501283916858079e-06
-8.084526561204727e-06   0.0   -8.501283916858079e-06
-1.4002413926501294e-05   1.833892487224472e-06   2.6152619963488657e-07
-1.4002413926501294e-05   1.833892487224472e-06   2.6152619963488657e-07
-1.4002413926501294e-05   1.833892487224472e-06   2.6152619963488657e-07
-1.4002413926501294e-05   1.833892487224472e-06   2.6152619963488657e-07
-1.0841331173131832e-05   6.884577003714254e-07   -4.31968418386905e-06
-1.0841331173131832e-05   6.884577003714254e-07   -4.31968418386905e-06
-1.0841331173131832e-05   6.884577003714254e-07   -4.31968418386905e-06
-1.0841331173131832e-05   6.884577003714254e-07   -4.31968418386905e-06
-1.4002413926501318e-05   0.0   -9.601619409192764e-06
-1.4002413926501318e-05   0.0   -9.601619409192764e-06
-1.4002413926501318e-05   0.0   -9.601619409192764e-06
-1.4002413926501318e-05   0.0   -9.601619409192764e-06
-8.084526561204713e-06   1.833892487224472e-06   1.3618616919695695e-06
-8.084526561204713e-06   1.833892487224472e-06   1.3618616919695695e-06
-8.084526561204713e-06   1.833892487224472e-06   1.3618616919695695e-06
-8.084526561204713e-06   1.833892487224472e-06   1.3618616919695695e-06
-8.061462743176208e-06   0.0   -8.554980204904995e-06
-8.061462743176208e-06   0.0   -8.554980204904995e-06
-8.061462743176208e-06   0.0   -8.554980204904995e-06
-8.061462743176208e-06   0.0   -8.554980204904995e-06
-1.4889903526822483e-05   2.1013426913186145e-06   1.5649488197143294e-06
-1.4889903526822483e-05   2.1013426913186145e-06   1.5649488197143294e-06
-1.4889903526822483e-05   2.1013426913186145e-06   1.5649488197143294e-06
-1.4889903526822483e-05   2.1013426913186145e-06   1.5649488197143294e-06
-1.1031938334838744e-05   8.721993369064727e-07   -4.127507154277943e-06
-1.1031938334838744e-05   8.721993369064727e-07   -4.127507154277943e-06
-1.1031938334838744e-05   8.721993369064727e-07   -4.127507154277943e-06
-1.1031938334838744e-05   8.721993369064727e-07   -4.127507154277943e-06
-8.2571689567403e-06   0.0   -7.918524814188746e-06
-8.2571689567403e-06   0.0   -7.918524814188746e-06
-8.2571689567403e-06   0.0   -7.918524814188746e-06
-8.2571689567403e-06   0.0   -7.918524814188746e-06
-3.779660286466512e-06   5.118849063727862e-07   -1.4887941990876254e-07
-3.779660286466512e-06   5.118849063727862e-07   -1.4887941990876254e-07
-3.779660286466512e-06   5.118849063727862e-07   -1.4887941990876254e-07
-3.779660286466512e-06   5.118849063727862e-07   -1.4887941990876254e-07
-3.6189569733136987e-06   0.0   -7.859375196558098e-06
-3.6189569733136987e-06   0.0   -7.859375196558098e-06
-3.6189569733136987e-06   0.0   -7.859375196558098e-06
-3.6189569733136987e-06   0.0   -7.859375196558098e-06
-8.078434054844196e-06   7.386393143233609e-07   -8.700969826013136e-07
-8.078434054844196e-06   7.386393143233609e-07   -8.700969826013136e-07
-8.078434054844196e-06   7.386393143233609e-07   -8.700969826013136e-07
-8.078434054844196e-06   7.386393143233609e-07   -8.700969826013136e-07
-5.9380629650269926e-06   4.929134802552709e-08   -4.023773352517922e-06
-5.9380629650269926e-06   4.929134802552709e-08   -4.023773352517922e-06
-5.9380629650269926e-06   4.929134802552709e-08   -4.023773352517922e-06
-5.9380629650269926e-06   4.929134802552709e-08   -4.023773352517922e-06
-8.078434054844189e-06   0.0   -8.302558785152123e-06
-8.078434054844189e-06   0.0   -8.302558785152123e-06
-8.078434054844189e-06   0.0   -8.302558785152123e-06
-8.078434054844189e-06   0.0   -8.302558785152123e-06
-3.6189569733136987e-06   7.386393143233592e-07   -4.2691339400729314e-07
-3.6189569733136987e-06   7.386393143233592e-07   -4.2691339400729314e-07
-3.6189569733136987e-06   7.386393143233592e-07   -4.2691339400729314e-07
-3.6189569733136987e-06   7.386393143233592e-07   -4.2691339400729314e-07
-3.521878548586419e-06   0.0   -7.95458001864697e-06
-3.521878548586419e-06   0.0   -7.95458001864697e-06
-3.521878548586419e-06   0.0   -7.95458001864697e-06
-3.521878548586419e-06   0.0   -7.95458001864697e-06
-8.084526561204727e-06   9.111731636851582e-07   -8.968705624942441e-07
-8.084526561204727e-06   9.111731636851582e-07   -8.968705624942441e-07
-8.084526561204727e-06   9.111731636851582e-07   -8.968705624942441e-07
-8.084526561204727e-06   9.111731636851582e-07   -8.968705624942441e-07
-5.8001563017153e-06   2.899823054209553e-07   -4.331439813351399e-06
-5.8001563017153e-06   2.899823054209553e-07   -4.331439813351399e-06
-5.8001563017153e-06   2.899823054209553e-07   -4.331439813351399e-06
-5.8001563017153e-06   2.899823054209553e-07   -4.331439813351399e-06
-8.084526561204727e-06   0.0   -8.501283916858079e-06
-8.084526561204727e-06   0.0   -8.501283916858079e-06
-8.084526561204727e-06   0.0   -8.501283916858079e-06
-8.084526561204727e-06   0.0   -8.501283916858079e-06
-3.521878548586425e-06   9.111731636851582e-07   -3.5016666428314854e-07
-3.521878548586425e-06   9.111731636851582e-07   -3.5016666428314854e-07
-3.521878548586425e-06   9.111731636851582e-07   -3.5016666428314854e-07
-3.521878548586425e-06   9.111731636851582e-07   -3.5016666428314854e-07
-3.430723927042713e-06   0.0   -7.916451089396727e-06
-3.430723927042713e-06   0.0   -7.916451089396727e-06
-3.430723927042713e-06   0.0   -7.916451089396727e-06
-3.430723927042713e-06   0.0   -7.916451089396727e-06
-8.061462743176201e-06   1.0642151925137703e-06   -8.370821780158356e-07
-8.061462743176201e-06   1.0642151925137703e-06   -8.370821780158356e-07
-8.061462743176201e-06   1.0642151925137703e-06   -8.370821780158356e-07
-8.061462743176201e-06   1.0642151925137703e-06   -8.370821780158356e-07
-5.757625244123718e-06   4.873606895511218e-07   -4.3306986413257235e-06
-5.757625244123718e-06   4.873606895511218e-07   -4.3306986413257235e-06
-5.757625244123718e-06   4.873606895511218e-07   -4.3306986413257235e-06
-5.757625244123718e-06   4.873606895511218e-07   -4.3306986413257235e-06
-3.7796602864665188e-06   0.0   -7.611393870365073e-06
-3.7796602864665188e-06   0.0   -7.611393870365073e-06
-3.7796602864665188e-06   0.0   -7.611393870365073e-06
-3.7796602864665188e-06   0.0   -7.611393870365073e-06
4.364803614625518e-07   -6.993256020091824e-08   -6.264523266038328e-07
4.364803614625518e-07   -6.993256020091824e-08   -6.264523266038328e-07
4.364803614625518e-07   -6.993256020091824e-08   -6.264523266038328e-07
4.364803614625518e-07   -6.993256020091824e-08   -6.264523266038328e-07
5.467938193258953e-07   0.0   -7.779658742560857e-06
5.467938193258953e-07   0.0   -7.779658742560857e-06
5.467938193258953e-07   0.0   -7.779658742560857e-06
5.467938193258953e-07   0.0   -7.779658742560857e-06
-3.6189569733136987e-06   1.3286075666204897e-07   -9.164572088254406e-07
-3.6189569733136987e-06   1.3286075666204897e-07   -9.164572088254406e-07
-3.6189569733136987e-06   1.3286075666204897e-07   -9.164572088254406e-07
-3.6189569733136987e-06   1.3286075666204897e-07   -9.164572088254406e-07
-1.6164332335703078e-06   -1.4022072682984237e-07   -4.090147884969289e-06
-1.6164332335703078e-06   -1.4022072682984237e-07   -4.090147884969289e-06
-1.6164332335703078e-06   -1.4022072682984237e-07   -4.090147884969289e-06
-1.6164332335703078e-06   -1.4022072682984237e-07   -4.090147884969289e-06
-3.618956973313705e-06   0.0   -7.859375196558113e-06
-3.618956973313705e-06   0.0   -7.859375196558113e-06
-3.618956973313705e-06   0.0   -7.859375196558113e-06
-3.618956973313705e-06   0.0   -7.859375196558113e-06
5.467938193258963e-07   1.3286075666204897e-07   -8.367407548282127e-07
5.467938193258963e-07   1.3286075666204897e-07   -8.367407548282127e-07
5.467938193258963e-07   1.3286075666204897e-07   -8.367407548282127e-07
5.467938193258963e-07   1.3286075666204897e-07   -8.367407548282127e-07
6.360661970021397e-07   0.0   -7.767247078738422e-06
6.360661970021397e-07   0.0   -7.767247078738422e-06
6.360661970021397e-07   0.0   -7.767247078738422e-06
6.360661970021397e-07   0.0   -7.767247078738422e-06
-3.5218785485864126e-06   3.122215665142437e-07   -1.0246721093327036e-06
-3.5218785485864126e-06   3.122215665142437e-07   -1.0246721093327036e-06
-3.5218785485864126e-06   3.122215665142437e-07   -1.0246721093327036e-06
-3.5218785485864126e-06   3.122215665142437e-07   -1.0246721093327036e-06
-1.4914453881557794e-06   7.677343151639758e-08   -4.267458495718392e-06
-1.4914453881557794e-06   7.677343151639758e-08   -4.267458495718392e-06
-1.4914453881557794e-06   7.677343151639758e-08   -4.267458495718392e-06
-1.4914453881557794e-06   7.677343151639758e-08   -4.267458495718392e-06
-3.521878548586425e-06   0.0   -7.954580018646983e-06
-3.521878548586425e-06   0.0   -7.954580018646983e-06
-3.521878548586425e-06   0.0   -7.954580018646983e-06
-3.521878548586425e-06   0.0   -7.954580018646983e-06
6.360661970021409e-07   3.122215665142454e-07   -8.373391694241605e-07
6.360661970021409e-07   3.122215665142454e-07   -8.373391694241605e-07
6.360661970021409e-07   3.122215665142454e-07   -8.373391694241605e-07
6.360661970021409e-07   3.122215665142454e-07   -8.373391694241605e-07
7.506422246994775e-07   0.0   -7.605066232057431e-06
7.506422246994775e-07   0.0   -7.605066232057431e-06
7.506422246994775e-07   0.0   -7.605066232057431e-06
7.506422246994775e-07   0.0   -7.605066232057431e-06
-3.43072392704271e-06   5.189747622321456e-07   -9.475075031597399e-07
-3.43072392704271e-06   5.189747622321456e-07   -9.475075031597399e-07
-3.43072392704271e-06   5.189747622321456e-07   -9.475075031597399e-07
-3.43072392704271e-06   5.189747622321456e-07   -9.475075031597399e-07
-1.3856181619434707e-06   2.9126148882461466e-07   -4.219389147613951e-06
-1.3856181619434707e-06   2.9126148882461466e-07   -4.219389147613951e-06
-1.3856181619434707e-06   2.9126148882461466e-07   -4.219389147613951e-06
-1.3856181619434707e-06   2.9126148882461466e-07   -4.219389147613951e-06
4.364803614625526e-07   0.0   -7.653353406485624e-06
4.364803614625526e-07   0.0   -7.653353406485624e-06
4.364803614625526e-07   0.0   -7.653353406485624e-06
4.364803614625526e-07   0.0   -7.653353406485624e-06
5.027236771108176e-06   -5.897314647185536e-07   -3.559316025740456e-07
5.027236771108176e-06   -5.897314647185536e-07   -3.559316025740456e-07
5.027236771108176e-06   -5.897314647185536e-07   -3.559316025740456e-07
5.027236771108176e-06   -5.897314647185536e-07   -3.559316025740456e-07
5.057065175192133e-06   0.0   -8.043583758752816e-06
5.057065175192133e-06   0.0   -8.043583758752816e-06
5.057065175192133e-06   0.0   -8.043583758752816e-06
5.057065175192133e-06   0.0   -8.043583758752816e-06
5.467938193258972e-07   -4.398750269865533e-07   -2.6253981611715994e-07
5.467938193258972e-07   -4.398750269865533e-07   -2.6253981611715994e-07
5.467938193258972e-07   -4.398750269865533e-07   -2.6253981611715994e-07
5.467938193258972e-07   -4.398750269865533e-07   -2.6253981611715994e-07
2.7467727683273427e-06   -3.251919602226599e-07   -3.997981237844567e-06
2.7467727683273427e-06   -3.251919602226599e-07   -3.997981237844567e-06
2.7467727683273427e-06   -3.251919602226599e-07   -3.997981237844567e-06
2.7467727683273427e-06   -3.251919602226599e-07   -3.997981237844567e-06
5.467938193258972e-07   0.0   -7.779658742560884e-06
5.467938193258972e-07   0.0   -7.779658742560884e-06
5.467938193258972e-07   0.0   -7.779658742560884e-06
5.467938193258972e-07   0.0   -7.779658742560884e-06
5.057065175192133e-06   -4.398750269865533e-07   -5.264648323090911e-07
5.057065175192133e-06   -4.398750269865533e-07   -5.264648323090911e-07
5.057065175192133e-06   -4.398750269865533e-07   -5.264648323090911e-07
5.057065175192133e-06   -4.398750269865533e-07   -5.264648323090911e-07
5.053408354964043e-06   0.0   -7.928874072279791e-06
5.053408354964043e-06   0.0   -7.928874072279791e-06
5.053408354964043e-06   0.0   -7.928874072279791e-06
5.053408354964043e-06   0.0   -7.928874072279791e-06
6.360661970021409e-07   -2.6937832256892603e-07   -4.0501014880193406e-07
6.360661970021409e-07   -2.6937832256892603e-07   -4.0501014880193406e-07
6.360661970021409e-07   -2.6937832256892603e-07   -4.0501014880193406e-07
6.360661970021409e-07   -2.6937832256892603e-07   -4.0501014880193406e-07
2.80010108714497e-06   -1.2434610809909077e-07   -4.098754294388548e-06
2.80010108714497e-06   -1.2434610809909077e-07   -4.098754294388548e-06
2.80010108714497e-06   -1.2434610809909077e-07   -4.098754294388548e-06
2.80010108714497e-06   -1.2434610809909077e-07   -4.098754294388548e-06
6.360661970021403e-07   0.0   -7.767247078738429e-06
6.360661970021403e-07   0.0   -7.767247078738429e-06
6.360661970021403e-07   0.0   -7.767247078738429e-06
6.360661970021403e-07   0.0   -7.767247078738429e-06
5.053408354964043e-06   -2.6937832256892603e-07   -5.666371423432907e-07
5.053408354964043e-06   -2.6937832256892603e-07   -5.666371423432907e-07
5.053408354964043e-06   -2.6937832256892603e-07   -5.666371423432907e-07
5.053408354964043e-06   -2.6937832256892603e-07   -5.666371423432907e-07
5.16857506258894e-06   0.0   -7.629885727194301e-06
5.16857506258894e-06   0.0   -7.629885727194301e-06
5.16857506258894e-06   0.0   -7.629885727194301e-06
5.16857506258894e-06   0.0   -7.629885727194301e-06
7.506422246994788e-07   -4.136582522809343e-08   -2.418448355750118e-07
7.506422246994788e-07   -4.136582522809343e-08   -2.418448355750118e-07
7.506422246994788e-07   -4.136582522809343e-08   -2.418448355750118e-07
7.506422246994788e-07   -4.136582522809343e-08   -2.418448355750118e-07
2.902320629795538e-06   1.144677929534461e-07   -3.92147568164403e-06
2.902320629795538e-06   1.144677929534461e-07   -3.92147568164403e-06
2.902320629795538e-06   1.144677929534461e-07   -3.92147568164403e-06
2.902320629795538e-06   1.144677929534461e-07   -3.92147568164403e-06
5.027236771108176e-06   0.0   -8.007192285316756e-06
5.027236771108176e-06   0.0   -8.007192285316756e-06
5.027236771108176e-06   0.0   -8.007192285316756e-06
5.027236771108176e-06   0.0   -8.007192285316756e-06
1.1460153835278575e-05   -1.5090194608070523e-06   1.8089244784830754e-06
1.1460153835278575e-05   -1.5090194608070523e-06   1.8089244784830754e-06
1.1460153835278575e-05   -1.5090194608070523e-06   1.8089244784830754e-06
1.1460153835278575e-05   -1.5090194608070523e-06   1.8089244784830754e-06
1.0790067338670923e-05   0.0   -8.807325162908234e-06
1.0790067338670923e-05   0.0   -8.807325162908234e-06
1.0790067338670923e-05   0.0   -8.807325162908234e-06
1.0790067338670923e-05   0.0   -8.807325162908234e-06
5.057065175192133e-06   -1.27290234025903e-06   1.5114198470451673e-06
5.057065175192133e-06   -1.27290234025903e-06   1.5114198470451673e-06
5.057065175192133e-06   -1.27290234025903e-06   1.5114198470451673e-06
5.057065175192133e-06   -1.27290234025903e-06   1.5114198470451673e-06
7.908652054889549e-06   -6.667773979928981e-07   -3.6048999178102035e-06
7.908652054889549e-06   -6.667773979928981e-07   -3.6048999178102035e-06
7.908652054889549e-06   -6.667773979928981e-07   -3.6048999178102035e-06
7.908652054889549e-06   -6.667773979928981e-07   -3.6048999178102035e-06
5.057065175192128e-06   0.0   -8.043583758752809e-06
5.057065175192128e-06   0.0   -8.043583758752809e-06
5.057065175192128e-06   0.0   -8.043583758752809e-06
5.057065175192128e-06   0.0   -8.043583758752809e-06
1.0790067338670886e-05   -1.272902340259025e-06   7.476784428897429e-07
1.0790067338670886e-05   -1.272902340259025e-06   7.476784428897429e-07
1.0790067338670886e-05   -1.272902340259025e-06   7.476784428897429e-07
1.0790067338670886e-05   -1.272902340259025e-06   7.476784428897429e-07
1.0489194918621175e-05   0.0   -8.624413389309155e-06
1.0489194918621175e-05   0.0   -8.624413389309155e-06
1.0489194918621175e-05   0.0   -8.624413389309155e-06
1.0489194918621175e-05   0.0   -8.624413389309155e-06
5.053408354964043e-06   -1.1592321950489397e-06   1.1307702004820962e-06
5.053408354964043e-06   -1.1592321950489397e-06   1.1307702004820962e-06
5.053408354964043e-06   -1.1592321950489397e-06   1.1307702004820962e-06
5.053408354964043e-06   -1.1592321950489397e-06   1.1307702004820962e-06
7.773130046906649e-06   -4.840246921302831e-07   -3.80722378784011e-06
7.773130046906649e-06   -4.840246921302831e-07   -3.80722378784011e-06
7.773130046906649e-06   -4.840246921302831e-07   -3.80722378784011e-06
7.773130046906649e-06   -4.840246921302831e-07   -3.80722378784011e-06
5.053408354964043e-06   0.0   -7.928874072279791e-06
5.053408354964043e-06   0.0   -7.928874072279791e-06
5.053408354964043e-06   0.0   -7.928874072279791e-06
5.053408354964043e-06   0.0   -7.928874072279791e-06
1.048919491862114e-05   -1.1592321950489346e-06   4.352308834527323e-07
1.048919491862114e-05   -1.1592321950489346e-06   4.352308834527323e-07
1.048919491862114e-05   -1.1592321950489346e-06   4.352308834527323e-07
1.048919491862114e-05   -1.1592321950489346e-06   4.352308834527323e-07
1.0028698233517077e-05   0.0   -8.162694671001163e-06
1.0028698233517077e-05   0.0   -8.162694671001163e-06
1.0028698233517077e-05   0.0   -8.162694671001163e-06
1.0028698233517077e-05   0.0   -8.162694671001163e-06
5.1685750625889305e-06   -8.880149063447698e-07   4.703195576859265e-07
5.1685750625889305e-06   -8.880149063447698e-07   4.703195576859265e-07
5.1685750625889305e-06   -8.880149063447698e-07   4.703195576859265e-07
5.1685750625889305e-06   -8.880149063447698e-07   4.703195576859265e-07
7.54105329424056e-06   -1.9485049893447664e-07   -3.899709472846279e-06
7.54105329424056e-06   -1.9485049893447664e-07   -3.899709472846279e-06
7.54105329424056e-06   -1.9485049893447664e-07   -3.899709472846279e-06
7.54105329424056e-06   -1.9485049893447664e-07   -3.899709472846279e-06
-1.1122161246849502e-05   1.4114596980913865e-06   -7.447797858020598e-06
-1.1122161246849502e-05   1.4114596980913865e-06   -7.447797858020598e-06
-1.1122161246849502e-05   1.4114596980913865e-06   -7.447797858020598e-06
-1.1122161246849502e-05   1.4114596980913865e-06   -7.447797858020598e-06
-7.138690086180023e-06   1.2591770111732863e-06   -9.000488690556475e-07
-7.138690086180023e-06   1.2591770111732863e-06   -9.000488690556475e-07
-7.138690086180023e-06   1.2591770111732863e-06   -9.000488690556475e-07
-7.138690086180023e-06   1.2591770111732863e-06   -9.000488690556475e-07
-7.309309956631224e-06   1.7081239535860966e-06   -6.269211391253091e-06
-7.309309956631224e-06   1.7081239535860966e-06   -6.269211391253091e-06
-7.309309956631224e-06   1.7081239535860966e-06   -6.269211391253091e-06
-7.309309956631224e-06   1.7081239535860966e-06   -6.269211391253091e-06
-1.1223726696857152e-05   1.520511295819064e-06   3.6738410378368304e-07
-1.1223726696857152e-05   1.520511295819064e-06   3.6738410378368304e-07
-1.1223726696857152e-05   1.520511295819064e-06   3.6738410378368304e-07
-1.1223726696857152e-05   1.520511295819064e-06   3.6738410378368304e-07
-8.83308466412338e-06   1.4790279436533394e-06   -3.5921292728065323e-06
-8.83308466412338e-06   1.4790279436533394e-06   -3.5921292728065323e-06
-8.83308466412338e-06   1.4790279436533394e-06   -3.5921292728065323e-06
-8.83308466412338e-06   1.4790279436533394e-06   -3.5921292728065323e-06
-1.1223726696857152e-05   1.7081239535860966e-06   -6.156643796592869e-06
-1.1223726696857152e-05   1.7081239535860966e-06   -6.156643796592869e-06
-1.1223726696857152e-05   1.7081239535860966e-06   -6.156643796592869e-06
-1.1223726696857152e-05   1.7081239535860966e-06   -6.156643796592869e-06
-7.309309956631249e-06   1.5205112958190708e-06   2.5481650912348146e-07
-7.309309956631249e-06   1.5205112958190708e-06   2.5481650912348146e-07
-7.309309956631249e-06   1.5205112958190708e-06   2.5481650912348146e-07
-7.309309956631249e-06   1.5205112958190708e-06   2.5481650912348146e-07
-7.335552021016136e-06   1.8338924872244687e-06   -5.646749332426864e-06
-7.335552021016136e-06   1.8338924872244687e-06   -5.646749332426864e-06
-7.335552021016136e-06   1.8338924872244687e-06   -5.646749332426864e-06
-7.335552021016136e-06   1.8338924872244687e-06   -5.646749332426864e-06
-1.1286458192541261e-05   1.6388150167610775e-06   1.0551407690597008e-06
-1.1286458192541261e-05   1.6388150167610775e-06   1.0551407690597008e-06
-1.1286458192541261e-05   1.6388150167610775e-06   1.0551407690597008e-06
-1.1286458192541261e-05   1.6388150167610775e-06   1.0551407690597008e-06
-9.080546541395753e-06   1.642884669596662e-06   -2.6238204412174987e-06
-9.080546541395753e-06   1.642884669596662e-06   -2.6238204412174987e-06
-9.080546541395753e-06   1.642884669596662e-06   -2.6238204412174987e-06
-9.080546541395753e-06   1.642884669596662e-06   -2.6238204412174987e-06
-1.1286458192541261e-05   1.8338924872244687e-06   -5.529702850148839e-06
-1.1286458192541261e-05   1.8338924872244687e-06   -5.529702850148839e-06
-1.1286458192541261e-05   1.8338924872244687e-06   -5.529702850148839e-06
-1.1286458192541261e-05   1.8338924872244687e-06   -5.529702850148839e-06
-7.335552021016148e-06   1.6388150167610842e-06   9.380942867816634e-07
-7.335552021016148e-06   1.6388150167610842e-06   9.380942867816634e-07
-7.335552021016148e-06   1.6388150167610842e-06   9.380942867816634e-07
-7.335552021016148e-06   1.6388150167610842e-06   9.380942867816634e-07
-7.283351183873653e-06   2.1013426913186128e-06   -4.2039699196343546e-06
-7.283351183873653e-06   2.1013426913186128e-06   -4.2039699196343546e-06
-7.283351183873653e-06   2.1013426913186128e-06   -4.2039699196343546e-06
-7.283351183873653e-06   2.1013426913186128e-06   -4.2039699196343546e-06
-1.0949750152107171e-05   1.7378306966492856e-06   2.124802224223068e-06
-1.0949750152107171e-05   1.7378306966492856e-06   2.124802224223068e-06
-1.0949750152107171e-05   1.7378306966492856e-06   2.124802224223068e-06
-1.0949750152107171e-05   1.7378306966492856e-06   2.124802224223068e-06
-8.829627979032618e-06   1.8077375058812434e-06   -1.4506788164403493e-06
-8.829627979032618e-06   1.8077375058812434e-06   -1.4506788164403493e-06
-8.829627979032618e-06   1.8077375058812434e-06   -1.4506788164403493e-06
-8.829627979032618e-06   1.8077375058812434e-06   -1.4506788164403493e-06
-7.138690086180023e-06   5.118849063727862e-07   -8.000652778016447e-06
-7.138690086180023e-06   5.118849063727862e-07   -8.000652778016447e-06
-7.138690086180023e-06   5.118849063727862e-07   -8.000652778016447e-06
-7.138690086180023e-06   5.118849063727862e-07   -8.000652778016447e-06
-3.409550062193625e-06   5.862321843568282e-07   -1.7408110379153534e-06
-3.409550062193625e-06   5.862321843568282e-07   -1.7408110379153534e-06
-3.409550062193625e-06   5.862321843568282e-07   -1.7408110379153534e-06
-3.409550062193625e-06   5.862321843568282e-07   -1.7408110379153534e-06
-3.4814316841007787e-06   7.386393143233609e-07   -7.983638474735255e-06
-3.4814316841007787e-06   7.386393143233609e-07   -7.983638474735255e-06
-3.4814316841007787e-06   7.386393143233609e-07   -7.983638474735255e-06
-3.4814316841007787e-06   7.386393143233609e-07   -7.983638474735255e-06
-7.309309956631224e-06   8.263293104205619e-07   -1.6564553515094713e-06
-7.309309956631224e-06   8.263293104205619e-07   -1.6564553515094713e-06
-7.309309956631224e-06   8.263293104205619e-07   -1.6564553515094713e-06
-7.309309956631224e-06   8.263293104205619e-07   -1.6564553515094713e-06
-5.319076679512051e-06   6.644845696703143e-07   -4.876403968924637e-06
-5.319076679512051e-06   6.644845696703143e-07   -4.876403968924637e-06
-5.319076679512051e-06   6.644845696703143e-07   -4.876403968924637e-06
-5.319076679512051e-06   6.644845696703143e-07   -4.876403968924637e-06
-7.309309956631217e-06   7.386393143233592e-07   -8.03625247239355e-06
-7.309309956631217e-06   7.386393143233592e-07   -8.03625247239355e-06
-7.309309956631217e-06   7.386393143233592e-07   -8.03625247239355e-06
-7.309309956631217e-06   7.386393143233592e-07   -8.03625247239355e-06
-3.481431684100773e-06   8.263293104205619e-07   -1.6038413538511345e-06
-3.481431684100773e-06   8.263293104205619e-07   -1.6038413538511345e-06
-3.481431684100773e-06   8.263293104205619e-07   -1.6038413538511345e-06
-3.481431684100773e-06   8.263293104205619e-07   -1.6038413538511345e-06
-3.4967812353834877e-06   9.111731636851582e-07   -7.836470899212216e-06
-3.4967812353834877e-06   9.111731636851582e-07   -7.836470899212216e-06
-3.4967812353834877e-06   9.111731636851582e-07   -7.836470899212216e-06
-3.4967812353834877e-06   9.111731636851582e-07   -7.836470899212216e-06
-7.335552021016136e-06   1.0261909764826139e-06   -1.507530277502919e-06
-7.335552021016136e-06   1.0261909764826139e-06   -1.507530277502919e-06
-7.335552021016136e-06   1.0261909764826139e-06   -1.507530277502919e-06
-7.335552021016136e-06   1.0261909764826139e-06   -1.507530277502919e-06
-5.351460130463454e-06   8.480979234778822e-07   -4.707494263287883e-06
-5.351460130463454e-06   8.480979234778822e-07   -4.707494263287883e-06
-5.351460130463454e-06   8.480979234778822e-07   -4.707494263287883e-06
-5.351460130463454e-06   8.480979234778822e-07   -4.707494263287883e-06
-7.335552021016136e-06   9.111731636851565e-07   -7.905481586890681e-06
-7.335552021016136e-06   9.111731636851565e-07   -7.905481586890681e-06
-7.335552021016136e-06   9.111731636851565e-07   -7.905481586890681e-06
-7.335552021016136e-06   9.111731636851565e-07   -7.905481586890681e-06
-3.4967812353834937e-06   1.0261909764826206e-06   -1.4385195898244558e-06
-3.4967812353834937e-06   1.0261909764826206e-06   -1.4385195898244558e-06
-3.4967812353834937e-06   1.0261909764826206e-06   -1.4385195898244558e-06
-3.4967812353834937e-06   1.0261909764826206e-06   -1.4385195898244558e-06
-3.4784736352892393e-06   1.0642151925137703e-06   -7.760024949277396e-06
-3.4784736352892393e-06   1.0642151925137703e-06   -7.760024949277396e-06
-3.4784736352892393e-06   1.0642151925137703e-06   -7.760024949277396e-06
-3.4784736352892393e-06   1.0642151925137703e-06   -7.760024949277396e-06
-7.2833511838736595e-06   1.2421844973109218e-06   -1.5253439511816533e-06
-7.2833511838736595e-06   1.2421844973109218e-06   -1.5253439511816533e-06
-7.2833511838736595e-06   1.2421844973109218e-06   -1.5253439511816533e-06
-7.2833511838736595e-06   1.2421844973109218e-06   -1.5253439511816533e-06
-5.3729674263950946e-06   1.0143374823394349e-06   -4.5726086713297074e-06
-5.3729674263950946e-06   1.0143374823394349e-06   -4.5726086713297074e-06
-5.3729674263950946e-06   1.0143374823394349e-06   -4.5726086713297074e-06
-5.3729674263950946e-06   1.0143374823394349e-06   -4.5726086713297074e-06
-3.409550062193625e-06   -6.993256020091824e-08   -8.391657781800536e-06
-3.409550062193625e-06   -6.993256020091824e-08   -8.391657781800536e-06
-3.409550062193625e-06   -6.993256020091824e-08   -8.391657781800536e-06
-3.409550062193625e-06   -6.993256020091824e-08   -8.391657781800536e-06
2.70908386356131e-07   -2.0133716568935026e-08   -2.2276810613717506e-06
2.70908386356131e-07   -2.0133716568935026e-08   -2.2276810613717506e-06
2.70908386356131e-07   -2.0133716568935026e-08   -2.2276810613717506e-06
2.70908386356131e-07   -2.0133716568935026e-08   -2.2276810613717506e-06
2.651087775713564e-07   1.3286075666204897e-07   -8.431940939075753e-06
2.651087775713564e-07   1.3286075666204897e-07   -8.431940939075753e-06
2.651087775713564e-07   1.3286075666204897e-07   -8.431940939075753e-06
2.651087775713564e-07   1.3286075666204897e-07   -8.431940939075753e-06
-3.481431684100773e-06   2.0159634079143854e-07   -2.2289481867665005e-06
-3.481431684100773e-06   2.0159634079143854e-07   -2.2289481867665005e-06
-3.481431684100773e-06   2.0159634079143854e-07   -2.2289481867665005e-06
-3.481431684100773e-06   2.0159634079143854e-07   -2.2289481867665005e-06
-1.5974155699558686e-06   6.788071062548251e-08   -5.288745665575101e-06
-1.5974155699558686e-06   6.788071062548251e-08   -5.288745665575101e-06
-1.5974155699558686e-06   6.788071062548251e-08   -5.288745665575101e-06
-1.5974155699558686e-06   6.788071062548251e-08   -5.288745665575101e-06
-3.481431684100773e-06   1.3286075666204897e-07   -8.473182289553388e-06
-3.481431684100773e-06   1.3286075666204897e-07   -8.473182289553388e-06
-3.481431684100773e-06   1.3286075666204897e-07   -8.473182289553388e-06
-3.481431684100773e-06   1.3286075666204897e-07   -8.473182289553388e-06
2.6510877757135695e-07   2.0159634079143854e-07   -2.1877068362888586e-06
2.6510877757135695e-07   2.0159634079143854e-07   -2.1877068362888586e-06
2.6510877757135695e-07   2.0159634079143854e-07   -2.1877068362888586e-06
2.6510877757135695e-07   2.0159634079143854e-07   -2.1877068362888586e-06
2.5466771551307916e-07   3.122215665142454e-07   -8.447163074685773e-06
2.5466771551307916e-07   3.122215665142454e-07   -8.447163074685773e-06
2.5466771551307916e-07   3.122215665142454e-07   -8.447163074685773e-06
2.5466771551307916e-07   3.122215665142454e-07   -8.447163074685773e-06
-3.4967812353834822e-06   4.1857701580755936e-07   -2.2585614261008244e-06
-3.4967812353834822e-06   4.1857701580755936e-07   -2.2585614261008244e-06
-3.4967812353834822e-06   4.1857701580755936e-07   -2.2585614261008244e-06
-3.4967812353834822e-06   4.1857701580755936e-07   -2.2585614261008244e-06
-1.6172850078193651e-06   2.550655726598272e-07   -5.29294827281904e-06
-1.6172850078193651e-06   2.550655726598272e-07   -5.29294827281904e-06
-1.6172850078193651e-06   2.550655726598272e-07   -5.29294827281904e-06
-1.6172850078193651e-06   2.550655726598272e-07   -5.29294827281904e-06
-3.4967812353834822e-06   3.122215665142454e-07   -8.510976344261764e-06
-3.4967812353834822e-06   3.122215665142454e-07   -8.510976344261764e-06
-3.4967812353834822e-06   3.122215665142454e-07   -8.510976344261764e-06
-3.4967812353834822e-06   3.122215665142454e-07   -8.510976344261764e-06
2.546677155130796e-07   4.1857701580755936e-07   -2.1947481565248505e-06
2.546677155130796e-07   4.1857701580755936e-07   -2.1947481565248505e-06
2.546677155130796e-07   4.1857701580755936e-07   -2.1947481565248505e-06
2.546677155130796e-07   4.1857701580755936e-07   -2.1947481565248505e-06
2.2266896339254097e-07   5.189747622321456e-07   -8.433811337389617e-06
2.2266896339254097e-07   5.189747622321456e-07   -8.433811337389617e-06
2.2266896339254097e-07   5.189747622321456e-07   -8.433811337389617e-06
2.2266896339254097e-07   5.189747622321456e-07   -8.433811337389617e-06
-3.4784736352892363e-06   6.442548497987105e-07   -2.3404083921266022e-06
-3.4784736352892363e-06   6.442548497987105e-07   -2.3404083921266022e-06
-3.4784736352892363e-06   6.442548497987105e-07   -2.3404083921266022e-06
-3.4784736352892363e-06   6.442548497987105e-07   -2.3404083921266022e-06
-1.6253454329186561e-06   4.473726059977199e-07   -5.310826049796969e-06
-1.6253454329186561e-06   4.473726059977199e-07   -5.310826049796969e-06
-1.6253454329186561e-06   4.473726059977199e-07   -5.310826049796969e-06
-1.6253454329186561e-06   4.473726059977199e-07   -5.310826049796969e-06
2.70908386356131e-07   -5.897314647185519e-07   -7.737418872760429e-06
2.70908386356131e-07   -5.897314647185519e-07   -7.737418872760429e-06
2.70908386356131e-07   -5.897314647185519e-07   -7.737418872760429e-06
2.70908386356131e-07   -5.897314647185519e-07   -7.737418872760429e-06
4.063218975261164e-06   -6.054846183274268e-07   -1.4263531167506967e-06
4.063218975261164e-06   -6.054846183274268e-07   -1.4263531167506967e-06
4.063218975261164e-06   -6.054846183274268e-07   -1.4263531167506967e-06
4.063218975261164e-06   -6.054846183274268e-07   -1.4263531167506967e-06
4.107814936201499e-06   -4.398750269865533e-07   -7.835111646253973e-06
4.107814936201499e-06   -4.398750269865533e-07   -7.835111646253973e-06
4.107814936201499e-06   -4.398750269865533e-07   -7.835111646253973e-06
4.107814936201499e-06   -4.398750269865533e-07   -7.835111646253973e-06
2.6510877757135695e-07   -4.0216110346868046e-07   -1.453229735981126e-06
2.6510877757135695e-07   -4.0216110346868046e-07   -1.453229735981126e-06
2.6510877757135695e-07   -4.0216110346868046e-07   -1.453229735981126e-06
2.6510877757135695e-07   -4.0216110346868046e-07   -1.453229735981126e-06
2.149119134389121e-06   -4.844290935146847e-07   -4.543886203316459e-06
2.149119134389121e-06   -4.844290935146847e-07   -4.543886203316459e-06
2.149119134389121e-06   -4.844290935146847e-07   -4.543886203316459e-06
2.149119134389121e-06   -4.844290935146847e-07   -4.543886203316459e-06
2.651087775713564e-07   -4.398750269865533e-07   -7.857740000364699e-06
2.651087775713564e-07   -4.398750269865533e-07   -7.857740000364699e-06
2.651087775713564e-07   -4.398750269865533e-07   -7.857740000364699e-06
2.651087775713564e-07   -4.398750269865533e-07   -7.857740000364699e-06
4.107814936201499e-06   -4.021611034686737e-07   -1.4306013818703866e-06
4.107814936201499e-06   -4.021611034686737e-07   -1.4306013818703866e-06
4.107814936201499e-06   -4.021611034686737e-07   -1.4306013818703866e-06
4.107814936201499e-06   -4.021611034686737e-07   -1.4306013818703866e-06
4.099362589480063e-06   -2.6937832256892773e-07   -7.975702118260222e-06
4.099362589480063e-06   -2.6937832256892773e-07   -7.975702118260222e-06
4.099362589480063e-06   -2.6937832256892773e-07   -7.975702118260222e-06
4.099362589480063e-06   -2.6937832256892773e-07   -7.975702118260222e-06
2.5466771551307916e-07   -2.0415842956335946e-07   -1.607009264118585e-06
2.5466771551307916e-07   -2.0415842956335946e-07   -1.607009264118585e-06
2.5466771551307916e-07   -2.0415842956335946e-07   -1.607009264118585e-06
2.5466771551307916e-07   -2.0415842956335946e-07   -1.607009264118585e-06
2.1357710845735435e-06   -3.2386010926798133e-07   -4.670360538063253e-06
2.1357710845735435e-06   -3.2386010926798133e-07   -4.670360538063253e-06
2.1357710845735435e-06   -3.2386010926798133e-07   -4.670360538063253e-06
2.1357710845735435e-06   -3.2386010926798133e-07   -4.670360538063253e-06
2.5466771551307884e-07   -2.6937832256892603e-07   -8.014834054063538e-06
2.5466771551307884e-07   -2.6937832256892603e-07   -8.014834054063538e-06
2.5466771551307884e-07   -2.6937832256892603e-07   -8.014834054063538e-06
2.5466771551307884e-07   -2.6937832256892603e-07   -8.014834054063538e-06
4.0993625894800566e-06   -2.0415842956335946e-07   -1.5678773283152519e-06
4.0993625894800566e-06   -2.0415842956335946e-07   -1.5678773283152519e-06
4.0993625894800566e-06   -2.0415842956335946e-07   -1.5678773283152519e-06
4.0993625894800566e-06   -2.0415842956335946e-07   -1.5678773283152519e-06
3.988225680079281e-06   -4.136582522809343e-08   -7.991137274018167e-06
3.988225680079281e-06   -4.136582522809343e-08   -7.991137274018167e-06
3.988225680079281e-06   -4.136582522809343e-08   -7.991137274018167e-06
3.988225680079281e-06   -4.136582522809343e-08   -7.991137274018167e-06
2.2266896339254097e-07   3.929459664858676e-08   -1.7636056659996186e-06
2.2266896339254097e-07   3.929459664858676e-08   -1.7636056659996186e-06
2.2266896339254097e-07   3.929459664858676e-08   -1.7636056659996186e-06
2.2266896339254097e-07   3.929459664858676e-08   -1.7636056659996186e-06
2.121742037759959e-06   -1.3644514598229717e-07   -4.823283611033438e-06
2.121742037759959e-06   -1.3644514598229717e-07   -4.823283611033438e-06
2.121742037759959e-06   -1.3644514598229717e-07   -4.823283611033438e-06
2.121742037759959e-06   -1.3644514598229717e-07   -4.823283611033438e-06
4.063218975261164e-06   -1.5090194608070523e-06   -4.67660300738441e-06
4.063218975261164e-06   -1.5090194608070523e-06   -4.67660300738441e-06
4.063218975261164e-06   -1.5090194608070523e-06   -4.67660300738441e-06
4.063218975261164e-06   -1.5090194608070523e-06   -4.67660300738441e-06
7.785510151498356e-06   -1.1165288556286835e-06   1.7627099827845872e-06
7.785510151498356e-06   -1.1165288556286835e-06   1.7627099827845872e-06
7.785510151498356e-06   -1.1165288556286835e-06   1.7627099827845872e-06
7.785510151498356e-06   -1.1165288556286835e-06   1.7627099827845872e-06
8.1087159896173e-06   -1.2729023402590283e-06   -5.63594680553873e-06
8.1087159896173e-06   -1.2729023402590283e-06   -5.63594680553873e-06
8.1087159896173e-06   -1.2729023402590283e-06   -5.63594680553873e-06
8.1087159896173e-06   -1.2729023402590283e-06   -5.63594680553873e-06
4.107814936201507e-06   -1.004102071324028e-06   8.709414554599335e-07
4.107814936201507e-06   -1.004102071324028e-06   8.709414554599335e-07
4.107814936201507e-06   -1.004102071324028e-06   8.709414554599335e-07
4.107814936201507e-06   -1.004102071324028e-06   8.709414554599335e-07
5.736010032093412e-06   -1.2183100369232424e-06   -1.7141922583337184e-06
5.736010032093412e-06   -1.2183100369232424e-06   -1.7141922583337184e-06
5.736010032093412e-06   -1.2183100369232424e-06   -1.7141922583337184e-06
5.736010032093412e-06   -1.2183100369232424e-06   -1.7141922583337184e-06
4.107814936201495e-06   -1.272902340259025e-06   -5.797226966899714e-06
4.107814936201495e-06   -1.272902340259025e-06   -5.797226966899714e-06
4.107814936201495e-06   -1.272902340259025e-06   -5.797226966899714e-06
4.107814936201495e-06   -1.272902340259025e-06   -5.797226966899714e-06
8.1087159896173e-06   -1.004102071324028e-06   1.03222161682095e-06
8.1087159896173e-06   -1.004102071324028e-06   1.03222161682095e-06
8.1087159896173e-06   -1.004102071324028e-06   1.03222161682095e-06
8.1087159896173e-06   -1.004102071324028e-06   1.03222161682095e-06
8.095775681710303e-06   -1.159232195048938e-06   -6.116994382389461e-06
8.095775681710303e-06   -1.159232195048938e-06   -6.116994382389461e-06
8.095775681710303e-06   -1.159232195048938e-06   -6.116994382389461e-06
8.095775681710303e-06   -1.159232195048938e-06   -6.116994382389461e-06
4.099362589480063e-06   -8.903982066399643e-07   3.823937116155614e-07
4.099362589480063e-06   -8.903982066399643e-07   3.823937116155614e-07
4.099362589480063e-06   -8.903982066399643e-07   3.823937116155614e-07
4.099362589480063e-06   -8.903982066399643e-07   3.823937116155614e-07
5.9531875090450684e-06   -1.0697406696986685e-06   -2.599709009824233e-06
5.9531875090450684e-06   -1.0697406696986685e-06   -2.599709009824233e-06
5.9531875090450684e-06   -1.0697406696986685e-06   -2.599709009824233e-06
5.9531875090450684e-06   -1.0697406696986685e-06   -2.599709009824233e-06
4.0993625894800566e-06   -1.1592321950489363e-06   -6.278294775434825e-06
4.0993625894800566e-06   -1.1592321950489363e-06   -6.278294775434825e-06
4.0993625894800566e-06   -1.1592321950489363e-06   -6.278294775434825e-06
4.0993625894800566e-06   -1.1592321950489363e-06   -6.278294775434825e-06
8.095775681710303e-06   -8.903982066399711e-07   5.436941046609324e-07
8.095775681710303e-06   -8.903982066399711e-07   5.436941046609324e-07
8.095775681710303e-06   -8.903982066399711e-07   5.436941046609324e-07
8.095775681710303e-06   -8.903982066399711e-07   5.436941046609324e-07
8.067033793345854e-06   -8.880149063447698e-07   -7.109252821842227e-06
8.067033793345854e-06   -8.880149063447698e-07   -7.109252821842227e-06
8.067033793345854e-06   -8.880149063447698e-07   -7.109252821842227e-06
8.067033793345854e-06   -8.880149063447698e-07   -7.109252821842227e-06
3.988225680079287e-06   -6.465139667144983e-07   -4.561398635094497e-07
3.988225680079287e-06   -6.465139667144983e-07   -4.561398635094497e-07
3.988225680079287e-06   -6.465139667144983e-07   -4.561398635094497e-07
3.988225680079287e-06   -6.465139667144983e-07   -4.561398635094497e-07
5.795366495048461e-06   -9.165560994682923e-07   -3.3060159421391275e-06
5.795366495048461e-06   -9.165560994682923e-07   -3.3060159421391275e-06
5.795366495048461e-06   -9.165560994682923e-07   -3.3060159421391275e-06
5.795366495048461e-06   -9.165560994682923e-07   -3.3060159421391275e-06
-8.722253885152365e-06   1.259177011173293e-06   -6.123381883561793e-06
-8.722253885152365e-06   1.259177011173293e-06   -6.123381883561793e-06
-8.722253885152365e-06   1.259177011173293e-06   -6.123381883561793e-06
-8.722253885152365e-06   1.259177011173293e-06   -6.123381883561793e-06
-5.751454218164779e-06   9.502058877691098e-07   -1.3574317792916598e-06
-5.751454218164779e-06   9.502058877691098e-07   -1.3574317792916598e-06
-5.751454218164779e-06   9.502058877691098e-07   -1.3574317792916598e-06
-5.751454218164779e-06   9.502058877691098e-07   -1.3574317792916598e-06
-5.773877169092956e-06   1.520511295819064e-06   -5.090427148022946e-06
-5.773877169092956e-06   1.520511295819064e-06   -5.090427148022946e-06
-5.773877169092956e-06   1.520511295819064e-06   -5.090427148022946e-06
-5.773877169092956e-06   1.520511295819064e-06   -5.090427148022946e-06
-8.574336765120503e-06   1.155939216715765e-06   -2.042512405150596e-07
-8.574336765120503e-06   1.155939216715765e-06   -2.042512405150596e-07
-8.574336765120503e-06   1.155939216715765e-06   -2.042512405150596e-07
-8.574336765120503e-06   1.155939216715765e-06   -2.042512405150596e-07
-6.899941799727448e-06   1.283629412569591e-06   -3.071523633682467e-06
-6.899941799727448e-06   1.283629412569591e-06   -3.071523633682467e-06
-6.899941799727448e-06   1.283629412569591e-06   -3.071523633682467e-06
-6.899941799727448e-06   1.283629412569591e-06   -3.071523633682467e-06
-8.574336765120503e-06   1.520511295819064e-06   -4.871683900560967e-06
-8.574336765120503e-06   1.520511295819064e-06   -4.871683900560967e-06
-8.574336765120503e-06   1.520511295819064e-06   -4.871683900560967e-06
-8.574336765120503e-06   1.520511295819064e-06   -4.871683900560967e-06
-5.773877169092956e-06   1.155939216715765e-06   -4.229944879770356e-07
-5.773877169092956e-06   1.155939216715765e-06   -4.229944879770356e-07
-5.773877169092956e-06   1.155939216715765e-06   -4.229944879770356e-07
-5.773877169092956e-06   1.155939216715765e-06   -4.229944879770356e-07
-5.762301230901615e-06   1.6388150167610842e-06   -4.3594672676113125e-06
-5.762301230901615e-06   1.6388150167610842e-06   -4.3594672676113125e-06
-5.762301230901615e-06   1.6388150167610842e-06   -4.3594672676113125e-06
-5.762301230901615e-06   1.6388150167610842e-06   -4.3594672676113125e-06
-8.433176174937833e-06   1.2474557095963168e-06   3.268065567479204e-07
-8.433176174937833e-06   1.2474557095963168e-06   3.268065567479204e-07
-8.433176174937833e-06   1.2474557095963168e-06   3.268065567479204e-07
-8.433176174937833e-06   1.2474557095963168e-06   3.268065567479204e-07
-6.950981464820554e-06   1.4027949804411682e-06   -2.23672152262112e-06
-6.950981464820554e-06   1.4027949804411682e-06   -2.23672152262112e-06
-6.950981464820554e-06   1.4027949804411682e-06   -2.23672152262112e-06
-6.950981464820554e-06   1.4027949804411682e-06   -2.23672152262112e-06
-8.433176174937833e-06   1.6388150167610842e-06   -4.124651683312443e-06
-8.433176174937833e-06   1.6388150167610842e-06   -4.124651683312443e-06
-8.433176174937833e-06   1.6388150167610842e-06   -4.124651683312443e-06
-8.433176174937833e-06   1.6388150167610842e-06   -4.124651683312443e-06
-5.762301230901625e-06   1.2474557095963168e-06   9.199097244907823e-08
-5.762301230901625e-06   1.2474557095963168e-06   9.199097244907823e-08
-5.762301230901625e-06   1.2474557095963168e-06   9.199097244907823e-08
-5.762301230901625e-06   1.2474557095963168e-06   9.199097244907823e-08
-5.763947990931911e-06   1.7378306966492856e-06   -3.345095867556626e-06
-5.763947990931911e-06   1.7378306966492856e-06   -3.345095867556626e-06
-5.763947990931911e-06   1.7378306966492856e-06   -3.345095867556626e-06
-5.763947990931911e-06   1.7378306966492856e-06   -3.345095867556626e-06
-8.253119292004321e-06   1.3412360776731975e-06   1.0414797389496689e-06
-8.253119292004321e-06   1.3412360776731975e-06   1.0414797389496689e-06
-8.253119292004321e-06   1.3412360776731975e-06   1.0414797389496689e-06
-8.253119292004321e-06   1.3412360776731975e-06   1.0414797389496689e-06
-6.785538975405832e-06   1.4684440711432812e-06   -1.4808122514631101e-06
-6.785538975405832e-06   1.4684440711432812e-06   -1.4808122514631101e-06
-6.785538975405832e-06   1.4684440711432812e-06   -1.4808122514631101e-06
-6.785538975405832e-06   1.4684440711432812e-06   -1.4808122514631101e-06
-5.751454218164779e-06   5.862321843568282e-07   -7.194135093254436e-06
-5.751454218164779e-06   5.862321843568282e-07   -7.194135093254436e-06
-5.751454218164779e-06   5.862321843568282e-07   -7.194135093254436e-06
-5.751454218164779e-06   5.862321843568282e-07   -7.194135093254436e-06
-2.963389835997272e-06   4.783129438757603e-07   -2.6121126672639e-06
-2.963389835997272e-06   4.783129438757603e-07   -2.6121126672639e-06
-2.963389835997272e-06   4.783129438757603e-07   -2.6121126672639e-06
-2.963389835997272e-06   4.783129438757603e-07   -2.6121126672639e-06
-2.994947669546122e-06   8.263293104205619e-07   -7.088529893270847e-06
-2.994947669546122e-06   8.263293104205619e-07   -7.088529893270847e-06
-2.994947669546122e-06   8.263293104205619e-07   -7.088529893270847e-06
-2.994947669546122e-06   8.263293104205619e-07   -7.088529893270847e-06
-5.773877169092956e-06   6.816111693956124e-07   -2.3701498427444942e-06
-5.773877169092956e-06   6.816111693956124e-07   -2.3701498427444942e-06
-5.773877169092956e-06   6.816111693956124e-07   -2.3701498427444942e-06
-5.773877169092956e-06   6.816111693956124e-07   -2.3701498427444942e-06
-4.332847613955068e-06   6.821924976517277e-07   -4.7722145649279734e-06
-4.332847613955068e-06   6.821924976517277e-07   -4.7722145649279734e-06
-4.332847613955068e-06   6.821924976517277e-07   -4.7722145649279734e-06
-4.332847613955068e-06   6.821924976517277e-07   -4.7722145649279734e-06
-5.773877169092953e-06   8.263293104205619e-07   -7.001699008655872e-06
-5.773877169092953e-06   8.263293104205619e-07   -7.001699008655872e-06
-5.773877169092953e-06   8.263293104205619e-07   -7.001699008655872e-06
-5.773877169092953e-06   8.263293104205619e-07   -7.001699008655872e-06
-2.994947669546126e-06   6.816111693956259e-07   -2.4569807273594727e-06
-2.994947669546126e-06   6.816111693956259e-07   -2.4569807273594727e-06
-2.994947669546126e-06   6.816111693956259e-07   -2.4569807273594727e-06
-2.994947669546126e-06   6.816111693956259e-07   -2.4569807273594727e-06
-3.0138828539157837e-06   1.0261909764826139e-06   -6.902615734599215e-06
-3.0138828539157837e-06   1.0261909764826139e-06   -6.902615734599215e-06
-3.0138828539157837e-06   1.0261909764826139e-06   -6.902615734599215e-06
-3.0138828539157837e-06   1.0261909764826139e-06   -6.902615734599215e-06
-5.762301230901615e-06   8.63651138643758e-07   -2.224394536919517e-06
-5.762301230901615e-06   8.63651138643758e-07   -2.224394536919517e-06
-5.762301230901615e-06   8.63651138643758e-07   -2.224394536919517e-06
-5.762301230901615e-06   8.63651138643758e-07   -2.224394536919517e-06
-4.336848289409359e-06   8.504080882349102e-07   -4.592203609161269e-06
-4.336848289409359e-06   8.504080882349102e-07   -4.592203609161269e-06
-4.336848289409359e-06   8.504080882349102e-07   -4.592203609161269e-06
-4.336848289409359e-06   8.504080882349102e-07   -4.592203609161269e-06
-5.762301230901615e-06   1.0261909764826139e-06   -6.805091831895905e-06
-5.762301230901615e-06   1.0261909764826139e-06   -6.805091831895905e-06
-5.762301230901615e-06   1.0261909764826139e-06   -6.805091831895905e-06
-5.762301230901615e-06   1.0261909764826139e-06   -6.805091831895905e-06
-3.0138828539157904e-06   8.63651138643758e-07   -2.3219184396228236e-06
-3.0138828539157904e-06   8.63651138643758e-07   -2.3219184396228236e-06
-3.0138828539157904e-06   8.63651138643758e-07   -2.3219184396228236e-06
-3.0138828539157904e-06   8.63651138643758e-07   -2.3219184396228236e-06
-3.040030013265373e-06   1.2421844973109218e-06   -6.887162118755307e-06
-3.040030013265373e-06   1.2421844973109218e-06   -6.887162118755307e-06
-3.040030013265373e-06   1.2421844973109218e-06   -6.887162118755307e-06
-3.040030013265373e-06   1.2421844973109218e-06   -6.887162118755307e-06
-5.763947990931905e-06   1.0588057096516684e-06   -2.2372715500488713e-06
-5.763947990931905e-06   1.0588057096516684e-06   -2.2372715500488713e-06
-5.763947990931905e-06   1.0588057096516684e-06   -2.2372715500488713e-06
-5.763947990931905e-06   1.0588057096516684e-06   -2.2372715500488713e-06
-4.384066838850012e-06   1.0182992110876246e-06   -4.5127695710468994e-06
-4.384066838850012e-06   1.0182992110876246e-06   -4.5127695710468994e-06
-4.384066838850012e-06   1.0182992110876246e-06   -4.5127695710468994e-06
-4.384066838850012e-06   1.0182992110876246e-06   -4.5127695710468994e-06
-2.9633898359972677e-06   -2.013371656892825e-08   -7.775635967178665e-06
-2.9633898359972677e-06   -2.013371656892825e-08   -7.775635967178665e-06
-2.9633898359972677e-06   -2.013371656892825e-08   -7.775635967178665e-06
-2.9633898359972677e-06   -2.013371656892825e-08   -7.775635967178665e-06
-2.01761729225531e-07   2.6350249549553836e-08   -3.1450320762213427e-06
-2.01761729225531e-07   2.6350249549553836e-08   -3.1450320762213427e-06
-2.01761729225531e-07   2.6350249549553836e-08   -3.1450320762213427e-06
-2.01761729225531e-07   2.6350249549553836e-08   -3.1450320762213427e-06
-2.2652224261151499e-07   2.0159634079143854e-07   -7.697929444391369e-06
-2.2652224261151499e-07   2.0159634079143854e-07   -7.697929444391369e-06
-2.2652224261151499e-07   2.0159634079143854e-07   -7.697929444391369e-06
-2.2652224261151499e-07   2.0159634079143854e-07   -7.697929444391369e-06
-2.994947669546115e-06   2.277751437828159e-07   -3.0995943479618566e-06
-2.994947669546115e-06   2.277751437828159e-07   -3.0995943479618566e-06
-2.994947669546115e-06   2.277751437828159e-07   -3.0995943479618566e-06
-2.994947669546115e-06   2.277751437828159e-07   -3.0995943479618566e-06
-1.5871099603879391e-06   1.336920841105206e-07   -5.389540694088778e-06
-1.5871099603879391e-06   1.336920841105206e-07   -5.389540694088778e-06
-1.5871099603879391e-06   1.336920841105206e-07   -5.389540694088778e-06
-1.5871099603879391e-06   1.336920841105206e-07   -5.389540694088778e-06
-2.994947669546122e-06   2.0159634079143854e-07   -7.713636726186203e-06
-2.994947669546122e-06   2.0159634079143854e-07   -7.713636726186203e-06
-2.994947669546122e-06   2.0159634079143854e-07   -7.713636726186203e-06
-2.994947669546122e-06   2.0159634079143854e-07   -7.713636726186203e-06
-2.2652224261151499e-07   2.2777514378282944e-07   -3.0838870661670227e-06
-2.2652224261151499e-07   2.2777514378282944e-07   -3.0838870661670227e-06
-2.2652224261151499e-07   2.2777514378282944e-07   -3.0838870661670227e-06
-2.2652224261151499e-07   2.2777514378282944e-07   -3.0838870661670227e-06
-2.4287067114722476e-07   4.1857701580755936e-07   -7.716563515552077e-06
-2.4287067114722476e-07   4.1857701580755936e-07   -7.716563515552077e-06
-2.4287067114722476e-07   4.1857701580755936e-07   -7.716563515552077e-06
-2.4287067114722476e-07   4.1857701580755936e-07   -7.716563515552077e-06
-3.0138828539157837e-06   4.2873377468008586e-07   -3.1043039329279986e-06
-3.0138828539157837e-06   4.2873377468008586e-07   -3.1043039329279986e-06
-3.0138828539157837e-06   4.2873377468008586e-07   -3.1043039329279986e-06
-3.0138828539157837e-06   4.2873377468008586e-07   -3.1043039329279986e-06
-1.6203579492599756e-06   3.1167207303155593e-07   -5.356608419698556e-06
-1.6203579492599756e-06   3.1167207303155593e-07   -5.356608419698556e-06
-1.6203579492599756e-06   3.1167207303155593e-07   -5.356608419698556e-06
-1.6203579492599756e-06   3.1167207303155593e-07   -5.356608419698556e-06
-3.0138828539157837e-06   4.1857701580755936e-07   -7.722657570875594e-06
-3.0138828539157837e-06   4.1857701580755936e-07   -7.722657570875594e-06
-3.0138828539157837e-06   4.1857701580755936e-07   -7.722657570875594e-06
-3.0138828539157837e-06   4.1857701580755936e-07   -7.722657570875594e-06
-2.4287067114722476e-07   4.2873377468008586e-07   -3.098209877604465e-06
-2.4287067114722476e-07   4.2873377468008586e-07   -3.098209877604465e-06
-2.4287067114722476e-07   4.2873377468008586e-07   -3.098209877604465e-06
-2.4287067114722476e-07   4.2873377468008586e-07   -3.098209877604465e-06
-2.7108481035562773e-07   6.442548497987105e-07   -7.815029473773911e-06
-2.7108481035562773e-07   6.442548497987105e-07   -7.815029473773911e-06
-2.7108481035562773e-07   6.442548497987105e-07   -7.815029473773911e-06
-2.7108481035562773e-07   6.442548497987105e-07   -7.815029473773911e-06
-3.0400300132653755e-06   6.342192978064573e-07   -3.194099471062328e-06
-3.0400300132653755e-06   6.342192978064573e-07   -3.194099471062328e-06
-3.0400300132653755e-06   6.342192978064573e-07   -3.194099471062328e-06
-3.0400300132653755e-06   6.342192978064573e-07   -3.194099471062328e-06
-1.655926305166283e-06   4.917795499172862e-07   -5.415475135827272e-06
-1.655926305166283e-06   4.917795499172862e-07   -5.415475135827272e-06
-1.655926305166283e-06   4.917795499172862e-07   -5.415475135827272e-06
-1.655926305166283e-06   4.917795499172862e-07   -5.415475135827272e-06
-2.017617292255312e-07   -6.054846183274336e-07   -6.936965750721184e-06
-2.017617292255312e-07   -6.054846183274336e-07   -6.936965750721184e-06
-2.017617292255312e-07   -6.054846183274336e-07   -6.936965750721184e-06
-2.017617292255312e-07   -6.054846183274336e-07   -6.936965750721184e-06
2.537297231827431e-06   -3.982698766609276e-07   -2.247538637299694e-06
2.537297231827431e-06   -3.982698766609276e-07   -2.247538637299694e-06
2.537297231827431e-06   -3.982698766609276e-07   -2.247538637299694e-06
2.537297231827431e-06   -3.982698766609276e-07   -2.247538637299694e-06
2.539760731885333e-06   -4.021611034686737e-07   -6.849225164782376e-06
2.539760731885333e-06   -4.021611034686737e-07   -6.849225164782376e-06
2.539760731885333e-06   -4.021611034686737e-07   -6.849225164782376e-06
2.539760731885333e-06   -4.021611034686737e-07   -6.849225164782376e-06
-2.2652224261151499e-07   -2.1178247129992746e-07   -2.3529807199222073e-06
-2.2652224261151499e-07   -2.1178247129992746e-07   -2.3529807199222073e-06
-2.2652224261151499e-07   -2.1178247129992746e-07   -2.3529807199222073e-06
-2.2652224261151499e-07   -2.1178247129992746e-07   -2.3529807199222073e-06
1.1539547593027624e-06   -3.889147558736527e-07   -4.547496352368432e-06
1.1539547593027624e-06   -3.889147558736527e-07   -4.547496352368432e-06
1.1539547593027624e-06   -3.889147558736527e-07   -4.547496352368432e-06
1.1539547593027624e-06   -3.889147558736527e-07   -4.547496352368432e-06
-2.2652224261151499e-07   -4.021611034686737e-07   -6.963452344083625e-06
-2.2652224261151499e-07   -4.021611034686737e-07   -6.963452344083625e-06
-2.2652224261151499e-07   -4.021611034686737e-07   -6.963452344083625e-06
-2.2652224261151499e-07   -4.021611034686737e-07   -6.963452344083625e-06
2.539760731885338e-06   -2.1178247129992746e-07   -2.2387535406209684e-06
2.539760731885338e-06   -2.1178247129992746e-07   -2.2387535406209684e-06
2.539760731885338e-06   -2.1178247129992746e-07   -2.2387535406209684e-06
2.539760731885338e-06   -2.1178247129992746e-07   -2.2387535406209684e-06
2.558347122105106e-06   -2.0415842956335946e-07   -7.024402206001647e-06
2.558347122105106e-06   -2.0415842956335946e-07   -7.024402206001647e-06
2.558347122105106e-06   -2.0415842956335946e-07   -7.024402206001647e-06
2.558347122105106e-06   -2.0415842956335946e-07   -7.024402206001647e-06
-2.428706711472253e-07   -3.0121067656386385e-08   -2.4601283010586143e-06
-2.428706711472253e-07   -3.0121067656386385e-08   -2.4601283010586143e-06
-2.428706711472253e-07   -3.0121067656386385e-08   -2.4601283010586143e-06
-2.428706711472253e-07   -3.0121067656386385e-08   -2.4601283010586143e-06
1.1204421984630455e-06   -2.276450923261651e-07   -4.6138020022738585e-06
1.1204421984630455e-06   -2.276450923261651e-07   -4.6138020022738585e-06
1.1204421984630455e-06   -2.276450923261651e-07   -4.6138020022738585e-06
1.1204421984630455e-06   -2.276450923261651e-07   -4.6138020022738585e-06
-2.4287067114722465e-07   -2.0415842956335946e-07   -7.128824623145809e-06
-2.4287067114722465e-07   -2.0415842956335946e-07   -7.128824623145809e-06
-2.4287067114722465e-07   -2.0415842956335946e-07   -7.128824623145809e-06
-2.4287067114722465e-07   -2.0415842956335946e-07   -7.128824623145809e-06
2.558347122105111e-06   -3.0121067656386385e-08   -2.3557058839144174e-06
2.558347122105111e-06   -3.0121067656386385e-08   -2.3557058839144174e-06
2.558347122105111e-06   -3.0121067656386385e-08   -2.3557058839144174e-06
2.558347122105111e-06   -3.0121067656386385e-08   -2.3557058839144174e-06
2.5437512596777793e-06   3.929459664858676e-08   -7.228599538136838e-06
2.5437512596777793e-06   3.929459664858676e-08   -7.228599538136838e-06
2.5437512596777793e-06   3.929459664858676e-08   -7.228599538136838e-06
2.5437512596777793e-06   3.929459664858676e-08   -7.228599538136838e-06
-2.7108481035562826e-07   1.8062003339864901e-07   -2.622001350131219e-06
-2.7108481035562826e-07   1.8062003339864901e-07   -2.622001350131219e-06
-2.7108481035562826e-07   1.8062003339864901e-07   -2.622001350131219e-06
-2.7108481035562826e-07   1.8062003339864901e-07   -2.622001350131219e-06
1.1111665555889329e-06   -5.648396040445363e-08   -4.783491230423574e-06
1.1111665555889329e-06   -5.648396040445363e-08   -4.783491230423574e-06
1.1111665555889329e-06   -5.648396040445363e-08   -4.783491230423574e-06
1.1111665555889329e-06   -5.648396040445363e-08   -4.783491230423574e-06
2.5372972318274276e-06   -1.1165288556286835e-06   -3.859068169293034e-06
2.5372972318274276e-06   -1.1165288556286835e-06   -3.859068169293034e-06
2.5372972318274276e-06   -1.1165288556286835e-06   -3.859068169293034e-06
2.5372972318274276e-06   -1.1165288556286835e-06   -3.859068169293034e-06
5.067264018803369e-06   -7.104970415768269e-07   6.011622307646732e-07
5.067264018803369e-06   -7.104970415768269e-07   6.011622307646732e-07
5.067264018803369e-06   -7.104970415768269e-07   6.011622307646732e-07
5.067264018803369e-06   -7.104970415768269e-07   6.011622307646732e-07
5.255397561487315e-06   -1.0041020713240213e-06   -4.305286678226056e-06
5.255397561487315e-06   -1.0041020713240213e-06   -4.305286678226056e-06
5.255397561487315e-06   -1.0041020713240213e-06   -4.305286678226056e-06
5.255397561487315e-06   -1.0041020713240213e-06   -4.305286678226056e-06
2.539760731885333e-06   -6.001093226140456e-07   -2.1620944782061802e-08
2.539760731885333e-06   -6.001093226140456e-07   -2.1620944782061802e-08
2.539760731885333e-06   -6.001093226140456e-07   -2.1620944782061802e-08
2.539760731885333e-06   -6.001093226140456e-07   -2.1620944782061802e-08
3.6856948849008515e-06   -8.4701835493022e-07   -1.7833657804182222e-06
3.6856948849008515e-06   -8.4701835493022e-07   -1.7833657804182222e-06
3.6856948849008515e-06   -8.4701835493022e-07   -1.7833657804182222e-06
3.6856948849008515e-06   -8.4701835493022e-07   -1.7833657804182222e-06
2.5397607318853313e-06   -1.004102071324028e-06   -4.547682327452029e-06
2.5397607318853313e-06   -1.004102071324028e-06   -4.547682327452029e-06
2.5397607318853313e-06   -1.004102071324028e-06   -4.547682327452029e-06
2.5397607318853313e-06   -1.004102071324028e-06   -4.547682327452029e-06
5.255397561487315e-06   -6.001093226140456e-07   2.2077470444392764e-07
5.255397561487315e-06   -6.001093226140456e-07   2.2077470444392764e-07
5.255397561487315e-06   -6.001093226140456e-07   2.2077470444392764e-07
5.255397561487315e-06   -6.001093226140456e-07   2.2077470444392764e-07
5.403330751495039e-06   -8.903982066399711e-07   -4.8451681995314295e-06
5.403330751495039e-06   -8.903982066399711e-07   -4.8451681995314295e-06
5.403330751495039e-06   -8.903982066399711e-07   -4.8451681995314295e-06
5.403330751495039e-06   -8.903982066399711e-07   -4.8451681995314295e-06
2.558347122105101e-06   -5.087932624076139e-07   -3.324917837542864e-07
2.558347122105101e-06   -5.087932624076139e-07   -3.324917837542864e-07
2.558347122105101e-06   -5.087932624076139e-07   -3.324917837542864e-07
2.558347122105101e-06   -5.087932624076139e-07   -3.324917837542864e-07
3.820693961186571e-06   -7.761223087603562e-07   -2.2760057544117412e-06
3.820693961186571e-06   -7.761223087603562e-07   -2.2760057544117412e-06
3.820693961186571e-06   -7.761223087603562e-07   -2.2760057544117412e-06
3.820693961186571e-06   -7.761223087603562e-07   -2.2760057544117412e-06
2.558347122105106e-06   -8.903982066399711e-07   -5.074131166070846e-06
2.558347122105106e-06   -8.903982066399711e-07   -5.074131166070846e-06
2.558347122105106e-06   -8.903982066399711e-07   -5.074131166070846e-06
2.558347122105106e-06   -8.903982066399711e-07   -5.074131166070846e-06
5.403330751495032e-06   -5.087932624076139e-07   -1.0352881721485306e-07
5.403330751495032e-06   -5.087932624076139e-07   -1.0352881721485306e-07
5.403330751495032e-06   -5.087932624076139e-07   -1.0352881721485306e-07
5.403330751495032e-06   -5.087932624076139e-07   -1.0352881721485306e-07
5.563811471509895e-06   -6.465139667144983e-07   -5.771484814070752e-06
5.563811471509895e-06   -6.465139667144983e-07   -5.771484814070752e-06
5.563811471509895e-06   -6.465139667144983e-07   -5.771484814070752e-06
5.563811471509895e-06   -6.465139667144983e-07   -5.771484814070752e-06
2.543751259677776e-06   -3.164386755446488e-07   -9.360963023858072e-07
2.543751259677776e-06   -3.164386755446488e-07   -9.360963023858072e-07
2.543751259677776e-06   -3.164386755446488e-07   -9.360963023858072e-07
2.543751259677776e-06   -3.164386755446488e-07   -9.360963023858072e-07
3.814445110961166e-06   -6.644891659928672e-07   -2.845089093589186e-06
3.814445110961166e-06   -6.644891659928672e-07   -2.845089093589186e-06
3.814445110961166e-06   -6.644891659928672e-07   -2.845089093589186e-06
3.814445110961166e-06   -6.644891659928672e-07   -2.845089093589186e-06
-6.1506717080921975e-06   9.502058877691098e-07   -4.7555418714065415e-06
-6.1506717080921975e-06   9.502058877691098e-07   -4.7555418714065415e-06
-6.1506717080921975e-06   9.502058877691098e-07   -4.7555418714065415e-06
-6.1506717080921975e-06   9.502058877691098e-07   -4.7555418714065415e-06
-4.233603787733961e-06   5.932483656148846e-07   -1.774603184101984e-06
-4.233603787733961e-06   5.932483656148846e-07   -1.774603184101984e-06
-4.233603787733961e-06   5.932483656148846e-07   -1.774603184101984e-06
-4.233603787733961e-06   5.932483656148846e-07   -1.774603184101984e-06
-4.217294917193426e-06   1.155939216715765e-06   -4.0422323051088105e-06
-4.217294917193426e-06   1.155939216715765e-06   -4.0422323051088105e-06
-4.217294917193426e-06   1.155939216715765e-06   -4.0422323051088105e-06
-4.217294917193426e-06   1.155939216715765e-06   -4.0422323051088105e-06
-5.95581402973665e-06   7.609983394570963e-07   -9.077359245148869e-07
-5.95581402973665e-06   7.609983394570963e-07   -9.077359245148869e-07
-5.95581402973665e-06   7.609983394570963e-07   -9.077359245148869e-07
-5.95581402973665e-06   7.609983394570963e-07   -9.077359245148869e-07
-4.921029620727609e-06   9.170702688372084e-07   -2.726019763824699e-06
-4.921029620727609e-06   9.170702688372084e-07   -2.726019763824699e-06
-4.921029620727609e-06   9.170702688372084e-07   -2.726019763824699e-06
-4.921029620727609e-06   9.170702688372084e-07   -2.726019763824699e-06
-5.95581402973665e-06   1.155939216715765e-06   -3.8052677787535997e-06
-5.95581402973665e-06   1.155939216715765e-06   -3.8052677787535997e-06
-5.95581402973665e-06   1.155939216715765e-06   -3.8052677787535997e-06
-5.95581402973665e-06   1.155939216715765e-06   -3.8052677787535997e-06
-4.217294917193433e-06   7.609983394570827e-07   -1.1447004508700773e-06
-4.217294917193433e-06   7.609983394570827e-07   -1.1447004508700773e-06
-4.217294917193433e-06   7.609983394570827e-07   -1.1447004508700773e-06
-4.217294917193433e-06   7.609983394570827e-07   -1.1447004508700773e-06
-4.184705135807931e-06   1.2474557095963168e-06   -3.5256243394556004e-06
-4.184705135807931e-06   1.2474557095963168e-06   -3.5256243394556004e-06
-4.184705135807931e-06   1.2474557095963168e-06   -3.5256243394556004e-06
-4.184705135807931e-06   1.2474557095963168e-06   -3.5256243394556004e-06
-5.812071890175099e-06   8.407293137248215e-07   -5.693105779874146e-07
-5.812071890175099e-06   8.407293137248215e-07   -5.693105779874146e-07
-5.812071890175099e-06   8.407293137248215e-07   -5.693105779874146e-07
-5.812071890175099e-06   8.407293137248215e-07   -5.693105779874146e-07
-4.91771437557746e-06   1.010996975918724e-06   -2.1620670329664755e-06
-4.91771437557746e-06   1.010996975918724e-06   -2.1620670329664755e-06
-4.91771437557746e-06   1.010996975918724e-06   -2.1620670329664755e-06
-4.91771437557746e-06   1.010996975918724e-06   -2.1620670329664755e-06
-5.812071890175099e-06   1.2474557095963168e-06   -3.2815885019327033e-06
-5.812071890175099e-06   1.2474557095963168e-06   -3.2815885019327033e-06
-5.812071890175099e-06   1.2474557095963168e-06   -3.2815885019327033e-06
-5.812071890175099e-06   1.2474557095963168e-06   -3.2815885019327033e-06
-4.184705135807938e-06   8.407293137248215e-07   -8.133464155102914e-07
-4.184705135807938e-06   8.407293137248215e-07   -8.133464155102914e-07
-4.184705135807938e-06   8.407293137248215e-07   -8.133464155102914e-07
-4.184705135807938e-06   8.407293137248215e-07   -8.133464155102914e-07
-4.172912653008051e-06   1.341236077673211e-06   -2.8163689390402967e-06
-4.172912653008051e-06   1.341236077673211e-06   -2.8163689390402967e-06
-4.172912653008051e-06   1.341236077673211e-06   -2.8163689390402967e-06
-4.172912653008051e-06   1.341236077673211e-06   -2.8163689390402967e-06
-5.626228072039129e-06   9.434053337359436e-07   -1.5547812762611531e-07
-5.626228072039129e-06   9.434053337359436e-07   -1.5547812762611531e-07
-5.626228072039129e-06   9.434053337359436e-07   -1.5547812762611531e-07
-5.626228072039129e-06   9.434053337359436e-07   -1.5547812762611531e-07
-4.770320985544439e-06   1.0648864014697364e-06   -1.654878579090876e-06
-4.770320985544439e-06   1.0648864014697364e-06   -1.654878579090876e-06
-4.770320985544439e-06   1.0648864014697364e-06   -1.654878579090876e-06
-4.770320985544439e-06   1.0648864014697364e-06   -1.654878579090876e-06
-4.2336037877339505e-06   4.783129438757603e-07   -6.159645728382663e-06
-4.2336037877339505e-06   4.783129438757603e-07   -6.159645728382663e-06
-4.2336037877339505e-06   4.783129438757603e-07   -6.159645728382663e-06
-4.2336037877339505e-06   4.783129438757603e-07   -6.159645728382663e-06
-2.48176473774256e-06   3.141996720397097e-07   -3.338381941498642e-06
-2.48176473774256e-06   3.141996720397097e-07   -3.338381941498642e-06
-2.48176473774256e-06   3.141996720397097e-07   -3.338381941498642e-06
-2.48176473774256e-06   3.141996720397097e-07   -3.338381941498642e-06
-2.4834107125072793e-06   6.816111693956259e-07   -6.102927801717687e-06
-2.4834107125072793e-06   6.816111693956259e-07   -6.102927801717687e-06
-2.4834107125072793e-06   6.816111693956259e-07   -6.102927801717687e-06
-2.4834107125072793e-06   6.816111693956259e-07   -6.102927801717687e-06
-4.217294917193426e-06   4.92377599659922e-07   -3.0995806520660055e-06
-4.217294917193426e-06   4.92377599659922e-07   -3.0995806520660055e-06
-4.217294917193426e-06   4.92377599659922e-07   -3.0995806520660055e-06
-4.217294917193426e-06   4.92377599659922e-07   -3.0995806520660055e-06
-3.322721361530574e-06   5.278217494397247e-07   -4.611803068038657e-06
-3.322721361530574e-06   5.278217494397247e-07   -4.611803068038657e-06
-3.322721361530574e-06   5.278217494397247e-07   -4.611803068038657e-06
-3.322721361530574e-06   5.278217494397247e-07   -4.611803068038657e-06
-4.217294917193423e-06   6.816111693956124e-07   -5.989387659876239e-06
-4.217294917193423e-06   6.816111693956124e-07   -5.989387659876239e-06
-4.217294917193423e-06   6.816111693956124e-07   -5.989387659876239e-06
-4.217294917193423e-06   6.816111693956124e-07   -5.989387659876239e-06
-2.4834107125072793e-06   4.923775996599355e-07   -3.2131207939074096e-06
-2.4834107125072793e-06   4.923775996599355e-07   -3.2131207939074096e-06
-2.4834107125072793e-06   4.923775996599355e-07   -3.2131207939074096e-06
-2.4834107125072793e-06   4.923775996599355e-07   -3.2131207939074096e-06
-2.4822257521513842e-06   8.63651138643758e-07   -5.966553474761509e-06
-2.4822257521513842e-06   8.63651138643758e-07   -5.966553474761509e-06
-2.4822257521513842e-06   8.63651138643758e-07   -5.966553474761509e-06
-2.4822257521513842e-06   8.63651138643758e-07   -5.966553474761509e-06
-4.184705135807931e-06   6.560784287481847e-07   -3.0045442093965956e-06
-4.184705135807931e-06   6.560784287481847e-07   -3.0045442093965956e-06
-4.184705135807931e-06   6.560784287481847e-07   -3.0045442093965956e-06
-4.184705135807931e-06   6.560784287481847e-07   -3.0045442093965956e-06
-3.307984173857895e-06   6.756147504639296e-07   -4.477467605676027e-06
-3.307984173857895e-06   6.756147504639296e-07   -4.477467605676027e-06
-3.307984173857895e-06   6.756147504639296e-07   -4.477467605676027e-06
-3.307984173857895e-06   6.756147504639296e-07   -4.477467605676027e-06
-4.184705135807931e-06   8.63651138643758e-07   -5.842009848824179e-06
-4.184705135807931e-06   8.63651138643758e-07   -5.842009848824179e-06
-4.184705135807931e-06   8.63651138643758e-07   -5.842009848824179e-06
-4.184705135807931e-06   8.63651138643758e-07   -5.842009848824179e-06
-2.4822257521513876e-06   6.560784287481982e-07   -3.1290878353339362e-06
-2.4822257521513876e-06   6.560784287481982e-07   -3.1290878353339362e-06
-2.4822257521513876e-06   6.560784287481982e-07   -3.1290878353339362e-06
-2.4822257521513876e-06   6.560784287481982e-07   -3.1290878353339362e-06
-2.4851758719586564e-06   1.0588057096516548e-06   -5.991149014509991e-06
-2.4851758719586564e-06   1.0588057096516548e-06   -5.991149014509991e-06
-2.4851758719586564e-06   1.0588057096516548e-06   -5.991149014509991e-06
-2.4851758719586564e-06   1.0588057096516548e-06   -5.991149014509991e-06
-4.172912653008051e-06   8.354964465569876e-07   -3.0442688215708656e-06
-4.172912653008051e-06   8.354964465569876e-07   -3.0442688215708656e-06
-4.172912653008051e-06   8.354964465569876e-07   -3.0442688215708656e-06
-4.172912653008051e-06   8.354964465569876e-07   -3.0442688215708656e-06
-3.3300919203094576e-06   8.234774983710861e-07   -4.441758673823651e-06
-3.3300919203094576e-06   8.234774983710861e-07   -4.441758673823651e-06
-3.3300919203094576e-06   8.234774983710861e-07   -4.441758673823651e-06
-3.3300919203094576e-06   8.234774983710861e-07   -4.441758673823651e-06
-2.481764737742555e-06   2.6350249549540283e-08   -6.8189234801128295e-06
-2.481764737742555e-06   2.6350249549540283e-08   -6.8189234801128295e-06
-2.481764737742555e-06   2.6350249549540283e-08   -6.8189234801128295e-06
-2.481764737742555e-06   2.6350249549540283e-08   -6.8189234801128295e-06
-7.473800888265168e-07   5.876085100554949e-08   -3.908836037712506e-06
-7.473800888265168e-07   5.876085100554949e-08   -3.908836037712506e-06
-7.473800888265168e-07   5.876085100554949e-08   -3.908836037712506e-06
-7.473800888265168e-07   5.876085100554949e-08   -3.908836037712506e-06
-7.495424663825115e-07   2.2777514378282944e-07   -6.73847770123093e-06
-7.495424663825115e-07   2.2777514378282944e-07   -6.73847770123093e-06
-7.495424663825115e-07   2.2777514378282944e-07   -6.73847770123093e-06
-7.495424663825115e-07   2.2777514378282944e-07   -6.73847770123093e-06
-2.483410712507274e-06   2.395480122647538e-07   -3.855761012112135e-06
-2.483410712507274e-06   2.395480122647538e-07   -3.855761012112135e-06
-2.483410712507274e-06   2.395480122647538e-07   -3.855761012112135e-06
-2.483410712507274e-06   2.395480122647538e-07   -3.855761012112135e-06
-1.6044088630646459e-06   1.628654596292175e-07   -5.274754562935193e-06
-1.6044088630646459e-06   1.628654596292175e-07   -5.274754562935193e-06
-1.6044088630646459e-06   1.628654596292175e-07   -5.274754562935193e-06
-1.6044088630646459e-06   1.628654596292175e-07   -5.274754562935193e-06
-2.483410712507274e-06   2.2777514378282944e-07   -6.745541422320067e-06
-2.483410712507274e-06   2.2777514378282944e-07   -6.745541422320067e-06
-2.483410712507274e-06   2.2777514378282944e-07   -6.745541422320067e-06
-2.483410712507274e-06   2.2777514378282944e-07   -6.745541422320067e-06
-7.495424663825115e-07   2.395480122647538e-07   -3.848697291022978e-06
-7.495424663825115e-07   2.395480122647538e-07   -3.848697291022978e-06
-7.495424663825115e-07   2.395480122647538e-07   -3.848697291022978e-06
-7.495424663825115e-07   2.395480122647538e-07   -3.848697291022978e-06
-7.477352360251319e-07   4.2873377468008586e-07   -6.753615842421107e-06
-7.477352360251319e-07   4.2873377468008586e-07   -6.753615842421107e-06
-7.477352360251319e-07   4.2873377468008586e-07   -6.753615842421107e-06
-7.477352360251319e-07   4.2873377468008586e-07   -6.753615842421107e-06
-2.4822257521513842e-06   4.2093898408937513e-07   -3.858121441189596e-06
-2.4822257521513842e-06   4.2093898408937513e-07   -3.858121441189596e-06
-2.4822257521513842e-06   4.2093898408937513e-07   -3.858121441189596e-06
-2.4822257521513842e-06   4.2093898408937513e-07   -3.858121441189596e-06
-1.6157283752625293e-06   3.219574452481918e-07   -5.242894812699614e-06
-1.6157283752625293e-06   3.219574452481918e-07   -5.242894812699614e-06
-1.6157283752625293e-06   3.219574452481918e-07   -5.242894812699614e-06
-1.6157283752625293e-06   3.219574452481918e-07   -5.242894812699614e-06
-2.4822257521513842e-06   4.2873377468008586e-07   -6.748938968066681e-06
-2.4822257521513842e-06   4.2873377468008586e-07   -6.748938968066681e-06
-2.4822257521513842e-06   4.2873377468008586e-07   -6.748938968066681e-06
-2.4822257521513842e-06   4.2873377468008586e-07   -6.748938968066681e-06
-7.477352360251319e-07   4.2093898408937513e-07   -3.862798315543999e-06
-7.477352360251319e-07   4.2093898408937513e-07   -3.862798315543999e-06
-7.477352360251319e-07   4.2093898408937513e-07   -3.862798315543999e-06
-7.477352360251319e-07   4.2093898408937513e-07   -3.862798315543999e-06
-7.49165336927046e-07   6.342192978064573e-07   -6.855180964132752e-06
-7.49165336927046e-07   6.342192978064573e-07   -6.855180964132752e-06
-7.49165336927046e-07   6.342192978064573e-07   -6.855180964132752e-06
-7.49165336927046e-07   6.342192978064573e-07   -6.855180964132752e-06
-2.485175871958658e-06   6.055004624650335e-07   -3.94459877120853e-06
-2.485175871958658e-06   6.055004624650335e-07   -3.94459877120853e-06
-2.485175871958658e-06   6.055004624650335e-07   -3.94459877120853e-06
-2.485175871958658e-06   6.055004624650335e-07   -3.94459877120853e-06
-1.6301715074991982e-06   4.831525477437261e-07   -5.296197296474844e-06
-1.6301715074991982e-06   4.831525477437261e-07   -5.296197296474844e-06
-1.6301715074991982e-06   4.831525477437261e-07   -5.296197296474844e-06
-1.6301715074991982e-06   4.831525477437261e-07   -5.296197296474844e-06
-7.473800888265155e-07   -3.982698766609276e-07   -6.026312525317487e-06
-7.473800888265155e-07   -3.982698766609276e-07   -6.026312525317487e-06
-7.473800888265155e-07   -3.982698766609276e-07   -6.026312525317487e-06
-7.473800888265155e-07   -3.982698766609276e-07   -6.026312525317487e-06
9.511132355268629e-07   -1.7354013644685395e-07   -3.060652473933431e-06
9.511132355268629e-07   -1.7354013644685395e-07   -3.060652473933431e-06
9.511132355268629e-07   -1.7354013644685395e-07   -3.060652473933431e-06
9.511132355268629e-07   -1.7354013644685395e-07   -3.060652473933431e-06
9.645989664606766e-07   -2.1178247129992746e-07   -5.881459887694834e-06
9.645989664606766e-07   -2.1178247129992746e-07   -5.881459887694834e-06
9.645989664606766e-07   -2.1178247129992746e-07   -5.881459887694834e-06
9.645989664606766e-07   -2.1178247129992746e-07   -5.881459887694834e-06
-7.495424663825102e-07   -1.596692481126128e-09   -3.1506689669141227e-06
-7.495424663825102e-07   -1.596692481126128e-09   -3.1506689669141227e-06
-7.495424663825102e-07   -1.596692481126128e-09   -3.1506689669141227e-06
-7.495424663825102e-07   -1.596692481126128e-09   -3.1506689669141227e-06
1.0717670351188656e-07   -1.803358223360056e-07   -4.471290772158533e-06
1.0717670351188656e-07   -1.803358223360056e-07   -4.471290772158533e-06
1.0717670351188656e-07   -1.803358223360056e-07   -4.471290772158533e-06
1.0717670351188656e-07   -1.803358223360056e-07   -4.471290772158533e-06
-7.495424663825115e-07   -2.1178247129992746e-07   -6.007571354986108e-06
-7.495424663825115e-07   -2.1178247129992746e-07   -6.007571354986108e-06
-7.495424663825115e-07   -2.1178247129992746e-07   -6.007571354986108e-06
-7.495424663825115e-07   -2.1178247129992746e-07   -6.007571354986108e-06
9.645989664606766e-07   -1.596692481126128e-09   -3.0245574996228317e-06
9.645989664606766e-07   -1.596692481126128e-09   -3.0245574996228317e-06
9.645989664606766e-07   -1.596692481126128e-09   -3.0245574996228317e-06
9.645989664606766e-07   -1.596692481126128e-09   -3.0245574996228317e-06
9.990610582823926e-07   -3.0121067656386385e-08   -6.000091974797817e-06
9.990610582823926e-07   -3.0121067656386385e-08   -6.000091974797817e-06
9.990610582823926e-07   -3.0121067656386385e-08   -6.000091974797817e-06
9.990610582823926e-07   -3.0121067656386385e-08   -6.000091974797817e-06
-7.477352360251305e-07   1.6228275080595314e-07   -3.2042071086960253e-06
-7.477352360251305e-07   1.6228275080595314e-07   -3.2042071086960253e-06
-7.477352360251305e-07   1.6228275080595314e-07   -3.2042071086960253e-06
-7.477352360251305e-07   1.6228275080595314e-07   -3.2042071086960253e-06
9.67564640439319e-08   -3.693330847120838e-08   -4.492163639911487e-06
9.67564640439319e-08   -3.693330847120838e-08   -4.492163639911487e-06
9.67564640439319e-08   -3.693330847120838e-08   -4.492163639911487e-06
9.67564640439319e-08   -3.693330847120838e-08   -4.492163639911487e-06
-7.477352360251311e-07   -3.0121067656386385e-08   -6.115534265875205e-06
-7.477352360251311e-07   -3.0121067656386385e-08   -6.115534265875205e-06
-7.477352360251311e-07   -3.0121067656386385e-08   -6.115534265875205e-06
-7.477352360251311e-07   -3.0121067656386385e-08   -6.115534265875205e-06
9.990610582823943e-07   1.6228275080595314e-07   -3.088764817618615e-06
9.990610582823943e-07   1.6228275080595314e-07   -3.088764817618615e-06
9.990610582823943e-07   1.6228275080595314e-07   -3.088764817618615e-06
9.990610582823943e-07   1.6228275080595314e-07   -3.088764817618615e-06
1.0166088336445242e-06   1.8062003339866257e-07   -6.176397911162444e-06
1.0166088336445242e-06   1.8062003339866257e-07   -6.176397911162444e-06
1.0166088336445242e-06   1.8062003339866257e-07   -6.176397911162444e-06
1.0166088336445242e-06   1.8062003339866257e-07   -6.176397911162444e-06
-7.49165336927046e-07   3.483927014717275e-07   -3.33410456105365e-06
-7.49165336927046e-07   3.483927014717275e-07   -3.33410456105365e-06
-7.49165336927046e-07   3.483927014717275e-07   -3.33410456105365e-06
-7.49165336927046e-07   3.483927014717275e-07   -3.33410456105365e-06
1.0197219852388775e-07   1.1470922370346683e-07   -4.612457033477569e-06
1.0197219852388775e-07   1.1470922370346683e-07   -4.612457033477569e-06
1.0197219852388775e-07   1.1470922370346683e-07   -4.612457033477569e-06
1.0197219852388775e-07   1.1470922370346683e-07   -4.612457033477569e-06
9.511132355268629e-07   -7.104970415768133e-07   -3.2863929015557883e-06
9.511132355268629e-07   -7.104970415768133e-07   -3.2863929015557883e-06
9.511132355268629e-07   -7.104970415768133e-07   -3.2863929015557883e-06
9.511132355268629e-07   -7.104970415768133e-07   -3.2863929015557883e-06
2.4196954801267615e-06   -3.093941152620185e-07   -5.980940714337313e-07
2.4196954801267615e-06   -3.093941152620185e-07   -5.980940714337313e-07
2.4196954801267615e-06   -3.093941152620185e-07   -5.980940714337313e-07
2.4196954801267615e-06   -3.093941152620185e-07   -5.980940714337313e-07
2.6083511201851453e-06   -6.001093226140456e-07   -3.4187332457187407e-06
2.6083511201851453e-06   -6.001093226140456e-07   -3.4187332457187407e-06
2.6083511201851453e-06   -6.001093226140456e-07   -3.4187332457187407e-06
2.6083511201851453e-06   -6.001093226140456e-07   -3.4187332457187407e-06
9.645989664606766e-07   -1.9078591238540557e-07   -9.247403689818168e-07
9.645989664606766e-07   -1.9078591238540557e-07   -9.247403689818168e-07
9.645989664606766e-07   -1.9078591238540557e-07   -9.247403689818168e-07
9.645989664606766e-07   -1.9078591238540557e-07   -9.247403689818168e-07
1.6619146874125065e-06   -4.383159954437176e-07   -1.9384151873998657e-06
1.6619146874125065e-06   -4.383159954437176e-07   -1.9384151873998657e-06
1.6619146874125065e-06   -4.383159954437176e-07   -1.9384151873998657e-06
1.6619146874125065e-06   -4.383159954437176e-07   -1.9384151873998657e-06
9.645989664606766e-07   -6.001093226140456e-07   -3.6643272918559003e-06
9.645989664606766e-07   -6.001093226140456e-07   -3.6643272918559003e-06
9.645989664606766e-07   -6.001093226140456e-07   -3.6643272918559003e-06
9.645989664606766e-07   -6.001093226140456e-07   -3.6643272918559003e-06
2.6083511201851453e-06   -1.9078591238540557e-07   -6.791463228446131e-07
2.6083511201851453e-06   -1.9078591238540557e-07   -6.791463228446131e-07
2.6083511201851453e-06   -1.9078591238540557e-07   -6.791463228446131e-07
2.6083511201851453e-06   -1.9078591238540557e-07   -6.791463228446131e-07
2.7552917634764564e-06   -5.087932624076274e-07   -3.7380916435997393e-06
2.7552917634764564e-06   -5.087932624076274e-07   -3.7380916435997393e-06
2.7552917634764564e-06   -5.087932624076274e-07   -3.7380916435997393e-06
2.7552917634764564e-06   -5.087932624076274e-07   -3.7380916435997393e-06
9.990610582823943e-07   -1.1081621067773732e-07   -1.0498266993142425e-06
9.990610582823943e-07   -1.1081621067773732e-07   -1.0498266993142425e-06
9.990610582823943e-07   -1.1081621067773732e-07   -1.0498266993142425e-06
9.990610582823943e-07   -1.1081621067773732e-07   -1.0498266993142425e-06
1.7737669843589204e-06   -3.765371950483436e-07   -2.1815706521527305e-06
1.7737669843589204e-06   -3.765371950483436e-07   -2.1815706521527305e-06
1.7737669843589204e-06   -3.765371950483436e-07   -2.1815706521527305e-06
1.7737669843589204e-06   -3.765371950483436e-07   -2.1815706521527305e-06
9.990610582823926e-07   -5.087932624076274e-07   -3.976877874637673e-06
9.990610582823926e-07   -5.087932624076274e-07   -3.976877874637673e-06
9.990610582823926e-07   -5.087932624076274e-07   -3.976877874637673e-06
9.990610582823926e-07   -5.087932624076274e-07   -3.976877874637673e-06
2.7552917634764564e-06   -1.1081621067773732e-07   -8.110404682762888e-07
2.7552917634764564e-06   -1.1081621067773732e-07   -8.110404682762888e-07
2.7552917634764564e-06   -1.1081621067773732e-07   -8.110404682762888e-07
2.7552917634764564e-06   -1.1081621067773732e-07   -8.110404682762888e-07
2.953018346520592e-06   -3.164386755446488e-07   -4.359765226703753e-06
2.953018346520592e-06   -3.164386755446488e-07   -4.359765226703753e-06
2.953018346520592e-06   -3.164386755446488e-07   -4.359765226703753e-06
2.953018346520592e-06   -3.164386755446488e-07   -4.359765226703753e-06
1.016608833644526e-06   4.2766155727589424e-08   -1.3479389373402984e-06
1.016608833644526e-06   4.2766155727589424e-08   -1.3479389373402984e-06
1.016608833644526e-06   4.2766155727589424e-08   -1.3479389373402984e-06
1.016608833644526e-06   4.2766155727589424e-08   -1.3479389373402984e-06
1.8169438077762503e-06   -2.8975572173884647e-07   -2.48231743441332e-06
1.8169438077762503e-06   -2.8975572173884647e-07   -2.48231743441332e-06
1.8169438077762503e-06   -2.8975572173884647e-07   -2.48231743441332e-06
1.8169438077762503e-06   -2.8975572173884647e-07   -2.48231743441332e-06
-3.619519328601621e-06   5.932483656148846e-07   -3.4612308063085404e-06
-3.619519328601621e-06   5.932483656148846e-07   -3.4612308063085404e-06
-3.619519328601621e-06   5.932483656148846e-07   -3.4612308063085404e-06
-3.619519328601621e-06   5.932483656148846e-07   -3.4612308063085404e-06
-2.7334028679301263e-06   2.3154583966622294e-07   -2.201391554091906e-06
-2.7334028679301263e-06   2.3154583966622294e-07   -2.201391554091906e-06
-2.7334028679301263e-06   2.3154583966622294e-07   -2.201391554091906e-06
-2.7334028679301263e-06   2.3154583966622294e-07   -2.201391554091906e-06
-2.6965750955171497e-06   7.609983394570963e-07   -3.0538236144613126e-06
-2.6965750955171497e-06   7.609983394570963e-07   -3.0538236144613126e-06
-2.6965750955171497e-06   7.609983394570963e-07   -3.0538236144613126e-06
-2.6965750955171497e-06   7.609983394570963e-07   -3.0538236144613126e-06
-3.415340994449325e-06   3.689552348212224e-07   -1.6206545867928116e-06
-3.415340994449325e-06   3.689552348212224e-07   -1.6206545867928116e-06
-3.415340994449325e-06   3.689552348212224e-07   -1.6206545867928116e-06
-3.415340994449325e-06   3.689552348212224e-07   -1.6206545867928116e-06
-2.9843679240516994e-06   5.341868790538766e-07   -2.4380820239952545e-06
-2.9843679240516994e-06   5.341868790538766e-07   -2.4380820239952545e-06
-2.9843679240516994e-06   5.341868790538766e-07   -2.4380820239952545e-06
-2.9843679240516994e-06   5.341868790538766e-07   -2.4380820239952545e-06
-3.415340994449325e-06   7.609983394570963e-07   -2.8185977516798045e-06
-3.415340994449325e-06   7.609983394570963e-07   -2.8185977516798045e-06
-3.415340994449325e-06   7.609983394570963e-07   -2.8185977516798045e-06
-3.415340994449325e-06   7.609983394570963e-07   -2.8185977516798045e-06
-2.696575095517153e-06   3.689552348212495e-07   -1.8558804495743197e-06
-2.696575095517153e-06   3.689552348212495e-07   -1.8558804495743197e-06
-2.696575095517153e-06   3.689552348212495e-07   -1.8558804495743197e-06
-2.696575095517153e-06   3.689552348212495e-07   -1.8558804495743197e-06
-2.642976362164162e-06   8.407293137248215e-07   -2.725475364024645e-06
-2.642976362164162e-06   8.407293137248215e-07   -2.725475364024645e-06
-2.642976362164162e-06   8.407293137248215e-07   -2.725475364024645e-06
-2.642976362164162e-06   8.407293137248215e-07   -2.725475364024645e-06
-3.255500885479674e-06   4.4028031494122407e-07   -1.4643317592286347e-06
-3.255500885479674e-06   4.4028031494122407e-07   -1.4643317592286347e-06
-3.255500885479674e-06   4.4028031494122407e-07   -1.4643317592286347e-06
-3.255500885479674e-06   4.4028031494122407e-07   -1.4643317592286347e-06
-2.932189650199938e-06   6.091074048957619e-07   -2.1044800720009365e-06
-2.932189650199938e-06   6.091074048957619e-07   -2.1044800720009365e-06
-2.932189650199938e-06   6.091074048957619e-07   -2.1044800720009365e-06
-2.932189650199938e-06   6.091074048957619e-07   -2.1044800720009365e-06
-3.2555008854796673e-06   8.407293137248215e-07   -2.485205964754489e-06
-3.2555008854796673e-06   8.407293137248215e-07   -2.485205964754489e-06
-3.2555008854796673e-06   8.407293137248215e-07   -2.485205964754489e-06
-3.2555008854796673e-06   8.407293137248215e-07   -2.485205964754489e-06
-2.642976362164169e-06   4.4028031494122407e-07   -1.704601158498777e-06
-2.642976362164169e-06   4.4028031494122407e-07   -1.704601158498777e-06
-2.642976362164169e-06   4.4028031494122407e-07   -1.704601158498777e-06
-2.642976362164169e-06   4.4028031494122407e-07   -1.704601158498777e-06
-2.6091786907104403e-06   9.434053337359436e-07   -2.308350725573115e-06
-2.6091786907104403e-06   9.434053337359436e-07   -2.308350725573115e-06
-2.6091786907104403e-06   9.434053337359436e-07   -2.308350725573115e-06
-2.6091786907104403e-06   9.434053337359436e-07   -2.308350725573115e-06
-3.052705784219409e-06   5.541964106970819e-07   -1.3356135492348012e-06
-3.052705784219409e-06   5.541964106970819e-07   -1.3356135492348012e-06
-3.052705784219409e-06   5.541964106970819e-07   -1.3356135492348012e-06
-3.052705784219409e-06   5.541964106970819e-07   -1.3356135492348012e-06
-2.7971941697159677e-06   6.640421942173506e-07   -1.8273737101861027e-06
-2.7971941697159677e-06   6.640421942173506e-07   -1.8273737101861027e-06
-2.7971941697159677e-06   6.640421942173506e-07   -1.8273737101861027e-06
-2.7971941697159677e-06   6.640421942173506e-07   -1.8273737101861027e-06
-2.7334028679301263e-06   3.141996720397097e-07   -5.143563116172739e-06
-2.7334028679301263e-06   3.141996720397097e-07   -5.143563116172739e-06
-2.7334028679301263e-06   3.141996720397097e-07   -5.143563116172739e-06
-2.7334028679301263e-06   3.141996720397097e-07   -5.143563116172739e-06
-2.0059652973579787e-06   1.431801519771866e-07   -4.033778877256684e-06
-2.0059652973579787e-06   1.431801519771866e-07   -4.033778877256684e-06
-2.0059652973579787e-06   1.431801519771866e-07   -4.033778877256684e-06
-2.0059652973579787e-06   1.431801519771866e-07   -4.033778877256684e-06
-1.9841767850898392e-06   4.923775996599355e-07   -5.123063019542165e-06
-1.9841767850898392e-06   4.923775996599355e-07   -5.123063019542165e-06
-1.9841767850898392e-06   4.923775996599355e-07   -5.123063019542165e-06
-1.9841767850898392e-06   4.923775996599355e-07   -5.123063019542165e-06
-2.69657509551716e-06   3.0177892651836067e-07   -3.821373298278346e-06
-2.69657509551716e-06   3.0177892651836067e-07   -3.821373298278346e-06
-2.69657509551716e-06   3.0177892651836067e-07   -3.821373298278346e-06
-2.69657509551716e-06   3.0177892651836067e-07   -3.821373298278346e-06
-2.331981360572564e-06   3.4590408877125224e-07   -4.455504620537837e-06
-2.331981360572564e-06   3.4590408877125224e-07   -4.455504620537837e-06
-2.331981360572564e-06   3.4590408877125224e-07   -4.455504620537837e-06
-2.331981360572564e-06   3.4590408877125224e-07   -4.455504620537837e-06
-2.6965750955171463e-06   4.92377599659922e-07   -5.008703815657193e-06
-2.6965750955171463e-06   4.92377599659922e-07   -5.008703815657193e-06
-2.6965750955171463e-06   4.92377599659922e-07   -5.008703815657193e-06
-2.6965750955171463e-06   4.92377599659922e-07   -5.008703815657193e-06
-1.9841767850898426e-06   3.0177892651836067e-07   -3.935732502163291e-06
-1.9841767850898426e-06   3.0177892651836067e-07   -3.935732502163291e-06
-1.9841767850898426e-06   3.0177892651836067e-07   -3.935732502163291e-06
-1.9841767850898426e-06   3.0177892651836067e-07   -3.935732502163291e-06
-1.9597955057598686e-06   6.560784287481982e-07   -5.039812782663293e-06
-1.9597955057598686e-06   6.560784287481982e-07   -5.039812782663293e-06
-1.9597955057598686e-06   6.560784287481982e-07   -5.039812782663293e-06
-1.9597955057598686e-06   6.560784287481982e-07   -5.039812782663293e-06
-2.6429763621641723e-06   4.508457208276086e-07   -3.7780383972370874e-06
-2.6429763621641723e-06   4.508457208276086e-07   -3.7780383972370874e-06
-2.6429763621641723e-06   4.508457208276086e-07   -3.7780383972370874e-06
-2.6429763621641723e-06   4.508457208276086e-07   -3.7780383972370874e-06
-2.302111550338805e-06   4.7587679086652556e-07   -4.361165058969335e-06
-2.302111550338805e-06   4.7587679086652556e-07   -4.361165058969335e-06
-2.302111550338805e-06   4.7587679086652556e-07   -4.361165058969335e-06
-2.302111550338805e-06   4.7587679086652556e-07   -4.361165058969335e-06
-2.642976362164162e-06   6.560784287481847e-07   -4.916673157910915e-06
-2.642976362164162e-06   6.560784287481847e-07   -4.916673157910915e-06
-2.642976362164162e-06   6.560784287481847e-07   -4.916673157910915e-06
-2.642976362164162e-06   6.560784287481847e-07   -4.916673157910915e-06
-1.959795505759865e-06   4.508457208276357e-07   -3.901178021989405e-06
-1.959795505759865e-06   4.508457208276357e-07   -3.901178021989405e-06
-1.959795505759865e-06   4.508457208276357e-07   -3.901178021989405e-06
-1.959795505759865e-06   4.508457208276357e-07   -3.901178021989405e-06
-1.93901869296622e-06   8.354964465570011e-07   -5.0889134544583435e-06
-1.93901869296622e-06   8.354964465570011e-07   -5.0889134544583435e-06
-1.93901869296622e-06   8.354964465570011e-07   -5.0889134544583435e-06
-1.93901869296622e-06   8.354964465570011e-07   -5.0889134544583435e-06
-2.609178690710447e-06   6.180456443855963e-07   -3.841509643581737e-06
-2.609178690710447e-06   6.180456443855963e-07   -3.841509643581737e-06
-2.609178690710447e-06   6.180456443855963e-07   -3.841509643581737e-06
-2.609178690710447e-06   6.180456443855963e-07   -3.841509643581737e-06
-2.2935202452949324e-06   6.09261406445637e-07   -4.362336509843702e-06
-2.2935202452949324e-06   6.09261406445637e-07   -4.362336509843702e-06
-2.2935202452949324e-06   6.09261406445637e-07   -4.362336509843702e-06
-2.2935202452949324e-06   6.09261406445637e-07   -4.362336509843702e-06
-2.0059652973579736e-06   5.876085100554949e-08   -5.83607528529772e-06
-2.0059652973579736e-06   5.876085100554949e-08   -5.83607528529772e-06
-2.0059652973579736e-06   5.876085100554949e-08   -5.83607528529772e-06
-2.0059652973579736e-06   5.876085100554949e-08   -5.83607528529772e-06
-1.29077003026628e-06   8.885260745257885e-08   -4.62602811961004e-06
-1.29077003026628e-06   8.885260745257885e-08   -4.62602811961004e-06
-1.29077003026628e-06   8.885260745257885e-08   -4.62602811961004e-06
-1.29077003026628e-06   8.885260745257885e-08   -4.62602811961004e-06
-1.2700917831933326e-06   2.3954801226474024e-07   -5.758124956549565e-06
-1.2700917831933326e-06   2.3954801226474024e-07   -5.758124956549565e-06
-1.2700917831933326e-06   2.3954801226474024e-07   -5.758124956549565e-06
-1.2700917831933326e-06   2.3954801226474024e-07   -5.758124956549565e-06
-1.9841767850898392e-06   2.5217848092696127e-07   -4.575561567919332e-06
-1.9841767850898392e-06   2.5217848092696127e-07   -4.575561567919332e-06
-1.9841767850898392e-06   2.5217848092696127e-07   -4.575561567919332e-06
-1.9841767850898392e-06   2.5217848092696127e-07   -4.575561567919332e-06
-1.6270420026734066e-06   1.8359487891894655e-07   -5.129636044075359e-06
-1.6270420026734066e-06   1.8359487891894655e-07   -5.129636044075359e-06
-1.6270420026734066e-06   1.8359487891894655e-07   -5.129636044075359e-06
-1.6270420026734066e-06   1.8359487891894655e-07   -5.129636044075359e-06
-1.984176785089836e-06   2.3954801226474024e-07   -5.765703237746867e-06
-1.984176785089836e-06   2.3954801226474024e-07   -5.765703237746867e-06
-1.984176785089836e-06   2.3954801226474024e-07   -5.765703237746867e-06
-1.984176785089836e-06   2.3954801226474024e-07   -5.765703237746867e-06
-1.2700917831933326e-06   2.5217848092696127e-07   -4.567983286722036e-06
-1.2700917831933326e-06   2.5217848092696127e-07   -4.567983286722036e-06
-1.2700917831933326e-06   2.5217848092696127e-07   -4.567983286722036e-06
-1.2700917831933326e-06   2.5217848092696127e-07   -4.567983286722036e-06
-1.2458178697465009e-06   4.2093898408937513e-07   -5.771297840570603e-06
-1.2458178697465009e-06   4.2093898408937513e-07   -5.771297840570603e-06
-1.2458178697465009e-06   4.2093898408937513e-07   -5.771297840570603e-06
-1.2458178697465009e-06   4.2093898408937513e-07   -5.771297840570603e-06
-1.9597955057598686e-06   4.168532306699185e-07   -4.578883661829981e-06
-1.9597955057598686e-06   4.168532306699185e-07   -4.578883661829981e-06
-1.9597955057598686e-06   4.168532306699185e-07   -4.578883661829981e-06
-1.9597955057598686e-06   4.168532306699185e-07   -4.578883661829981e-06
-1.6148415934137504e-06   3.251487347005755e-07   -5.098784151491887e-06
-1.6148415934137504e-06   3.251487347005755e-07   -5.098784151491887e-06
-1.6148415934137504e-06   3.251487347005755e-07   -5.098784151491887e-06
-1.6148415934137504e-06   3.251487347005755e-07   -5.098784151491887e-06
-1.95979550575986e-06   4.2093898408937513e-07   -5.7688463885189126e-06
-1.95979550575986e-06   4.2093898408937513e-07   -5.7688463885189126e-06
-1.95979550575986e-06   4.2093898408937513e-07   -5.7688463885189126e-06
-1.95979550575986e-06   4.2093898408937513e-07   -5.7688463885189126e-06
-1.2458178697465009e-06   4.168532306699185e-07   -4.581335113881647e-06
-1.2458178697465009e-06   4.168532306699185e-07   -4.581335113881647e-06
-1.2458178697465009e-06   4.168532306699185e-07   -4.581335113881647e-06
-1.2458178697465009e-06   4.168532306699185e-07   -4.581335113881647e-06
-1.2243005331735539e-06   6.0550046246502e-07   -5.86809319641866e-06
-1.2243005331735539e-06   6.0550046246502e-07   -5.86809319641866e-06
-1.2243005331735539e-06   6.0550046246502e-07   -5.86809319641866e-06
-1.2243005331735539e-06   6.0550046246502e-07   -5.86809319641866e-06
-1.9390186929662215e-06   5.841082121659327e-07   -4.6640609132514e-06
-1.9390186929662215e-06   5.841082121659327e-07   -4.6640609132514e-06
-1.9390186929662215e-06   5.841082121659327e-07   -4.6640609132514e-06
-1.9390186929662215e-06   5.841082121659327e-07   -4.6640609132514e-06
-1.6057639729740126e-06   4.686139208810334e-07   -5.150188871800823e-06
-1.6057639729740126e-06   4.686139208810334e-07   -5.150188871800823e-06
-1.6057639729740126e-06   4.686139208810334e-07   -5.150188871800823e-06
-1.6057639729740126e-06   4.686139208810334e-07   -5.150188871800823e-06
-1.2907700302662755e-06   -1.7354013644685395e-07   -5.104674511778866e-06
-1.2907700302662755e-06   -1.7354013644685395e-07   -5.104674511778866e-06
-1.2907700302662755e-06   -1.7354013644685395e-07   -5.104674511778866e-06
-1.2907700302662755e-06   -1.7354013644685395e-07   -5.104674511778866e-06
-6.095356661847271e-07   5.019334271114573e-08   -3.835043817481483e-06
-6.095356661847271e-07   5.019334271114573e-08   -3.835043817481483e-06
-6.095356661847271e-07   5.019334271114573e-08   -3.835043817481483e-06
-6.095356661847271e-07   5.019334271114573e-08   -3.835043817481483e-06
-5.76219075978259e-07   -1.596692481126128e-09   -4.933267416829757e-06
-5.76219075978259e-07   -1.596692481126128e-09   -4.933267416829757e-06
-5.76219075978259e-07   -1.596692481126128e-09   -4.933267416829757e-06
-5.76219075978259e-07   -1.596692481126128e-09   -4.933267416829757e-06
-1.2700917831933307e-06   2.097853335371444e-07   -3.903642120415528e-06
-1.2700917831933307e-06   2.097853335371444e-07   -3.903642120415528e-06
-1.2700917831933307e-06   2.097853335371444e-07   -3.903642120415528e-06
-1.2700917831933307e-06   2.097853335371444e-07   -3.903642120415528e-06
-9.271032341825568e-07   3.751716760543901e-08   -4.3719288025412165e-06
-9.271032341825568e-07   3.751716760543901e-08   -4.3719288025412165e-06
-9.271032341825568e-07   3.751716760543901e-08   -4.3719288025412165e-06
-9.271032341825568e-07   3.751716760543901e-08   -4.3719288025412165e-06
-1.2700917831933284e-06   -1.596692481126128e-09   -5.060096632440692e-06
-1.2700917831933284e-06   -1.596692481126128e-09   -5.060096632440692e-06
-1.2700917831933284e-06   -1.596692481126128e-09   -5.060096632440692e-06
-1.2700917831933284e-06   -1.596692481126128e-09   -5.060096632440692e-06
-5.76219075978259e-07   2.097853335371444e-07   -3.7768129048045994e-06
-5.76219075978259e-07   2.097853335371444e-07   -3.7768129048045994e-06
-5.76219075978259e-07   2.097853335371444e-07   -3.7768129048045994e-06
-5.76219075978259e-07   2.097853335371444e-07   -3.7768129048045994e-06
-5.228233285335217e-07   1.6228275080595314e-07   -4.994793194602502e-06
-5.228233285335217e-07   1.6228275080595314e-07   -4.994793194602502e-06
-5.228233285335217e-07   1.6228275080595314e-07   -4.994793194602502e-06
-5.228233285335217e-07   1.6228275080595314e-07   -4.994793194602502e-06
-1.2458178697464985e-06   3.5880514933947874e-07   -3.907715731700961e-06
-1.2458178697464985e-06   3.5880514933947874e-07   -3.907715731700961e-06
-1.2458178697464985e-06   3.5880514933947874e-07   -3.907715731700961e-06
-1.2458178697464985e-06   3.5880514933947874e-07   -3.907715731700961e-06
-9.081329570372665e-07   1.671942306216039e-07   -4.3555573683189585e-06
-9.081329570372665e-07   1.671942306216039e-07   -4.3555573683189585e-06
-9.081329570372665e-07   1.671942306216039e-07   -4.3555573683189585e-06
-9.081329570372665e-07   1.671942306216039e-07   -4.3555573683189585e-06
-1.2458178697464956e-06   1.6228275080595314e-07   -5.112706633722579e-06
-1.2458178697464956e-06   1.6228275080595314e-07   -5.112706633722579e-06
-1.2458178697464956e-06   1.6228275080595314e-07   -5.112706633722579e-06
-1.2458178697464956e-06   1.6228275080595314e-07   -5.112706633722579e-06
-5.228233285335234e-07   3.5880514933950584e-07   -3.7898022925808545e-06
-5.228233285335234e-07   3.5880514933950584e-07   -3.7898022925808545e-06
-5.228233285335234e-07   3.5880514933950584e-07   -3.7898022925808545e-06
-5.228233285335234e-07   3.5880514933950584e-07   -3.7898022925808545e-06
-4.862095874190736e-07   3.4839270147174104e-07   -5.134067768084488e-06
-4.862095874190736e-07   3.4839270147174104e-07   -5.134067768084488e-06
-4.862095874190736e-07   3.4839270147174104e-07   -5.134067768084488e-06
-4.862095874190736e-07   3.4839270147174104e-07   -5.134067768084488e-06
-1.2243005331735558e-06   5.255592297624592e-07   -4.010216108801423e-06
-1.2243005331735558e-06   5.255592297624592e-07   -4.010216108801423e-06
-1.2243005331735558e-06   5.255592297624592e-07   -4.010216108801423e-06
-1.2243005331735558e-06   5.255592297624592e-07   -4.010216108801423e-06
-8.889893907365717e-07   3.013580645977161e-07   -4.434547313764241e-06
-8.889893907365717e-07   3.013580645977161e-07   -4.434547313764241e-06
-8.889893907365717e-07   3.013580645977161e-07   -4.434547313764241e-06
-8.889893907365717e-07   3.013580645977161e-07   -4.434547313764241e-06
-6.095356661847271e-07   -3.093941152620185e-07   -2.7485377775732814e-06
-6.095356661847271e-07   -3.093941152620185e-07   -2.7485377775732814e-06
-6.095356661847271e-07   -3.093941152620185e-07   -2.7485377775732814e-06
-6.095356661847271e-07   -3.093941152620185e-07   -2.7485377775732814e-06
-1.5595380242168836e-07   8.324898043292925e-08   -1.756982147217912e-06
-1.5595380242168836e-07   8.324898043292925e-08   -1.756982147217912e-06
-1.5595380242168836e-07   8.324898043292925e-08   -1.756982147217912e-06
-1.5595380242168836e-07   8.324898043292925e-08   -1.756982147217912e-06
4.533020214982688e-08   -1.9078591238539202e-07   -2.592310057343683e-06
4.533020214982688e-08   -1.9078591238539202e-07   -2.592310057343683e-06
4.533020214982688e-08   -1.9078591238539202e-07   -2.592310057343683e-06
4.533020214982688e-08   -1.9078591238539202e-07   -2.592310057343683e-06
-5.762190759782573e-07   2.1111446902295316e-07   -1.797534822641838e-06
-5.762190759782573e-07   2.1111446902295316e-07   -1.797534822641838e-06
-5.762190759782573e-07   2.1111446902295316e-07   -1.797534822641838e-06
-5.762190759782573e-07   2.1111446902295316e-07   -1.797534822641838e-06
-3.1233526789866266e-07   -3.592098062911702e-08   -2.0891198996499753e-06
-3.1233526789866266e-07   -3.592098062911702e-08   -2.0891198996499753e-06
-3.1233526789866266e-07   -3.592098062911702e-08   -2.0891198996499753e-06
-3.1233526789866266e-07   -3.592098062911702e-08   -2.0891198996499753e-06
-5.762190759782573e-07   -1.9078591238539202e-07   -2.833450286188671e-06
-5.762190759782573e-07   -1.9078591238539202e-07   -2.833450286188671e-06
-5.762190759782573e-07   -1.9078591238539202e-07   -2.833450286188671e-06
-5.762190759782573e-07   -1.9078591238539202e-07   -2.833450286188671e-06
4.533020214982688e-08   2.1111446902295316e-07   -1.556394593796843e-06
4.533020214982688e-08   2.1111446902295316e-07   -1.556394593796843e-06
4.533020214982688e-08   2.1111446902295316e-07   -1.556394593796843e-06
4.533020214982688e-08   2.1111446902295316e-07   -1.556394593796843e-06
2.0485308827284415e-07   -1.1081621067773732e-07   -2.7200861453977417e-06
2.0485308827284415e-07   -1.1081621067773732e-07   -2.7200861453977417e-06
2.0485308827284415e-07   -1.1081621067773732e-07   -2.7200861453977417e-06
2.0485308827284415e-07   -1.1081621067773732e-07   -2.7200861453977417e-06
-5.228233285335217e-07   2.8213200748956977e-07   -1.7430610482874885e-06
-5.228233285335217e-07   2.8213200748956977e-07   -1.7430610482874885e-06
-5.228233285335217e-07   2.8213200748956977e-07   -1.7430610482874885e-06
-5.228233285335217e-07   2.8213200748956977e-07   -1.7430610482874885e-06
-2.1562209872755684e-07   2.6833236002116916e-08   -2.1018838350716235e-06
-2.1562209872755684e-07   2.6833236002116916e-08   -2.1018838350716235e-06
-2.1562209872755684e-07   2.6833236002116916e-08   -2.1018838350716235e-06
-2.1562209872755684e-07   2.6833236002116916e-08   -2.1018838350716235e-06
-5.228233285335217e-07   -1.1081621067773732e-07   -2.955855076298099e-06
-5.228233285335217e-07   -1.1081621067773732e-07   -2.955855076298099e-06
-5.228233285335217e-07   -1.1081621067773732e-07   -2.955855076298099e-06
-5.228233285335217e-07   -1.1081621067773732e-07   -2.955855076298099e-06
2.0485308827284076e-07   2.8213200748954267e-07   -1.5072921173871077e-06
2.0485308827284076e-07   2.8213200748954267e-07   -1.5072921173871077e-06
2.0485308827284076e-07   2.8213200748954267e-07   -1.5072921173871077e-06
2.0485308827284076e-07   2.8213200748954267e-07   -1.5072921173871077e-06
4.097411931532794e-07   4.276615572757587e-08   -3.0318855396653443e-06
4.097411931532794e-07   4.276615572757587e-08   -3.0318855396653443e-06
4.097411931532794e-07   4.276615572757587e-08   -3.0318855396653443e-06
4.097411931532794e-07   4.276615572757587e-08   -3.0318855396653443e-06
-4.862095874190736e-07   4.038998316436616e-07   -1.7553144442610135e-06
-4.862095874190736e-07   4.038998316436616e-07   -1.7553144442610135e-06
-4.862095874190736e-07   4.038998316436616e-07   -1.7553144442610135e-06
-4.862095874190736e-07   4.038998316436616e-07   -1.7553144442610135e-06
-1.25547558474362e-07   9.430094967508192e-08   -2.170658496654429e-06
-1.25547558474362e-07   9.430094967508192e-08   -2.170658496654429e-06
-1.25547558474362e-07   9.430094967508192e-08   -2.170658496654429e-06
-1.25547558474362e-07   9.430094967508192e-08   -2.170658496654429e-06
-1.150593801582775e-06   2.3154583966622294e-07   -2.2226608003208137e-06
-1.150593801582775e-06   2.3154583966622294e-07   -2.2226608003208137e-06
-1.150593801582775e-06   2.3154583966622294e-07   -2.2226608003208137e-06
-1.150593801582775e-06   2.3154583966622294e-07   -2.2226608003208137e-06
-1.2723781436914973e-06   -1.23871335547753e-07   -2.638885008963755e-06
-1.2723781436914973e-06   -1.23871335547753e-07   -2.638885008963755e-06
-1.2723781436914973e-06   -1.23871335547753e-07   -2.638885008963755e-06
-1.2723781436914973e-06   -1.23871335547753e-07   -2.638885008963755e-06
-1.2148356494155423e-06   3.689552348212495e-07   -2.0909652539455954e-06
-1.2148356494155423e-06   3.689552348212495e-07   -2.0909652539455954e-06
-1.2148356494155423e-06   3.689552348212495e-07   -2.0909652539455954e-06
-1.2148356494155423e-06   3.689552348212495e-07   -2.0909652539455954e-06
-9.308733556362504e-07   -1.4802952702242791e-08   -2.3339808310636592e-06
-9.308733556362504e-07   -1.4802952702242791e-08   -2.3339808310636592e-06
-9.308733556362504e-07   -1.4802952702242791e-08   -2.3339808310636592e-06
-9.308733556362504e-07   -1.4802952702242791e-08   -2.3339808310636592e-06
-1.0927107183611273e-06   1.5998569495063878e-07   -2.1691250817807136e-06
-1.0927107183611273e-06   1.5998569495063878e-07   -2.1691250817807136e-06
-1.0927107183611273e-06   1.5998569495063878e-07   -2.1691250817807136e-06
-1.0927107183611273e-06   1.5998569495063878e-07   -2.1691250817807136e-06
-9.308733556362504e-07   3.689552348212495e-07   -1.8607103414315082e-06
-9.308733556362504e-07   3.689552348212495e-07   -1.8607103414315082e-06
-9.308733556362504e-07   3.689552348212495e-07   -1.8607103414315082e-06
-9.308733556362504e-07   3.689552348212495e-07   -1.8607103414315082e-06
-1.2148356494155457e-06   -1.4802952702242791e-08   -2.56423574357776e-06
-1.2148356494155457e-06   -1.4802952702242791e-08   -2.56423574357776e-06
-1.2148356494155457e-06   -1.4802952702242791e-08   -2.56423574357776e-06
-1.2148356494155457e-06   -1.4802952702242791e-08   -2.56423574357776e-06
-1.1409647892015013e-06   4.4028031494122407e-07   -1.939457195818567e-06
-1.1409647892015013e-06   4.4028031494122407e-07   -1.939457195818567e-06
-1.1409647892015013e-06   4.4028031494122407e-07   -1.939457195818567e-06
-1.1409647892015013e-06   4.4028031494122407e-07   -1.939457195818567e-06
-7.527746935365092e-07   4.9084574123433276e-08   -2.3517232441028636e-06
-7.527746935365092e-07   4.9084574123433276e-08   -2.3517232441028636e-06
-7.527746935365092e-07   4.9084574123433276e-08   -2.3517232441028636e-06
-7.527746935365092e-07   4.9084574123433276e-08   -2.3517232441028636e-06
-9.920707321204001e-07   2.1719445095170695e-07   -2.0537624392267934e-06
-9.920707321204001e-07   2.1719445095170695e-07   -2.0537624392267934e-06
-9.920707321204001e-07   2.1719445095170695e-07   -2.0537624392267934e-06
-9.920707321204001e-07   2.1719445095170695e-07   -2.0537624392267934e-06
-7.527746935365092e-07   4.4028031494122407e-07   -1.7047397513279253e-06
-7.527746935365092e-07   4.4028031494122407e-07   -1.7047397513279253e-06
-7.527746935365092e-07   4.4028031494122407e-07   -1.7047397513279253e-06
-7.527746935365092e-07   4.4028031494122407e-07   -1.7047397513279253e-06
-1.1409647892015013e-06   4.9084574123433276e-08   -2.5864406885935665e-06
-1.1409647892015013e-06   4.9084574123433276e-08   -2.5864406885935665e-06
-1.1409647892015013e-06   4.9084574123433276e-08   -2.5864406885935665e-06
-1.1409647892015013e-06   4.9084574123433276e-08   -2.5864406885935665e-06
-1.0863297748066709e-06   5.541964106970819e-07   -1.8028638766286458e-06
-1.0863297748066709e-06   5.541964106970819e-07   -1.8028638766286458e-06
-1.0863297748066709e-06   5.541964106970819e-07   -1.8028638766286458e-06
-1.0863297748066709e-06   5.541964106970819e-07   -1.8028638766286458e-06
-5.328752040215272e-07   1.7574493700565365e-07   -2.498217277055657e-06
-5.328752040215272e-07   1.7574493700565365e-07   -2.498217277055657e-06
-5.328752040215272e-07   1.7574493700565365e-07   -2.498217277055657e-06
-5.328752040215272e-07   1.7574493700565365e-07   -2.498217277055657e-06
-8.689053306957706e-07   2.747824154135229e-07   -1.9975895529766497e-06
-8.689053306957706e-07   2.747824154135229e-07   -1.9975895529766497e-06
-8.689053306957706e-07   2.747824154135229e-07   -1.9975895529766497e-06
-8.689053306957706e-07   2.747824154135229e-07   -1.9975895529766497e-06
-1.2723781436914939e-06   1.431801519771866e-07   -4.165686716576451e-06
-1.2723781436914939e-06   1.431801519771866e-07   -4.165686716576451e-06
-1.2723781436914939e-06   1.431801519771866e-07   -4.165686716576451e-06
-1.2723781436914939e-06   1.431801519771866e-07   -4.165686716576451e-06
-1.548387481214506e-06   -1.9685046967666707e-08   -4.723421398481731e-06
-1.548387481214506e-06   -1.9685046967666707e-08   -4.723421398481731e-06
-1.548387481214506e-06   -1.9685046967666707e-08   -4.723421398481731e-06
-1.548387481214506e-06   -1.9685046967666707e-08   -4.723421398481731e-06
-1.50426684008186e-06   3.0177892651836067e-07   -4.165911475432712e-06
-1.50426684008186e-06   3.0177892651836067e-07   -4.165911475432712e-06
-1.50426684008186e-06   3.0177892651836067e-07   -4.165911475432712e-06
-1.50426684008186e-06   3.0177892651836067e-07   -4.165911475432712e-06
-1.2148356494155457e-06   1.1935663854660615e-07   -4.538843420426791e-06
-1.2148356494155457e-06   1.1935663854660615e-07   -4.538843420426791e-06
-1.2148356494155457e-06   1.1935663854660615e-07   -4.538843420426791e-06
-1.2148356494155457e-06   1.1935663854660615e-07   -4.538843420426791e-06
-1.3690336560216765e-06   1.6871214057585467e-07   -4.311460043967547e-06
-1.3690336560216765e-06   1.6871214057585467e-07   -4.311460043967547e-06
-1.3690336560216765e-06   1.6871214057585467e-07   -4.311460043967547e-06
-1.3690336560216765e-06   1.6871214057585467e-07   -4.311460043967547e-06
-1.214835649415539e-06   3.0177892651836067e-07   -4.0564581026495945e-06
-1.214835649415539e-06   3.0177892651836067e-07   -4.0564581026495945e-06
-1.214835649415539e-06   3.0177892651836067e-07   -4.0564581026495945e-06
-1.214835649415539e-06   3.0177892651836067e-07   -4.0564581026495945e-06
-1.5042668400818583e-06   1.1935663854660615e-07   -4.648296793209882e-06
-1.5042668400818583e-06   1.1935663854660615e-07   -4.648296793209882e-06
-1.5042668400818583e-06   1.1935663854660615e-07   -4.648296793209882e-06
-1.5042668400818583e-06   1.1935663854660615e-07   -4.648296793209882e-06
-1.4581700197629815e-06   4.508457208276086e-07   -4.130602026020618e-06
-1.4581700197629815e-06   4.508457208276086e-07   -4.130602026020618e-06
-1.4581700197629815e-06   4.508457208276086e-07   -4.130602026020618e-06
-1.4581700197629815e-06   4.508457208276086e-07   -4.130602026020618e-06
-1.1409647892015047e-06   2.546664017213636e-07   -4.541569818825997e-06
-1.1409647892015047e-06   2.546664017213636e-07   -4.541569818825997e-06
-1.1409647892015047e-06   2.546664017213636e-07   -4.541569818825997e-06
-1.1409647892015047e-06   2.546664017213636e-07   -4.541569818825997e-06
-1.325037811301061e-06   2.8267843395207845e-07   -4.2515886679985194e-06
-1.325037811301061e-06   2.8267843395207845e-07   -4.2515886679985194e-06
-1.325037811301061e-06   2.8267843395207845e-07   -4.2515886679985194e-06
-1.325037811301061e-06   2.8267843395207845e-07   -4.2515886679985194e-06
-1.1409647892015013e-06   4.508457208276086e-07   -4.012894434556871e-06
-1.1409647892015013e-06   4.508457208276086e-07   -4.012894434556871e-06
-1.1409647892015013e-06   4.508457208276086e-07   -4.012894434556871e-06
-1.1409647892015013e-06   4.508457208276086e-07   -4.012894434556871e-06
-1.4581700197629781e-06   2.546664017213907e-07   -4.659277410289724e-06
-1.4581700197629781e-06   2.546664017213907e-07   -4.659277410289724e-06
-1.4581700197629781e-06   2.546664017213907e-07   -4.659277410289724e-06
-1.4581700197629781e-06   2.546664017213907e-07   -4.659277410289724e-06
-1.415584193840539e-06   6.180456443855963e-07   -4.199666434225166e-06
-1.415584193840539e-06   6.180456443855963e-07   -4.199666434225166e-06
-1.415584193840539e-06   6.180456443855963e-07   -4.199666434225166e-06
-1.415584193840539e-06   6.180456443855963e-07   -4.199666434225166e-06
-1.0863297748066709e-06   4.106592825974323e-07   -4.623991982208696e-06
-1.0863297748066709e-06   4.106592825974323e-07   -4.623991982208696e-06
-1.0863297748066709e-06   4.106592825974323e-07   -4.623991982208696e-06
-1.0863297748066709e-06   4.106592825974323e-07   -4.623991982208696e-06
-1.2873076385808007e-06   4.0389442471577223e-07   -4.284969961189481e-06
-1.2873076385808007e-06   4.0389442471577223e-07   -4.284969961189481e-06
-1.2873076385808007e-06   4.0389442471577223e-07   -4.284969961189481e-06
-1.2873076385808007e-06   4.0389442471577223e-07   -4.284969961189481e-06
-1.5483874812144976e-06   8.885260745257885e-08   -4.873710132164924e-06
-1.5483874812144976e-06   8.885260745257885e-08   -4.873710132164924e-06
-1.5483874812144976e-06   8.885260745257885e-08   -4.873710132164924e-06
-1.5483874812144976e-06   8.885260745257885e-08   -4.873710132164924e-06
-1.8278056117173344e-06   1.2523416205404846e-07   -5.317578083575451e-06
-1.8278056117173344e-06   1.2523416205404846e-07   -5.317578083575451e-06
-1.8278056117173344e-06   1.2523416205404846e-07   -5.317578083575451e-06
-1.8278056117173344e-06   1.2523416205404846e-07   -5.317578083575451e-06
-1.785005891474417e-06   2.5217848092696127e-07   -4.794562675611191e-06
-1.785005891474417e-06   2.5217848092696127e-07   -4.794562675611191e-06
-1.785005891474417e-06   2.5217848092696127e-07   -4.794562675611191e-06
-1.785005891474417e-06   2.5217848092696127e-07   -4.794562675611191e-06
-1.50426684008186e-06   2.708082568895543e-07   -5.273638960176336e-06
-1.50426684008186e-06   2.708082568895543e-07   -5.273638960176336e-06
-1.50426684008186e-06   2.708082568895543e-07   -5.273638960176336e-06
-1.50426684008186e-06   2.708082568895543e-07   -5.273638960176336e-06
-1.6562652813398045e-06   2.0749563297152007e-07   -4.982320650395678e-06
-1.6562652813398045e-06   2.0749563297152007e-07   -4.982320650395678e-06
-1.6562652813398045e-06   2.0749563297152007e-07   -4.982320650395678e-06
-1.6562652813398045e-06   2.0749563297152007e-07   -4.982320650395678e-06
-1.5042668400818566e-06   2.5217848092693416e-07   -4.805740541188733e-06
-1.5042668400818566e-06   2.5217848092693416e-07   -4.805740541188733e-06
-1.5042668400818566e-06   2.5217848092693416e-07   -4.805740541188733e-06
-1.5042668400818566e-06   2.5217848092693416e-07   -4.805740541188733e-06
-1.7850058914744201e-06   2.708082568895543e-07   -5.262461094598787e-06
-1.7850058914744201e-06   2.708082568895543e-07   -5.262461094598787e-06
-1.7850058914744201e-06   2.708082568895543e-07   -5.262461094598787e-06
-1.7850058914744201e-06   2.708082568895543e-07   -5.262461094598787e-06
-1.7391442997725572e-06   4.168532306699185e-07   -4.806847320314872e-06
-1.7391442997725572e-06   4.168532306699185e-07   -4.806847320314872e-06
-1.7391442997725572e-06   4.168532306699185e-07   -4.806847320314872e-06
-1.7391442997725572e-06   4.168532306699185e-07   -4.806847320314872e-06
-1.4581700197629815e-06   4.1928713991377193e-07   -5.2765981325437875e-06
-1.4581700197629815e-06   4.1928713991377193e-07   -5.2765981325437875e-06
-1.4581700197629815e-06   4.1928713991377193e-07   -5.2765981325437875e-06
-1.4581700197629815e-06   4.1928713991377193e-07   -5.2765981325437875e-06
-1.6216035188643612e-06   3.3331006468533767e-07   -4.952622722237836e-06
-1.6216035188643612e-06   3.3331006468533767e-07   -4.952622722237836e-06
-1.6216035188643612e-06   3.3331006468533767e-07   -4.952622722237836e-06
-1.6216035188643612e-06   3.3331006468533767e-07   -4.952622722237836e-06
-1.4581700197629781e-06   4.168532306699456e-07   -4.80830766586117e-06
-1.4581700197629781e-06   4.168532306699456e-07   -4.80830766586117e-06
-1.4581700197629781e-06   4.168532306699456e-07   -4.80830766586117e-06
-1.4581700197629781e-06   4.168532306699456e-07   -4.80830766586117e-06
-1.7391442997725572e-06   4.1928713991377193e-07   -5.275137786997503e-06
-1.7391442997725572e-06   4.1928713991377193e-07   -5.275137786997503e-06
-1.7391442997725572e-06   4.1928713991377193e-07   -5.275137786997503e-06
-1.7391442997725572e-06   4.1928713991377193e-07   -5.275137786997503e-06
-1.696111393792645e-06   5.841082121659327e-07   -4.900233638694394e-06
-1.696111393792645e-06   5.841082121659327e-07   -4.900233638694394e-06
-1.696111393792645e-06   5.841082121659327e-07   -4.900233638694394e-06
-1.696111393792645e-06   5.841082121659327e-07   -4.900233638694394e-06
-1.4155841938405406e-06   5.699641853285434e-07   -5.359292555845449e-06
-1.4155841938405406e-06   5.699641853285434e-07   -5.359292555845449e-06
-1.4155841938405406e-06   5.699641853285434e-07   -5.359292555845449e-06
-1.4155841938405406e-06   5.699641853285434e-07   -5.359292555845449e-06
-1.5904863983954672e-06   4.6094710966150965e-07   -5.0023786361870306e-06
-1.5904863983954672e-06   4.6094710966150965e-07   -5.0023786361870306e-06
-1.5904863983954672e-06   4.6094710966150965e-07   -5.0023786361870306e-06
-1.5904863983954672e-06   4.6094710966150965e-07   -5.0023786361870306e-06
-1.8278056117173283e-06   5.0193342711172834e-08   -4.195136984770298e-06
-1.8278056117173283e-06   5.0193342711172834e-08   -4.195136984770298e-06
-1.8278056117173283e-06   5.0193342711172834e-08   -4.195136984770298e-06
-1.8278056117173283e-06   5.0193342711172834e-08   -4.195136984770298e-06
-2.1307711848084613e-06   2.743654326787235e-07   -4.56557635260832e-06
-2.1307711848084613e-06   2.743654326787235e-07   -4.56557635260832e-06
-2.1307711848084613e-06   2.743654326787235e-07   -4.56557635260832e-06
-2.1307711848084613e-06   2.743654326787235e-07   -4.56557635260832e-06
-2.0773275299279727e-06   2.097853335371444e-07   -4.003242925551008e-06
-2.0773275299279727e-06   2.097853335371444e-07   -4.003242925551008e-06
-2.0773275299279727e-06   2.097853335371444e-07   -4.003242925551008e-06
-2.0773275299279727e-06   2.097853335371444e-07   -4.003242925551008e-06
-1.785005891474417e-06   4.2141630645999603e-07   -4.617424240060617e-06
-1.785005891474417e-06   4.2141630645999603e-07   -4.617424240060617e-06
-1.785005891474417e-06   4.2141630645999603e-07   -4.617424240060617e-06
-1.785005891474417e-06   4.2141630645999603e-07   -4.617424240060617e-06
-1.9398560803161815e-06   2.545941360666403e-07   -4.259247289755055e-06
-1.9398560803161815e-06   2.545941360666403e-07   -4.259247289755055e-06
-1.9398560803161815e-06   2.545941360666403e-07   -4.259247289755055e-06
-1.9398560803161815e-06   2.545941360666403e-07   -4.259247289755055e-06
-1.785005891474414e-06   2.097853335371715e-07   -4.130221509304703e-06
-1.785005891474414e-06   2.097853335371715e-07   -4.130221509304703e-06
-1.785005891474414e-06   2.097853335371715e-07   -4.130221509304703e-06
-1.785005891474414e-06   2.097853335371715e-07   -4.130221509304703e-06
-2.0773275299279727e-06   4.2141630645999603e-07   -4.490445656306935e-06
-2.0773275299279727e-06   4.2141630645999603e-07   -4.490445656306935e-06
-2.0773275299279727e-06   4.2141630645999603e-07   -4.490445656306935e-06
-2.0773275299279727e-06   4.2141630645999603e-07   -4.490445656306935e-06
-2.0044570655848496e-06   3.5880514933950584e-07   -4.014983586364556e-06
-2.0044570655848496e-06   3.5880514933950584e-07   -4.014983586364556e-06
-2.0044570655848496e-06   3.5880514933950584e-07   -4.014983586364556e-06
-2.0044570655848496e-06   3.5880514933950584e-07   -4.014983586364556e-06
-1.7391442997725572e-06   5.558790689555785e-07   -4.575415881154677e-06
-1.7391442997725572e-06   5.558790689555785e-07   -4.575415881154677e-06
-1.7391442997725572e-06   5.558790689555785e-07   -4.575415881154677e-06
-1.7391442997725572e-06   5.558790689555785e-07   -4.575415881154677e-06
-1.8918459627045202e-06   3.723115221519898e-07   -4.210772581519274e-06
-1.8918459627045202e-06   3.723115221519898e-07   -4.210772581519274e-06
-1.8918459627045202e-06   3.723115221519898e-07   -4.210772581519274e-06
-1.8918459627045202e-06   3.723115221519898e-07   -4.210772581519274e-06
-1.7391442997725494e-06   3.5880514933947874e-07   -4.13322793813417e-06
-1.7391442997725494e-06   3.5880514933947874e-07   -4.13322793813417e-06
-1.7391442997725494e-06   3.5880514933947874e-07   -4.13322793813417e-06
-1.7391442997725494e-06   3.5880514933947874e-07   -4.13322793813417e-06
-2.0044570655848496e-06   5.558790689555785e-07   -4.457171529385017e-06
-2.0044570655848496e-06   5.558790689555785e-07   -4.457171529385017e-06
-2.0044570655848496e-06   5.558790689555785e-07   -4.457171529385017e-06
-2.0044570655848496e-06   5.558790689555785e-07   -4.457171529385017e-06
-1.948174797503009e-06   5.25559229762432e-07   -4.1260733262756146e-06
-1.948174797503009e-06   5.25559229762432e-07   -4.1260733262756146e-06
-1.948174797503009e-06   5.25559229762432e-07   -4.1260733262756146e-06
-1.948174797503009e-06   5.25559229762432e-07   -4.1260733262756146e-06
-1.696111393792645e-06   7.046928260780281e-07   -4.653659156915562e-06
-1.696111393792645e-06   7.046928260780281e-07   -4.653659156915562e-06
-1.696111393792645e-06   7.046928260780281e-07   -4.653659156915562e-06
-1.696111393792645e-06   7.046928260780281e-07   -4.653659156915562e-06
-1.8590870085208147e-06   4.909984213304379e-07   -4.253816489519993e-06
-1.8590870085208147e-06   4.909984213304379e-07   -4.253816489519993e-06
-1.8590870085208147e-06   4.909984213304379e-07   -4.253816489519993e-06
-1.8590870085208147e-06   4.909984213304379e-07   -4.253816489519993e-06
-2.1307711848084545e-06   8.324898043292925e-08   -2.2181579179431787e-06
-2.1307711848084545e-06   8.324898043292925e-08   -2.2181579179431787e-06
-2.1307711848084545e-06   8.324898043292925e-08   -2.2181579179431787e-06
-2.1307711848084545e-06   8.324898043292925e-08   -2.2181579179431787e-06
-2.651541674964542e-06   4.684156762864379e-07   -2.8550087173578756e-06
-2.651541674964542e-06   4.684156762864379e-07   -2.8550087173578756e-06
-2.651541674964542e-06   4.684156762864379e-07   -2.8550087173578756e-06
-2.651541674964542e-06   4.684156762864379e-07   -2.8550087173578756e-06
-2.4372778404487348e-06   2.1111446902298027e-07   -1.7886031990136503e-06
-2.4372778404487348e-06   2.1111446902298027e-07   -1.7886031990136503e-06
-2.4372778404487348e-06   2.1111446902298027e-07   -1.7886031990136503e-06
-2.4372778404487348e-06   2.1111446902298027e-07   -1.7886031990136503e-06
-2.0773275299279693e-06   6.033838763140175e-07   -2.623882027589511e-06
-2.0773275299279693e-06   6.033838763140175e-07   -2.623882027589511e-06
-2.0773275299279693e-06   6.033838763140175e-07   -2.623882027589511e-06
-2.0773275299279693e-06   6.033838763140175e-07   -2.623882027589511e-06
-2.2302733413272853e-06   3.5583518133216617e-07   -2.220443124934918e-06
-2.2302733413272853e-06   3.5583518133216617e-07   -2.220443124934918e-06
-2.2302733413272853e-06   3.5583518133216617e-07   -2.220443124934918e-06
-2.2302733413272853e-06   3.5583518133216617e-07   -2.220443124934918e-06
-2.0773275299279625e-06   2.1111446902295316e-07   -2.0239648433882673e-06
-2.0773275299279625e-06   2.1111446902295316e-07   -2.0239648433882673e-06
-2.0773275299279625e-06   2.1111446902295316e-07   -2.0239648433882673e-06
-2.0773275299279625e-06   2.1111446902295316e-07   -2.0239648433882673e-06
-2.4372778404487246e-06   6.033838763140175e-07   -2.388520383214904e-06
-2.4372778404487246e-06   6.033838763140175e-07   -2.388520383214904e-06
-2.4372778404487246e-06   6.033838763140175e-07   -2.388520383214904e-06
-2.4372778404487246e-06   6.033838763140175e-07   -2.388520383214904e-06
-2.263006846618672e-06   2.8213200748956977e-07   -1.7385028371822683e-06
-2.263006846618672e-06   2.8213200748956977e-07   -1.7385028371822683e-06
-2.263006846618672e-06   2.8213200748956977e-07   -1.7385028371822683e-06
-2.263006846618672e-06   2.8213200748956977e-07   -1.7385028371822683e-06
-2.0044570655848462e-06   6.650311823043866e-07   -2.399158643794199e-06
-2.0044570655848462e-06   6.650311823043866e-07   -2.399158643794199e-06
-2.0044570655848462e-06   6.650311823043866e-07   -2.399158643794199e-06
-2.0044570655848462e-06   6.650311823043866e-07   -2.399158643794199e-06
-2.1470427238090283e-06   4.202736199158952e-07   -2.014661342654141e-06
-2.1470427238090283e-06   4.202736199158952e-07   -2.014661342654141e-06
-2.1470427238090283e-06   4.202736199158952e-07   -2.014661342654141e-06
-2.1470427238090283e-06   4.202736199158952e-07   -2.014661342654141e-06
-2.004457065584843e-06   2.8213200748954267e-07   -1.9682423420711666e-06
-2.004457065584843e-06   2.8213200748954267e-07   -1.9682423420711666e-06
-2.004457065584843e-06   2.8213200748954267e-07   -1.9682423420711666e-06
-2.004457065584843e-06   2.8213200748954267e-07   -1.9682423420711666e-06
-2.263006846618665e-06   6.650311823043866e-07   -2.169419138905277e-06
-2.263006846618665e-06   6.650311823043866e-07   -2.169419138905277e-06
-2.263006846618665e-06   6.650311823043866e-07   -2.169419138905277e-06
-2.263006846618665e-06   6.650311823043866e-07   -2.169419138905277e-06
-2.0457414459141307e-06   4.038998316436616e-07   -1.766230385526462e-06
-2.0457414459141307e-06   4.038998316436616e-07   -1.766230385526462e-06
-2.0457414459141307e-06   4.038998316436616e-07   -1.766230385526462e-06
-2.0457414459141307e-06   4.038998316436616e-07   -1.766230385526462e-06
-1.948174797503009e-06   7.559684869489652e-07   -2.1400826593948316e-06
-1.948174797503009e-06   7.559684869489652e-07   -2.1400826593948316e-06
-1.948174797503009e-06   7.559684869489652e-07   -2.1400826593948316e-06
-1.948174797503009e-06   7.559684869489652e-07   -2.1400826593948316e-06
-2.0099685646507357e-06   4.69329519190673e-07   -1.865109666826984e-06
-2.0099685646507357e-06   4.69329519190673e-07   -1.865109666826984e-06
-2.0099685646507357e-06   4.69329519190673e-07   -1.865109666826984e-06
-2.0099685646507357e-06   4.69329519190673e-07   -1.865109666826984e-06
1.274549684165083e-06   -1.238713355477801e-07   -1.026396462819402e-06
1.274549684165083e-06   -1.238713355477801e-07   -1.026396462819402e-06
1.274549684165083e-06   -1.238713355477801e-07   -1.026396462819402e-06
1.274549684165083e-06   -1.238713355477801e-07   -1.026396462819402e-06
1.5037454932497962e-07   -4.7580514152479247e-07   -3.1111819711390624e-06
1.5037454932497962e-07   -4.7580514152479247e-07   -3.1111819711390624e-06
1.5037454932497962e-07   -4.7580514152479247e-07   -3.1111819711390624e-06
1.5037454932497962e-07   -4.7580514152479247e-07   -3.1111819711390624e-06
2.2778981507190184e-07   -1.4802952702242791e-08   -1.1572553626510037e-06
2.2778981507190184e-07   -1.4802952702242791e-08   -1.1572553626510037e-06
2.2778981507190184e-07   -1.4802952702242791e-08   -1.1572553626510037e-06
2.2778981507190184e-07   -1.4802952702242791e-08   -1.1572553626510037e-06
1.5110558939368174e-06   -3.936295988451262e-07   -3.0687361730734612e-06
1.5110558939368174e-06   -3.936295988451262e-07   -3.0687361730734612e-06
1.5110558939368174e-06   -3.936295988451262e-07   -3.0687361730734612e-06
1.5110558939368174e-06   -3.936295988451262e-07   -3.0687361730734612e-06
7.600847809212305e-07   -2.0315020315899053e-07   -1.931405288792509e-06
7.600847809212305e-07   -2.0315020315899053e-07   -1.931405288792509e-06
7.600847809212305e-07   -2.0315020315899053e-07   -1.931405288792509e-06
7.600847809212305e-07   -2.0315020315899053e-07   -1.931405288792509e-06
1.5110558939368174e-06   -1.4802952702242791e-08   -9.299593749652845e-07
1.5110558939368174e-06   -1.4802952702242791e-08   -9.299593749652845e-07
1.5110558939368174e-06   -1.4802952702242791e-08   -9.299593749652845e-07
1.5110558939368174e-06   -1.4802952702242791e-08   -9.299593749652845e-07
2.2778981507190184e-07   -3.93629598845072e-07   -3.296032160759194e-06
2.2778981507190184e-07   -3.93629598845072e-07   -3.296032160759194e-06
2.2778981507190184e-07   -3.93629598845072e-07   -3.296032160759194e-06
2.2778981507190184e-07   -3.93629598845072e-07   -3.296032160759194e-06
3.201863582715509e-07   4.9084574123433276e-08   -1.17388911303413e-06
3.201863582715509e-07   4.9084574123433276e-08   -1.17388911303413e-06
3.201863582715509e-07   4.9084574123433276e-08   -1.17388911303413e-06
3.201863582715509e-07   4.9084574123433276e-08   -1.17388911303413e-06
1.7071749919668288e-06   -3.363026989980063e-07   -3.254304471986719e-06
1.7071749919668288e-06   -3.363026989980063e-07   -3.254304471986719e-06
1.7071749919668288e-06   -3.363026989980063e-07   -3.254304471986719e-06
1.7071749919668288e-06   -3.363026989980063e-07   -3.254304471986719e-06
9.073555654598098e-07   -1.6317408033474697e-07   -2.0251492656730793e-06
9.073555654598098e-07   -1.6317408033474697e-07   -2.0251492656730793e-06
9.073555654598098e-07   -1.6317408033474697e-07   -2.0251492656730793e-06
9.073555654598098e-07   -1.6317408033474697e-07   -2.0251492656730793e-06
1.7071749919668288e-06   4.9084574123433276e-08   -9.426567491612717e-07
1.7071749919668288e-06   4.9084574123433276e-08   -9.426567491612717e-07
1.7071749919668288e-06   4.9084574123433276e-08   -9.426567491612717e-07
1.7071749919668288e-06   4.9084574123433276e-08   -9.426567491612717e-07
3.201863582715475e-07   -3.363026989980063e-07   -3.485536835859618e-06
3.201863582715475e-07   -3.363026989980063e-07   -3.485536835859618e-06
3.201863582715475e-07   -3.363026989980063e-07   -3.485536835859618e-06
3.201863582715475e-07   -3.363026989980063e-07   -3.485536835859618e-06
3.933264251090171e-07   1.7574493700565365e-07   -1.306864402674646e-06
3.933264251090171e-07   1.7574493700565365e-07   -1.306864402674646e-06
3.933264251090171e-07   1.7574493700565365e-07   -1.306864402674646e-06
3.933264251090171e-07   1.7574493700565365e-07   -1.306864402674646e-06
1.9430909831131247e-06   -1.9433432918843042e-07   -3.667757772965054e-06
1.9430909831131247e-06   -1.9433432918843042e-07   -3.667757772965054e-06
1.9430909831131247e-06   -1.9433432918843042e-07   -3.667757772965054e-06
1.9430909831131247e-06   -1.9433432918843042e-07   -3.667757772965054e-06
1.0182653744536666e-06   -1.0224347212934594e-07   -2.1816362727681478e-06
1.0182653744536666e-06   -1.0224347212934594e-07   -2.1816362727681478e-06
1.0182653744536666e-06   -1.0224347212934594e-07   -2.1816362727681478e-06
1.0182653744536666e-06   -1.0224347212934594e-07   -2.1816362727681478e-06
1.5037454932497962e-07   -1.9685046967666707e-08   -3.2243740165566393e-06
1.5037454932497962e-07   -1.9685046967666707e-08   -3.2243740165566393e-06
1.5037454932497962e-07   -1.9685046967666707e-08   -3.2243740165566393e-06
1.5037454932497962e-07   -1.9685046967666707e-08   -3.2243740165566393e-06
-1.1144489928741741e-06   -1.777517242469457e-07   -5.4272532599228e-06
-1.1144489928741741e-06   -1.777517242469457e-07   -5.4272532599228e-06
-1.1144489928741741e-06   -1.777517242469457e-07   -5.4272532599228e-06
-1.1144489928741741e-06   -1.777517242469457e-07   -5.4272532599228e-06
-1.0487360935489046e-06   1.1935663854660615e-07   -3.240865111483999e-06
-1.0487360935489046e-06   1.1935663854660615e-07   -3.240865111483999e-06
-1.0487360935489046e-06   1.1935663854660615e-07   -3.240865111483999e-06
-1.0487360935489046e-06   1.1935663854660615e-07   -3.240865111483999e-06
2.2778981507190184e-07   -6.231348142663557e-08   -5.259406220534707e-06
2.2778981507190184e-07   -6.231348142663557e-08   -5.259406220534707e-06
2.2778981507190184e-07   -6.231348142663557e-08   -5.259406220534707e-06
2.2778981507190184e-07   -6.231348142663557e-08   -5.259406220534707e-06
-4.3660286281861476e-07   1.1545797573217498e-09   -4.190165927427606e-06
-4.3660286281861476e-07   1.1545797573217498e-09   -4.190165927427606e-06
-4.3660286281861476e-07   1.1545797573217498e-09   -4.190165927427606e-06
-4.3660286281861476e-07   1.1545797573217498e-09   -4.190165927427606e-06
2.2778981507189845e-07   1.1935663854660615e-07   -3.1318630395000212e-06
2.2778981507189845e-07   1.1935663854660615e-07   -3.1318630395000212e-06
2.2778981507189845e-07   1.1935663854660615e-07   -3.1318630395000212e-06
2.2778981507189845e-07   1.1935663854660615e-07   -3.1318630395000212e-06
-1.0487360935489046e-06   -6.231348142668978e-08   -5.368408292518698e-06
-1.0487360935489046e-06   -6.231348142668978e-08   -5.368408292518698e-06
-1.0487360935489046e-06   -6.231348142668978e-08   -5.368408292518698e-06
-1.0487360935489046e-06   -6.231348142668978e-08   -5.368408292518698e-06
-9.825561747126437e-07   2.546664017213907e-07   -3.247050767613452e-06
-9.825561747126437e-07   2.546664017213907e-07   -3.247050767613452e-06
-9.825561747126437e-07   2.546664017213907e-07   -3.247050767613452e-06
-9.825561747126437e-07   2.546664017213907e-07   -3.247050767613452e-06
3.201863582715475e-07   5.794552780983252e-08   -5.300255798240181e-06
3.201863582715475e-07   5.794552780983252e-08   -5.300255798240181e-06
3.201863582715475e-07   5.794552780983252e-08   -5.300255798240181e-06
3.201863582715475e-07   5.794552780983252e-08   -5.300255798240181e-06
-3.798051764797479e-07   9.774951520435948e-08   -4.157485632758048e-06
-3.798051764797479e-07   9.774951520435948e-08   -4.157485632758048e-06
-3.798051764797479e-07   9.774951520435948e-08   -4.157485632758048e-06
-3.798051764797479e-07   9.774951520435948e-08   -4.157485632758048e-06
3.201863582715509e-07   2.546664017213636e-07   -3.1290182432665336e-06
3.201863582715509e-07   2.546664017213636e-07   -3.1290182432665336e-06
3.201863582715509e-07   2.546664017213636e-07   -3.1290182432665336e-06
3.201863582715509e-07   2.546664017213636e-07   -3.1290182432665336e-06
-9.825561747126437e-07   5.794552780988673e-08   -5.418288322587127e-06
-9.825561747126437e-07   5.794552780988673e-08   -5.418288322587127e-06
-9.825561747126437e-07   5.794552780988673e-08   -5.418288322587127e-06
-9.825561747126437e-07   5.794552780988673e-08   -5.418288322587127e-06
-9.200942655297231e-07   4.106592825974323e-07   -3.3309221084031266e-06
-9.200942655297231e-07   4.106592825974323e-07   -3.3309221084031266e-06
-9.200942655297231e-07   4.106592825974323e-07   -3.3309221084031266e-06
-9.200942655297231e-07   4.106592825974323e-07   -3.3309221084031266e-06
3.933264251090171e-07   2.0173614128022373e-07   -5.394602708010686e-06
3.933264251090171e-07   2.0173614128022373e-07   -5.394602708010686e-06
3.933264251090171e-07   2.0173614128022373e-07   -5.394602708010686e-06
3.933264251090171e-07   2.0173614128022373e-07   -5.394602708010686e-06
-3.150116949250623e-07   2.0623668036762405e-07   -4.21673949807311e-06
-3.150116949250623e-07   2.0623668036762405e-07   -4.21673949807311e-06
-3.150116949250623e-07   2.0623668036762405e-07   -4.21673949807311e-06
-3.150116949250623e-07   2.0623668036762405e-07   -4.21673949807311e-06
-1.1144489928741741e-06   1.2523416205404846e-07   -3.935199640778839e-06
-1.1144489928741741e-06   1.2523416205404846e-07   -3.935199640778839e-06
-1.1144489928741741e-06   1.2523416205404846e-07   -3.935199640778839e-06
-1.1144489928741741e-06   1.2523416205404846e-07   -3.935199640778839e-06
-2.364245547032012e-06   1.5722592338495876e-07   -5.998998840909999e-06
-2.364245547032012e-06   1.5722592338495876e-07   -5.998998840909999e-06
-2.364245547032012e-06   1.5722592338495876e-07   -5.998998840909999e-06
-2.364245547032012e-06   1.5722592338495876e-07   -5.998998840909999e-06
-2.2985581662781567e-06   2.708082568895543e-07   -3.860003225306585e-06
-2.2985581662781567e-06   2.708082568895543e-07   -3.860003225306585e-06
-2.2985581662781567e-06   2.708082568895543e-07   -3.860003225306585e-06
-2.2985581662781567e-06   2.708082568895543e-07   -3.860003225306585e-06
-1.0487360935489046e-06   2.8114834546268336e-07   -5.949244066332547e-06
-1.0487360935489046e-06   2.8114834546268336e-07   -5.949244066332547e-06
-1.0487360935489046e-06   2.8114834546268336e-07   -5.949244066332547e-06
-1.0487360935489046e-06   2.8114834546268336e-07   -5.949244066332547e-06
-1.6967326350163766e-06   2.3354337636591165e-07   -4.8406868490953955e-06
-1.6967326350163766e-06   2.3354337636591165e-07   -4.8406868490953955e-06
-1.6967326350163766e-06   2.3354337636591165e-07   -4.8406868490953955e-06
-1.6967326350163766e-06   2.3354337636591165e-07   -4.8406868490953955e-06
-1.048736093548908e-06   2.708082568895543e-07   -3.866207278450473e-06
-1.048736093548908e-06   2.708082568895543e-07   -3.866207278450473e-06
-1.048736093548908e-06   2.708082568895543e-07   -3.866207278450473e-06
-1.048736093548908e-06   2.708082568895543e-07   -3.866207278450473e-06
-2.298558166278153e-06   2.8114834546268336e-07   -5.943040013188679e-06
-2.298558166278153e-06   2.8114834546268336e-07   -5.943040013188679e-06
-2.298558166278153e-06   2.8114834546268336e-07   -5.943040013188679e-06
-2.298558166278153e-06   2.8114834546268336e-07   -5.943040013188679e-06
-2.2311154168572593e-06   4.1928713991377193e-07   -3.869023441561856e-06
-2.2311154168572593e-06   4.1928713991377193e-07   -3.869023441561856e-06
-2.2311154168572593e-06   4.1928713991377193e-07   -3.869023441561856e-06
-2.2311154168572593e-06   4.1928713991377193e-07   -3.869023441561856e-06
-9.825561747126437e-07   4.1153388708983123e-07   -5.945303560108526e-06
-9.825561747126437e-07   4.1153388708983123e-07   -5.945303560108526e-06
-9.825561747126437e-07   4.1153388708983123e-07   -5.945303560108526e-06
-9.825561747126437e-07   4.1153388708983123e-07   -5.945303560108526e-06
-1.639941318448744e-06   3.427441270466747e-07   -4.808387797855875e-06
-1.639941318448744e-06   3.427441270466747e-07   -4.808387797855875e-06
-1.639941318448744e-06   3.427441270466747e-07   -4.808387797855875e-06
-1.639941318448744e-06   3.427441270466747e-07   -4.808387797855875e-06
-9.825561747126437e-07   4.1928713991377193e-07   -3.864371489867516e-06
-9.825561747126437e-07   4.1928713991377193e-07   -3.864371489867516e-06
-9.825561747126437e-07   4.1928713991377193e-07   -3.864371489867516e-06
-9.825561747126437e-07   4.1928713991377193e-07   -3.864371489867516e-06
-2.2311154168572555e-06   4.1153388708983123e-07   -5.949955511802866e-06
-2.2311154168572555e-06   4.1153388708983123e-07   -5.949955511802866e-06
-2.2311154168572555e-06   4.1153388708983123e-07   -5.949955511802866e-06
-2.2311154168572555e-06   4.1153388708983123e-07   -5.949955511802866e-06
-2.1669381136989386e-06   5.699641853285434e-07   -3.957210755924529e-06
-2.1669381136989386e-06   5.699641853285434e-07   -3.957210755924529e-06
-2.1669381136989386e-06   5.699641853285434e-07   -3.957210755924529e-06
-2.1669381136989386e-06   5.699641853285434e-07   -3.957210755924529e-06
-9.200942655297265e-07   5.442643670659992e-07   -6.019863945249015e-06
-9.200942655297265e-07   5.442643670659992e-07   -6.019863945249015e-06
-9.200942655297265e-07   5.442643670659992e-07   -6.019863945249015e-06
-9.200942655297265e-07   5.442643670659992e-07   -6.019863945249015e-06
-1.5878692957947096e-06   4.537100286538772e-07   -4.852572958426835e-06
-1.5878692957947096e-06   4.537100286538772e-07   -4.852572958426835e-06
-1.5878692957947096e-06   4.537100286538772e-07   -4.852572958426835e-06
-1.5878692957947096e-06   4.537100286538772e-07   -4.852572958426835e-06
-2.3642455470320156e-06   2.743654326787506e-07   -3.2985061069936838e-06
-2.3642455470320156e-06   2.743654326787506e-07   -3.2985061069936838e-06
-2.3642455470320156e-06   2.743654326787506e-07   -3.2985061069936838e-06
-2.3642455470320156e-06   2.743654326787506e-07   -3.2985061069936838e-06
-3.6148207895397273e-06   4.868870461222736e-07   -5.2552852097737565e-06
-3.6148207895397273e-06   4.868870461222736e-07   -5.2552852097737565e-06
-3.6148207895397273e-06   4.868870461222736e-07   -5.2552852097737565e-06
-3.6148207895397273e-06   4.868870461222736e-07   -5.2552852097737565e-06
-3.53853647568369e-06   4.2141630645999603e-07   -3.096233248038843e-06
-3.53853647568369e-06   4.2141630645999603e-07   -3.096233248038843e-06
-3.53853647568369e-06   4.2141630645999603e-07   -3.096233248038843e-06
-3.53853647568369e-06   4.2141630645999603e-07   -3.096233248038843e-06
-2.298558166278153e-06   6.193048443426828e-07   -5.281596886444343e-06
-2.298558166278153e-06   6.193048443426828e-07   -5.281596886444343e-06
-2.298558166278153e-06   6.193048443426828e-07   -5.281596886444343e-06
-2.298558166278153e-06   6.193048443426828e-07   -5.281596886444343e-06
-2.933358553532591e-06   4.6636142473935826e-07   -4.131830189258272e-06
-2.933358553532591e-06   4.6636142473935826e-07   -4.131830189258272e-06
-2.933358553532591e-06   4.6636142473935826e-07   -4.131830189258272e-06
-2.933358553532591e-06   4.6636142473935826e-07   -4.131830189258272e-06
-2.2985581662781567e-06   4.2141630646002314e-07   -3.2149663707684684e-06
-2.2985581662781567e-06   4.2141630646002314e-07   -3.2149663707684684e-06
-2.2985581662781567e-06   4.2141630646002314e-07   -3.2149663707684684e-06
-2.2985581662781567e-06   4.2141630646002314e-07   -3.2149663707684684e-06
-3.538536475683695e-06   6.193048443426828e-07   -5.162863763714758e-06
-3.538536475683695e-06   6.193048443426828e-07   -5.162863763714758e-06
-3.538536475683695e-06   6.193048443426828e-07   -5.162863763714758e-06
-3.538536475683695e-06   6.193048443426828e-07   -5.162863763714758e-06
-3.4437552607783037e-06   5.558790689555785e-07   -3.060257008110582e-06
-3.4437552607783037e-06   5.558790689555785e-07   -3.060257008110582e-06
-3.4437552607783037e-06   5.558790689555785e-07   -3.060257008110582e-06
-3.4437552607783037e-06   5.558790689555785e-07   -3.060257008110582e-06
-2.2311154168572555e-06   7.376199483029831e-07   -5.190367942254092e-06
-2.2311154168572555e-06   7.376199483029831e-07   -5.190367942254092e-06
-2.2311154168572555e-06   7.376199483029831e-07   -5.190367942254092e-06
-2.2311154168572555e-06   7.376199483029831e-07   -5.190367942254092e-06
-2.854766761382489e-06   5.720445117400044e-07   -4.051603772774301e-06
-2.854766761382489e-06   5.720445117400044e-07   -4.051603772774301e-06
-2.854766761382489e-06   5.720445117400044e-07   -4.051603772774301e-06
-2.854766761382489e-06   5.720445117400044e-07   -4.051603772774301e-06
-2.231115416857258e-06   5.558790689555785e-07   -3.1693015357189976e-06
-2.231115416857258e-06   5.558790689555785e-07   -3.1693015357189976e-06
-2.231115416857258e-06   5.558790689555785e-07   -3.1693015357189976e-06
-2.231115416857258e-06   5.558790689555785e-07   -3.1693015357189976e-06
-3.4437552607783037e-06   7.376199483029831e-07   -5.081323414645665e-06
-3.4437552607783037e-06   7.376199483029831e-07   -5.081323414645665e-06
-3.4437552607783037e-06   7.376199483029831e-07   -5.081323414645665e-06
-3.4437552607783037e-06   7.376199483029831e-07   -5.081323414645665e-06
-3.3656772672990327e-06   7.046928260780281e-07   -3.145164933469332e-06
-3.3656772672990327e-06   7.046928260780281e-07   -3.145164933469332e-06
-3.3656772672990327e-06   7.046928260780281e-07   -3.145164933469332e-06
-3.3656772672990327e-06   7.046928260780281e-07   -3.145164933469332e-06
-2.1669381136989386e-06   8.679028384494451e-07   -5.240989530225679e-06
-2.1669381136989386e-06   8.679028384494451e-07   -5.240989530225679e-06
-2.1669381136989386e-06   8.679028384494451e-07   -5.240989530225679e-06
-2.1669381136989386e-06   8.679028384494451e-07   -5.240989530225679e-06
-2.8071991209102133e-06   6.748519461471881e-07   -4.058057316158861e-06
-2.8071991209102133e-06   6.748519461471881e-07   -4.058057316158861e-06
-2.8071991209102133e-06   6.748519461471881e-07   -4.058057316158861e-06
-2.8071991209102133e-06   6.748519461471881e-07   -4.058057316158861e-06
-3.6148207895397273e-06   4.684156762864379e-07   -1.6915255211892225e-06
-3.6148207895397273e-06   4.684156762864379e-07   -1.6915255211892225e-06
-3.6148207895397273e-06   4.684156762864379e-07   -1.6915255211892225e-06
-3.6148207895397273e-06   4.684156762864379e-07   -1.6915255211892225e-06
-5.0571653939489325e-06   8.400625067534341e-07   -3.8724450969243845e-06
-5.0571653939489325e-06   8.400625067534341e-07   -3.8724450969243845e-06
-5.0571653939489325e-06   8.400625067534341e-07   -3.8724450969243845e-06
-5.0571653939489325e-06   8.400625067534341e-07   -3.8724450969243845e-06
-4.826009629928962e-06   6.033838763140175e-07   -1.0041517279336492e-06
-4.826009629928962e-06   6.033838763140175e-07   -1.0041517279336492e-06
-4.826009629928962e-06   6.033838763140175e-07   -1.0041517279336492e-06
-4.826009629928962e-06   6.033838763140175e-07   -1.0041517279336492e-06
-3.53853647568369e-06   9.792470286270108e-07   -3.3754582097302064e-06
-3.53853647568369e-06   9.792470286270108e-07   -3.3754582097302064e-06
-3.53853647568369e-06   9.792470286270108e-07   -3.3754582097302064e-06
-3.53853647568369e-06   9.792470286270108e-07   -3.3754582097302064e-06
-4.086253948615372e-06   7.360411009049207e-07   -2.3166721982108506e-06
-4.086253948615372e-06   7.360411009049207e-07   -2.3166721982108506e-06
-4.086253948615372e-06   7.360411009049207e-07   -2.3166721982108506e-06
-4.086253948615372e-06   7.360411009049207e-07   -2.3166721982108506e-06
-3.5385364756836923e-06   6.033838763140175e-07   -1.229669619321429e-06
-3.5385364756836923e-06   6.033838763140175e-07   -1.229669619321429e-06
-3.5385364756836923e-06   6.033838763140175e-07   -1.229669619321429e-06
-3.5385364756836923e-06   6.033838763140175e-07   -1.229669619321429e-06
-4.826009629928945e-06   9.792470286270108e-07   -3.14994031834243e-06
-4.826009629928945e-06   9.792470286270108e-07   -3.14994031834243e-06
-4.826009629928945e-06   9.792470286270108e-07   -3.14994031834243e-06
-4.826009629928945e-06   9.792470286270108e-07   -3.14994031834243e-06
-4.635099792387978e-06   6.650311823044137e-07   -7.834551492600874e-07
-4.635099792387978e-06   6.650311823044137e-07   -7.834551492600874e-07
-4.635099792387978e-06   6.650311823044137e-07   -7.834551492600874e-07
-4.635099792387978e-06   6.650311823044137e-07   -7.834551492600874e-07
-3.4437552607782986e-06   1.0296794710705742e-06   -2.987818341869214e-06
-3.4437552607782986e-06   1.0296794710705742e-06   -2.987818341869214e-06
-3.4437552607782986e-06   1.0296794710705742e-06   -2.987818341869214e-06
-3.4437552607782986e-06   1.0296794710705742e-06   -2.987818341869214e-06
-4.01299340482807e-06   8.00984228783129e-07   -1.9018709564137955e-06
-4.01299340482807e-06   8.00984228783129e-07   -1.9018709564137955e-06
-4.01299340482807e-06   8.00984228783129e-07   -1.9018709564137955e-06
-4.01299340482807e-06   8.00984228783129e-07   -1.9018709564137955e-06
-3.4437552607783037e-06   6.650311823044137e-07   -1.002244122519754e-06
-3.4437552607783037e-06   6.650311823044137e-07   -1.002244122519754e-06
-3.4437552607783037e-06   6.650311823044137e-07   -1.002244122519754e-06
-3.4437552607783037e-06   6.650311823044137e-07   -1.002244122519754e-06
-4.635099792387965e-06   1.0296794710706013e-06   -2.7690293686095273e-06
-4.635099792387965e-06   1.0296794710706013e-06   -2.7690293686095273e-06
-4.635099792387965e-06   1.0296794710706013e-06   -2.7690293686095273e-06
-4.635099792387965e-06   1.0296794710706013e-06   -2.7690293686095273e-06
-4.40485743067677e-06   7.559684869489652e-07   -5.394454522483056e-07
-4.40485743067677e-06   7.559684869489652e-07   -5.394454522483056e-07
-4.40485743067677e-06   7.559684869489652e-07   -5.394454522483056e-07
-4.40485743067677e-06   7.559684869489652e-07   -5.394454522483056e-07
-3.3656772672990327e-06   1.08867372276505e-06   -2.4710355327008413e-06
-3.3656772672990327e-06   1.08867372276505e-06   -2.4710355327008413e-06
-3.3656772672990327e-06   1.08867372276505e-06   -2.4710355327008413e-06
-3.3656772672990327e-06   1.08867372276505e-06   -2.4710355327008413e-06
-3.828684088317429e-06   8.305480114914143e-07   -1.544482070906032e-06
-3.828684088317429e-06   8.305480114914143e-07   -1.544482070906032e-06
-3.828684088317429e-06   8.305480114914143e-07   -1.544482070906032e-06
-3.828684088317429e-06   8.305480114914143e-07   -1.544482070906032e-06
3.680966166636935e-06   -4.7580514152473826e-07   1.4244345177344343e-07
3.680966166636935e-06   -4.7580514152473826e-07   1.4244345177344343e-07
3.680966166636935e-06   -4.7580514152473826e-07   1.4244345177344343e-07
3.680966166636935e-06   -4.7580514152473826e-07   1.4244345177344343e-07
1.539074385135299e-06   -8.356897013671186e-07   -3.6433069199680296e-06
1.539074385135299e-06   -8.356897013671186e-07   -3.6433069199680296e-06
1.539074385135299e-06   -8.356897013671186e-07   -3.6433069199680296e-06
1.539074385135299e-06   -8.356897013671186e-07   -3.6433069199680296e-06
1.6324088588611322e-06   -3.93629598845072e-07   -2.408732325498929e-07
1.6324088588611322e-06   -3.93629598845072e-07   -2.408732325498929e-07
1.6324088588611322e-06   -3.93629598845072e-07   -2.408732325498929e-07
1.6324088588611322e-06   -3.93629598845072e-07   -2.408732325498929e-07
3.932488555191862e-06   -7.797913287911368e-07   -3.842642355133489e-06
3.932488555191862e-06   -7.797913287911368e-07   -3.842642355133489e-06
3.932488555191862e-06   -7.797913287911368e-07   -3.842642355133489e-06
3.932488555191862e-06   -7.797913287911368e-07   -3.842642355133489e-06
2.586057072039364e-06   -5.579522718164023e-07   -1.7316933173975126e-06
2.586057072039364e-06   -5.579522718164023e-07   -1.7316933173975126e-06
2.586057072039364e-06   -5.579522718164023e-07   -1.7316933173975126e-06
2.586057072039364e-06   -5.579522718164023e-07   -1.7316933173975126e-06
3.932488555191876e-06   -3.93629598845072e-07   -9.176194582259439e-09
3.932488555191876e-06   -3.93629598845072e-07   -9.176194582259439e-09
3.932488555191876e-06   -3.93629598845072e-07   -9.176194582259439e-09
3.932488555191876e-06   -3.93629598845072e-07   -9.176194582259439e-09
1.6324088588611254e-06   -7.797913287911368e-07   -4.074339393101109e-06
1.6324088588611254e-06   -7.797913287911368e-07   -4.074339393101109e-06
1.6324088588611254e-06   -7.797913287911368e-07   -4.074339393101109e-06
1.6324088588611254e-06   -7.797913287911368e-07   -4.074339393101109e-06
1.7366523589959193e-06   -3.363026989980063e-07   -4.135324733206959e-07
1.7366523589959193e-06   -3.363026989980063e-07   -4.135324733206959e-07
1.7366523589959193e-06   -3.363026989980063e-07   -4.135324733206959e-07
1.7366523589959193e-06   -3.363026989980063e-07   -4.135324733206959e-07
4.140348967819137e-06   -7.285047235425527e-07   -4.184372273299331e-06
4.140348967819137e-06   -7.285047235425527e-07   -4.184372273299331e-06
4.140348967819137e-06   -7.285047235425527e-07   -4.184372273299331e-06
4.140348967819137e-06   -7.285047235425527e-07   -4.184372273299331e-06
2.7744436190343353e-06   -5.34910719927049e-07   -2.024019760827299e-06
2.7744436190343353e-06   -5.34910719927049e-07   -2.024019760827299e-06
2.7744436190343353e-06   -5.34910719927049e-07   -2.024019760827299e-06
2.7744436190343353e-06   -5.34910719927049e-07   -2.024019760827299e-06
4.140348967819151e-06   -3.363026989980063e-07   -1.782112585939626e-07
4.140348967819151e-06   -3.363026989980063e-07   -1.782112585939626e-07
4.140348967819151e-06   -3.363026989980063e-07   -1.782112585939626e-07
4.140348967819151e-06   -3.363026989980063e-07   -1.782112585939626e-07
1.7366523589959193e-06   -7.285047235425527e-07   -4.419693488026051e-06
1.7366523589959193e-06   -7.285047235425527e-07   -4.419693488026051e-06
1.7366523589959193e-06   -7.285047235425527e-07   -4.419693488026051e-06
1.7366523589959193e-06   -7.285047235425527e-07   -4.419693488026051e-06
1.820122457816324e-06   -1.9433432918843042e-07   -8.01377982493647e-07
1.820122457816324e-06   -1.9433432918843042e-07   -8.01377982493647e-07
1.820122457816324e-06   -1.9433432918843042e-07   -8.01377982493647e-07
1.820122457816324e-06   -1.9433432918843042e-07   -8.01377982493647e-07
4.382186116122547e-06   -5.69964335054695e-07   -4.846106076150956e-06
4.382186116122547e-06   -5.69964335054695e-07   -4.846106076150956e-06
4.382186116122547e-06   -5.69964335054695e-07   -4.846106076150956e-06
4.382186116122547e-06   -5.69964335054695e-07   -4.846106076150956e-06
2.8668624165790593e-06   -4.696982944579135e-07   -2.380726201269977e-06
2.8668624165790593e-06   -4.696982944579135e-07   -2.380726201269977e-06
2.8668624165790593e-06   -4.696982944579135e-07   -2.380726201269977e-06
2.8668624165790593e-06   -4.696982944579135e-07   -2.380726201269977e-06
1.5390743851353025e-06   -1.777517242469999e-07   -2.2947185665481574e-06
1.5390743851353025e-06   -1.777517242469999e-07   -2.2947185665481574e-06
1.5390743851353025e-06   -1.777517242469999e-07   -2.2947185665481574e-06
1.5390743851353025e-06   -1.777517242469999e-07   -2.2947185665481574e-06
-6.964748442634796e-07   -3.744856870963693e-07   -6.1386743265890754e-06
-6.964748442634796e-07   -3.744856870963693e-07   -6.1386743265890754e-06
-6.964748442634796e-07   -3.744856870963693e-07   -6.1386743265890754e-06
-6.964748442634796e-07   -3.744856870963693e-07   -6.1386743265890754e-06
-6.1155790453498e-07   -6.231348142668978e-08   -2.341839116468689e-06
-6.1155790453498e-07   -6.231348142668978e-08   -2.341839116468689e-06
-6.1155790453498e-07   -6.231348142668978e-08   -2.341839116468689e-06
-6.1155790453498e-07   -6.231348142668978e-08   -2.341839116468689e-06
1.6324088588611288e-06   -2.9163318833208985e-07   -5.944191897985616e-06
1.6324088588611288e-06   -2.9163318833208985e-07   -5.944191897985616e-06
1.6324088588611288e-06   -2.9163318833208985e-07   -5.944191897985616e-06
1.6324088588611288e-06   -2.9163318833208985e-07   -5.944191897985616e-06
4.704849663826826e-07   -1.77985077999879e-07   -4.075840943387555e-06
4.704849663826826e-07   -1.77985077999879e-07   -4.075840943387555e-06
4.704849663826826e-07   -1.77985077999879e-07   -4.075840943387555e-06
4.704849663826826e-07   -1.77985077999879e-07   -4.075840943387555e-06
1.6324088588611322e-06   -6.231348142668978e-08   -2.2042472923253784e-06
1.6324088588611322e-06   -6.231348142668978e-08   -2.2042472923253784e-06
1.6324088588611322e-06   -6.231348142668978e-08   -2.2042472923253784e-06
1.6324088588611322e-06   -6.231348142668978e-08   -2.2042472923253784e-06
-6.1155790453498e-07   -2.9163318833208985e-07   -6.0817837221288455e-06
-6.1155790453498e-07   -2.9163318833208985e-07   -6.0817837221288455e-06
-6.1155790453498e-07   -2.9163318833208985e-07   -6.0817837221288455e-06
-6.1155790453498e-07   -2.9163318833208985e-07   -6.0817837221288455e-06
-5.305494772953901e-07   5.794552780983252e-08   -2.377524606693665e-06
-5.305494772953901e-07   5.794552780983252e-08   -2.377524606693665e-06
-5.305494772953901e-07   5.794552780983252e-08   -2.377524606693665e-06
-5.305494772953901e-07   5.794552780983252e-08   -2.377524606693665e-06
1.7366523589959193e-06   -1.9084309051077206e-07   -6.006921162853457e-06
1.7366523589959193e-06   -1.9084309051077206e-07   -6.006921162853457e-06
1.7366523589959193e-06   -1.9084309051077206e-07   -6.006921162853457e-06
1.7366523589959193e-06   -1.9084309051077206e-07   -6.006921162853457e-06
5.353993819418e-07   -1.034419920012083e-07   -4.057273526868946e-06
5.353993819418e-07   -1.034419920012083e-07   -4.057273526868946e-06
5.353993819418e-07   -1.034419920012083e-07   -4.057273526868946e-06
5.353993819418e-07   -1.034419920012083e-07   -4.057273526868946e-06
1.7366523589959193e-06   5.794552780988673e-08   -2.228251435701259e-06
1.7366523589959193e-06   5.794552780988673e-08   -2.228251435701259e-06
1.7366523589959193e-06   5.794552780988673e-08   -2.228251435701259e-06
1.7366523589959193e-06   5.794552780988673e-08   -2.228251435701259e-06
-5.305494772953901e-07   -1.9084309051082627e-07   -6.15619433384589e-06
-5.305494772953901e-07   -1.9084309051082627e-07   -6.15619433384589e-06
-5.305494772953901e-07   -1.9084309051082627e-07   -6.15619433384589e-06
-5.305494772953901e-07   -1.9084309051082627e-07   -6.15619433384589e-06
-4.551555201537364e-07   2.0173614128016952e-07   -2.4649608038341804e-06
-4.551555201537364e-07   2.0173614128016952e-07   -2.4649608038341804e-06
-4.551555201537364e-07   2.0173614128016952e-07   -2.4649608038341804e-06
-4.551555201537364e-07   2.0173614128016952e-07   -2.4649608038341804e-06
1.8201224578163206e-06   -6.290626873860271e-08   -6.098305321106324e-06
1.8201224578163206e-06   -6.290626873860271e-08   -6.098305321106324e-06
1.8201224578163206e-06   -6.290626873860271e-08   -6.098305321106324e-06
1.8201224578163206e-06   -6.290626873860271e-08   -6.098305321106324e-06
6.203515992978408e-07   -1.0759138556807029e-08   -4.129975501684707e-06
6.203515992978408e-07   -1.0759138556807029e-08   -4.129975501684707e-06
6.203515992978408e-07   -1.0759138556807029e-08   -4.129975501684707e-06
6.203515992978408e-07   -1.0759138556807029e-08   -4.129975501684707e-06
-6.964748442634796e-07   1.5722592338501297e-07   -3.0036995820435113e-06
-6.964748442634796e-07   1.5722592338501297e-07   -3.0036995820435113e-06
-6.964748442634796e-07   1.5722592338501297e-07   -3.0036995820435113e-06
-6.964748442634796e-07   1.5722592338501297e-07   -3.0036995820435113e-06
-2.8925175688468466e-06   1.0149163271291114e-07   -6.697211364085746e-06
-2.8925175688468466e-06   1.0149163271291114e-07   -6.697211364085746e-06
-2.8925175688468466e-06   1.0149163271291114e-07   -6.697211364085746e-06
-2.8925175688468466e-06   1.0149163271291114e-07   -6.697211364085746e-06
-2.8013678895993383e-06   2.8114834546268336e-07   -2.9738783160086822e-06
-2.8013678895993383e-06   2.8114834546268336e-07   -2.9738783160086822e-06
-2.8013678895993383e-06   2.8114834546268336e-07   -2.9738783160086822e-06
-2.8013678895993383e-06   2.8114834546268336e-07   -2.9738783160086822e-06
-6.1155790453498e-07   1.958093025858105e-07   -6.5723581987231215e-06
-6.1155790453498e-07   1.958093025858105e-07   -6.5723581987231215e-06
-6.1155790453498e-07   1.958093025858105e-07   -6.5723581987231215e-06
-6.1155790453498e-07   1.958093025858105e-07   -6.5723581987231215e-06
-1.7391631816573238e-06   2.169321192470623e-07   -4.705689760182659e-06
-1.7391631816573238e-06   2.169321192470623e-07   -4.705689760182659e-06
-1.7391631816573238e-06   2.169321192470623e-07   -4.705689760182659e-06
-1.7391631816573238e-06   2.169321192470623e-07   -4.705689760182659e-06
-6.1155790453498e-07   2.8114834546268336e-07   -2.9226748902825585e-06
-6.1155790453498e-07   2.8114834546268336e-07   -2.9226748902825585e-06
-6.1155790453498e-07   2.8114834546268336e-07   -2.9226748902825585e-06
-6.1155790453498e-07   2.8114834546268336e-07   -2.9226748902825585e-06
-2.8013678895993383e-06   1.958093025858105e-07   -6.6235616244492655e-06
-2.8013678895993383e-06   1.958093025858105e-07   -6.6235616244492655e-06
-2.8013678895993383e-06   1.958093025858105e-07   -6.6235616244492655e-06
-2.8013678895993383e-06   1.958093025858105e-07   -6.6235616244492655e-06
-2.7130107728496484e-06   4.1153388708988544e-07   -2.9695479126952136e-06
-2.7130107728496484e-06   4.1153388708988544e-07   -2.9695479126952136e-06
-2.7130107728496484e-06   4.1153388708988544e-07   -2.9695479126952136e-06
-2.7130107728496484e-06   4.1153388708988544e-07   -2.9695479126952136e-06
-5.305494772953901e-07   3.031871062897178e-07   -6.541975336805532e-06
-5.305494772953901e-07   3.031871062897178e-07   -6.541975336805532e-06
-5.305494772953901e-07   3.031871062897178e-07   -6.541975336805532e-06
-5.305494772953901e-07   3.031871062897178e-07   -6.541975336805532e-06
-1.6616684866456563e-06   3.0556956413617517e-07   -4.6582064625962685e-06
-1.6616684866456563e-06   3.0556956413617517e-07   -4.6582064625962685e-06
-1.6616684866456563e-06   3.0556956413617517e-07   -4.6582064625962685e-06
-1.6616684866456563e-06   3.0556956413617517e-07   -4.6582064625962685e-06
-5.305494772953935e-07   4.1153388708983123e-07   -2.9045398442150913e-06
-5.305494772953935e-07   4.1153388708983123e-07   -2.9045398442150913e-06
-5.305494772953935e-07   4.1153388708983123e-07   -2.9045398442150913e-06
-5.305494772953935e-07   4.1153388708983123e-07   -2.9045398442150913e-06
-2.7130107728496484e-06   3.031871062897178e-07   -6.606983405285627e-06
-2.7130107728496484e-06   3.031871062897178e-07   -6.606983405285627e-06
-2.7130107728496484e-06   3.031871062897178e-07   -6.606983405285627e-06
-2.7130107728496484e-06   3.031871062897178e-07   -6.606983405285627e-06
-2.6314397715322775e-06   5.442643670659992e-07   -3.0431411678263887e-06
-2.6314397715322775e-06   5.442643670659992e-07   -3.0431411678263887e-06
-2.6314397715322775e-06   5.442643670659992e-07   -3.0431411678263887e-06
-2.6314397715322775e-06   5.442643670659992e-07   -3.0431411678263887e-06
-4.551555201537364e-07   4.138093478255728e-07   -6.592008575246403e-06
-4.551555201537364e-07   4.138093478255728e-07   -6.592008575246403e-06
-4.551555201537364e-07   4.138093478255728e-07   -6.592008575246403e-06
-4.551555201537364e-07   4.138093478255728e-07   -6.592008575246403e-06
-1.5932590790150505e-06   3.9646595351622337e-07   -4.684763273891998e-06
-1.5932590790150505e-06   3.9646595351622337e-07   -4.684763273891998e-06
-1.5932590790150505e-06   3.9646595351622337e-07   -4.684763273891998e-06
-1.5932590790150505e-06   3.9646595351622337e-07   -4.684763273891998e-06
-2.8925175688468526e-06   4.868870461222736e-07   -2.4209394933766976e-06
-2.8925175688468526e-06   4.868870461222736e-07   -2.4209394933766976e-06
-2.8925175688468526e-06   4.868870461222736e-07   -2.4209394933766976e-06
-2.8925175688468526e-06   4.868870461222736e-07   -2.4209394933766976e-06
-5.067093527554453e-06   5.951678050567324e-07   -5.9802643025286685e-06
-5.067093527554453e-06   5.951678050567324e-07   -5.9802643025286685e-06
-5.067093527554453e-06   5.951678050567324e-07   -5.9802643025286685e-06
-5.067093527554453e-06   5.951678050567324e-07   -5.9802643025286685e-06
-4.956015854456015e-06   6.19304844342737e-07   -2.2564399967254015e-06
-4.956015854456015e-06   6.19304844342737e-07   -2.2564399967254015e-06
-4.956015854456015e-06   6.19304844342737e-07   -2.2564399967254015e-06
-4.956015854456015e-06   6.19304844342737e-07   -2.2564399967254015e-06
-2.8013678895993426e-06   7.126301652408333e-07   -5.9035151306920945e-06
-2.8013678895993426e-06   7.126301652408333e-07   -5.9035151306920945e-06
-2.8013678895993426e-06   7.126301652408333e-07   -5.9035151306920945e-06
-2.8013678895993426e-06   7.126301652408333e-07   -5.9035151306920945e-06
-3.900935787275088e-06   6.253707358409269e-07   -4.018546310259226e-06
-3.900935787275088e-06   6.253707358409269e-07   -4.018546310259226e-06
-3.900935787275088e-06   6.253707358409269e-07   -4.018546310259226e-06
-3.900935787275088e-06   6.253707358409269e-07   -4.018546310259226e-06
-2.8013678895993426e-06   6.19304844342737e-07   -2.312435189264292e-06
-2.8013678895993426e-06   6.19304844342737e-07   -2.312435189264292e-06
-2.8013678895993426e-06   6.19304844342737e-07   -2.312435189264292e-06
-2.8013678895993426e-06   6.19304844342737e-07   -2.312435189264292e-06
-4.956015854456015e-06   7.126301652408333e-07   -5.847519938153201e-06
-4.956015854456015e-06   7.126301652408333e-07   -5.847519938153201e-06
-4.956015854456015e-06   7.126301652408333e-07   -5.847519938153201e-06
-4.956015854456015e-06   7.126301652408333e-07   -5.847519938153201e-06
-4.830425959270141e-06   7.376199483030373e-07   -2.1644695476932634e-06
-4.830425959270141e-06   7.376199483030373e-07   -2.1644695476932634e-06
-4.830425959270141e-06   7.376199483030373e-07   -2.1644695476932634e-06
-4.830425959270141e-06   7.376199483030373e-07   -2.1644695476932634e-06
-2.7130107728496526e-06   8.134379407249786e-07   -5.7389856538472066e-06
-2.7130107728496526e-06   8.134379407249786e-07   -5.7389856538472066e-06
-2.7130107728496526e-06   8.134379407249786e-07   -5.7389856538472066e-06
-2.7130107728496526e-06   8.134379407249786e-07   -5.7389856538472066e-06
-3.785837739546753e-06   7.182693618321308e-07   -3.893839562016348e-06
-3.785837739546753e-06   7.182693618321308e-07   -3.893839562016348e-06
-3.785837739546753e-06   7.182693618321308e-07   -3.893839562016348e-06
-3.785837739546753e-06   7.182693618321308e-07   -3.893839562016348e-06
-2.71301077284965e-06   7.376199483030373e-07   -2.209960343146401e-06
-2.71301077284965e-06   7.376199483030373e-07   -2.209960343146401e-06
-2.71301077284965e-06   7.376199483030373e-07   -2.209960343146401e-06
-2.71301077284965e-06   7.376199483030373e-07   -2.209960343146401e-06
-4.830425959270141e-06   8.134379407249786e-07   -5.693494858394091e-06
-4.830425959270141e-06   8.134379407249786e-07   -5.693494858394091e-06
-4.830425959270141e-06   8.134379407249786e-07   -5.693494858394091e-06
-4.830425959270141e-06   8.134379407249786e-07   -5.693494858394091e-06
-4.7250066080258895e-06   8.679028384494451e-07   -2.2157085197372836e-06
-4.7250066080258895e-06   8.679028384494451e-07   -2.2157085197372836e-06
-4.7250066080258895e-06   8.679028384494451e-07   -2.2157085197372836e-06
-4.7250066080258895e-06   8.679028384494451e-07   -2.2157085197372836e-06
-2.6314397715322817e-06   9.231334086299593e-07   -5.738124922668232e-06
-2.6314397715322817e-06   9.231334086299593e-07   -5.738124922668232e-06
-2.6314397715322817e-06   9.231334086299593e-07   -5.738124922668232e-06
-2.6314397715322817e-06   9.231334086299593e-07   -5.738124922668232e-06
-3.7208611241093653e-06   8.031168953048632e-07   -3.8504127603780276e-06
-3.7208611241093653e-06   8.031168953048632e-07   -3.8504127603780276e-06
-3.7208611241093653e-06   8.031168953048632e-07   -3.8504127603780276e-06
-3.7208611241093653e-06   8.031168953048632e-07   -3.8504127603780276e-06
-5.067093527554453e-06   8.400625067534341e-07   -1.1961190234468805e-06
-5.067093527554453e-06   8.400625067534341e-07   -1.1961190234468805e-06
-5.067093527554453e-06   8.400625067534341e-07   -1.1961190234468805e-06
-5.067093527554453e-06   8.400625067534341e-07   -1.1961190234468805e-06
-7.3839096890094965e-06   1.1428200592922657e-06   -4.875824761015339e-06
-7.3839096890094965e-06   1.1428200592922657e-06   -4.875824761015339e-06
-7.3839096890094965e-06   1.1428200592922657e-06   -4.875824761015339e-06
-7.3839096890094965e-06   1.1428200592922657e-06   -4.875824761015339e-06
-7.1100737230876285e-06   9.792470286270108e-07   -2.7704226043275383e-07
-7.1100737230876285e-06   9.792470286270108e-07   -2.7704226043275383e-07
-7.1100737230876285e-06   9.792470286270108e-07   -2.7704226043275383e-07
-7.1100737230876285e-06   9.792470286270108e-07   -2.7704226043275383e-07
-4.956015854456006e-06   1.2992339991406096e-06   -4.059130890460293e-06
-4.956015854456006e-06   1.2992339991406096e-06   -4.059130890460293e-06
-4.956015854456006e-06   1.2992339991406096e-06   -4.059130890460293e-06
-4.956015854456006e-06   1.2992339991406096e-06   -4.059130890460293e-06
-5.876986639120084e-06   1.0877826640882547e-06   -2.3973087816553904e-06
-5.876986639120084e-06   1.0877826640882547e-06   -2.3973087816553904e-06
-5.876986639120084e-06   1.0877826640882547e-06   -2.3973087816553904e-06
-5.876986639120084e-06   1.0877826640882547e-06   -2.3973087816553904e-06
-4.95601585445601e-06   9.792470286269837e-07   -4.6903444274093474e-07
-4.95601585445601e-06   9.792470286269837e-07   -4.6903444274093474e-07
-4.95601585445601e-06   9.792470286269837e-07   -4.6903444274093474e-07
-4.95601585445601e-06   9.792470286269837e-07   -4.6903444274093474e-07
-7.110073723087615e-06   1.2992339991406096e-06   -3.867138708152124e-06
-7.110073723087615e-06   1.2992339991406096e-06   -3.867138708152124e-06
-7.110073723087615e-06   1.2992339991406096e-06   -3.867138708152124e-06
-7.110073723087615e-06   1.2992339991406096e-06   -3.867138708152124e-06
-6.885112022818147e-06   1.029679471070547e-06   1.1608214949267669e-07
-6.885112022818147e-06   1.029679471070547e-06   1.1608214949267669e-07
-6.885112022818147e-06   1.029679471070547e-06   1.1608214949267669e-07
-6.885112022818147e-06   1.029679471070547e-06   1.1608214949267669e-07
-4.830425959270141e-06   1.3414238450863876e-06   -3.4954412474968486e-06
-4.830425959270141e-06   1.3414238450863876e-06   -3.4954412474968486e-06
-4.830425959270141e-06   1.3414238450863876e-06   -3.4954412474968486e-06
-4.830425959270141e-06   1.3414238450863876e-06   -3.4954412474968486e-06
-5.79867489811152e-06   1.1534797419168676e-06   -1.768926554192787e-06
-5.79867489811152e-06   1.1534797419168676e-06   -1.768926554192787e-06
-5.79867489811152e-06   1.1534797419168676e-06   -1.768926554192787e-06
-5.79867489811152e-06   1.1534797419168676e-06   -1.768926554192787e-06
-4.830425959270141e-06   1.029679471070547e-06   -7.096447491683304e-08
-4.830425959270141e-06   1.029679471070547e-06   -7.096447491683304e-08
-4.830425959270141e-06   1.029679471070547e-06   -7.096447491683304e-08
-4.830425959270141e-06   1.029679471070547e-06   -7.096447491683304e-08
-6.885112022818121e-06   1.3414238450863334e-06   -3.3083946230873435e-06
-6.885112022818121e-06   1.3414238450863334e-06   -3.3083946230873435e-06
-6.885112022818121e-06   1.3414238450863334e-06   -3.3083946230873435e-06
-6.885112022818121e-06   1.3414238450863334e-06   -3.3083946230873435e-06
-6.63768720441232e-06   1.088673722765077e-06   6.264038065522867e-07
-6.63768720441232e-06   1.088673722765077e-06   6.264038065522867e-07
-6.63768720441232e-06   1.088673722765077e-06   6.264038065522867e-07
-6.63768720441232e-06   1.088673722765077e-06   6.264038065522867e-07
-4.7250066080258895e-06   1.3721476164110379e-06   -2.731481523612677e-06
-4.7250066080258895e-06   1.3721476164110379e-06   -2.731481523612677e-06
-4.7250066080258895e-06   1.3721476164110379e-06   -2.731481523612677e-06
-4.7250066080258895e-06   1.3721476164110379e-06   -2.731481523612677e-06
-5.562352140315147e-06   1.1633600494583896e-06   -1.2106330962923912e-06
-5.562352140315147e-06   1.1633600494583896e-06   -1.2106330962923912e-06
-5.562352140315147e-06   1.1633600494583896e-06   -1.2106330962923912e-06
-5.562352140315147e-06   1.1633600494583896e-06   -1.2106330962923912e-06
6.063588091952766e-06   -8.356897013670644e-07   1.3707400285029904e-06
6.063588091952766e-06   -8.356897013670644e-07   1.3707400285029904e-06
6.063588091952766e-06   -8.356897013670644e-07   1.3707400285029904e-06
6.063588091952766e-06   -8.356897013670644e-07   1.3707400285029904e-06
2.8843904755842106e-06   -1.21190434229884e-06   -4.1536514500036545e-06
2.8843904755842106e-06   -1.21190434229884e-06   -4.1536514500036545e-06
2.8843904755842106e-06   -1.21190434229884e-06   -4.1536514500036545e-06
2.8843904755842106e-06   -1.21190434229884e-06   -4.1536514500036545e-06
2.986784410086522e-06   -7.797913287911368e-07   7.497713871578197e-07
2.986784410086522e-06   -7.797913287911368e-07   7.497713871578197e-07
2.986784410086522e-06   -7.797913287911368e-07   7.497713871578197e-07
2.986784410086522e-06   -7.797913287911368e-07   7.497713871578197e-07
6.3162526989082515e-06   -1.1866079190987668e-06   -4.5552524733605295e-06
6.3162526989082515e-06   -1.1866079190987668e-06   -4.5552524733605295e-06
6.3162526989082515e-06   -1.1866079190987668e-06   -4.5552524733605295e-06
6.3162526989082515e-06   -1.1866079190987668e-06   -4.5552524733605295e-06
4.3754618528954205e-06   -9.093132769661099e-07   -1.4869778486186996e-06
4.3754618528954205e-06   -9.093132769661099e-07   -1.4869778486186996e-06
4.3754618528954205e-06   -9.093132769661099e-07   -1.4869778486186996e-06
4.3754618528954205e-06   -9.093132769661099e-07   -1.4869778486186996e-06
6.316252698908265e-06   -7.797913287911368e-07   9.93861341342403e-07
6.316252698908265e-06   -7.797913287911368e-07   9.93861341342403e-07
6.316252698908265e-06   -7.797913287911368e-07   9.93861341342403e-07
6.316252698908265e-06   -7.797913287911368e-07   9.93861341342403e-07
2.9867844100865184e-06   -1.1866079190987668e-06   -4.799342427545079e-06
2.9867844100865184e-06   -1.1866079190987668e-06   -4.799342427545079e-06
2.9867844100865184e-06   -1.1866079190987668e-06   -4.799342427545079e-06
2.9867844100865184e-06   -1.1866079190987668e-06   -4.799342427545079e-06
3.089050610487691e-06   -7.285047235425527e-07   4.3893249767164777e-07
3.089050610487691e-06   -7.285047235425527e-07   4.3893249767164777e-07
3.089050610487691e-06   -7.285047235425527e-07   4.3893249767164777e-07
3.089050610487691e-06   -7.285047235425527e-07   4.3893249767164777e-07
6.507901205058554e-06   -1.1444002341657027e-06   -5.009614520239219e-06
6.507901205058554e-06   -1.1444002341657027e-06   -5.009614520239219e-06
6.507901205058554e-06   -1.1444002341657027e-06   -5.009614520239219e-06
6.507901205058554e-06   -1.1444002341657027e-06   -5.009614520239219e-06
4.590716360392172e-06   -9.056573561541485e-07   -1.9575521726021924e-06
4.590716360392172e-06   -9.056573561541485e-07   -1.9575521726021924e-06
4.590716360392172e-06   -9.056573561541485e-07   -1.9575521726021924e-06
4.590716360392172e-06   -9.056573561541485e-07   -1.9575521726021924e-06
6.507901205058554e-06   -7.285047235425527e-07   6.884698040455378e-07
6.507901205058554e-06   -7.285047235425527e-07   6.884698040455378e-07
6.507901205058554e-06   -7.285047235425527e-07   6.884698040455378e-07
6.507901205058554e-06   -7.285047235425527e-07   6.884698040455378e-07
3.089050610487691e-06   -1.1444002341657027e-06   -5.259151826613129e-06
3.089050610487691e-06   -1.1444002341657027e-06   -5.259151826613129e-06
3.089050610487691e-06   -1.1444002341657027e-06   -5.259151826613129e-06
3.089050610487691e-06   -1.1444002341657027e-06   -5.259151826613129e-06
3.1559383888018637e-06   -5.69964335054695e-07   -1.7525168840033648e-07
3.1559383888018637e-06   -5.69964335054695e-07   -1.7525168840033648e-07
3.1559383888018637e-06   -5.69964335054695e-07   -1.7525168840033648e-07
3.1559383888018637e-06   -5.69964335054695e-07   -1.7525168840033648e-07
6.711403774932757e-06   -9.834421164535553e-07   -5.8529406631125115e-06
6.711403774932757e-06   -9.834421164535553e-07   -5.8529406631125115e-06
6.711403774932757e-06   -9.834421164535553e-07   -5.8529406631125115e-06
6.711403774932757e-06   -9.834421164535553e-07   -5.8529406631125115e-06
4.639362975950045e-06   -8.341223813920339e-07   -2.4891311725116236e-06
4.639362975950045e-06   -8.341223813920339e-07   -2.4891311725116236e-06
4.639362975950045e-06   -8.341223813920339e-07   -2.4891311725116236e-06
4.639362975950045e-06   -8.341223813920339e-07   -2.4891311725116236e-06
2.8843904755842174e-06   -3.744856870963693e-07   -1.2323157849674477e-06
2.8843904755842174e-06   -3.744856870963693e-07   -1.2323157849674477e-06
2.8843904755842174e-06   -3.744856870963693e-07   -1.2323157849674477e-06
2.8843904755842174e-06   -3.744856870963693e-07   -1.2323157849674477e-06
-2.4242336661946384e-07   -7.445221613422187e-07   -6.665694073187777e-06
-2.4242336661946384e-07   -7.445221613422187e-07   -6.665694073187777e-06
-2.4242336661946384e-07   -7.445221613422187e-07   -6.665694073187777e-06
-2.4242336661946384e-07   -7.445221613422187e-07   -6.665694073187777e-06
-1.3879711912459736e-07   -2.9163318833208985e-07   -1.3670154510796542e-06
-1.3879711912459736e-07   -2.9163318833208985e-07   -1.3670154510796542e-06
-1.3879711912459736e-07   -2.9163318833208985e-07   -1.3670154510796542e-06
-1.3879711912459736e-07   -2.9163318833208985e-07   -1.3670154510796542e-06
2.986784410086522e-06   -7.031904105870472e-07   -6.3293836664118526e-06
2.986784410086522e-06   -7.031904105870472e-07   -6.3293836664118526e-06
2.986784410086522e-06   -7.031904105870472e-07   -6.3293836664118526e-06
2.986784410086522e-06   -7.031904105870472e-07   -6.3293836664118526e-06
1.3753146373136663e-06   -4.5230349026288393e-07   -3.7941328639849487e-06
1.3753146373136663e-06   -4.5230349026288393e-07   -3.7941328639849487e-06
1.3753146373136663e-06   -4.5230349026288393e-07   -3.7941328639849487e-06
1.3753146373136663e-06   -4.5230349026288393e-07   -3.7941328639849487e-06
2.986784410086522e-06   -2.9163318833208985e-07   -1.1200811177267014e-06
2.986784410086522e-06   -2.9163318833208985e-07   -1.1200811177267014e-06
2.986784410086522e-06   -2.9163318833208985e-07   -1.1200811177267014e-06
2.986784410086522e-06   -2.9163318833208985e-07   -1.1200811177267014e-06
-1.3879711912459736e-07   -7.031904105870472e-07   -6.576317999764866e-06
-1.3879711912459736e-07   -7.031904105870472e-07   -6.576317999764866e-06
-1.3879711912459736e-07   -7.031904105870472e-07   -6.576317999764866e-06
-1.3879711912459736e-07   -7.031904105870472e-07   -6.576317999764866e-06
-4.787129208927351e-08   -1.9084309051082627e-07   -1.4120380479848535e-06
-4.787129208927351e-08   -1.9084309051082627e-07   -1.4120380479848535e-06
-4.787129208927351e-08   -1.9084309051082627e-07   -1.4120380479848535e-06
-4.787129208927351e-08   -1.9084309051082627e-07   -1.4120380479848535e-06
3.089050610487691e-06   -6.304145418925653e-07   -6.376498348117372e-06
3.089050610487691e-06   -6.304145418925653e-07   -6.376498348117372e-06
3.089050610487691e-06   -6.304145418925653e-07   -6.376498348117372e-06
3.089050610487691e-06   -6.304145418925653e-07   -6.376498348117372e-06
1.4423087137099511e-06   -4.091248999458976e-07   -3.7647023053224654e-06
1.4423087137099511e-06   -4.091248999458976e-07   -3.7647023053224654e-06
1.4423087137099511e-06   -4.091248999458976e-07   -3.7647023053224654e-06
1.4423087137099511e-06   -4.091248999458976e-07   -3.7647023053224654e-06
3.089050610487691e-06   -1.9084309051077206e-07   -1.1482951771557722e-06
3.089050610487691e-06   -1.9084309051077206e-07   -1.1482951771557722e-06
3.089050610487691e-06   -1.9084309051077206e-07   -1.1482951771557722e-06
3.089050610487691e-06   -1.9084309051077206e-07   -1.1482951771557722e-06
-4.787129208927351e-08   -6.304145418926195e-07   -6.64024121894646e-06
-4.787129208927351e-08   -6.304145418926195e-07   -6.64024121894646e-06
-4.787129208927351e-08   -6.304145418926195e-07   -6.64024121894646e-06
-4.787129208927351e-08   -6.304145418926195e-07   -6.64024121894646e-06
1.5571472888344616e-08   -6.290626873865692e-08   -1.4802570881812212e-06
1.5571472888344616e-08   -6.290626873865692e-08   -1.4802570881812212e-06
1.5571472888344616e-08   -6.290626873865692e-08   -1.4802570881812212e-06
1.5571472888344616e-08   -6.290626873865692e-08   -1.4802570881812212e-06
3.155938388801874e-06   -5.265465326473599e-07   -6.436017789691836e-06
3.155938388801874e-06   -5.265465326473599e-07   -6.436017789691836e-06
3.155938388801874e-06   -5.265465326473599e-07   -6.436017789691836e-06
3.155938388801874e-06   -5.265465326473599e-07   -6.436017789691836e-06
1.5278761507253917e-06   -3.3563490836092816e-07   -3.837127700802973e-06
1.5278761507253917e-06   -3.3563490836092816e-07   -3.837127700802973e-06
1.5278761507253917e-06   -3.3563490836092816e-07   -3.837127700802973e-06
1.5278761507253917e-06   -3.3563490836092816e-07   -3.837127700802973e-06
-2.4242336661946384e-07   1.0149163271285693e-07   -1.979434132608378e-06
-2.4242336661946384e-07   1.0149163271285693e-07   -1.979434132608378e-06
-2.4242336661946384e-07   1.0149163271285693e-07   -1.979434132608378e-06
-2.4242336661946384e-07   1.0149163271285693e-07   -1.979434132608378e-06
-3.323244781654207e-06   -3.2755113917319785e-07   -7.371562154131236e-06
-3.323244781654207e-06   -3.2755113917319785e-07   -7.371562154131236e-06
-3.323244781654207e-06   -3.2755113917319785e-07   -7.371562154131236e-06
-3.323244781654207e-06   -3.2755113917319785e-07   -7.371562154131236e-06
-3.198361978213082e-06   1.958093025858105e-07   -2.1413174383764122e-06
-3.198361978213082e-06   1.958093025858105e-07   -2.1413174383764122e-06
-3.198361978213082e-06   1.958093025858105e-07   -2.1413174383764122e-06
-3.198361978213082e-06   1.958093025858105e-07   -2.1413174383764122e-06
-1.3879711912459736e-07   -2.7706988191831053e-07   -6.95686469282143e-06
-1.3879711912459736e-07   -2.7706988191831053e-07   -6.95686469282143e-06
-1.3879711912459736e-07   -2.7706988191831053e-07   -6.95686469282143e-06
-1.3879711912459736e-07   -2.7706988191831053e-07   -6.95686469282143e-06
-1.7075181173826833e-06   -2.201494002840223e-08   -4.495362660858521e-06
-1.7075181173826833e-06   -2.201494002840223e-08   -4.495362660858521e-06
-1.7075181173826833e-06   -2.201494002840223e-08   -4.495362660858521e-06
-1.7075181173826833e-06   -2.201494002840223e-08   -4.495362660858521e-06
-1.3879711912459736e-07   1.958093025858105e-07   -1.8575899276739504e-06
-1.3879711912459736e-07   1.958093025858105e-07   -1.8575899276739504e-06
-1.3879711912459736e-07   1.958093025858105e-07   -1.8575899276739504e-06
-1.3879711912459736e-07   1.958093025858105e-07   -1.8575899276739504e-06
-3.198361978213082e-06   -2.7706988191831053e-07   -7.240592203523895e-06
-3.198361978213082e-06   -2.7706988191831053e-07   -7.240592203523895e-06
-3.198361978213082e-06   -2.7706988191831053e-07   -7.240592203523895e-06
-3.198361978213082e-06   -2.7706988191831053e-07   -7.240592203523895e-06
-3.0838551233554e-06   3.031871062897178e-07   -2.102427533538006e-06
-3.0838551233554e-06   3.031871062897178e-07   -2.102427533538006e-06
-3.0838551233554e-06   3.031871062897178e-07   -2.102427533538006e-06
-3.0838551233554e-06   3.031871062897178e-07   -2.102427533538006e-06
-4.787129208927351e-08   -2.044936980328269e-07   -6.85779210305473e-06
-4.787129208927351e-08   -2.044936980328269e-07   -6.85779210305473e-06
-4.787129208927351e-08   -2.044936980328269e-07   -6.85779210305473e-06
-4.787129208927351e-08   -2.044936980328269e-07   -6.85779210305473e-06
-1.6070359244382907e-06   3.354965287961226e-08   -4.402010393020479e-06
-1.6070359244382907e-06   3.354965287961226e-08   -4.402010393020479e-06
-1.6070359244382907e-06   3.354965287961226e-08   -4.402010393020479e-06
-1.6070359244382907e-06   3.354965287961226e-08   -4.402010393020479e-06
-4.787129208927351e-08   3.031871062897178e-07   -1.7978190509444953e-06
-4.787129208927351e-08   3.031871062897178e-07   -1.7978190509444953e-06
-4.787129208927351e-08   3.031871062897178e-07   -1.7978190509444953e-06
-4.787129208927351e-08   3.031871062897178e-07   -1.7978190509444953e-06
-3.0838551233554e-06   -2.0449369803277268e-07   -7.16240058564824e-06
-3.0838551233554e-06   -2.0449369803277268e-07   -7.16240058564824e-06
-3.0838551233554e-06   -2.0449369803277268e-07   -7.16240058564824e-06
-3.0838551233554e-06   -2.0449369803277268e-07   -7.16240058564824e-06
-3.0071571652789806e-06   4.1380934782562703e-07   -2.144353470071909e-06
-3.0071571652789806e-06   4.1380934782562703e-07   -2.144353470071909e-06
-3.0071571652789806e-06   4.1380934782562703e-07   -2.144353470071909e-06
-3.0071571652789806e-06   4.1380934782562703e-07   -2.144353470071909e-06
1.5571472888344616e-08   -1.3482160844430647e-07   -6.853055959922206e-06
1.5571472888344616e-08   -1.3482160844430647e-07   -6.853055959922206e-06
1.5571472888344616e-08   -1.3482160844430647e-07   -6.853055959922206e-06
1.5571472888344616e-08   -1.3482160844430647e-07   -6.853055959922206e-06
-1.5366901611974868e-06   9.520824587733439e-08   -4.403971149038884e-06
-1.5366901611974868e-06   9.520824587733439e-08   -4.403971149038884e-06
-1.5366901611974868e-06   9.520824587733439e-08   -4.403971149038884e-06
-1.5366901611974868e-06   9.520824587733439e-08   -4.403971149038884e-06
-3.323244781654207e-06   5.951678050567324e-07   -1.584881189543592e-06
-3.323244781654207e-06   5.951678050567324e-07   -1.584881189543592e-06
-3.323244781654207e-06   5.951678050567324e-07   -1.584881189543592e-06
-3.323244781654207e-06   5.951678050567324e-07   -1.584881189543592e-06
-6.455410345545698e-06   2.1911973619690188e-07   -7.030785970678669e-06
-6.455410345545698e-06   2.1911973619690188e-07   -7.030785970678669e-06
-6.455410345545698e-06   2.1911973619690188e-07   -7.030785970678669e-06
-6.455410345545698e-06   2.1911973619690188e-07   -7.030785970678669e-06
-6.2769523725888385e-06   7.126301652408875e-07   -1.6664336952454547e-06
-6.2769523725888385e-06   7.126301652408875e-07   -1.6664336952454547e-06
-6.2769523725888385e-06   7.126301652408875e-07   -1.6664336952454547e-06
-6.2769523725888385e-06   7.126301652408875e-07   -1.6664336952454547e-06
-3.198361978213082e-06   3.0402558086388637e-07   -6.5522549352455324e-06
-3.198361978213082e-06   3.0402558086388637e-07   -6.5522549352455324e-06
-3.198361978213082e-06   3.0402558086388637e-07   -6.5522549352455324e-06
-3.198361978213082e-06   3.0402558086388637e-07   -6.5522549352455324e-06
-4.766803655819713e-06   4.934526712255466e-07   -4.051841726784802e-06
-4.766803655819713e-06   4.934526712255466e-07   -4.051841726784802e-06
-4.766803655819713e-06   4.934526712255466e-07   -4.051841726784802e-06
-4.766803655819713e-06   4.934526712255466e-07   -4.051841726784802e-06
-3.198361978213082e-06   7.126301652408875e-07   -1.4212709446192377e-06
-3.198361978213082e-06   7.126301652408875e-07   -1.4212709446192377e-06
-3.198361978213082e-06   7.126301652408875e-07   -1.4212709446192377e-06
-3.198361978213082e-06   7.126301652408875e-07   -1.4212709446192377e-06
-6.2769523725888495e-06   3.040255808639406e-07   -6.797417685871712e-06
-6.2769523725888495e-06   3.040255808639406e-07   -6.797417685871712e-06
-6.2769523725888495e-06   3.040255808639406e-07   -6.797417685871712e-06
-6.2769523725888495e-06   3.040255808639406e-07   -6.797417685871712e-06
-6.101601259836266e-06   8.134379407249244e-07   -1.4937091745471378e-06
-6.101601259836266e-06   8.134379407249244e-07   -1.4937091745471378e-06
-6.101601259836266e-06   8.134379407249244e-07   -1.4937091745471378e-06
-6.101601259836266e-06   8.134379407249244e-07   -1.4937091745471378e-06
-3.0838551233554067e-06   3.813056199791754e-07   -6.2640066762344585e-06
-3.0838551233554067e-06   3.813056199791754e-07   -6.2640066762344585e-06
-3.0838551233554067e-06   3.813056199791754e-07   -6.2640066762344585e-06
-3.0838551233554067e-06   3.813056199791754e-07   -6.2640066762344585e-06
-4.6013060449185935e-06   5.674589333038858e-07   -3.8466137949572925e-06
-4.6013060449185935e-06   5.674589333038858e-07   -3.8466137949572925e-06
-4.6013060449185935e-06   5.674589333038858e-07   -3.8466137949572925e-06
-4.6013060449185935e-06   5.674589333038858e-07   -3.8466137949572925e-06
-3.0838551233553966e-06   8.134379407249244e-07   -1.2344297820996342e-06
-3.0838551233553966e-06   8.134379407249244e-07   -1.2344297820996342e-06
-3.0838551233553966e-06   8.134379407249244e-07   -1.2344297820996342e-06
-3.0838551233553966e-06   8.134379407249244e-07   -1.2344297820996342e-06
-6.101601259836276e-06   3.813056199791754e-07   -6.5232860686819316e-06
-6.101601259836276e-06   3.813056199791754e-07   -6.5232860686819316e-06
-6.101601259836276e-06   3.813056199791754e-07   -6.5232860686819316e-06
-6.101601259836276e-06   3.813056199791754e-07   -6.5232860686819316e-06
-5.9727091483122944e-06   9.231334086299051e-07   -1.4992037984041986e-06
-5.9727091483122944e-06   9.231334086299051e-07   -1.4992037984041986e-06
-5.9727091483122944e-06   9.231334086299051e-07   -1.4992037984041986e-06
-5.9727091483122944e-06   9.231334086299051e-07   -1.4992037984041986e-06
-3.0071571652789857e-06   4.4478842120548997e-07   -6.154783444338371e-06
-3.0071571652789857e-06   4.4478842120548997e-07   -6.154783444338371e-06
-3.0071571652789857e-06   4.4478842120548997e-07   -6.154783444338371e-06
-3.0071571652789857e-06   4.4478842120548997e-07   -6.154783444338371e-06
-4.518210394541999e-06   6.196636019461686e-07   -3.741286504011088e-06
-4.518210394541999e-06   6.196636019461686e-07   -3.741286504011088e-06
-4.518210394541999e-06   6.196636019461686e-07   -3.741286504011088e-06
-4.518210394541999e-06   6.196636019461686e-07   -3.741286504011088e-06
-6.455410345545698e-06   1.1428200592922657e-06   -8.877250208694926e-07
-6.455410345545698e-06   1.1428200592922657e-06   -8.877250208694926e-07
-6.455410345545698e-06   1.1428200592922657e-06   -8.877250208694926e-07
-6.455410345545698e-06   1.1428200592922657e-06   -8.877250208694926e-07
-9.752303978146332e-06   1.1052964520656921e-06   -6.405061906206497e-06
-9.752303978146332e-06   1.1052964520656921e-06   -6.405061906206497e-06
-9.752303978146332e-06   1.1052964520656921e-06   -6.405061906206497e-06
-9.752303978146332e-06   1.1052964520656921e-06   -6.405061906206497e-06
-9.377592213800882e-06   1.2992339991406096e-06   1.603096288414177e-07
-9.377592213800882e-06   1.2992339991406096e-06   1.603096288414177e-07
-9.377592213800882e-06   1.2992339991406096e-06   1.603096288414177e-07
-9.377592213800882e-06   1.2992339991406096e-06   1.603096288414177e-07
-6.276952372588828e-06   1.3631577931306062e-06   -5.04577771623929e-06
-6.276952372588828e-06   1.3631577931306062e-06   -5.04577771623929e-06
-6.276952372588828e-06   1.3631577931306062e-06   -5.04577771623929e-06
-6.276952372588828e-06   1.3631577931306062e-06   -5.04577771623929e-06
-7.623525147060612e-06   1.2805666467180878e-06   -2.7519350709388575e-06
-7.623525147060612e-06   1.2805666467180878e-06   -2.7519350709388575e-06
-7.623525147060612e-06   1.2805666467180878e-06   -2.7519350709388575e-06
-7.623525147060612e-06   1.2805666467180878e-06   -2.7519350709388575e-06
-6.276952372588844e-06   1.2992339991406638e-06   1.2195535244746854e-07
-6.276952372588844e-06   1.2992339991406638e-06   1.2195535244746854e-07
-6.276952372588844e-06   1.2992339991406638e-06   1.2195535244746854e-07
-6.276952372588844e-06   1.2992339991406638e-06   1.2195535244746854e-07
-9.377592213800868e-06   1.3631577931306062e-06   -5.0074234398453225e-06
-9.377592213800868e-06   1.3631577931306062e-06   -5.0074234398453225e-06
-9.377592213800868e-06   1.3631577931306062e-06   -5.0074234398453225e-06
-9.377592213800868e-06   1.3631577931306062e-06   -5.0074234398453225e-06
-9.07023280340254e-06   1.3414238450863876e-06   7.531366841058581e-07
-9.07023280340254e-06   1.3414238450863876e-06   7.531366841058581e-07
-9.07023280340254e-06   1.3414238450863876e-06   7.531366841058581e-07
-9.07023280340254e-06   1.3414238450863876e-06   7.531366841058581e-07
-6.101601259836266e-06   1.4227442580126422e-06   -4.243374802927048e-06
-6.101601259836266e-06   1.4227442580126422e-06   -4.243374802927048e-06
-6.101601259836266e-06   1.4227442580126422e-06   -4.243374802927048e-06
-6.101601259836266e-06   1.4227442580126422e-06   -4.243374802927048e-06
-7.502017644928315e-06   1.3697163010861334e-06   -1.8775307202843082e-06
-7.502017644928315e-06   1.3697163010861334e-06   -1.8775307202843082e-06
-7.502017644928315e-06   1.3697163010861334e-06   -1.8775307202843082e-06
-7.502017644928315e-06   1.3697163010861334e-06   -1.8775307202843082e-06
-6.101601259836276e-06   1.3414238450863334e-06   7.043444363500999e-07
-6.101601259836276e-06   1.3414238450863334e-06   7.043444363500999e-07
-6.101601259836276e-06   1.3414238450863334e-06   7.043444363500999e-07
-6.101601259836276e-06   1.3414238450863334e-06   7.043444363500999e-07
-9.070232803402557e-06   1.422744258012588e-06   -4.194582555171319e-06
-9.070232803402557e-06   1.422744258012588e-06   -4.194582555171319e-06
-9.070232803402557e-06   1.422744258012588e-06   -4.194582555171319e-06
-9.070232803402557e-06   1.422744258012588e-06   -4.194582555171319e-06
-8.745144751109738e-06   1.3721476164110379e-06   1.5595778062344075e-06
-8.745144751109738e-06   1.3721476164110379e-06   1.5595778062344075e-06
-8.745144751109738e-06   1.3721476164110379e-06   1.5595778062344075e-06
-8.745144751109738e-06   1.3721476164110379e-06   1.5595778062344075e-06
-5.972709148312305e-06   1.5142751958966013e-06   -3.1464247461193578e-06
-5.972709148312305e-06   1.5142751958966013e-06   -3.1464247461193578e-06
-5.972709148312305e-06   1.5142751958966013e-06   -3.1464247461193578e-06
-5.972709148312305e-06   1.5142751958966013e-06   -3.1464247461193578e-06
-7.180665830366149e-06   1.3952936081331499e-06   -1.061774656704901e-06
-7.180665830366149e-06   1.3952936081331499e-06   -1.061774656704901e-06
-7.180665830366149e-06   1.3952936081331499e-06   -1.061774656704901e-06
-7.180665830366149e-06   1.3952936081331499e-06   -1.061774656704901e-06
8.19311890727609e-06   -1.21190434229884e-06   2.9282689363489085e-06
8.19311890727609e-06   -1.21190434229884e-06   2.9282689363489085e-06
8.19311890727609e-06   -1.21190434229884e-06   2.9282689363489085e-06
8.19311890727609e-06   -1.21190434229884e-06   2.9282689363489085e-06
4.07786894037511e-06   -1.512716794477894e-06   -4.1109684797935265e-06
4.07786894037511e-06   -1.512716794477894e-06   -4.1109684797935265e-06
4.07786894037511e-06   -1.512716794477894e-06   -4.1109684797935265e-06
4.07786894037511e-06   -1.512716794477894e-06   -4.1109684797935265e-06
4.164041627523442e-06   -1.1866079190987668e-06   2.1331545679539507e-06
4.164041627523442e-06   -1.1866079190987668e-06   2.1331545679539507e-06
4.164041627523442e-06   -1.1866079190987668e-06   2.1331545679539507e-06
4.164041627523442e-06   -1.1866079190987668e-06   2.1331545679539507e-06
8.379826754191108e-06   -1.5506965923079352e-06   -4.674700772566613e-06
8.379826754191108e-06   -1.5506965923079352e-06   -4.674700772566613e-06
8.379826754191108e-06   -1.5506965923079352e-06   -4.674700772566613e-06
8.379826754191108e-06   -1.5506965923079352e-06   -4.674700772566613e-06
5.953720533048952e-06   -1.2372410644978602e-06   -8.192637206824109e-07
5.953720533048952e-06   -1.2372410644978602e-06   -8.192637206824109e-07
5.953720533048952e-06   -1.2372410644978602e-06   -8.192637206824109e-07
5.953720533048952e-06   -1.2372410644978602e-06   -8.192637206824109e-07
8.379826754191108e-06   -1.1866079190987668e-06   2.3516077718795006e-06
8.379826754191108e-06   -1.1866079190987668e-06   2.3516077718795006e-06
8.379826754191108e-06   -1.1866079190987668e-06   2.3516077718795006e-06
8.379826754191108e-06   -1.1866079190987668e-06   2.3516077718795006e-06
4.164041627523442e-06   -1.5506965923079352e-06   -4.893153976492156e-06
4.164041627523442e-06   -1.5506965923079352e-06   -4.893153976492156e-06
4.164041627523442e-06   -1.5506965923079352e-06   -4.893153976492156e-06
4.164041627523442e-06   -1.5506965923079352e-06   -4.893153976492156e-06
4.236562745070996e-06   -1.1444002341657027e-06   1.700414653768909e-06
4.236562745070996e-06   -1.1444002341657027e-06   1.700414653768909e-06
4.236562745070996e-06   -1.1444002341657027e-06   1.700414653768909e-06
4.236562745070996e-06   -1.1444002341657027e-06   1.700414653768909e-06
8.494814710923901e-06   -1.5340213242103309e-06   -5.16289930195915e-06
8.494814710923901e-06   -1.5340213242103309e-06   -5.16289930195915e-06
8.494814710923901e-06   -1.5340213242103309e-06   -5.16289930195915e-06
8.494814710923901e-06   -1.5340213242103309e-06   -5.16289930195915e-06
6.1515683024506945e-06   -1.2730915440010981e-06   -1.414046489295971e-06
6.1515683024506945e-06   -1.2730915440010981e-06   -1.414046489295971e-06
6.1515683024506945e-06   -1.2730915440010981e-06   -1.414046489295971e-06
6.1515683024506945e-06   -1.2730915440010981e-06   -1.414046489295971e-06
8.494814710923901e-06   -1.1444002341657027e-06   1.9341873077956967e-06
8.494814710923901e-06   -1.1444002341657027e-06   1.9341873077956967e-06
8.494814710923901e-06   -1.1444002341657027e-06   1.9341873077956967e-06
8.494814710923901e-06   -1.1444002341657027e-06   1.9341873077956967e-06
4.236562745070996e-06   -1.5340213242103309e-06   -5.3966719559859035e-06
4.236562745070996e-06   -1.5340213242103309e-06   -5.3966719559859035e-06
4.236562745070996e-06   -1.5340213242103309e-06   -5.3966719559859035e-06
4.236562745070996e-06   -1.5340213242103309e-06   -5.3966719559859035e-06
4.310351863881359e-06   -9.834421164536095e-07   8.761482791879154e-07
4.310351863881359e-06   -9.834421164536095e-07   8.761482791879154e-07
4.310351863881359e-06   -9.834421164536095e-07   8.761482791879154e-07
4.310351863881359e-06   -9.834421164536095e-07   8.761482791879154e-07
8.608199659741105e-06   -1.4410482882851834e-06   -6.01236767747936e-06
8.608199659741105e-06   -1.4410482882851834e-06   -6.01236767747936e-06
8.608199659741105e-06   -1.4410482882851834e-06   -6.01236767747936e-06
8.608199659741105e-06   -1.4410482882851834e-06   -6.01236767747936e-06
6.141719070642439e-06   -1.2209975414822702e-06   -2.033597143730011e-06
6.141719070642439e-06   -1.2209975414822702e-06   -2.033597143730011e-06
6.141719070642439e-06   -1.2209975414822702e-06   -2.033597143730011e-06
6.141719070642439e-06   -1.2209975414822702e-06   -2.033597143730011e-06
4.07786894037511e-06   -7.445221613422187e-07   4.577607264048421e-07
4.07786894037511e-06   -7.445221613422187e-07   4.577607264048421e-07
4.07786894037511e-06   -7.445221613422187e-07   4.577607264048421e-07
4.07786894037511e-06   -7.445221613422187e-07   4.577607264048421e-07
3.7537832911846295e-07   -1.4195104753585521e-06   -6.1180499474326625e-06
3.7537832911846295e-07   -1.4195104753585521e-06   -6.1180499474326625e-06
3.7537832911846295e-07   -1.4195104753585521e-06   -6.1180499474326625e-06
3.7537832911846295e-07   -1.4195104753585521e-06   -6.1180499474326625e-06
4.745265605805175e-07   -7.031904105870472e-07   1.8081556598935106e-07
4.745265605805175e-07   -7.031904105870472e-07   1.8081556598935106e-07
4.745265605805175e-07   -7.031904105870472e-07   1.8081556598935106e-07
4.745265605805175e-07   -7.031904105870472e-07   1.8081556598935106e-07
4.164041627523446e-06   -1.4070200157501609e-06   -5.546078449151029e-06
4.164041627523446e-06   -1.4070200157501609e-06   -5.546078449151029e-06
4.164041627523446e-06   -1.4070200157501609e-06   -5.546078449151029e-06
4.164041627523446e-06   -1.4070200157501609e-06   -5.546078449151029e-06
2.279331866057951e-06   -9.633497962556925e-07   -2.67109764507186e-06
2.279331866057951e-06   -9.633497962556925e-07   -2.67109764507186e-06
2.279331866057951e-06   -9.633497962556925e-07   -2.67109764507186e-06
2.279331866057951e-06   -9.633497962556925e-07   -2.67109764507186e-06
4.164041627523436e-06   -7.031904105870472e-07   6.031133290872247e-07
4.164041627523436e-06   -7.031904105870472e-07   6.031133290872247e-07
4.164041627523436e-06   -7.031904105870472e-07   6.031133290872247e-07
4.164041627523436e-06   -7.031904105870472e-07   6.031133290872247e-07
4.745265605805175e-07   -1.4070200157501609e-06   -5.968376212248848e-06
4.745265605805175e-07   -1.4070200157501609e-06   -5.968376212248848e-06
4.745265605805175e-07   -1.4070200157501609e-06   -5.968376212248848e-06
4.745265605805175e-07   -1.4070200157501609e-06   -5.968376212248848e-06
5.638625043754069e-07   -6.304145418926195e-07   1.326471111308934e-07
5.638625043754069e-07   -6.304145418926195e-07   1.326471111308934e-07
5.638625043754069e-07   -6.304145418926195e-07   1.326471111308934e-07
5.638625043754069e-07   -6.304145418926195e-07   1.326471111308934e-07
4.236562745070996e-06   -1.3811162437822383e-06   -5.538098935561336e-06
4.236562745070996e-06   -1.3811162437822383e-06   -5.538098935561336e-06
4.236562745070996e-06   -1.3811162437822383e-06   -5.538098935561336e-06
4.236562745070996e-06   -1.3811162437822383e-06   -5.538098935561336e-06
2.3311340339778323e-06   -9.676964579489761e-07   -2.6104362885725747e-06
2.3311340339778323e-06   -9.676964579489761e-07   -2.6104362885725747e-06
2.3311340339778323e-06   -9.676964579489761e-07   -2.6104362885725747e-06
2.3311340339778323e-06   -9.676964579489761e-07   -2.6104362885725747e-06
4.236562745070996e-06   -6.304145418926195e-07   5.830681322646592e-07
4.236562745070996e-06   -6.304145418926195e-07   5.830681322646592e-07
4.236562745070996e-06   -6.304145418926195e-07   5.830681322646592e-07
4.236562745070996e-06   -6.304145418926195e-07   5.830681322646592e-07
5.638625043754069e-07   -1.3811162437822383e-06   -5.988519956695061e-06
5.638625043754069e-07   -1.3811162437822383e-06   -5.988519956695061e-06
5.638625043754069e-07   -1.3811162437822383e-06   -5.988519956695061e-06
5.638625043754069e-07   -1.3811162437822383e-06   -5.988519956695061e-06
6.982802271063841e-07   -5.265465326473599e-07   5.673788337336801e-08
6.982802271063841e-07   -5.265465326473599e-07   5.673788337336801e-08
6.982802271063841e-07   -5.265465326473599e-07   5.673788337336801e-08
6.982802271063841e-07   -5.265465326473599e-07   5.673788337336801e-08
4.310351863881355e-06   -1.3339130961050288e-06   -5.478961573177024e-06
4.310351863881355e-06   -1.3339130961050288e-06   -5.478961573177024e-06
4.310351863881355e-06   -1.3339130961050288e-06   -5.478961573177024e-06
4.310351863881355e-06   -1.3339130961050288e-06   -5.478961573177024e-06
2.4412640884577815e-06   -9.444296401491512e-07   -2.597505354377935e-06
2.4412640884577815e-06   -9.444296401491512e-07   -2.597505354377935e-06
2.4412640884577815e-06   -9.444296401491512e-07   -2.597505354377935e-06
2.4412640884577815e-06   -9.444296401491512e-07   -2.597505354377935e-06
3.7537832911846295e-07   -3.2755113917319785e-07   -3.956746798167469e-07
3.7537832911846295e-07   -3.2755113917319785e-07   -3.956746798167469e-07
3.7537832911846295e-07   -3.2755113917319785e-07   -3.956746798167469e-07
3.7537832911846295e-07   -3.2755113917319785e-07   -3.956746798167469e-07
-3.284306366007297e-06   -1.6084870864229014e-06   -7.263710740042857e-06
-3.284306366007297e-06   -1.6084870864229014e-06   -7.263710740042857e-06
-3.284306366007297e-06   -1.6084870864229014e-06   -7.263710740042857e-06
-3.284306366007297e-06   -1.6084870864229014e-06   -7.263710740042857e-06
-3.1286839790751935e-06   -2.7706988191831053e-07   -1.0151345362290434e-06
-3.1286839790751935e-06   -2.7706988191831053e-07   -1.0151345362290434e-06
-3.1286839790751935e-06   -2.7706988191831053e-07   -1.0151345362290434e-06
-3.1286839790751935e-06   -2.7706988191831053e-07   -1.0151345362290434e-06
4.745265605805175e-07   -1.6360755638547162e-06   -6.205082026493402e-06
4.745265605805175e-07   -1.6360755638547162e-06   -6.205082026493402e-06
4.745265605805175e-07   -1.6360755638547162e-06   -6.205082026493402e-06
4.745265605805175e-07   -1.6360755638547162e-06   -6.205082026493402e-06
-1.3531499919716463e-06   -8.838127047969312e-07   -3.610312154341161e-06
-1.3531499919716463e-06   -8.838127047969312e-07   -3.610312154341161e-06
-1.3531499919716463e-06   -8.838127047969312e-07   -3.610312154341161e-06
-1.3531499919716463e-06   -8.838127047969312e-07   -3.610312154341161e-06
4.745265605805175e-07   -2.7706988191831053e-07   -1.997311270672162e-07
4.745265605805175e-07   -2.7706988191831053e-07   -1.997311270672162e-07
4.745265605805175e-07   -2.7706988191831053e-07   -1.997311270672162e-07
4.745265605805175e-07   -2.7706988191831053e-07   -1.997311270672162e-07
-3.1286839790752002e-06   -1.6360755638547162e-06   -7.020485435655239e-06
-3.1286839790752002e-06   -1.6360755638547162e-06   -7.020485435655239e-06
-3.1286839790752002e-06   -1.6360755638547162e-06   -7.020485435655239e-06
-3.1286839790752002e-06   -1.6360755638547162e-06   -7.020485435655239e-06
-2.993227149718609e-06   -2.0449369803277268e-07   -9.334815765290336e-07
-2.993227149718609e-06   -2.0449369803277268e-07   -9.334815765290336e-07
-2.993227149718609e-06   -2.0449369803277268e-07   -9.334815765290336e-07
-2.993227149718609e-06   -2.0449369803277268e-07   -9.334815765290336e-07
5.638625043754069e-07   -1.6187900372855346e-06   -6.013386529800715e-06
5.638625043754069e-07   -1.6187900372855346e-06   -6.013386529800715e-06
5.638625043754069e-07   -1.6187900372855346e-06   -6.013386529800715e-06
5.638625043754069e-07   -1.6187900372855346e-06   -6.013386529800715e-06
-1.2432695838561613e-06   -8.969091387295357e-07   -3.434628255215085e-06
-1.2432695838561613e-06   -8.969091387295357e-07   -3.434628255215085e-06
-1.2432695838561613e-06   -8.969091387295357e-07   -3.434628255215085e-06
-1.2432695838561613e-06   -8.969091387295357e-07   -3.434628255215085e-06
5.638625043754069e-07   -2.0449369803277268e-07   -8.490377297734933e-08
5.638625043754069e-07   -2.0449369803277268e-07   -8.490377297734933e-08
5.638625043754069e-07   -2.0449369803277268e-07   -8.490377297734933e-08
5.638625043754069e-07   -2.0449369803277268e-07   -8.490377297734933e-08
-2.993227149718619e-06   -1.6187900372855888e-06   -6.8619643333524434e-06
-2.993227149718619e-06   -1.6187900372855888e-06   -6.8619643333524434e-06
-2.993227149718619e-06   -1.6187900372855888e-06   -6.8619643333524434e-06
-2.993227149718619e-06   -1.6187900372855888e-06   -6.8619643333524434e-06
-2.758666883801524e-06   -1.3482160844430647e-07   -9.316701935787968e-07
-2.758666883801524e-06   -1.3482160844430647e-07   -9.316701935787968e-07
-2.758666883801524e-06   -1.3482160844430647e-07   -9.316701935787968e-07
-2.758666883801524e-06   -1.3482160844430647e-07   -9.316701935787968e-07
6.982802271063841e-07   -1.5507450502227535e-06   -5.843694646691596e-06
6.982802271063841e-07   -1.5507450502227535e-06   -5.843694646691596e-06
6.982802271063841e-07   -1.5507450502227535e-06   -5.843694646691596e-06
6.982802271063841e-07   -1.5507450502227535e-06   -5.843694646691596e-06
-1.0999505256770178e-06   -8.682176260620339e-07   -3.2561598465489583e-06
-1.0999505256770178e-06   -8.682176260620339e-07   -3.2561598465489583e-06
-1.0999505256770178e-06   -8.682176260620339e-07   -3.2561598465489583e-06
-1.0999505256770178e-06   -8.682176260620339e-07   -3.2561598465489583e-06
-3.2843063660072934e-06   2.1911973619684767e-07   -5.978312233981037e-07
-3.2843063660072934e-06   2.1911973619684767e-07   -5.978312233981037e-07
-3.2843063660072934e-06   2.1911973619684767e-07   -5.978312233981037e-07
-3.2843063660072934e-06   2.1911973619684767e-07   -5.978312233981037e-07
-7.325490504992996e-06   -1.9040460282142811e-06   -8.607037580354241e-06
-7.325490504992996e-06   -1.9040460282142811e-06   -8.607037580354241e-06
-7.325490504992996e-06   -1.9040460282142811e-06   -8.607037580354241e-06
-7.325490504992996e-06   -1.9040460282142811e-06   -8.607037580354241e-06
-7.131630440276836e-06   3.0402558086388637e-07   -1.8097078929092713e-06
-7.131630440276836e-06   3.0402558086388637e-07   -1.8097078929092713e-06
-7.131630440276836e-06   3.0402558086388637e-07   -1.8097078929092713e-06
-7.131630440276836e-06   3.0402558086388637e-07   -1.8097078929092713e-06
-3.1286839790751935e-06   -2.1674921274003763e-06   -6.998374703286743e-06
-3.1286839790751935e-06   -2.1674921274003763e-06   -6.998374703286743e-06
-3.1286839790751935e-06   -2.1674921274003763e-06   -6.998374703286743e-06
-3.1286839790751935e-06   -2.1674921274003763e-06   -6.998374703286743e-06
-5.147885897082393e-06   -9.152204162280082e-07   -4.384401199978168e-06
-5.147885897082393e-06   -9.152204162280082e-07   -4.384401199978168e-06
-5.147885897082393e-06   -9.152204162280082e-07   -4.384401199978168e-06
-5.147885897082393e-06   -9.152204162280082e-07   -4.384401199978168e-06
-3.1286839790751935e-06   3.0402558086388637e-07   -3.267972679506974e-07
-3.1286839790751935e-06   3.0402558086388637e-07   -3.267972679506974e-07
-3.1286839790751935e-06   3.0402558086388637e-07   -3.267972679506974e-07
-3.1286839790751935e-06   3.0402558086388637e-07   -3.267972679506974e-07
-7.1316304402768476e-06   -2.1674921274003763e-06   -8.481285328245367e-06
-7.1316304402768476e-06   -2.1674921274003763e-06   -8.481285328245367e-06
-7.1316304402768476e-06   -2.1674921274003763e-06   -8.481285328245367e-06
-7.1316304402768476e-06   -2.1674921274003763e-06   -8.481285328245367e-06
-6.946690370611563e-06   3.813056199791212e-07   -1.5657732277839687e-06
-6.946690370611563e-06   3.813056199791212e-07   -1.5657732277839687e-06
-6.946690370611563e-06   3.813056199791212e-07   -1.5657732277839687e-06
-6.946690370611563e-06   3.813056199791212e-07   -1.5657732277839687e-06
-2.993227149718614e-06   -2.169836981135494e-06   -6.624193035270134e-06
-2.993227149718614e-06   -2.169836981135494e-06   -6.624193035270134e-06
-2.993227149718614e-06   -2.169836981135494e-06   -6.624193035270134e-06
-2.993227149718614e-06   -2.169836981135494e-06   -6.624193035270134e-06
-4.958589471789852e-06   -9.09530207921568e-07   -4.10477322907973e-06
-4.958589471789852e-06   -9.09530207921568e-07   -4.10477322907973e-06
-4.958589471789852e-06   -9.09530207921568e-07   -4.10477322907973e-06
-4.958589471789852e-06   -9.09530207921568e-07   -4.10477322907973e-06
-2.9932271497186123e-06   3.813056199791212e-07   -3.508766711522119e-08
-2.9932271497186123e-06   3.813056199791212e-07   -3.508766711522119e-08
-2.9932271497186123e-06   3.813056199791212e-07   -3.508766711522119e-08
-2.9932271497186123e-06   3.813056199791212e-07   -3.508766711522119e-08
-6.946690370611574e-06   -2.16983698113544e-06   -8.154878595938885e-06
-6.946690370611574e-06   -2.16983698113544e-06   -8.154878595938885e-06
-6.946690370611574e-06   -2.16983698113544e-06   -8.154878595938885e-06
-6.946690370611574e-06   -2.16983698113544e-06   -8.154878595938885e-06
-6.637370820869643e-06   4.4478842120548997e-07   -1.3243532280633654e-06
-6.637370820869643e-06   4.4478842120548997e-07   -1.3243532280633654e-06
-6.637370820869643e-06   4.4478842120548997e-07   -1.3243532280633654e-06
-6.637370820869643e-06   4.4478842120548997e-07   -1.3243532280633654e-06
-2.7586668838015293e-06   -1.922101785178335e-06   -6.368725666013276e-06
-2.7586668838015293e-06   -1.922101785178335e-06   -6.368725666013276e-06
-2.7586668838015293e-06   -1.922101785178335e-06   -6.368725666013276e-06
-2.7586668838015293e-06   -1.922101785178335e-06   -6.368725666013276e-06
-4.779130167278501e-06   -7.618098857967203e-07   -3.6974619998471673e-06
-4.779130167278501e-06   -7.618098857967203e-07   -3.6974619998471673e-06
-4.779130167278501e-06   -7.618098857967203e-07   -3.6974619998471673e-06
-4.779130167278501e-06   -7.618098857967203e-07   -3.6974619998471673e-06
-7.325490504992996e-06   1.1052964520657464e-06   -1.2234924532367024e-06
-7.325490504992996e-06   1.1052964520657464e-06   -1.2234924532367024e-06
-7.325490504992996e-06   1.1052964520657464e-06   -1.2234924532367024e-06
-7.325490504992996e-06   1.1052964520657464e-06   -1.2234924532367024e-06
-1.2387208762958684e-05   0.0   -1.032286742108567e-05
-1.2387208762958684e-05   0.0   -1.032286742108567e-05
-1.2387208762958684e-05   0.0   -1.032286742108567e-05
-1.2387208762958684e-05   0.0   -1.032286742108567e-05
-1.2110883604841975e-05   1.3631577931306062e-06   -8.759625991551783e-07
-1.2110883604841975e-05   1.3631577931306062e-06   -8.759625991551783e-07
-1.2110883604841975e-05   1.3631577931306062e-06   -8.759625991551783e-07
-1.2110883604841975e-05   1.3631577931306062e-06   -8.759625991551783e-07
-7.131630440276836e-06   0.0   -8.356823197552079e-06
-7.131630440276836e-06   0.0   -8.356823197552079e-06
-7.131630440276836e-06   0.0   -8.356823197552079e-06
-7.131630440276836e-06   0.0   -8.356823197552079e-06
-9.3270840266105e-06   4.374380334800352e-07   -4.960196707083964e-06
-9.3270840266105e-06   4.374380334800352e-07   -4.960196707083964e-06
-9.3270840266105e-06   4.374380334800352e-07   -4.960196707083964e-06
-9.3270840266105e-06   4.374380334800352e-07   -4.960196707083964e-06
-7.131630440276842e-06   1.363157793130552e-06   -5.806792327683083e-08
-7.131630440276842e-06   1.363157793130552e-06   -5.806792327683083e-08
-7.131630440276842e-06   1.363157793130552e-06   -5.806792327683083e-08
-7.131630440276842e-06   1.363157793130552e-06   -5.806792327683083e-08
-1.2110883604841955e-05   0.0   -9.174717873430409e-06
-1.2110883604841955e-05   0.0   -9.174717873430409e-06
-1.2110883604841955e-05   0.0   -9.174717873430409e-06
-1.2110883604841955e-05   0.0   -9.174717873430409e-06
-1.1872425845010382e-05   1.4227442580126422e-06   -1.3950851683665094e-07
-1.1872425845010382e-05   1.4227442580126422e-06   -1.3950851683665094e-07
-1.1872425845010382e-05   1.4227442580126422e-06   -1.3950851683665094e-07
-1.1872425845010382e-05   1.4227442580126422e-06   -1.3950851683665094e-07
-6.946690370611574e-06   0.0   -7.4954210860271295e-06
-6.946690370611574e-06   0.0   -7.4954210860271295e-06
-6.946690370611574e-06   0.0   -7.4954210860271295e-06
-6.946690370611574e-06   0.0   -7.4954210860271295e-06
-9.264449050753343e-06   6.651419423543085e-07   -4.031575117870005e-06
-9.264449050753343e-06   6.651419423543085e-07   -4.031575117870005e-06
-9.264449050753343e-06   6.651419423543085e-07   -4.031575117870005e-06
-9.264449050753343e-06   6.651419423543085e-07   -4.031575117870005e-06
-6.946690370611574e-06   1.422744258012588e-06   7.141380379709127e-07
-6.946690370611574e-06   1.422744258012588e-06   7.141380379709127e-07
-6.946690370611574e-06   1.422744258012588e-06   7.141380379709127e-07
-6.946690370611574e-06   1.422744258012588e-06   7.141380379709127e-07
-1.1872425845010361e-05   0.0   -8.34906764083469e-06
-1.1872425845010361e-05   0.0   -8.34906764083469e-06
-1.1872425845010361e-05   0.0   -8.34906764083469e-06
-1.1872425845010361e-05   0.0   -8.34906764083469e-06
-1.1391855755313748e-05   1.5142751958966013e-06   1.062447345072414e-06
-1.1391855755313748e-05   1.5142751958966013e-06   1.062447345072414e-06
-1.1391855755313748e-05   1.5142751958966013e-06   1.062447345072414e-06
-1.1391855755313748e-05   1.5142751958966013e-06   1.062447345072414e-06
-6.637370820869653e-06   0.0   -5.953129094796514e-06
-6.637370820869653e-06   0.0   -5.953129094796514e-06
-6.637370820869653e-06   0.0   -5.953129094796514e-06
-6.637370820869653e-06   0.0   -5.953129094796514e-06
-8.828467917471389e-06   8.120865231745216e-07   -2.7885525143649596e-06
-8.828467917471389e-06   8.120865231745216e-07   -2.7885525143649596e-06
-8.828467917471389e-06   8.120865231745216e-07   -2.7885525143649596e-06
-8.828467917471389e-06   8.120865231745216e-07   -2.7885525143649596e-06
9.060968009607874e-06   -1.512716794477894e-06   5.3294273231822e-06
9.060968009607874e-06   -1.512716794477894e-06   5.3294273231822e-06
9.060968009607874e-06   -1.512716794477894e-06   5.3294273231822e-06
9.060968009607874e-06   -1.512716794477894e-06   5.3294273231822e-06
4.6497873949609146e-06   -1.2053136020139313e-06   -1.838098452417651e-06
4.6497873949609146e-06   -1.2053136020139313e-06   -1.838098452417651e-06
4.6497873949609146e-06   -1.2053136020139313e-06   -1.838098452417651e-06
4.6497873949609146e-06   -1.2053136020139313e-06   -1.838098452417651e-06
4.543286135188653e-06   -1.5506965923079352e-06   4.660623087816612e-06
4.543286135188653e-06   -1.5506965923079352e-06   4.660623087816612e-06
4.543286135188653e-06   -1.5506965923079352e-06   4.660623087816612e-06
4.543286135188653e-06   -1.5506965923079352e-06   4.660623087816612e-06
8.978572636545655e-06   -1.3177853823206215e-06   -2.8712678071041738e-06
8.978572636545655e-06   -1.3177853823206215e-06   -2.8712678071041738e-06
8.978572636545655e-06   -1.3177853823206215e-06   -2.8712678071041738e-06
8.978572636545655e-06   -1.3177853823206215e-06   -2.8712678071041738e-06
6.526999758164106e-06   -1.3248010166583063e-06   1.2188963708010378e-06
6.526999758164106e-06   -1.3248010166583063e-06   1.2188963708010378e-06
6.526999758164106e-06   -1.3248010166583063e-06   1.2188963708010378e-06
6.526999758164106e-06   -1.3248010166583063e-06   1.2188963708010378e-06
8.978572636545655e-06   -1.5506965923079352e-06   4.520876361824164e-06
8.978572636545655e-06   -1.5506965923079352e-06   4.520876361824164e-06
8.978572636545655e-06   -1.5506965923079352e-06   4.520876361824164e-06
8.978572636545655e-06   -1.5506965923079352e-06   4.520876361824164e-06
4.543286135188653e-06   -1.3177853823206215e-06   -2.7315210811117293e-06
4.543286135188653e-06   -1.3177853823206215e-06   -2.7315210811117293e-06
4.543286135188653e-06   -1.3177853823206215e-06   -2.7315210811117293e-06
4.543286135188653e-06   -1.3177853823206215e-06   -2.7315210811117293e-06
4.445960767300355e-06   -1.5340213242103309e-06   4.161072996890707e-06
4.445960767300355e-06   -1.5340213242103309e-06   4.161072996890707e-06
4.445960767300355e-06   -1.5340213242103309e-06   4.161072996890707e-06
4.445960767300355e-06   -1.5340213242103309e-06   4.161072996890707e-06
8.879506581201005e-06   -1.3251328087748198e-06   -3.353503135538359e-06
8.879506581201005e-06   -1.3251328087748198e-06   -3.353503135538359e-06
8.879506581201005e-06   -1.3251328087748198e-06   -3.353503135538359e-06
8.879506581201005e-06   -1.3251328087748198e-06   -3.353503135538359e-06
6.534406835150028e-06   -1.3481399102232465e-06   5.688007020823271e-07
6.534406835150028e-06   -1.3481399102232465e-06   5.688007020823271e-07
6.534406835150028e-06   -1.3481399102232465e-06   5.688007020823271e-07
6.534406835150028e-06   -1.3481399102232465e-06   5.688007020823271e-07
8.879506581201018e-06   -1.5340213242103309e-06   4.035739887629352e-06
8.879506581201018e-06   -1.5340213242103309e-06   4.035739887629352e-06
8.879506581201018e-06   -1.5340213242103309e-06   4.035739887629352e-06
8.879506581201018e-06   -1.5340213242103309e-06   4.035739887629352e-06
4.445960767300355e-06   -1.3251328087748198e-06   -3.228170026277024e-06
4.445960767300355e-06   -1.3251328087748198e-06   -3.228170026277024e-06
4.445960767300355e-06   -1.3251328087748198e-06   -3.228170026277024e-06
4.445960767300355e-06   -1.3251328087748198e-06   -3.228170026277024e-06
4.3266909052736585e-06   -1.4410482882851834e-06   3.348227924302203e-06
4.3266909052736585e-06   -1.4410482882851834e-06   3.348227924302203e-06
4.3266909052736585e-06   -1.4410482882851834e-06   3.348227924302203e-06
4.3266909052736585e-06   -1.4410482882851834e-06   3.348227924302203e-06
8.723940912378125e-06   -1.2872737830109545e-06   -4.072786790703099e-06
8.723940912378125e-06   -1.2872737830109545e-06   -4.072786790703099e-06
8.723940912378125e-06   -1.2872737830109545e-06   -4.072786790703099e-06
8.723940912378125e-06   -1.2872737830109545e-06   -4.072786790703099e-06
6.322436611473722e-06   -1.2808444096770429e-06   -7.413724652944182e-08
6.322436611473722e-06   -1.2808444096770429e-06   -7.413724652944182e-08
6.322436611473722e-06   -1.2808444096770429e-06   -7.413724652944182e-08
6.322436611473722e-06   -1.2808444096770429e-06   -7.413724652944182e-08
4.6497873949609146e-06   -1.4195104753585521e-06   3.911780759431198e-06
4.6497873949609146e-06   -1.4195104753585521e-06   3.911780759431198e-06
4.6497873949609146e-06   -1.4195104753585521e-06   3.911780759431198e-06
4.6497873949609146e-06   -1.4195104753585521e-06   3.911780759431198e-06
8.452105816074354e-07   -6.998128690763588e-07   -1.997362032388661e-06
8.452105816074354e-07   -6.998128690763588e-07   -1.997362032388661e-06
8.452105816074354e-07   -6.998128690763588e-07   -1.997362032388661e-06
8.452105816074354e-07   -6.998128690763588e-07   -1.997362032388661e-06
6.768910777086413e-07   -1.4070200157501609e-06   4.408462598360621e-06
6.768910777086413e-07   -1.4070200157501609e-06   4.408462598360621e-06
6.768910777086413e-07   -1.4070200157501609e-06   4.408462598360621e-06
6.768910777086413e-07   -1.4070200157501609e-06   4.408462598360621e-06
4.543286135188653e-06   -7.390800437453212e-07   -2.43629314730897e-06
4.543286135188653e-06   -7.390800437453212e-07   -2.43629314730897e-06
4.543286135188653e-06   -7.390800437453212e-07   -2.43629314730897e-06
4.543286135188653e-06   -7.390800437453212e-07   -2.43629314730897e-06
2.6729611240717764e-06   -1.0260911790492826e-06   8.531218857348595e-07
2.6729611240717764e-06   -1.0260911790492826e-06   8.531218857348595e-07
2.6729611240717764e-06   -1.0260911790492826e-06   8.531218857348595e-07
2.6729611240717764e-06   -1.0260911790492826e-06   8.531218857348595e-07
4.54328613518865e-06   -1.4070200157501609e-06   4.007698615157712e-06
4.54328613518865e-06   -1.4070200157501609e-06   4.007698615157712e-06
4.54328613518865e-06   -1.4070200157501609e-06   4.007698615157712e-06
4.54328613518865e-06   -1.4070200157501609e-06   4.007698615157712e-06
6.768910777086413e-07   -7.390800437453212e-07   -2.0355291641060644e-06
6.768910777086413e-07   -7.390800437453212e-07   -2.0355291641060644e-06
6.768910777086413e-07   -7.390800437453212e-07   -2.0355291641060644e-06
6.768910777086413e-07   -7.390800437453212e-07   -2.0355291641060644e-06
5.552608698150183e-07   -1.3811162437822383e-06   4.396793037753159e-06
5.552608698150183e-07   -1.3811162437822383e-06   4.396793037753159e-06
5.552608698150183e-07   -1.3811162437822383e-06   4.396793037753159e-06
5.552608698150183e-07   -1.3811162437822383e-06   4.396793037753159e-06
4.445960767300355e-06   -7.525378763857606e-07   -2.4648538118269127e-06
4.445960767300355e-06   -7.525378763857606e-07   -2.4648538118269127e-06
4.445960767300355e-06   -7.525378763857606e-07   -2.4648538118269127e-06
4.445960767300355e-06   -7.525378763857606e-07   -2.4648538118269127e-06
2.5248628836539097e-06   -1.002015503025731e-06   8.866625702345424e-07
2.5248628836539097e-06   -1.002015503025731e-06   8.866625702345424e-07
2.5248628836539097e-06   -1.002015503025731e-06   8.866625702345424e-07
2.5248628836539097e-06   -1.002015503025731e-06   8.866625702345424e-07
4.445960767300369e-06   -1.3811162437822383e-06   4.019646017315316e-06
4.445960767300369e-06   -1.3811162437822383e-06   4.019646017315316e-06
4.445960767300369e-06   -1.3811162437822383e-06   4.019646017315316e-06
4.445960767300369e-06   -1.3811162437822383e-06   4.019646017315316e-06
5.552608698150183e-07   -7.525378763857606e-07   -2.0877067913890694e-06
5.552608698150183e-07   -7.525378763857606e-07   -2.0877067913890694e-06
5.552608698150183e-07   -7.525378763857606e-07   -2.0877067913890694e-06
5.552608698150183e-07   -7.525378763857606e-07   -2.0877067913890694e-06
4.206181239775256e-07   -1.3339130961050288e-06   4.519479902529664e-06
4.206181239775256e-07   -1.3339130961050288e-06   4.519479902529664e-06
4.206181239775256e-07   -1.3339130961050288e-06   4.519479902529664e-06
4.206181239775256e-07   -1.3339130961050288e-06   4.519479902529664e-06
4.326690905273653e-06   -7.284428113947809e-07   -2.353923570456721e-06
4.326690905273653e-06   -7.284428113947809e-07   -2.353923570456721e-06
4.326690905273653e-06   -7.284428113947809e-07   -2.353923570456721e-06
4.326690905273653e-06   -7.284428113947809e-07   -2.353923570456721e-06
2.4374463499683476e-06   -9.525333887355509e-07   9.292717014566053e-07
2.4374463499683476e-06   -9.525333887355509e-07   9.292717014566053e-07
2.4374463499683476e-06   -9.525333887355509e-07   9.292717014566053e-07
2.4374463499683476e-06   -9.525333887355509e-07   9.292717014566053e-07
8.452105816074388e-07   -1.6084870864229014e-06   3.966500098940147e-06
8.452105816074388e-07   -1.6084870864229014e-06   3.966500098940147e-06
8.452105816074388e-07   -1.6084870864229014e-06   3.966500098940147e-06
8.452105816074388e-07   -1.6084870864229014e-06   3.966500098940147e-06
-2.819964596617311e-06   -2.241007558364573e-07   -1.3114933997491866e-06
-2.819964596617311e-06   -2.241007558364573e-07   -1.3114933997491866e-06
-2.819964596617311e-06   -2.241007558364573e-07   -1.3114933997491866e-06
-2.819964596617311e-06   -2.241007558364573e-07   -1.3114933997491866e-06
-3.0806037310295766e-06   -1.6360755638547162e-06   5.012756881956346e-06
-3.0806037310295766e-06   -1.6360755638547162e-06   5.012756881956346e-06
-3.0806037310295766e-06   -1.6360755638547162e-06   5.012756881956346e-06
-3.0806037310295766e-06   -1.6360755638547162e-06   5.012756881956346e-06
6.768910777086413e-07   -2.3440873412092873e-07   -2.090734563780942e-06
6.768910777086413e-07   -2.3440873412092873e-07   -2.090734563780942e-06
6.768910777086413e-07   -2.3440873412092873e-07   -2.090734563780942e-06
6.768910777086413e-07   -2.3440873412092873e-07   -2.090734563780942e-06
-1.0659566639693264e-06   -8.941226469079107e-07   1.2098400200212018e-06
-1.0659566639693264e-06   -8.941226469079107e-07   1.2098400200212018e-06
-1.0659566639693264e-06   -8.941226469079107e-07   1.2098400200212018e-06
-1.0659566639693264e-06   -8.941226469079107e-07   1.2098400200212018e-06
6.768910777086413e-07   -1.6360755638547162e-06   4.1717567841160574e-06
6.768910777086413e-07   -1.6360755638547162e-06   4.1717567841160574e-06
6.768910777086413e-07   -1.6360755638547162e-06   4.1717567841160574e-06
6.768910777086413e-07   -1.6360755638547162e-06   4.1717567841160574e-06
-3.0806037310295715e-06   -2.3440873412087452e-07   -1.2497344659406903e-06
-3.0806037310295715e-06   -2.3440873412087452e-07   -1.2497344659406903e-06
-3.0806037310295715e-06   -2.3440873412087452e-07   -1.2497344659406903e-06
-3.0806037310295715e-06   -2.3440873412087452e-07   -1.2497344659406903e-06
-3.2425619367813956e-06   -1.6187900372855888e-06   5.194331716115627e-06
-3.2425619367813956e-06   -1.6187900372855888e-06   5.194331716115627e-06
-3.2425619367813956e-06   -1.6187900372855888e-06   5.194331716115627e-06
-3.2425619367813956e-06   -1.6187900372855888e-06   5.194331716115627e-06
5.552608698150183e-07   -2.4811461817205154e-07   -1.9577782130131703e-06
5.552608698150183e-07   -2.4811461817205154e-07   -1.9577782130131703e-06
5.552608698150183e-07   -2.4811461817205154e-07   -1.9577782130131703e-06
5.552608698150183e-07   -2.4811461817205154e-07   -1.9577782130131703e-06
-1.2436942760426426e-06   -8.840124502753352e-07   1.4220190626782354e-06
-1.2436942760426426e-06   -8.840124502753352e-07   1.4220190626782354e-06
-1.2436942760426426e-06   -8.840124502753352e-07   1.4220190626782354e-06
-1.2436942760426426e-06   -8.840124502753352e-07   1.4220190626782354e-06
5.552608698150217e-07   -1.6187900372855888e-06   4.371926464647515e-06
5.552608698150217e-07   -1.6187900372855888e-06   4.371926464647515e-06
5.552608698150217e-07   -1.6187900372855888e-06   4.371926464647515e-06
5.552608698150217e-07   -1.6187900372855888e-06   4.371926464647515e-06
-3.2425619367813905e-06   -2.4811461817205154e-07   -1.1353729615450384e-06
-3.2425619367813905e-06   -2.4811461817205154e-07   -1.1353729615450384e-06
-3.2425619367813905e-06   -2.4811461817205154e-07   -1.1353729615450384e-06
-3.2425619367813905e-06   -2.4811461817205154e-07   -1.1353729615450384e-06
-3.4298929660573027e-06   -1.5507450502227535e-06   5.425067718275604e-06
-3.4298929660573027e-06   -1.5507450502227535e-06   5.425067718275604e-06
-3.4298929660573027e-06   -1.5507450502227535e-06   5.425067718275604e-06
-3.4298929660573027e-06   -1.5507450502227535e-06   5.425067718275604e-06
4.206181239775256e-07   -2.4091013157951464e-07   -1.7783517163017322e-06
4.206181239775256e-07   -2.4091013157951464e-07   -1.7783517163017322e-06
4.206181239775256e-07   -2.4091013157951464e-07   -1.7783517163017322e-06
4.206181239775256e-07   -2.4091013157951464e-07   -1.7783517163017322e-06
-1.38979311249204e-06   -8.391579869226808e-07   1.5979490576868276e-06
-1.38979311249204e-06   -8.391579869226808e-07   1.5979490576868276e-06
-1.38979311249204e-06   -8.391579869226808e-07   1.5979490576868276e-06
-1.38979311249204e-06   -8.391579869226808e-07   1.5979490576868276e-06
-2.819964596617316e-06   -1.9040460282142811e-06   4.727704515627312e-06
-2.819964596617316e-06   -1.9040460282142811e-06   4.727704515627312e-06
-2.819964596617316e-06   -1.9040460282142811e-06   4.727704515627312e-06
-2.819964596617316e-06   -1.9040460282142811e-06   4.727704515627312e-06
-6.914857369100993e-06   4.4150893785730285e-07   -6.897837922025614e-07
-6.914857369100993e-06   4.4150893785730285e-07   -6.897837922025614e-07
-6.914857369100993e-06   4.4150893785730285e-07   -6.897837922025614e-07
-6.914857369100993e-06   4.4150893785730285e-07   -6.897837922025614e-07
-7.237945325822941e-06   -2.1674921274003763e-06   6.595382547701768e-06
-7.237945325822941e-06   -2.1674921274003763e-06   6.595382547701768e-06
-7.237945325822941e-06   -2.1674921274003763e-06   6.595382547701768e-06
-7.237945325822941e-06   -2.1674921274003763e-06   6.595382547701768e-06
-3.0806037310295715e-06   4.3336609489456673e-07   -1.8940350436641163e-06
-3.0806037310295715e-06   4.3336609489456673e-07   -1.8940350436641163e-06
-3.0806037310295715e-06   4.3336609489456673e-07   -1.8940350436641163e-06
-3.0806037310295715e-06   4.3336609489456673e-07   -1.8940350436641163e-06
-4.949753616268432e-06   -6.99374453722154e-07   1.9008590942373606e-06
-4.949753616268432e-06   -6.99374453722154e-07   1.9008590942373606e-06
-4.949753616268432e-06   -6.99374453722154e-07   1.9008590942373606e-06
-4.949753616268432e-06   -6.99374453722154e-07   1.9008590942373606e-06
-3.0806037310295766e-06   -2.1674921274003763e-06   5.034867614324792e-06
-3.0806037310295766e-06   -2.1674921274003763e-06   5.034867614324792e-06
-3.0806037310295766e-06   -2.1674921274003763e-06   5.034867614324792e-06
-3.0806037310295766e-06   -2.1674921274003763e-06   5.034867614324792e-06
-7.237945325822928e-06   4.3336609489456673e-07   -3.3352011028712613e-07
-7.237945325822928e-06   4.3336609489456673e-07   -3.3352011028712613e-07
-7.237945325822928e-06   4.3336609489456673e-07   -3.3352011028712613e-07
-7.237945325822928e-06   4.3336609489456673e-07   -3.3352011028712613e-07
-7.432904205235115e-06   -2.16983698113544e-06   6.977434224005437e-06
-7.432904205235115e-06   -2.16983698113544e-06   6.977434224005437e-06
-7.432904205235115e-06   -2.16983698113544e-06   6.977434224005437e-06
-7.432904205235115e-06   -2.16983698113544e-06   6.977434224005437e-06
-3.2425619367813905e-06   4.057150352104375e-07   -1.5518007665582757e-06
-3.2425619367813905e-06   4.057150352104375e-07   -1.5518007665582757e-06
-3.2425619367813905e-06   4.057150352104375e-07   -1.5518007665582757e-06
-3.2425619367813905e-06   4.057150352104375e-07   -1.5518007665582757e-06
-5.152914644924463e-06   -8.38301610667073e-07   2.3785304012066555e-06
-5.152914644924463e-06   -8.38301610667073e-07   2.3785304012066555e-06
-5.152914644924463e-06   -8.38301610667073e-07   2.3785304012066555e-06
-5.152914644924463e-06   -8.38301610667073e-07   2.3785304012066555e-06
-3.242561936781389e-06   -2.169836981135494e-06   5.432103014197905e-06
-3.242561936781389e-06   -2.169836981135494e-06   5.432103014197905e-06
-3.242561936781389e-06   -2.169836981135494e-06   5.432103014197905e-06
-3.242561936781389e-06   -2.169836981135494e-06   5.432103014197905e-06
-7.432904205235099e-06   4.057150352104375e-07   -6.469556750781161e-09
-7.432904205235099e-06   4.057150352104375e-07   -6.469556750781161e-09
-7.432904205235099e-06   4.057150352104375e-07   -6.469556750781161e-09
-7.432904205235099e-06   4.057150352104375e-07   -6.469556750781161e-09
-7.645233413255741e-06   -1.922101785178335e-06   7.12651150833936e-06
-7.645233413255741e-06   -1.922101785178335e-06   7.12651150833936e-06
-7.645233413255741e-06   -1.922101785178335e-06   7.12651150833936e-06
-7.645233413255741e-06   -1.922101785178335e-06   7.12651150833936e-06
-3.429892966057296e-06   3.7276612201896315e-07   -1.2759766479763764e-06
-3.429892966057296e-06   3.7276612201896315e-07   -1.2759766479763764e-06
-3.429892966057296e-06   3.7276612201896315e-07   -1.2759766479763764e-06
-3.429892966057296e-06   3.7276612201896315e-07   -1.2759766479763764e-06
-5.370349215090513e-06   -8.382635822835709e-07   2.684734922993901e-06
-5.370349215090513e-06   -8.382635822835709e-07   2.684734922993901e-06
-5.370349215090513e-06   -8.382635822835709e-07   2.684734922993901e-06
-5.370349215090513e-06   -8.382635822835709e-07   2.684734922993901e-06
-6.914857369100969e-06   0.0   5.082385525778243e-06
-6.914857369100969e-06   0.0   5.082385525778243e-06
-6.914857369100969e-06   0.0   5.082385525778243e-06
-6.914857369100969e-06   0.0   5.082385525778243e-06
-1.1944347197639692e-05   1.5930653551295484e-06   -2.3442583087085597e-06
-1.1944347197639692e-05   1.5930653551295484e-06   -2.3442583087085597e-06
-1.1944347197639692e-05   1.5930653551295484e-06   -2.3442583087085597e-06
-1.1944347197639692e-05   1.5930653551295484e-06   -2.3442583087085597e-06
-1.2371269832292163e-05   0.0   7.655748785598081e-06
-1.2371269832292163e-05   0.0   7.655748785598081e-06
-1.2371269832292163e-05   0.0   7.655748785598081e-06
-1.2371269832292163e-05   0.0   7.655748785598081e-06
-7.237945325822928e-06   1.5598401786716875e-06   -1.8356961657203859e-06
-7.237945325822928e-06   1.5598401786716875e-06   -1.8356961657203859e-06
-7.237945325822928e-06   1.5598401786716875e-06   -1.8356961657203859e-06
-7.237945325822928e-06   1.5598401786716875e-06   -1.8356961657203859e-06
-9.21072802568931e-06   9.435372303851722e-07   1.822056769695482e-06
-9.21072802568931e-06   9.435372303851722e-07   1.822056769695482e-06
-9.21072802568931e-06   9.435372303851722e-07   1.822056769695482e-06
-9.21072802568931e-06   9.435372303851722e-07   1.822056769695482e-06
-7.2379453258229245e-06   0.0   6.71984467839502e-06
-7.2379453258229245e-06   0.0   6.71984467839502e-06
-7.2379453258229245e-06   0.0   6.71984467839502e-06
-7.2379453258229245e-06   0.0   6.71984467839502e-06
-1.2371269832292185e-05   1.5598401786716875e-06   -8.997920585173584e-07
-1.2371269832292185e-05   1.5598401786716875e-06   -8.997920585173584e-07
-1.2371269832292185e-05   1.5598401786716875e-06   -8.997920585173584e-07
-1.2371269832292185e-05   1.5598401786716875e-06   -8.997920585173584e-07
-1.2583989353461252e-05   0.0   8.553758010100744e-06
-1.2583989353461252e-05   0.0   8.553758010100744e-06
-1.2583989353461252e-05   0.0   8.553758010100744e-06
-1.2583989353461252e-05   0.0   8.553758010100744e-06
-7.432904205235099e-06   1.5281104603059306e-06   -9.48250179793113e-07
-7.432904205235099e-06   1.5281104603059306e-06   -9.48250179793113e-07
-7.432904205235099e-06   1.5281104603059306e-06   -9.48250179793113e-07
-7.432904205235099e-06   1.5281104603059306e-06   -9.48250179793113e-07
-9.646629402668671e-06   7.93989062606356e-07   3.1817646545493573e-06
-9.646629402668671e-06   7.93989062606356e-07   3.1817646545493573e-06
-9.646629402668671e-06   7.93989062606356e-07   3.1817646545493573e-06
-9.646629402668671e-06   7.93989062606356e-07   3.1817646545493573e-06
-7.432904205235099e-06   0.0   7.636891733917196e-06
-7.432904205235099e-06   0.0   7.636891733917196e-06
-7.432904205235099e-06   0.0   7.636891733917196e-06
-7.432904205235099e-06   0.0   7.636891733917196e-06
-1.2583989353461275e-05   1.5281104603059306e-06   -3.138390360953166e-08
-1.2583989353461275e-05   1.5281104603059306e-06   -3.138390360953166e-08
-1.2583989353461275e-05   1.5281104603059306e-06   -3.138390360953166e-08
-1.2583989353461275e-05   1.5281104603059306e-06   -3.138390360953166e-08
-1.2812086978114071e-05   0.0   9.746642872811528e-06
-1.2812086978114071e-05   0.0   9.746642872811528e-06
-1.2812086978114071e-05   0.0   9.746642872811528e-06
-1.2812086978114071e-05   0.0   9.746642872811528e-06
-7.645233413255741e-06   1.3073344490418452e-06   3.508195952891365e-07
-7.645233413255741e-06   1.3073344490418452e-06   3.508195952891365e-07
-7.645233413255741e-06   1.3073344490418452e-06   3.508195952891365e-07
-7.645233413255741e-06   1.3073344490418452e-06   3.508195952891365e-07
-9.696065176205971e-06   5.735970172213276e-07   4.209114992631855e-06
-9.696065176205971e-06   5.735970172213276e-07   4.209114992631855e-06
-9.696065176205971e-06   5.735970172213276e-07   4.209114992631855e-06
-9.696065176205971e-06   5.735970172213276e-07   4.209114992631855e-06
8.142488052038261e-06   -1.2053136020139313e-06   5.629245596551339e-06
8.142488052038261e-06   -1.2053136020139313e-06   5.629245596551339e-06
8.142488052038261e-06   -1.2053136020139313e-06   5.629245596551339e-06
8.142488052038261e-06   -1.2053136020139313e-06   5.629245596551339e-06
4.082083243753627e-06   -9.416026021793816e-07   -9.798691506890205e-07
4.082083243753627e-06   -9.416026021793816e-07   -9.798691506890205e-07
4.082083243753627e-06   -9.416026021793816e-07   -9.798691506890205e-07
4.082083243753627e-06   -9.416026021793816e-07   -9.798691506890205e-07
3.984448702882942e-06   -1.3177853823206215e-06   4.880022112253564e-06
3.984448702882942e-06   -1.3177853823206215e-06   4.880022112253564e-06
3.984448702882942e-06   -1.3177853823206215e-06   4.880022112253564e-06
3.984448702882942e-06   -1.3177853823206215e-06   4.880022112253564e-06
7.97259238699282e-06   -1.0584849881171737e-06   -1.9224642644516098e-06
7.97259238699282e-06   -1.0584849881171737e-06   -1.9224642644516098e-06
7.97259238699282e-06   -1.0584849881171737e-06   -1.9224642644516098e-06
7.97259238699282e-06   -1.0584849881171737e-06   -1.9224642644516098e-06
5.7762881198714265e-06   -1.0881794580010857e-06   1.755859529347693e-06
5.7762881198714265e-06   -1.0881794580010857e-06   1.755859529347693e-06
5.7762881198714265e-06   -1.0881794580010857e-06   1.755859529347693e-06
5.7762881198714265e-06   -1.0881794580010857e-06   1.755859529347693e-06
7.972592386992806e-06   -1.3177853823206215e-06   4.7244418757314845e-06
7.972592386992806e-06   -1.3177853823206215e-06   4.7244418757314845e-06
7.972592386992806e-06   -1.3177853823206215e-06   4.7244418757314845e-06
7.972592386992806e-06   -1.3177853823206215e-06   4.7244418757314845e-06
3.984448702882949e-06   -1.0584849881171737e-06   -1.7668840279295506e-06
3.984448702882949e-06   -1.0584849881171737e-06   -1.7668840279295506e-06
3.984448702882949e-06   -1.0584849881171737e-06   -1.7668840279295506e-06
3.984448702882949e-06   -1.0584849881171737e-06   -1.7668840279295506e-06
3.858837618349021e-06   -1.3251328087748198e-06   4.359845380797785e-06
3.858837618349021e-06   -1.3251328087748198e-06   4.359845380797785e-06
3.858837618349021e-06   -1.3251328087748198e-06   4.359845380797785e-06
3.858837618349021e-06   -1.3251328087748198e-06   4.359845380797785e-06
7.798700023266532e-06   -1.0737603330362587e-06   -2.357415446174571e-06
7.798700023266532e-06   -1.0737603330362587e-06   -2.357415446174571e-06
7.798700023266532e-06   -1.0737603330362587e-06   -2.357415446174571e-06
7.798700023266532e-06   -1.0737603330362587e-06   -2.357415446174571e-06
5.738725479626109e-06   -1.1336519439791664e-06   1.1118104264585502e-06
5.738725479626109e-06   -1.1336519439791664e-06   1.1118104264585502e-06
5.738725479626109e-06   -1.1336519439791664e-06   1.1118104264585502e-06
5.738725479626109e-06   -1.1336519439791664e-06   1.1118104264585502e-06
7.798700023266532e-06   -1.3251328087748198e-06   4.209021895354643e-06
7.798700023266532e-06   -1.3251328087748198e-06   4.209021895354643e-06
7.798700023266532e-06   -1.3251328087748198e-06   4.209021895354643e-06
7.798700023266532e-06   -1.3251328087748198e-06   4.209021895354643e-06
3.858837618349021e-06   -1.0737603330362587e-06   -2.206591960731395e-06
3.858837618349021e-06   -1.0737603330362587e-06   -2.206591960731395e-06
3.858837618349021e-06   -1.0737603330362587e-06   -2.206591960731395e-06
3.858837618349021e-06   -1.0737603330362587e-06   -2.206591960731395e-06
3.7262847116511764e-06   -1.2872737830109545e-06   3.580386559028781e-06
3.7262847116511764e-06   -1.2872737830109545e-06   3.580386559028781e-06
3.7262847116511764e-06   -1.2872737830109545e-06   3.580386559028781e-06
3.7262847116511764e-06   -1.2872737830109545e-06   3.580386559028781e-06
7.580388818549397e-06   -1.0576462648158595e-06   -2.9808967967186307e-06
7.580388818549397e-06   -1.0576462648158595e-06   -2.9808967967186307e-06
7.580388818549397e-06   -1.0576462648158595e-06   -2.9808967967186307e-06
7.580388818549397e-06   -1.0576462648158595e-06   -2.9808967967186307e-06
5.499978139093348e-06   -1.1008598862600962e-06   5.123825085747525e-07
5.499978139093348e-06   -1.1008598862600962e-06   5.123825085747525e-07
5.499978139093348e-06   -1.1008598862600962e-06   5.123825085747525e-07
5.499978139093348e-06   -1.1008598862600962e-06   5.123825085747525e-07
4.082083243753627e-06   -6.99812869076413e-07   5.196390052711764e-06
4.082083243753627e-06   -6.99812869076413e-07   5.196390052711764e-06
4.082083243753627e-06   -6.99812869076413e-07   5.196390052711764e-06
4.082083243753627e-06   -6.99812869076413e-07   5.196390052711764e-06
3.602746471203742e-07   -3.2088322977398293e-07   -7.792664914288731e-07
3.602746471203742e-07   -3.2088322977398293e-07   -7.792664914288731e-07
3.602746471203742e-07   -3.2088322977398293e-07   -7.792664914288731e-07
3.602746471203742e-07   -3.2088322977398293e-07   -7.792664914288731e-07
2.6226158399094394e-07   -7.390800437453212e-07   5.389708980949373e-06
2.6226158399094394e-07   -7.390800437453212e-07   5.389708980949373e-06
2.6226158399094394e-07   -7.390800437453212e-07   5.389708980949373e-06
2.6226158399094394e-07   -7.390800437453212e-07   5.389708980949373e-06
3.984448702882949e-06   -3.816484855902408e-07   -1.0283951520970255e-06
3.984448702882949e-06   -3.816484855902408e-07   -1.0283951520970255e-06
3.984448702882949e-06   -3.816484855902408e-07   -1.0283951520970255e-06
3.984448702882949e-06   -3.816484855902408e-07   -1.0283951520970255e-06
2.150885179546015e-06   -4.99216143084384e-07   2.0980846479609828e-06
2.150885179546015e-06   -4.99216143084384e-07   2.0980846479609828e-06
2.150885179546015e-06   -4.99216143084384e-07   2.0980846479609828e-06
2.150885179546015e-06   -4.99216143084384e-07   2.0980846479609828e-06
3.984448702882946e-06   -7.390800437453212e-07   5.175250046056347e-06
3.984448702882946e-06   -7.390800437453212e-07   5.175250046056347e-06
3.984448702882946e-06   -7.390800437453212e-07   5.175250046056347e-06
3.984448702882946e-06   -7.390800437453212e-07   5.175250046056347e-06
2.6226158399094394e-07   -3.816484855902408e-07   -8.139362172040023e-07
2.6226158399094394e-07   -3.816484855902408e-07   -8.139362172040023e-07
2.6226158399094394e-07   -3.816484855902408e-07   -8.139362172040023e-07
2.6226158399094394e-07   -3.816484855902408e-07   -8.139362172040023e-07
1.3824692640481057e-07   -7.525378763857606e-07   5.323475207359387e-06
1.3824692640481057e-07   -7.525378763857606e-07   5.323475207359387e-06
1.3824692640481057e-07   -7.525378763857606e-07   5.323475207359387e-06
1.3824692640481057e-07   -7.525378763857606e-07   5.323475207359387e-06
3.858837618349021e-06   -4.186818561999423e-07   -1.077822891325803e-06
3.858837618349021e-06   -4.186818561999423e-07   -1.077822891325803e-06
3.858837618349021e-06   -4.186818561999423e-07   -1.077822891325803e-06
3.858837618349021e-06   -4.186818561999423e-07   -1.077822891325803e-06
2.0247847757932913e-06   -5.207239955058013e-07   2.0401571298506695e-06
2.0247847757932913e-06   -5.207239955058013e-07   2.0401571298506695e-06
2.0247847757932913e-06   -5.207239955058013e-07   2.0401571298506695e-06
2.0247847757932913e-06   -5.207239955058013e-07   2.0401571298506695e-06
3.858837618349014e-06   -7.525378763857606e-07   5.123161595247896e-06
3.858837618349014e-06   -7.525378763857606e-07   5.123161595247896e-06
3.858837618349014e-06   -7.525378763857606e-07   5.123161595247896e-06
3.858837618349014e-06   -7.525378763857606e-07   5.123161595247896e-06
1.3824692640481057e-07   -4.186818561999423e-07   -8.775092792143255e-07
1.3824692640481057e-07   -4.186818561999423e-07   -8.775092792143255e-07
1.3824692640481057e-07   -4.186818561999423e-07   -8.775092792143255e-07
1.3824692640481057e-07   -4.186818561999423e-07   -8.775092792143255e-07
1.374725304583948e-09   -7.284428113947809e-07   5.385780831994471e-06
1.374725304583948e-09   -7.284428113947809e-07   5.385780831994471e-06
1.374725304583948e-09   -7.284428113947809e-07   5.385780831994471e-06
1.374725304583948e-09   -7.284428113947809e-07   5.385780831994471e-06
3.7262847116511713e-06   -4.304498849216822e-07   -1.0011982344670624e-06
3.7262847116511713e-06   -4.304498849216822e-07   -1.0011982344670624e-06
3.7262847116511713e-06   -4.304498849216822e-07   -1.0011982344670624e-06
3.7262847116511713e-06   -4.304498849216822e-07   -1.0011982344670624e-06
1.9265766342508074e-06   -5.118367088902381e-07   2.0471473222481398e-06
1.9265766342508074e-06   -5.118367088902381e-07   2.0471473222481398e-06
1.9265766342508074e-06   -5.118367088902381e-07   2.0471473222481398e-06
1.9265766342508074e-06   -5.118367088902381e-07   2.0471473222481398e-06
3.602746471203708e-07   -2.241007558364031e-07   5.278984670580803e-06
3.602746471203708e-07   -2.241007558364031e-07   5.278984670580803e-06
3.602746471203708e-07   -2.241007558364031e-07   5.278984670580803e-06
3.602746471203708e-07   -2.241007558364031e-07   5.278984670580803e-06
-3.2537653963205837e-06   3.098272698123187e-07   -4.2405858643158553e-07
-3.2537653963205837e-06   3.098272698123187e-07   -4.2405858643158553e-07
-3.2537653963205837e-06   3.098272698123187e-07   -4.2405858643158553e-07
-3.2537653963205837e-06   3.098272698123187e-07   -4.2405858643158553e-07
-3.364616070356673e-06   -2.3440873412087452e-07   5.635365382104709e-06
-3.364616070356673e-06   -2.3440873412087452e-07   5.635365382104709e-06
-3.364616070356673e-06   -2.3440873412087452e-07   5.635365382104709e-06
-3.364616070356673e-06   -2.3440873412087452e-07   5.635365382104709e-06
2.6226158399094394e-07   2.670276005961548e-07   -7.102925093048857e-07
2.6226158399094394e-07   2.670276005961548e-07   -7.102925093048857e-07
2.6226158399094394e-07   2.670276005961548e-07   -7.102925093048857e-07
2.6226158399094394e-07   2.670276005961548e-07   -7.102925093048857e-07
-1.496590616133141e-06   5.222891605511683e-08   2.350007034959864e-06
-1.496590616133141e-06   5.222891605511683e-08   2.350007034959864e-06
-1.496590616133141e-06   5.222891605511683e-08   2.350007034959864e-06
-1.496590616133141e-06   5.222891605511683e-08   2.350007034959864e-06
2.6226158399094733e-07   -2.3440873412092873e-07   5.334503581274513e-06
2.6226158399094733e-07   -2.3440873412092873e-07   5.334503581274513e-06
2.6226158399094733e-07   -2.3440873412092873e-07   5.334503581274513e-06
2.6226158399094733e-07   -2.3440873412092873e-07   5.334503581274513e-06
-3.364616070356673e-06   2.670276005961548e-07   -4.0943070847462544e-07
-3.364616070356673e-06   2.670276005961548e-07   -4.0943070847462544e-07
-3.364616070356673e-06   2.670276005961548e-07   -4.0943070847462544e-07
-3.364616070356673e-06   2.670276005961548e-07   -4.0943070847462544e-07
-3.5107381947409628e-06   -2.4811461817205154e-07   5.7386022952718755e-06
-3.5107381947409628e-06   -2.4811461817205154e-07   5.7386022952718755e-06
-3.5107381947409628e-06   -2.4811461817205154e-07   5.7386022952718755e-06
-3.5107381947409628e-06   -2.4811461817205154e-07   5.7386022952718755e-06
1.3824692640481057e-07   2.2721623105557238e-07   -6.28238082841014e-07
1.3824692640481057e-07   2.2721623105557238e-07   -6.28238082841014e-07
1.3824692640481057e-07   2.2721623105557238e-07   -6.28238082841014e-07
1.3824692640481057e-07   2.2721623105557238e-07   -6.28238082841014e-07
-1.6052611508103755e-06   4.27729339496025e-08   2.388274690781255e-06
-1.6052611508103755e-06   4.27729339496025e-08   2.388274690781255e-06
-1.6052611508103755e-06   4.27729339496025e-08   2.388274690781255e-06
-1.6052611508103755e-06   4.27729339496025e-08   2.388274690781255e-06
1.3824692640481057e-07   -2.4811461817205154e-07   5.4534037857352795e-06
1.3824692640481057e-07   -2.4811461817205154e-07   5.4534037857352795e-06
1.3824692640481057e-07   -2.4811461817205154e-07   5.4534037857352795e-06
1.3824692640481057e-07   -2.4811461817205154e-07   5.4534037857352795e-06
-3.5107381947409628e-06   2.2721623105557238e-07   -3.4303957330441117e-07
-3.5107381947409628e-06   2.2721623105557238e-07   -3.4303957330441117e-07
-3.5107381947409628e-06   2.2721623105557238e-07   -3.4303957330441117e-07
-3.5107381947409628e-06   2.2721623105557238e-07   -3.4303957330441117e-07
-3.6663576381040055e-06   -2.4091013157951464e-07   5.862293435252421e-06
-3.6663576381040055e-06   -2.4091013157951464e-07   5.862293435252421e-06
-3.6663576381040055e-06   -2.4091013157951464e-07   5.862293435252421e-06
-3.6663576381040055e-06   -2.4091013157951464e-07   5.862293435252421e-06
1.374725304583948e-09   1.9946140163563768e-07   -5.148167570242965e-07
1.374725304583948e-09   1.9946140163563768e-07   -5.148167570242965e-07
1.374725304583948e-09   1.9946140163563768e-07   -5.148167570242965e-07
1.374725304583948e-09   1.9946140163563768e-07   -5.148167570242965e-07
-1.742876561939705e-06   3.739901663894372e-08   2.489506152714284e-06
-1.742876561939705e-06   3.739901663894372e-08   2.489506152714284e-06
-1.742876561939705e-06   3.739901663894372e-08   2.489506152714284e-06
-1.742876561939705e-06   3.739901663894372e-08   2.489506152714284e-06
-3.25376539632057e-06   4.4150893785730285e-07   4.8137181138737544e-06
-3.25376539632057e-06   4.4150893785730285e-07   4.8137181138737544e-06
-3.25376539632057e-06   4.4150893785730285e-07   4.8137181138737544e-06
-3.25376539632057e-06   4.4150893785730285e-07   4.8137181138737544e-06
-6.82306918919e-06   9.771699007696017e-07   -8.137249631612331e-07
-6.82306918919e-06   9.771699007696017e-07   -8.137249631612331e-07
-6.82306918919e-06   9.771699007696017e-07   -8.137249631612331e-07
-6.82306918919e-06   9.771699007696017e-07   -8.137249631612331e-07
-6.979224456995368e-06   4.3336609489462094e-07   5.292840321182406e-06
-6.979224456995368e-06   4.3336609489462094e-07   5.292840321182406e-06
-6.979224456995368e-06   4.3336609489462094e-07   5.292840321182406e-06
-6.979224456995368e-06   4.3336609489462094e-07   5.292840321182406e-06
-3.364616070356666e-06   9.363252895630732e-07   -1.0332825066831894e-06
-3.364616070356666e-06   9.363252895630732e-07   -1.0332825066831894e-06
-3.364616070356666e-06   9.363252895630732e-07   -1.0332825066831894e-06
-3.364616070356666e-06   9.363252895630732e-07   -1.0332825066831894e-06
-5.068517992861113e-06   7.034367619196641e-07   1.9462871474102854e-06
-5.068517992861113e-06   7.034367619196641e-07   1.9462871474102854e-06
-5.068517992861113e-06   7.034367619196641e-07   1.9462871474102854e-06
-5.068517992861113e-06   7.034367619196641e-07   1.9462871474102854e-06
-3.364616070356673e-06   4.3336609489456673e-07   4.991064804381323e-06
-3.364616070356673e-06   4.3336609489456673e-07   4.991064804381323e-06
-3.364616070356673e-06   4.3336609489456673e-07   4.991064804381323e-06
-3.364616070356673e-06   4.3336609489456673e-07   4.991064804381323e-06
-6.979224456995354e-06   9.363252895630732e-07   -7.315069898820598e-07
-6.979224456995354e-06   9.363252895630732e-07   -7.315069898820598e-07
-6.979224456995354e-06   9.363252895630732e-07   -7.315069898820598e-07
-6.979224456995354e-06   9.363252895630732e-07   -7.315069898820598e-07
-7.17241014853481e-06   4.057150352103833e-07   5.616738325550554e-06
-7.17241014853481e-06   4.057150352103833e-07   5.616738325550554e-06
-7.17241014853481e-06   4.057150352103833e-07   5.616738325550554e-06
-7.17241014853481e-06   4.057150352103833e-07   5.616738325550554e-06
-3.5107381947409628e-06   8.966547606969544e-07   -7.806120993977545e-07
-3.5107381947409628e-06   8.966547606969544e-07   -7.806120993977545e-07
-3.5107381947409628e-06   8.966547606969544e-07   -7.806120993977545e-07
-3.5107381947409628e-06   8.966547606969544e-07   -7.806120993977545e-07
-5.181174123068049e-06   6.983268705332843e-07   2.1224445152455667e-06
-5.181174123068049e-06   6.983268705332843e-07   2.1224445152455667e-06
-5.181174123068049e-06   6.983268705332843e-07   2.1224445152455667e-06
-5.181174123068049e-06   6.983268705332843e-07   2.1224445152455667e-06
-3.510738194740956e-06   4.057150352104375e-07   5.322174490258628e-06
-3.510738194740956e-06   4.057150352104375e-07   5.322174490258628e-06
-3.510738194740956e-06   4.057150352104375e-07   5.322174490258628e-06
-3.510738194740956e-06   4.057150352104375e-07   5.322174490258628e-06
-7.1724101485348e-06   8.966547606969544e-07   -4.860482641058552e-07
-7.1724101485348e-06   8.966547606969544e-07   -4.860482641058552e-07
-7.1724101485348e-06   8.966547606969544e-07   -4.860482641058552e-07
-7.1724101485348e-06   8.966547606969544e-07   -4.860482641058552e-07
-7.3747738589188985e-06   3.7276612201890894e-07   5.8598054362021216e-06
-7.3747738589188985e-06   3.7276612201890894e-07   5.8598054362021216e-06
-7.3747738589188985e-06   3.7276612201890894e-07   5.8598054362021216e-06
-7.3747738589188985e-06   3.7276612201890894e-07   5.8598054362021216e-06
-3.6663576381039987e-06   8.411625950360824e-07   -6.019261489663389e-07
-3.6663576381039987e-06   8.411625950360824e-07   -6.019261489663389e-07
-3.6663576381039987e-06   8.411625950360824e-07   -6.019261489663389e-07
-3.6663576381039987e-06   8.411625950360824e-07   -6.019261489663389e-07
-5.381706656274237e-06   6.676847820241477e-07   2.3610755691247492e-06
-5.381706656274237e-06   6.676847820241477e-07   2.3610755691247492e-06
-5.381706656274237e-06   6.676847820241477e-07   2.3610755691247492e-06
-5.381706656274237e-06   6.676847820241477e-07   2.3610755691247492e-06
-6.82306918919e-06   1.5930653551295484e-06   2.5248009620373955e-06
-6.82306918919e-06   1.5930653551295484e-06   2.5248009620373955e-06
-6.82306918919e-06   1.5930653551295484e-06   2.5248009620373955e-06
-6.82306918919e-06   1.5930653551295484e-06   2.5248009620373955e-06
-1.0276939063213333e-05   1.589283657494982e-06   -3.2339178465822405e-06
-1.0276939063213333e-05   1.589283657494982e-06   -3.2339178465822405e-06
-1.0276939063213333e-05   1.589283657494982e-06   -3.2339178465822405e-06
-1.0276939063213333e-05   1.589283657494982e-06   -3.2339178465822405e-06
-1.0560297409057994e-05   1.5598401786717417e-06   3.83236961011858e-06
-1.0560297409057994e-05   1.5598401786717417e-06   3.83236961011858e-06
-1.0560297409057994e-05   1.5598401786717417e-06   3.83236961011858e-06
-1.0560297409057994e-05   1.5598401786717417e-06   3.83236961011858e-06
-6.979224456995354e-06   1.629349085954107e-06   -2.1777906543552633e-06
-6.979224456995354e-06   1.629349085954107e-06   -2.1777906543552633e-06
-6.979224456995354e-06   1.629349085954107e-06   -2.1777906543552633e-06
-6.979224456995354e-06   1.629349085954107e-06   -2.1777906543552633e-06
-8.311265063082002e-06   1.6093759846294077e-06   5.426088325062703e-08
-8.311265063082002e-06   1.6093759846294077e-06   5.426088325062703e-08
-8.311265063082002e-06   1.6093759846294077e-06   5.426088325062703e-08
-8.311265063082002e-06   1.6093759846294077e-06   5.426088325062703e-08
-6.979224456995344e-06   1.5598401786716875e-06   3.790664265749166e-06
-6.979224456995344e-06   1.5598401786716875e-06   3.790664265749166e-06
-6.979224456995344e-06   1.5598401786716875e-06   3.790664265749166e-06
-6.979224456995344e-06   1.5598401786716875e-06   3.790664265749166e-06
-1.0560297409057994e-05   1.629349085954107e-06   -2.1360853099858224e-06
-1.0560297409057994e-05   1.629349085954107e-06   -2.1360853099858224e-06
-1.0560297409057994e-05   1.629349085954107e-06   -2.1360853099858224e-06
-1.0560297409057994e-05   1.629349085954107e-06   -2.1360853099858224e-06
-1.0837957306654939e-05   1.5281104603059306e-06   4.730544038126009e-06
-1.0837957306654939e-05   1.5281104603059306e-06   4.730544038126009e-06
-1.0837957306654939e-05   1.5281104603059306e-06   4.730544038126009e-06
-1.0837957306654939e-05   1.5281104603059306e-06   4.730544038126009e-06
-7.1724101485348e-06   1.6207543530022384e-06   -1.4342875610253933e-06
-7.1724101485348e-06   1.6207543530022384e-06   -1.4342875610253933e-06
-7.1724101485348e-06   1.6207543530022384e-06   -1.4342875610253933e-06
-7.1724101485348e-06   1.6207543530022384e-06   -1.4342875610253933e-06
-8.653133265730179e-06   1.6176039739834377e-06   1.0354745283782676e-06
-8.653133265730179e-06   1.6176039739834377e-06   1.0354745283782676e-06
-8.653133265730179e-06   1.6176039739834377e-06   1.0354745283782676e-06
-8.653133265730179e-06   1.6176039739834377e-06   1.0354745283782676e-06
-7.1724101485348e-06   1.5281104603059306e-06   4.674957702508202e-06
-7.1724101485348e-06   1.5281104603059306e-06   4.674957702508202e-06
-7.1724101485348e-06   1.5281104603059306e-06   4.674957702508202e-06
-7.1724101485348e-06   1.5281104603059306e-06   4.674957702508202e-06
-1.0837957306654956e-05   1.6207543530022384e-06   -1.3787012254075869e-06
-1.0837957306654956e-05   1.6207543530022384e-06   -1.3787012254075869e-06
-1.0837957306654956e-05   1.6207543530022384e-06   -1.3787012254075869e-06
-1.0837957306654956e-05   1.6207543530022384e-06   -1.3787012254075869e-06
-1.1167026439455527e-05   1.3073344490418452e-06   6.2262306862886116e-06
-1.1167026439455527e-05   1.3073344490418452e-06   6.2262306862886116e-06
-1.1167026439455527e-05   1.3073344490418452e-06   6.2262306862886116e-06
-1.1167026439455527e-05   1.3073344490418452e-06   6.2262306862886116e-06
-7.374773858918888e-06   1.5015840342741198e-06   -2.1074003241186204e-07
-7.374773858918888e-06   1.5015840342741198e-06   -2.1074003241186204e-07
-7.374773858918888e-06   1.5015840342741198e-06   -2.1074003241186204e-07
-7.374773858918888e-06   1.5015840342741198e-06   -2.1074003241186204e-07
-8.751172086842644e-06   1.5478215879562683e-06   2.0555144819185543e-06
-8.751172086842644e-06   1.5478215879562683e-06   2.0555144819185543e-06
-8.751172086842644e-06   1.5478215879562683e-06   2.0555144819185543e-06
-8.751172086842644e-06   1.5478215879562683e-06   2.0555144819185543e-06
6.7939157261782386e-06   -9.416026021793816e-07   5.086331857914614e-06
6.7939157261782386e-06   -9.416026021793816e-07   5.086331857914614e-06
6.7939157261782386e-06   -9.416026021793816e-07   5.086331857914614e-06
6.7939157261782386e-06   -9.416026021793816e-07   5.086331857914614e-06
3.334244013577128e-06   -7.155818515153017e-07   -5.44175212688759e-07
3.334244013577128e-06   -7.155818515153017e-07   -5.44175212688759e-07
3.334244013577128e-06   -7.155818515153017e-07   -5.44175212688759e-07
3.334244013577128e-06   -7.155818515153017e-07   -5.44175212688759e-07
3.2212294926051292e-06   -1.0584849881171737e-06   4.399662239722515e-06
3.2212294926051292e-06   -1.0584849881171737e-06   4.399662239722515e-06
3.2212294926051292e-06   -1.0584849881171737e-06   4.399662239722515e-06
3.2212294926051292e-06   -1.0584849881171737e-06   4.399662239722515e-06
6.587473593723363e-06   -8.224425810961613e-07   -1.352370039687131e-06
6.587473593723363e-06   -8.224425810961613e-07   -1.352370039687131e-06
6.587473593723363e-06   -8.224425810961613e-07   -1.352370039687131e-06
6.587473593723363e-06   -8.224425810961613e-07   -1.352370039687131e-06
4.756522913889883e-06   -8.74908211692259e-07   1.7306938050596249e-06
4.756522913889883e-06   -8.74908211692259e-07   1.7306938050596249e-06
4.756522913889883e-06   -8.74908211692259e-07   1.7306938050596249e-06
4.756522913889883e-06   -8.74908211692259e-07   1.7306938050596249e-06
6.587473593723352e-06   -1.0584849881171737e-06   4.258036795509875e-06
6.587473593723352e-06   -1.0584849881171737e-06   4.258036795509875e-06
6.587473593723352e-06   -1.0584849881171737e-06   4.258036795509875e-06
6.587473593723352e-06   -1.0584849881171737e-06   4.258036795509875e-06
3.221229492605141e-06   -8.224425810961613e-07   -1.2107445954745487e-06
3.221229492605141e-06   -8.224425810961613e-07   -1.2107445954745487e-06
3.221229492605141e-06   -8.224425810961613e-07   -1.2107445954745487e-06
3.221229492605141e-06   -8.224425810961613e-07   -1.2107445954745487e-06
3.094795190191959e-06   -1.0737603330362045e-06   3.927517343353708e-06
3.094795190191959e-06   -1.0737603330362045e-06   3.927517343353708e-06
3.094795190191959e-06   -1.0737603330362045e-06   3.927517343353708e-06
3.094795190191959e-06   -1.0737603330362045e-06   3.927517343353708e-06
6.398752016665747e-06   -8.424830339369351e-07   -1.7178437468954387e-06
6.398752016665747e-06   -8.424830339369351e-07   -1.7178437468954387e-06
6.398752016665747e-06   -8.424830339369351e-07   -1.7178437468954387e-06
6.398752016665747e-06   -8.424830339369351e-07   -1.7178437468954387e-06
4.6882855085090355e-06   -9.169753055717671e-07   1.1776291296799375e-06
4.6882855085090355e-06   -9.169753055717671e-07   1.1776291296799375e-06
4.6882855085090355e-06   -9.169753055717671e-07   1.1776291296799375e-06
4.6882855085090355e-06   -9.169753055717671e-07   1.1776291296799375e-06
6.398752016665724e-06   -1.0737603330362045e-06   3.7887509638941357e-06
6.398752016665724e-06   -1.0737603330362045e-06   3.7887509638941357e-06
6.398752016665724e-06   -1.0737603330362045e-06   3.7887509638941357e-06
6.398752016665724e-06   -1.0737603330362045e-06   3.7887509638941357e-06
3.094795190191964e-06   -8.424830339369351e-07   -1.5790773674358963e-06
3.094795190191964e-06   -8.424830339369351e-07   -1.5790773674358963e-06
3.094795190191964e-06   -8.424830339369351e-07   -1.5790773674358963e-06
3.094795190191964e-06   -8.424830339369351e-07   -1.5790773674358963e-06
2.9723935444729866e-06   -1.0576462648158595e-06   3.257263629074435e-06
2.9723935444729866e-06   -1.0576462648158595e-06   3.257263629074435e-06
2.9723935444729866e-06   -1.0576462648158595e-06   3.257263629074435e-06
2.9723935444729866e-06   -1.0576462648158595e-06   3.257263629074435e-06
6.183329261126158e-06   -8.433098747118737e-07   -2.2228977327432013e-06
6.183329261126158e-06   -8.433098747118737e-07   -2.2228977327432013e-06
6.183329261126158e-06   -8.433098747118737e-07   -2.2228977327432013e-06
6.183329261126158e-06   -8.433098747118737e-07   -2.2228977327432013e-06
4.465937701213497e-06   -8.985119686204289e-07   6.725427901231217e-07
4.465937701213497e-06   -8.985119686204289e-07   6.725427901231217e-07
4.465937701213497e-06   -8.985119686204289e-07   6.725427901231217e-07
4.465937701213497e-06   -8.985119686204289e-07   6.725427901231217e-07
3.334244013577128e-06   -3.2088322977398293e-07   5.195189183991762e-06
3.334244013577128e-06   -3.2088322977398293e-07   5.195189183991762e-06
3.334244013577128e-06   -3.2088322977398293e-07   5.195189183991762e-06
3.334244013577128e-06   -3.2088322977398293e-07   5.195189183991762e-06
8.5358469544904e-08   -1.3974032750223037e-07   -1.1093431469887485e-07
8.5358469544904e-08   -1.3974032750223037e-07   -1.1093431469887485e-07
8.5358469544904e-08   -1.3974032750223037e-07   -1.1093431469887485e-07
8.5358469544904e-08   -1.3974032750223037e-07   -1.1093431469887485e-07
-2.4033952622972007e-08   -3.816484855902408e-07   5.238927099506966e-06
-2.4033952622972007e-08   -3.816484855902408e-07   5.238927099506966e-06
-2.4033952622972007e-08   -3.816484855902408e-07   5.238927099506966e-06
-2.4033952622972007e-08   -3.816484855902408e-07   5.238927099506966e-06
3.221229492605141e-06   -2.1368851233708862e-07   -2.706212931584702e-07
3.221229492605141e-06   -2.1368851233708862e-07   -2.706212931584702e-07
3.221229492605141e-06   -2.1368851233708862e-07   -2.706212931584702e-07
3.221229492605141e-06   -2.1368851233708862e-07   -2.706212931584702e-07
1.6336285350214314e-06   -2.551606629315299e-07   2.400263593171071e-06
1.6336285350214314e-06   -2.551606629315299e-07   2.400263593171071e-06
1.6336285350214314e-06   -2.551606629315299e-07   2.400263593171071e-06
1.6336285350214314e-06   -2.551606629315299e-07   2.400263593171071e-06
3.2212294926051377e-06   -3.816484855902408e-07   5.138151115555064e-06
3.2212294926051377e-06   -3.816484855902408e-07   5.138151115555064e-06
3.2212294926051377e-06   -3.816484855902408e-07   5.138151115555064e-06
3.2212294926051377e-06   -3.816484855902408e-07   5.138151115555064e-06
-2.4033952622975395e-08   -2.1368851233708862e-07   -1.6984530920656125e-07
-2.4033952622975395e-08   -2.1368851233708862e-07   -1.6984530920656125e-07
-2.4033952622975395e-08   -2.1368851233708862e-07   -1.6984530920656125e-07
-2.4033952622975395e-08   -2.1368851233708862e-07   -1.6984530920656125e-07
-1.3780724165727648e-07   -4.186818561999423e-07   5.14770622443822e-06
-1.3780724165727648e-07   -4.186818561999423e-07   5.14770622443822e-06
-1.3780724165727648e-07   -4.186818561999423e-07   5.14770622443822e-06
-1.3780724165727648e-07   -4.186818561999423e-07   5.14770622443822e-06
3.094795190191964e-06   -2.6631550340184716e-07   -3.313843069893882e-07
3.094795190191964e-06   -2.6631550340184716e-07   -3.313843069893882e-07
3.094795190191964e-06   -2.6631550340184716e-07   -3.313843069893882e-07
3.094795190191964e-06   -2.6631550340184716e-07   -3.313843069893882e-07
1.5059463000972378e-06   -2.928558430016553e-07   2.332621380261787e-06
1.5059463000972378e-06   -2.928558430016553e-07   2.332621380261787e-06
1.5059463000972378e-06   -2.928558430016553e-07   2.332621380261787e-06
1.5059463000972378e-06   -2.928558430016553e-07   2.332621380261787e-06
3.094795190191959e-06   -4.186818561999423e-07   5.056286412759341e-06
3.094795190191959e-06   -4.186818561999423e-07   5.056286412759341e-06
3.094795190191959e-06   -4.186818561999423e-07   5.056286412759341e-06
3.094795190191959e-06   -4.186818561999423e-07   5.056286412759341e-06
-1.3780724165727648e-07   -2.6631550340184716e-07   -2.399644953105179e-07
-1.3780724165727648e-07   -2.6631550340184716e-07   -2.399644953105179e-07
-1.3780724165727648e-07   -2.6631550340184716e-07   -2.399644953105179e-07
-1.3780724165727648e-07   -2.6631550340184716e-07   -2.399644953105179e-07
-2.562786133062869e-07   -4.30449884921628e-07   5.174420764163896e-06
-2.562786133062869e-07   -4.30449884921628e-07   5.174420764163896e-06
-2.562786133062869e-07   -4.30449884921628e-07   5.174420764163896e-06
-2.562786133062869e-07   -4.30449884921628e-07   5.174420764163896e-06
2.972393544472995e-06   -3.0505807866343815e-07   -2.8193458255649396e-07
2.972393544472995e-06   -3.0505807866343815e-07   -2.8193458255649396e-07
2.972393544472995e-06   -3.0505807866343815e-07   -2.8193458255649396e-07
2.972393544472995e-06   -3.0505807866343815e-07   -2.8193458255649396e-07
1.413569103665644e-06   -3.1031728667577606e-07   2.319261676929924e-06
1.413569103665644e-06   -3.1031728667577606e-07   2.319261676929924e-06
1.413569103665644e-06   -3.1031728667577606e-07   2.319261676929924e-06
1.413569103665644e-06   -3.1031728667577606e-07   2.319261676929924e-06
8.5358469544904e-08   3.098272698123187e-07   5.338726014962879e-06
8.5358469544904e-08   3.098272698123187e-07   5.338726014962879e-06
8.5358469544904e-08   3.098272698123187e-07   5.338726014962879e-06
8.5358469544904e-08   3.098272698123187e-07   5.338726014962879e-06
-3.0748860130241396e-06   4.3115435255451076e-07   1.4444812699310476e-07
-3.0748860130241396e-06   4.3115435255451076e-07   1.4444812699310476e-07
-3.0748860130241396e-06   4.3115435255451076e-07   1.4444812699310476e-07
-3.0748860130241396e-06   4.3115435255451076e-07   1.4444812699310476e-07
-3.1897129018653647e-06   2.670276005961006e-07   5.405722407839054e-06
-3.1897129018653647e-06   2.670276005961006e-07   5.405722407839054e-06
-3.1897129018653647e-06   2.670276005961006e-07   5.405722407839054e-06
-3.1897129018653647e-06   2.670276005961006e-07   5.405722407839054e-06
-2.4033952622975395e-08   3.722802679844957e-07   6.643922533540239e-08
-2.4033952622975395e-08   3.722802679844957e-07   6.643922533540239e-08
-2.4033952622975395e-08   3.722802679844957e-07   6.643922533540239e-08
-2.4033952622975395e-08   3.722802679844957e-07   6.643922533540239e-08
-1.5530159261285565e-06   3.465875125131129e-07   2.630158167794224e-06
-1.5530159261285565e-06   3.465875125131129e-07   2.630158167794224e-06
-1.5530159261285565e-06   3.465875125131129e-07   2.630158167794224e-06
-1.5530159261285565e-06   3.465875125131129e-07   2.630158167794224e-06
-2.4033952622972007e-08   2.670276005961006e-07   5.342570807406066e-06
-2.4033952622972007e-08   2.670276005961006e-07   5.342570807406066e-06
-2.4033952622972007e-08   2.670276005961006e-07   5.342570807406066e-06
-2.4033952622972007e-08   2.670276005961006e-07   5.342570807406066e-06
-3.1897129018653647e-06   3.722802679844957e-07   1.295908257684076e-07
-3.1897129018653647e-06   3.722802679844957e-07   1.295908257684076e-07
-3.1897129018653647e-06   3.722802679844957e-07   1.295908257684076e-07
-3.1897129018653647e-06   3.722802679844957e-07   1.295908257684076e-07
-3.3102621788638924e-06   2.2721623105557238e-07   5.449788021825942e-06
-3.3102621788638924e-06   2.2721623105557238e-07   5.449788021825942e-06
-3.3102621788638924e-06   2.2721623105557238e-07   5.449788021825942e-06
-3.3102621788638924e-06   2.2721623105557238e-07   5.449788021825942e-06
-1.3780724165727648e-07   3.15233899412994e-07   1.0955252546716347e-07
-1.3780724165727648e-07   3.15233899412994e-07   1.0955252546716347e-07
-1.3780724165727648e-07   3.15233899412994e-07   1.0955252546716347e-07
-1.3780724165727648e-07   3.15233899412994e-07   1.0955252546716347e-07
-1.6592246445778765e-06   3.1446009127140745e-07   2.6457124818864087e-06
-1.6592246445778765e-06   3.1446009127140745e-07   2.6457124818864087e-06
-1.6592246445778765e-06   3.1446009127140745e-07   2.6457124818864087e-06
-1.6592246445778765e-06   3.1446009127140745e-07   2.6457124818864087e-06
-1.3780724165727648e-07   2.2721623105557238e-07   5.396977420811511e-06
-1.3780724165727648e-07   2.2721623105557238e-07   5.396977420811511e-06
-1.3780724165727648e-07   2.2721623105557238e-07   5.396977420811511e-06
-1.3780724165727648e-07   2.2721623105557238e-07   5.396977420811511e-06
-3.3102621788638924e-06   3.15233899412994e-07   1.6236312648157782e-07
-3.3102621788638924e-06   3.15233899412994e-07   1.6236312648157782e-07
-3.3102621788638924e-06   3.15233899412994e-07   1.6236312648157782e-07
-3.3102621788638924e-06   3.15233899412994e-07   1.6236312648157782e-07
-3.4342569914407263e-06   1.9946140163558347e-07   5.5211034622203484e-06
-3.4342569914407263e-06   1.9946140163558347e-07   5.5211034622203484e-06
-3.4342569914407263e-06   1.9946140163558347e-07   5.5211034622203484e-06
-3.4342569914407263e-06   1.9946140163558347e-07   5.5211034622203484e-06
-2.562786133062869e-07   2.6462302913157765e-07   1.8537585549872128e-07
-2.562786133062869e-07   2.6462302913157765e-07   1.8537585549872128e-07
-2.562786133062869e-07   2.6462302913157765e-07   1.8537585549872128e-07
-2.562786133062869e-07   2.6462302913157765e-07   1.8537585549872128e-07
-1.7742269437705153e-06   2.8398503757956365e-07   2.7036725345370847e-06
-1.7742269437705153e-06   2.8398503757956365e-07   2.7036725345370847e-06
-1.7742269437705153e-06   2.8398503757956365e-07   2.7036725345370847e-06
-1.7742269437705153e-06   2.8398503757956365e-07   2.7036725345370847e-06
-3.0748860130241497e-06   9.771699007696017e-07   4.70045931013114e-06
-3.0748860130241497e-06   9.771699007696017e-07   4.70045931013114e-06
-3.0748860130241497e-06   9.771699007696017e-07   4.70045931013114e-06
-3.0748860130241497e-06   9.771699007696017e-07   4.70045931013114e-06
-6.162762337072544e-06   9.901736924497213e-07   -4.381989549414277e-07
-6.162762337072544e-06   9.901736924497213e-07   -4.381989549414277e-07
-6.162762337072544e-06   9.901736924497213e-07   -4.381989549414277e-07
-6.162762337072544e-06   9.901736924497213e-07   -4.381989549414277e-07
-6.29572165133172e-06   9.363252895630732e-07   4.781869108838263e-06
-6.29572165133172e-06   9.363252895630732e-07   4.781869108838263e-06
-6.29572165133172e-06   9.363252895630732e-07   4.781869108838263e-06
-6.29572165133172e-06   9.363252895630732e-07   4.781869108838263e-06
-3.189712901865368e-06   9.363227882425791e-07   -3.948106394800383e-07
-3.189712901865368e-06   9.363227882425791e-07   -3.948106394800383e-07
-3.189712901865368e-06   9.363227882425791e-07   -3.948106394800383e-07
-3.189712901865368e-06   9.363227882425791e-07   -3.948106394800383e-07
-4.659979195265699e-06   9.542428804438976e-07   2.044881127533088e-06
-4.659979195265699e-06   9.542428804438976e-07   2.044881127533088e-06
-4.659979195265699e-06   9.542428804438976e-07   2.044881127533088e-06
-4.659979195265699e-06   9.542428804438976e-07   2.044881127533088e-06
-3.189712901865368e-06   9.363252895630732e-07   4.781870609630565e-06
-3.189712901865368e-06   9.363252895630732e-07   4.781870609630565e-06
-3.189712901865368e-06   9.363252895630732e-07   4.781870609630565e-06
-3.189712901865368e-06   9.363252895630732e-07   4.781870609630565e-06
-6.29572165133172e-06   9.363227882425791e-07   -3.9481214027234693e-07
-6.29572165133172e-06   9.363227882425791e-07   -3.9481214027234693e-07
-6.29572165133172e-06   9.363227882425791e-07   -3.9481214027234693e-07
-6.29572165133172e-06   9.363227882425791e-07   -3.9481214027234693e-07
-6.441769460448738e-06   8.966547606969544e-07   5.0050067097689814e-06
-6.441769460448738e-06   8.966547606969544e-07   5.0050067097689814e-06
-6.441769460448738e-06   8.966547606969544e-07   5.0050067097689814e-06
-6.441769460448738e-06   8.966547606969544e-07   5.0050067097689814e-06
-3.310262178863899e-06   8.846401174241684e-07   -2.0696330690878035e-07
-3.310262178863899e-06   8.846401174241684e-07   -2.0696330690878035e-07
-3.310262178863899e-06   8.846401174241684e-07   -2.0696330690878035e-07
-3.310262178863899e-06   8.846401174241684e-07   -2.0696330690878035e-07
-4.751933978356928e-06   9.251945452450755e-07   2.1714903688870943e-06
-4.751933978356928e-06   9.251945452450755e-07   2.1714903688870943e-06
-4.751933978356928e-06   9.251945452450755e-07   2.1714903688870943e-06
-4.751933978356928e-06   9.251945452450755e-07   2.1714903688870943e-06
-3.310262178863896e-06   8.966547606969002e-07   5.012215495732626e-06
-3.310262178863896e-06   8.966547606969002e-07   5.012215495732626e-06
-3.310262178863896e-06   8.966547606969002e-07   5.012215495732626e-06
-3.310262178863896e-06   8.966547606969002e-07   5.012215495732626e-06
-6.441769460448738e-06   8.846401174241684e-07   -2.1417209287243164e-07
-6.441769460448738e-06   8.846401174241684e-07   -2.1417209287243164e-07
-6.441769460448738e-06   8.846401174241684e-07   -2.1417209287243164e-07
-6.441769460448738e-06   8.846401174241684e-07   -2.1417209287243164e-07
-6.580174847056214e-06   8.411625950360824e-07   5.1568779728853415e-06
-6.580174847056214e-06   8.411625950360824e-07   5.1568779728853415e-06
-6.580174847056214e-06   8.411625950360824e-07   5.1568779728853415e-06
-6.580174847056214e-06   8.411625950360824e-07   5.1568779728853415e-06
-3.4342569914407263e-06   8.196739659294995e-07   -7.342527567657636e-08
-3.4342569914407263e-06   8.196739659294995e-07   -7.342527567657636e-08
-3.4342569914407263e-06   8.196739659294995e-07   -7.342527567657636e-08
-3.4342569914407263e-06   8.196739659294995e-07   -7.342527567657636e-08
-4.907541275914888e-06   8.848017503685019e-07   2.34297186111723e-06
-4.907541275914888e-06   8.848017503685019e-07   2.34297186111723e-06
-4.907541275914888e-06   8.848017503685019e-07   2.34297186111723e-06
-4.907541275914888e-06   8.848017503685019e-07   2.34297186111723e-06
-6.162762337072537e-06   1.589283657494982e-06   2.2903377202989174e-06
-6.162762337072537e-06   1.589283657494982e-06   2.2903377202989174e-06
-6.162762337072537e-06   1.589283657494982e-06   2.2903377202989174e-06
-6.162762337072537e-06   1.589283657494982e-06   2.2903377202989174e-06
-9.144911877438324e-06   1.4488507347969843e-06   -2.7641712672628256e-06
-9.144911877438324e-06   1.4488507347969843e-06   -2.7641712672628256e-06
-9.144911877438324e-06   1.4488507347969843e-06   -2.7641712672628256e-06
-9.144911877438324e-06   1.4488507347969843e-06   -2.7641712672628256e-06
-9.354859979568086e-06   1.629349085954107e-06   3.2409963900550476e-06
-9.354859979568086e-06   1.629349085954107e-06   3.2409963900550476e-06
-9.354859979568086e-06   1.629349085954107e-06   3.2409963900550476e-06
-9.354859979568086e-06   1.629349085954107e-06   3.2409963900550476e-06
-6.29572165133172e-06   1.4717006621041417e-06   -1.7629784360289423e-06
-6.29572165133172e-06   1.4717006621041417e-06   -1.7629784360289423e-06
-6.29572165133172e-06   1.4717006621041417e-06   -1.7629784360289423e-06
-6.29572165133172e-06   1.4717006621041417e-06   -1.7629784360289423e-06
-7.441994461297968e-06   1.521485549236981e-06   1.1760531496840933e-07
-7.441994461297968e-06   1.521485549236981e-06   1.1760531496840933e-07
-7.441994461297968e-06   1.521485549236981e-06   1.1760531496840933e-07
-7.441994461297968e-06   1.521485549236981e-06   1.1760531496840933e-07
-6.2957216513317095e-06   1.629349085954107e-06   3.3355854443650323e-06
-6.2957216513317095e-06   1.629349085954107e-06   3.3355854443650323e-06
-6.2957216513317095e-06   1.629349085954107e-06   3.3355854443650323e-06
-6.2957216513317095e-06   1.629349085954107e-06   3.3355854443650323e-06
-9.354859979568106e-06   1.4717006621041417e-06   -1.8575674903389337e-06
-9.354859979568106e-06   1.4717006621041417e-06   -1.8575674903389337e-06
-9.354859979568106e-06   1.4717006621041417e-06   -1.8575674903389337e-06
-9.354859979568106e-06   1.4717006621041417e-06   -1.8575674903389337e-06
-9.557909132019697e-06   1.6207543530022384e-06   3.958875131533028e-06
-9.557909132019697e-06   1.6207543530022384e-06   3.958875131533028e-06
-9.557909132019697e-06   1.6207543530022384e-06   3.958875131533028e-06
-9.557909132019697e-06   1.6207543530022384e-06   3.958875131533028e-06
-6.441769460448738e-06   1.4576005508083116e-06   -1.1367987064355613e-06
-6.441769460448738e-06   1.4576005508083116e-06   -1.1367987064355613e-06
-6.441769460448738e-06   1.4576005508083116e-06   -1.1367987064355613e-06
-6.441769460448738e-06   1.4576005508083116e-06   -1.1367987064355613e-06
-7.713594878609472e-06   1.552180589156518e-06   9.26162300823569e-07
-7.713594878609472e-06   1.552180589156518e-06   9.26162300823569e-07
-7.713594878609472e-06   1.552180589156518e-06   9.26162300823569e-07
-7.713594878609472e-06   1.552180589156518e-06   9.26162300823569e-07
-6.441769460448738e-06   1.6207543530022926e-06   4.056767412849443e-06
-6.441769460448738e-06   1.6207543530022926e-06   4.056767412849443e-06
-6.441769460448738e-06   1.6207543530022926e-06   4.056767412849443e-06
-6.441769460448738e-06   1.6207543530022926e-06   4.056767412849443e-06
-9.557909132019717e-06   1.4576005508083116e-06   -1.2346909877519567e-06
-9.557909132019717e-06   1.4576005508083116e-06   -1.2346909877519567e-06
-9.557909132019717e-06   1.4576005508083116e-06   -1.2346909877519567e-06
-9.557909132019717e-06   1.4576005508083116e-06   -1.2346909877519567e-06
-9.793079307877312e-06   1.5015840342741198e-06   5.176399029856784e-06
-9.793079307877312e-06   1.5015840342741198e-06   5.176399029856784e-06
-9.793079307877312e-06   1.5015840342741198e-06   5.176399029856784e-06
-9.793079307877312e-06   1.5015840342741198e-06   5.176399029856784e-06
-6.580174847056214e-06   1.3505387413195735e-06   -8.781456240569355e-08
-6.580174847056214e-06   1.3505387413195735e-06   -8.781456240569355e-08
-6.580174847056214e-06   1.3505387413195735e-06   -8.781456240569355e-08
-6.580174847056214e-06   1.3505387413195735e-06   -8.781456240569355e-08
-7.762230888218739e-06   1.5075469412992011e-06   1.788073919544182e-06
-7.762230888218739e-06   1.5075469412992011e-06   1.788073919544182e-06
-7.762230888218739e-06   1.5075469412992011e-06   1.788073919544182e-06
-7.762230888218739e-06   1.5075469412992011e-06   1.788073919544182e-06
5.338262463500299e-06   -7.155818515153017e-07   4.376530185368996e-06
5.338262463500299e-06   -7.155818515153017e-07   4.376530185368996e-06
5.338262463500299e-06   -7.155818515153017e-07   4.376530185368996e-06
5.338262463500299e-06   -7.155818515153017e-07   4.376530185368996e-06
2.4969306814265315e-06   -4.952010831044736e-07   -2.267943237074571e-07
2.4969306814265315e-06   -4.952010831044736e-07   -2.267943237074571e-07
2.4969306814265315e-06   -4.952010831044736e-07   -2.267943237074571e-07
2.4969306814265315e-06   -4.952010831044736e-07   -2.267943237074571e-07
2.3944633586325354e-06   -8.224425810961613e-07   3.826281264068094e-06
2.3944633586325354e-06   -8.224425810961613e-07   3.826281264068094e-06
2.3944633586325354e-06   -8.224425810961613e-07   3.826281264068094e-06
2.3944633586325354e-06   -8.224425810961613e-07   3.826281264068094e-06
5.138755821938153e-06   -5.928866698234978e-07   -8.852730548715153e-07
5.138755821938153e-06   -5.928866698234978e-07   -8.852730548715153e-07
5.138755821938153e-06   -5.928866698234978e-07   -8.852730548715153e-07
5.138755821938153e-06   -5.928866698234978e-07   -8.852730548715153e-07
3.662027021306065e-06   -6.599532902777389e-07   1.6161815851211421e-06
3.662027021306065e-06   -6.599532902777389e-07   1.6161815851211421e-06
3.662027021306065e-06   -6.599532902777389e-07   1.6161815851211421e-06
3.662027021306065e-06   -6.599532902777389e-07   1.6161815851211421e-06
5.138755821938153e-06   -8.224425810962155e-07   3.6885477173045174e-06
5.138755821938153e-06   -8.224425810962155e-07   3.6885477173045174e-06
5.138755821938153e-06   -8.224425810962155e-07   3.6885477173045174e-06
5.138755821938153e-06   -8.224425810962155e-07   3.6885477173045174e-06
2.3944633586325388e-06   -5.928866698234978e-07   -7.475395081079186e-07
2.3944633586325388e-06   -5.928866698234978e-07   -7.475395081079186e-07
2.3944633586325388e-06   -5.928866698234978e-07   -7.475395081079186e-07
2.3944633586325388e-06   -5.928866698234978e-07   -7.475395081079186e-07
2.2801456521153765e-06   -8.424830339369351e-07   3.441500166538093e-06
2.2801456521153765e-06   -8.424830339369351e-07   3.441500166538093e-06
2.2801456521153765e-06   -8.424830339369351e-07   3.441500166538093e-06
2.2801456521153765e-06   -8.424830339369351e-07   3.441500166538093e-06
4.962362129239738e-06   -6.177680589920689e-07   -1.163689613636131e-06
4.962362129239738e-06   -6.177680589920689e-07   -1.163689613636131e-06
4.962362129239738e-06   -6.177680589920689e-07   -1.163689613636131e-06
4.962362129239738e-06   -6.177680589920689e-07   -1.163689613636131e-06
3.5877454909003605e-06   -7.00265638359579e-07   1.1768366645500915e-06
3.5877454909003605e-06   -7.00265638359579e-07   1.1768366645500915e-06
3.5877454909003605e-06   -7.00265638359579e-07   1.1768366645500915e-06
3.5877454909003605e-06   -7.00265638359579e-07   1.1768366645500915e-06
4.962362129239729e-06   -8.424830339369351e-07   3.3066711815711624e-06
4.962362129239729e-06   -8.424830339369351e-07   3.3066711815711624e-06
4.962362129239729e-06   -8.424830339369351e-07   3.3066711815711624e-06
4.962362129239729e-06   -8.424830339369351e-07   3.3066711815711624e-06
2.2801456521153816e-06   -6.177680589920689e-07   -1.028860628669192e-06
2.2801456521153816e-06   -6.177680589920689e-07   -1.028860628669192e-06
2.2801456521153816e-06   -6.177680589920689e-07   -1.028860628669192e-06
2.2801456521153816e-06   -6.177680589920689e-07   -1.028860628669192e-06
2.1739013252290886e-06   -8.433098747118737e-07   2.9089951849802203e-06
2.1739013252290886e-06   -8.433098747118737e-07   2.9089951849802203e-06
2.1739013252290886e-06   -8.433098747118737e-07   2.9089951849802203e-06
2.1739013252290886e-06   -8.433098747118737e-07   2.9089951849802203e-06
4.7630172361725595e-06   -6.353835451246661e-07   -1.530953797677851e-06
4.7630172361725595e-06   -6.353835451246661e-07   -1.530953797677851e-06
4.7630172361725595e-06   -6.353835451246661e-07   -1.530953797677851e-06
4.7630172361725595e-06   -6.353835451246661e-07   -1.530953797677851e-06
3.3950072027888534e-06   -6.93391661356845e-07   7.838677943676725e-07
3.3950072027888534e-06   -6.93391661356845e-07   7.838677943676725e-07
3.3950072027888534e-06   -6.93391661356845e-07   7.838677943676725e-07
3.3950072027888534e-06   -6.93391661356845e-07   7.838677943676725e-07
2.496930681426522e-06   -1.3974032750223037e-07   4.833313803042266e-06
2.496930681426522e-06   -1.3974032750223037e-07   4.833313803042266e-06
2.496930681426522e-06   -1.3974032750223037e-07   4.833313803042266e-06
2.496930681426522e-06   -1.3974032750223037e-07   4.833313803042266e-06
-1.8324993163961847e-07   -1.4267343326896092e-08   4.41629905103912e-07
-1.8324993163961847e-07   -1.4267343326896092e-08   4.41629905103912e-07
-1.8324993163961847e-07   -1.4267343326896092e-08   4.41629905103912e-07
-1.8324993163961847e-07   -1.4267343326896092e-08   4.41629905103912e-07
-2.8026505624617823e-07   -2.1368851233708862e-07   4.836354397616457e-06
-2.8026505624617823e-07   -2.1368851233708862e-07   4.836354397616457e-06
-2.8026505624617823e-07   -2.1368851233708862e-07   4.836354397616457e-06
-2.8026505624617823e-07   -2.1368851233708862e-07   4.836354397616457e-06
2.3944633586325388e-06   -9.71054602832565e-08   3.085238749196318e-07
2.3944633586325388e-06   -9.71054602832565e-08   3.085238749196318e-07
2.3944633586325388e-06   -9.71054602832565e-08   3.085238749196318e-07
2.3944633586325388e-06   -9.71054602832565e-08   3.085238749196318e-07
1.088667366536588e-06   -1.1955435207013781e-07   2.498319863485029e-06
1.088667366536588e-06   -1.1955435207013781e-07   2.498319863485029e-06
1.088667366536588e-06   -1.1955435207013781e-07   2.498319863485029e-06
1.088667366536588e-06   -1.1955435207013781e-07   2.498319863485029e-06
2.3944633586325294e-06   -2.1368851233708862e-07   4.766404566384152e-06
2.3944633586325294e-06   -2.1368851233708862e-07   4.766404566384152e-06
2.3944633586325294e-06   -2.1368851233708862e-07   4.766404566384152e-06
2.3944633586325294e-06   -2.1368851233708862e-07   4.766404566384152e-06
-2.8026505624617823e-07   -9.710546028320229e-08   3.7847370615195683e-07
-2.8026505624617823e-07   -9.710546028320229e-08   3.7847370615195683e-07
-2.8026505624617823e-07   -9.710546028320229e-08   3.7847370615195683e-07
-2.8026505624617823e-07   -9.710546028320229e-08   3.7847370615195683e-07
-3.796229844527663e-07   -2.6631550340184716e-07   4.75276353117482e-06
-3.796229844527663e-07   -2.6631550340184716e-07   4.75276353117482e-06
-3.796229844527663e-07   -2.6631550340184716e-07   4.75276353117482e-06
-3.796229844527663e-07   -2.6631550340184716e-07   4.75276353117482e-06
2.2801456521153816e-06   -1.6036499641815206e-07   2.5624549937101416e-07
2.2801456521153816e-06   -1.6036499641815206e-07   2.5624549937101416e-07
2.2801456521153816e-06   -1.6036499641815206e-07   2.5624549937101416e-07
2.2801456521153816e-06   -1.6036499641815206e-07   2.5624549937101416e-07
9.779858684026305e-07   -1.696075408569287e-07   2.432057332222394e-06
9.779858684026305e-07   -1.696075408569287e-07   2.432057332222394e-06
9.779858684026305e-07   -1.696075408569287e-07   2.432057332222394e-06
9.779858684026305e-07   -1.696075408569287e-07   2.432057332222394e-06
2.2801456521153765e-06   -2.6631550340190137e-07   4.68919322698462e-06
2.2801456521153765e-06   -2.6631550340190137e-07   4.68919322698462e-06
2.2801456521153765e-06   -2.6631550340190137e-07   4.68919322698462e-06
2.2801456521153765e-06   -2.6631550340190137e-07   4.68919322698462e-06
-3.796229844527663e-07   -1.6036499641809785e-07   3.1981580356124206e-07
-3.796229844527663e-07   -1.6036499641809785e-07   3.1981580356124206e-07
-3.796229844527663e-07   -1.6036499641809785e-07   3.1981580356124206e-07
-3.796229844527663e-07   -1.6036499641809785e-07   3.1981580356124206e-07
-4.796905916260633e-07   -3.0505807866343815e-07   4.7745340028173394e-06
-4.796905916260633e-07   -3.0505807866343815e-07   4.7745340028173394e-06
-4.796905916260633e-07   -3.0505807866343815e-07   4.7745340028173394e-06
-4.796905916260633e-07   -3.0505807866343815e-07   4.7745340028173394e-06
2.173901325229092e-06   -2.1642890914212948e-07   2.9870330634595464e-07
2.173901325229092e-06   -2.1642890914212948e-07   2.9870330634595464e-07
2.173901325229092e-06   -2.1642890914212948e-07   2.9870330634595464e-07
2.173901325229092e-06   -2.1642890914212948e-07   2.9870330634595464e-07
8.965034825024417e-07   -2.0422490077683488e-07   2.420377305871314e-06
8.965034825024417e-07   -2.0422490077683488e-07   2.420377305871314e-06
8.965034825024417e-07   -2.0422490077683488e-07   2.420377305871314e-06
8.965034825024417e-07   -2.0422490077683488e-07   2.420377305871314e-06
-1.8324993163962186e-07   4.3115435255451076e-07   5.0911837855941746e-06
-1.8324993163962186e-07   4.3115435255451076e-07   5.0911837855941746e-06
-1.8324993163962186e-07   4.3115435255451076e-07   5.0911837855941746e-06
-1.8324993163962186e-07   4.3115435255451076e-07   5.0911837855941746e-06
-2.8069232583518232e-06   4.483534480605395e-07   7.287143650441395e-07
-2.8069232583518232e-06   4.483534480605395e-07   7.287143650441395e-07
-2.8069232583518232e-06   4.483534480605395e-07   7.287143650441395e-07
-2.8069232583518232e-06   4.483534480605395e-07   7.287143650441395e-07
-2.905147300299691e-06   3.722802679844957e-07   5.0759787528009215e-06
-2.905147300299691e-06   3.722802679844957e-07   5.0759787528009215e-06
-2.905147300299691e-06   3.722802679844957e-07   5.0759787528009215e-06
-2.905147300299691e-06   3.722802679844957e-07   5.0759787528009215e-06
-2.8026505624617823e-07   3.778466357220057e-07   6.978351920692518e-07
-2.8026505624617823e-07   3.778466357220057e-07   6.978351920692518e-07
-2.8026505624617823e-07   3.778466357220057e-07   6.978351920692518e-07
-2.8026505624617823e-07   3.778466357220057e-07   6.978351920692518e-07
-1.5477545592746537e-06   3.9892406990011276e-07   2.7976712366098135e-06
-1.5477545592746537e-06   3.9892406990011276e-07   2.7976712366098135e-06
-1.5477545592746537e-06   3.9892406990011276e-07   2.7976712366098135e-06
-1.5477545592746537e-06   3.9892406990011276e-07   2.7976712366098135e-06
-2.8026505624617823e-07   3.722802679844957e-07   5.072638932158437e-06
-2.8026505624617823e-07   3.722802679844957e-07   5.072638932158437e-06
-2.8026505624617823e-07   3.722802679844957e-07   5.072638932158437e-06
-2.8026505624617823e-07   3.722802679844957e-07   5.072638932158437e-06
-2.905147300299691e-06   3.7784663572195147e-07   7.011750127117395e-07
-2.905147300299691e-06   3.7784663572195147e-07   7.011750127117395e-07
-2.905147300299691e-06   3.7784663572195147e-07   7.011750127117395e-07
-2.905147300299691e-06   3.7784663572195147e-07   7.011750127117395e-07
-3.005450758457689e-06   3.15233899412994e-07   5.098279463864198e-06
-3.005450758457689e-06   3.15233899412994e-07   5.098279463864198e-06
-3.005450758457689e-06   3.15233899412994e-07   5.098279463864198e-06
-3.005450758457689e-06   3.15233899412994e-07   5.098279463864198e-06
-3.796229844527663e-07   3.0856541926590304e-07   7.259009286109167e-07
-3.796229844527663e-07   3.0856541926590304e-07   7.259009286109167e-07
-3.796229844527663e-07   3.0856541926590304e-07   7.259009286109167e-07
-3.796229844527663e-07   3.0856541926590304e-07   7.259009286109167e-07
-1.6383224801684895e-06   3.525257846107412e-07   2.7973572022636382e-06
-1.6383224801684895e-06   3.525257846107412e-07   2.7973572022636382e-06
-1.6383224801684895e-06   3.525257846107412e-07   2.7973572022636382e-06
-1.6383224801684895e-06   3.525257846107412e-07   2.7973572022636382e-06
-3.796229844527663e-07   3.152338994130482e-07   5.102280551952485e-06
-3.796229844527663e-07   3.152338994130482e-07   5.102280551952485e-06
-3.796229844527663e-07   3.152338994130482e-07   5.102280551952485e-06
-3.796229844527663e-07   3.152338994130482e-07   5.102280551952485e-06
-3.0054507584576957e-06   3.0856541926590304e-07   7.218998405226465e-07
-3.0054507584576957e-06   3.0856541926590304e-07   7.218998405226465e-07
-3.0054507584576957e-06   3.0856541926590304e-07   7.218998405226465e-07
-3.0054507584576957e-06   3.0856541926590304e-07   7.218998405226465e-07
-3.105372890029684e-06   2.6462302913157765e-07   5.153635274536707e-06
-3.105372890029684e-06   2.6462302913157765e-07   5.153635274536707e-06
-3.105372890029684e-06   2.6462302913157765e-07   5.153635274536707e-06
-3.105372890029684e-06   2.6462302913157765e-07   5.153635274536707e-06
-4.796905916260667e-07   2.4299955816335997e-07   7.904721931116251e-07
-4.796905916260667e-07   2.4299955816335997e-07   7.904721931116251e-07
-4.796905916260667e-07   2.4299955816335997e-07   7.904721931116251e-07
-4.796905916260667e-07   2.4299955816335997e-07   7.904721931116251e-07
-1.7334544849266507e-06   3.076033655521372e-07   2.8413163975127653e-06
-1.7334544849266507e-06   3.076033655521372e-07   2.8413163975127653e-06
-1.7334544849266507e-06   3.076033655521372e-07   2.8413163975127653e-06
-1.7334544849266507e-06   3.076033655521372e-07   2.8413163975127653e-06
-2.80692325835182e-06   9.901736924497755e-07   4.511053885955171e-06
-2.80692325835182e-06   9.901736924497755e-07   4.511053885955171e-06
-2.80692325835182e-06   9.901736924497755e-07   4.511053885955171e-06
-2.80692325835182e-06   9.901736924497755e-07   4.511053885955171e-06
-5.3920913545507605e-06   8.967944736818423e-07   1.4641286102955208e-07
-5.3920913545507605e-06   8.967944736818423e-07   1.4641286102955208e-07
-5.3920913545507605e-06   8.967944736818423e-07   1.4641286102955208e-07
-5.3920913545507605e-06   8.967944736818423e-07   1.4641286102955208e-07
-5.498364026211451e-06   9.363227882425791e-07   4.488530784837579e-06
-5.498364026211451e-06   9.363227882425791e-07   4.488530784837579e-06
-5.498364026211451e-06   9.363227882425791e-07   4.488530784837579e-06
-5.498364026211451e-06   9.363227882425791e-07   4.488530784837579e-06
-2.9051473002996976e-06   8.312452837178357e-07   2.2954941103287067e-07
-2.9051473002996976e-06   8.312452837178357e-07   2.2954941103287067e-07
-2.9051473002996976e-06   8.312452837178357e-07   2.2954941103287067e-07
-2.9051473002996976e-06   8.312452837178357e-07   2.2954941103287067e-07
-4.136385218078377e-06   8.993166999613465e-07   2.2407697575845697e-06
-4.136385218078377e-06   8.993166999613465e-07   2.2407697575845697e-06
-4.136385218078377e-06   8.993166999613465e-07   2.2407697575845697e-06
-4.136385218078377e-06   8.993166999613465e-07   2.2407697575845697e-06
-2.905147300299691e-06   9.363227882425791e-07   4.551577287552442e-06
-2.905147300299691e-06   9.363227882425791e-07   4.551577287552442e-06
-2.905147300299691e-06   9.363227882425791e-07   4.551577287552442e-06
-2.905147300299691e-06   9.363227882425791e-07   4.551577287552442e-06
-5.4983640262114375e-06   8.312452837178357e-07   1.6650290831802866e-07
-5.4983640262114375e-06   8.312452837178357e-07   1.6650290831802866e-07
-5.4983640262114375e-06   8.312452837178357e-07   1.6650290831802866e-07
-5.4983640262114375e-06   8.312452837178357e-07   1.6650290831802866e-07
-5.614421064801425e-06   8.846401174241684e-07   4.659163166271846e-06
-5.614421064801425e-06   8.846401174241684e-07   4.659163166271846e-06
-5.614421064801425e-06   8.846401174241684e-07   4.659163166271846e-06
-5.614421064801425e-06   8.846401174241684e-07   4.659163166271846e-06
-3.0054507584576957e-06   7.683236770875232e-07   3.8066918656762245e-07
-3.0054507584576957e-06   7.683236770875232e-07   3.8066918656762245e-07
-3.0054507584576957e-06   7.683236770875232e-07   3.8066918656762245e-07
-3.0054507584576957e-06   7.683236770875232e-07   3.8066918656762245e-07
-4.20872624580968e-06   8.583087497083196e-07   2.332137288581881e-06
-4.20872624580968e-06   8.583087497083196e-07   2.332137288581881e-06
-4.20872624580968e-06   8.583087497083196e-07   2.332137288581881e-06
-4.20872624580968e-06   8.583087497083196e-07   2.332137288581881e-06
-3.0054507584576923e-06   8.846401174241684e-07   4.728953030473833e-06
-3.0054507584576923e-06   8.846401174241684e-07   4.728953030473833e-06
-3.0054507584576923e-06   8.846401174241684e-07   4.728953030473833e-06
-3.0054507584576923e-06   8.846401174241684e-07   4.728953030473833e-06
-5.614421064801418e-06   7.683236770875232e-07   3.1087932236560146e-07
-5.614421064801418e-06   7.683236770875232e-07   3.1087932236560146e-07
-5.614421064801418e-06   7.683236770875232e-07   3.1087932236560146e-07
-5.614421064801418e-06   7.683236770875232e-07   3.1087932236560146e-07
-5.719433584201526e-06   8.196739659294995e-07   4.779945654757086e-06
-5.719433584201526e-06   8.196739659294995e-07   4.779945654757086e-06
-5.719433584201526e-06   8.196739659294995e-07   4.779945654757086e-06
-5.719433584201526e-06   8.196739659294995e-07   4.779945654757086e-06
-3.1053728900296907e-06   6.933547790849231e-07   4.989693432441353e-07
-3.1053728900296907e-06   6.933547790849231e-07   4.989693432441353e-07
-3.1053728900296907e-06   6.933547790849231e-07   4.989693432441353e-07
-3.1053728900296907e-06   6.933547790849231e-07   4.989693432441353e-07
-4.331970221299756e-06   8.100065896079426e-07   2.473307142380629e-06
-4.331970221299756e-06   8.100065896079426e-07   2.473307142380629e-06
-4.331970221299756e-06   8.100065896079426e-07   2.473307142380629e-06
-4.331970221299756e-06   8.100065896079426e-07   2.473307142380629e-06
-5.3920913545507605e-06   1.4488507347969843e-06   2.2133137959918364e-06
-5.3920913545507605e-06   1.4488507347969843e-06   2.2133137959918364e-06
-5.3920913545507605e-06   1.4488507347969843e-06   2.2133137959918364e-06
-5.3920913545507605e-06   1.4488507347969843e-06   2.2133137959918364e-06
-7.891714657847789e-06   1.260158365340425e-06   -2.065940464510496e-06
-7.891714657847789e-06   1.260158365340425e-06   -2.065940464510496e-06
-7.891714657847789e-06   1.260158365340425e-06   -2.065940464510496e-06
-7.891714657847789e-06   1.260158365340425e-06   -2.065940464510496e-06
-8.084909405904239e-06   1.4717006621041417e-06   2.99393464255556e-06
-8.084909405904239e-06   1.4717006621041417e-06   2.99393464255556e-06
-8.084909405904239e-06   1.4717006621041417e-06   2.99393464255556e-06
-8.084909405904239e-06   1.4717006621041417e-06   2.99393464255556e-06
-5.498364026211451e-06   1.2609842512284236e-06   -1.1905444770737047e-06
-5.498364026211451e-06   1.2609842512284236e-06   -1.1905444770737047e-06
-5.498364026211451e-06   1.2609842512284236e-06   -1.1905444770737047e-06
-5.498364026211451e-06   1.2609842512284236e-06   -1.1905444770737047e-06
-6.460178077140455e-06   1.337675562011894e-06   3.664641546712575e-07
-6.460178077140455e-06   1.337675562011894e-06   3.664641546712575e-07
-6.460178077140455e-06   1.337675562011894e-06   3.664641546712575e-07
-6.460178077140455e-06   1.337675562011894e-06   3.664641546712575e-07
-5.498364026211444e-06   1.4717006621041417e-06   3.120364489080991e-06
-5.498364026211444e-06   1.4717006621041417e-06   3.120364489080991e-06
-5.498364026211444e-06   1.4717006621041417e-06   3.120364489080991e-06
-5.498364026211444e-06   1.4717006621041417e-06   3.120364489080991e-06
-8.084909405904252e-06   1.2609842512284236e-06   -1.316974323599122e-06
-8.084909405904252e-06   1.2609842512284236e-06   -1.316974323599122e-06
-8.084909405904252e-06   1.2609842512284236e-06   -1.316974323599122e-06
-8.084909405904252e-06   1.2609842512284236e-06   -1.316974323599122e-06
-8.255837338626097e-06   1.4576005508082574e-06   3.604570607291277e-06
-8.255837338626097e-06   1.4576005508082574e-06   3.604570607291277e-06
-8.255837338626097e-06   1.4576005508082574e-06   3.604570607291277e-06
-8.255837338626097e-06   1.4576005508082574e-06   3.604570607291277e-06
-5.614421064801425e-06   1.2376573084459152e-06   -6.658239036657861e-07
-5.614421064801425e-06   1.2376573084459152e-06   -6.658239036657861e-07
-5.614421064801425e-06   1.2376573084459152e-06   -6.658239036657861e-07
-5.614421064801425e-06   1.2376573084459152e-06   -6.658239036657861e-07
-6.692380841019836e-06   1.3550450344123732e-06   1.06034308778528e-06
-6.692380841019836e-06   1.3550450344123732e-06   1.06034308778528e-06
-6.692380841019836e-06   1.3550450344123732e-06   1.06034308778528e-06
-6.692380841019836e-06   1.3550450344123732e-06   1.06034308778528e-06
-5.614421064801425e-06   1.4576005508083116e-06   3.7365365527087092e-06
-5.614421064801425e-06   1.4576005508083116e-06   3.7365365527087092e-06
-5.614421064801425e-06   1.4576005508083116e-06   3.7365365527087092e-06
-5.614421064801425e-06   1.4576005508083116e-06   3.7365365527087092e-06
-8.255837338626104e-06   1.2376573084459152e-06   -7.977898490831915e-07
-8.255837338626104e-06   1.2376573084459152e-06   -7.977898490831915e-07
-8.255837338626104e-06   1.2376573084459152e-06   -7.977898490831915e-07
-8.255837338626104e-06   1.2376573084459152e-06   -7.977898490831915e-07
-8.450278357393324e-06   1.3505387413195735e-06   4.645565879283191e-06
-8.450278357393324e-06   1.3505387413195735e-06   4.645565879283191e-06
-8.450278357393324e-06   1.3505387413195735e-06   4.645565879283191e-06
-8.450278357393324e-06   1.3505387413195735e-06   4.645565879283191e-06
-5.719433584201526e-06   1.1290659643050857e-06   2.2704159017217977e-07
-5.719433584201526e-06   1.1290659643050857e-06   2.2704159017217977e-07
-5.719433584201526e-06   1.1290659643050857e-06   2.2704159017217977e-07
-5.719433584201526e-06   1.1290659643050857e-06   2.2704159017217977e-07
-6.725538609778171e-06   1.309341025656184e-06   1.795718262656104e-06
-6.725538609778171e-06   1.309341025656184e-06   1.795718262656104e-06
-6.725538609778171e-06   1.309341025656184e-06   1.795718262656104e-06
-6.725538609778171e-06   1.309341025656184e-06   1.795718262656104e-06
3.849386463369689e-06   -4.952010831044736e-07   3.679917972068236e-06
3.849386463369689e-06   -4.952010831044736e-07   3.679917972068236e-06
3.849386463369689e-06   -4.952010831044736e-07   3.679917972068236e-06
3.849386463369689e-06   -4.952010831044736e-07   3.679917972068236e-06
1.6080249541371077e-06   -2.68027683755453e-07   8.061949629005385e-08
1.6080249541371077e-06   -2.68027683755453e-07   8.061949629005385e-08
1.6080249541371077e-06   -2.68027683755453e-07   8.061949629005385e-08
1.6080249541371077e-06   -2.68027683755453e-07   8.061949629005385e-08
1.523434449405597e-06   -5.928866698234978e-07   3.288698689551988e-06
1.523434449405597e-06   -5.928866698234978e-07   3.288698689551988e-06
1.523434449405597e-06   -5.928866698234978e-07   3.288698689551988e-06
1.523434449405597e-06   -5.928866698234978e-07   3.288698689551988e-06
3.6665220467398343e-06   -3.581118333930767e-07   -4.2397887452999943e-07
3.6665220467398343e-06   -3.581118333930767e-07   -4.2397887452999943e-07
3.6665220467398343e-06   -3.581118333930767e-07   -4.2397887452999943e-07
3.6665220467398343e-06   -3.581118333930767e-07   -4.2397887452999943e-07
2.530594226011369e-06   -4.372370830710531e-07   1.5167093098243096e-06
2.530594226011369e-06   -4.372370830710531e-07   1.5167093098243096e-06
2.530594226011369e-06   -4.372370830710531e-07   1.5167093098243096e-06
2.530594226011369e-06   -4.372370830710531e-07   1.5167093098243096e-06
3.666522046739841e-06   -5.928866698234978e-07   3.147833787693757e-06
3.666522046739841e-06   -5.928866698234978e-07   3.147833787693757e-06
3.666522046739841e-06   -5.928866698234978e-07   3.147833787693757e-06
3.666522046739841e-06   -5.928866698234978e-07   3.147833787693757e-06
1.523434449405592e-06   -3.581118333930767e-07   -2.831139726717515e-07
1.523434449405592e-06   -3.581118333930767e-07   -2.831139726717515e-07
1.523434449405592e-06   -3.581118333930767e-07   -2.831139726717515e-07
1.523434449405592e-06   -3.581118333930767e-07   -2.831139726717515e-07
1.427042529788263e-06   -6.177680589921231e-07   3.000846088812393e-06
1.427042529788263e-06   -6.177680589921231e-07   3.000846088812393e-06
1.427042529788263e-06   -6.177680589921231e-07   3.000846088812393e-06
1.427042529788263e-06   -6.177680589921231e-07   3.000846088812393e-06
3.5081254615263423e-06   -3.876715723298595e-07   -6.05683356081716e-07
3.5081254615263423e-06   -3.876715723298595e-07   -6.05683356081716e-07
3.5081254615263423e-06   -3.876715723298595e-07   -6.05683356081716e-07
3.5081254615263423e-06   -3.876715723298595e-07   -6.05683356081716e-07
2.45611503522828e-06   -4.7596363282050936e-07   1.2006425907095372e-06
2.45611503522828e-06   -4.7596363282050936e-07   1.2006425907095372e-06
2.45611503522828e-06   -4.7596363282050936e-07   1.2006425907095372e-06
2.45611503522828e-06   -4.7596363282050936e-07   1.2006425907095372e-06
3.5081254615263482e-06   -6.177680589921231e-07   2.8627881968150675e-06
3.5081254615263482e-06   -6.177680589921231e-07   2.8627881968150675e-06
3.5081254615263482e-06   -6.177680589921231e-07   2.8627881968150675e-06
3.5081254615263482e-06   -6.177680589921231e-07   2.8627881968150675e-06
1.4270425297882604e-06   -3.876715723298595e-07   -4.676254640843954e-07
1.4270425297882604e-06   -3.876715723298595e-07   -4.676254640843954e-07
1.4270425297882604e-06   -3.876715723298595e-07   -4.676254640843954e-07
1.4270425297882604e-06   -3.876715723298595e-07   -4.676254640843954e-07
1.340051608730299e-06   -6.353835451246661e-07   2.6163345206341106e-06
1.340051608730299e-06   -6.353835451246661e-07   2.6163345206341106e-06
1.340051608730299e-06   -6.353835451246661e-07   2.6163345206341106e-06
1.340051608730299e-06   -6.353835451246661e-07   2.6163345206341106e-06
3.326056508741528e-06   -4.2208232167422074e-07   -8.216543801215274e-07
3.326056508741528e-06   -4.2208232167422074e-07   -8.216543801215274e-07
3.326056508741528e-06   -4.2208232167422074e-07   -8.216543801215274e-07
3.326056508741528e-06   -4.2208232167422074e-07   -8.216543801215274e-07
2.297514293773212e-06   -4.803587506672707e-07   9.27548502221439e-07
2.297514293773212e-06   -4.803587506672707e-07   9.27548502221439e-07
2.297514293773212e-06   -4.803587506672707e-07   9.27548502221439e-07
2.297514293773212e-06   -4.803587506672707e-07   9.27548502221439e-07
1.6080249541371128e-06   -1.4267343326896092e-08   4.409362449983876e-06
1.6080249541371128e-06   -1.4267343326896092e-08   4.409362449983876e-06
1.6080249541371128e-06   -1.4267343326896092e-08   4.409362449983876e-06
1.6080249541371128e-06   -1.4267343326896092e-08   4.409362449983876e-06
-4.82393696908197e-07   1.0505161019327817e-07   9.969227370204884e-07
-4.82393696908197e-07   1.0505161019327817e-07   9.969227370204884e-07
-4.82393696908197e-07   1.0505161019327817e-07   9.969227370204884e-07
-4.82393696908197e-07   1.0505161019327817e-07   9.969227370204884e-07
-5.607254472517645e-07   -9.710546028320229e-08   4.412880141954731e-06
-5.607254472517645e-07   -9.710546028320229e-08   4.412880141954731e-06
-5.607254472517645e-07   -9.710546028320229e-08   4.412880141954731e-06
-5.607254472517645e-07   -9.710546028320229e-08   4.412880141954731e-06
1.523434449405592e-06   1.6424655342094302e-08   8.711622448172742e-07
1.523434449405592e-06   1.6424655342094302e-08   8.711622448172742e-07
1.523434449405592e-06   1.6424655342094302e-08   8.711622448172742e-07
1.523434449405592e-06   1.6424655342094302e-08   8.711622448172742e-07
5.067104064828024e-07   -5.701250274073484e-09   2.578977859725032e-06
5.067104064828024e-07   -5.701250274073484e-09   2.578977859725032e-06
5.067104064828024e-07   -5.701250274073484e-09   2.578977859725032e-06
5.067104064828024e-07   -5.701250274073484e-09   2.578977859725032e-06
1.5234344494055962e-06   -9.710546028320229e-08   4.344762072579531e-06
1.5234344494055962e-06   -9.710546028320229e-08   4.344762072579531e-06
1.5234344494055962e-06   -9.710546028320229e-08   4.344762072579531e-06
1.5234344494055962e-06   -9.710546028320229e-08   4.344762072579531e-06
-5.607254472517611e-07   1.6424655342067197e-08   9.392803141924976e-07
-5.607254472517611e-07   1.6424655342067197e-08   9.392803141924976e-07
-5.607254472517611e-07   1.6424655342067197e-08   9.392803141924976e-07
-5.607254472517611e-07   1.6424655342067197e-08   9.392803141924976e-07
-6.411254294926889e-07   -1.6036499641809785e-07   4.34967028109458e-06
-6.411254294926889e-07   -1.6036499641809785e-07   4.34967028109458e-06
-6.411254294926889e-07   -1.6036499641809785e-07   4.34967028109458e-06
-6.411254294926889e-07   -1.6036499641809785e-07   4.34967028109458e-06
1.4270425297882604e-06   -5.4168222681454494e-08   8.390056180510344e-07
1.4270425297882604e-06   -5.4168222681454494e-08   8.390056180510344e-07
1.4270425297882604e-06   -5.4168222681454494e-08   8.390056180510344e-07
1.4270425297882604e-06   -5.4168222681454494e-08   8.390056180510344e-07
4.1920008042448465e-07   -6.366052811019717e-08   2.5244384169147832e-06
4.1920008042448465e-07   -6.366052811019717e-08   2.5244384169147832e-06
4.1920008042448465e-07   -6.366052811019717e-08   2.5244384169147832e-06
4.1920008042448465e-07   -6.366052811019717e-08   2.5244384169147832e-06
1.4270425297882654e-06   -1.6036499641815206e-07   4.285952216852626e-06
1.4270425297882654e-06   -1.6036499641815206e-07   4.285952216852626e-06
1.4270425297882654e-06   -1.6036499641815206e-07   4.285952216852626e-06
1.4270425297882654e-06   -1.6036499641815206e-07   4.285952216852626e-06
-6.411254294926923e-07   -5.4168222681454494e-08   9.027236822930996e-07
-6.411254294926923e-07   -5.4168222681454494e-08   9.027236822930996e-07
-6.411254294926923e-07   -5.4168222681454494e-08   9.027236822930996e-07
-6.411254294926923e-07   -5.4168222681454494e-08   9.027236822930996e-07
-7.210867832371368e-07   -2.1642890914212948e-07   4.378319978972278e-06
-7.210867832371368e-07   -2.1642890914212948e-07   4.378319978972278e-06
-7.210867832371368e-07   -2.1642890914212948e-07   4.378319978972278e-06
-7.210867832371368e-07   -2.1642890914212948e-07   4.378319978972278e-06
1.340051608730294e-06   -1.2128865569765957e-07   8.860051736265584e-07
1.340051608730294e-06   -1.2128865569765957e-07   8.860051736265584e-07
1.340051608730294e-06   -1.2128865569765957e-07   8.860051736265584e-07
1.340051608730294e-06   -1.2128865569765957e-07   8.860051736265584e-07
3.52342185389841e-07   -1.0965801799781884e-07   2.5252091632407575e-06
3.52342185389841e-07   -1.0965801799781884e-07   2.5252091632407575e-06
3.52342185389841e-07   -1.0965801799781884e-07   2.5252091632407575e-06
3.52342185389841e-07   -1.0965801799781884e-07   2.5252091632407575e-06
-4.82393696908197e-07   4.483534480605937e-07   4.757718824732548e-06
-4.82393696908197e-07   4.483534480605937e-07   4.757718824732548e-06
-4.82393696908197e-07   4.483534480605937e-07   4.757718824732548e-06
-4.82393696908197e-07   4.483534480605937e-07   4.757718824732548e-06
-2.533519911339879e-06   4.477875397170244e-07   1.3388355890069559e-06
-2.533519911339879e-06   4.477875397170244e-07   1.3388355890069559e-06
-2.533519911339879e-06   4.477875397170244e-07   1.3388355890069559e-06
-2.533519911339879e-06   4.477875397170244e-07   1.3388355890069559e-06
-2.611479907923811e-06   3.778466357220057e-07   4.727173757717413e-06
-2.611479907923811e-06   3.778466357220057e-07   4.727173757717413e-06
-2.611479907923811e-06   3.778466357220057e-07   4.727173757717413e-06
-2.611479907923811e-06   3.778466357220057e-07   4.727173757717413e-06
-5.607254472517645e-07   3.6940018546428454e-07   1.31431752675196e-06
-5.607254472517645e-07   3.6940018546428454e-07   1.31431752675196e-06
-5.607254472517645e-07   3.6940018546428454e-07   1.31431752675196e-06
-5.607254472517645e-07   3.6940018546428454e-07   1.31431752675196e-06
-1.5510972043916552e-06   3.992024915333548e-07   2.9470557383437474e-06
-1.5510972043916552e-06   3.992024915333548e-07   2.9470557383437474e-06
-1.5510972043916552e-06   3.992024915333548e-07   2.9470557383437474e-06
-1.5510972043916552e-06   3.992024915333548e-07   2.9470557383437474e-06
-5.607254472517645e-07   3.7784663572195147e-07   4.732241627872029e-06
-5.607254472517645e-07   3.7784663572195147e-07   4.732241627872029e-06
-5.607254472517645e-07   3.7784663572195147e-07   4.732241627872029e-06
-5.607254472517645e-07   3.7784663572195147e-07   4.732241627872029e-06
-2.611479907923811e-06   3.6940018546428454e-07   1.3092496565973537e-06
-2.611479907923811e-06   3.6940018546428454e-07   1.3092496565973537e-06
-2.611479907923811e-06   3.6940018546428454e-07   1.3092496565973537e-06
-2.611479907923811e-06   3.6940018546428454e-07   1.3092496565973537e-06
-2.6910399789284e-06   3.0856541926590304e-07   4.745804113647043e-06
-2.6910399789284e-06   3.0856541926590304e-07   4.745804113647043e-06
-2.6910399789284e-06   3.0856541926590304e-07   4.745804113647043e-06
-2.6910399789284e-06   3.0856541926590304e-07   4.745804113647043e-06
-6.411254294926889e-07   2.919799317704409e-07   1.3392311570848118e-06
-6.411254294926889e-07   2.919799317704409e-07   1.3392311570848118e-06
-6.411254294926889e-07   2.919799317704409e-07   1.3392311570848118e-06
-6.411254294926889e-07   2.919799317704409e-07   1.3392311570848118e-06
-1.6218200508823415e-06   3.432229261739195e-07   2.9429763960922063e-06
-1.6218200508823415e-06   3.432229261739195e-07   2.9429763960922063e-06
-1.6218200508823415e-06   3.432229261739195e-07   2.9429763960922063e-06
-1.6218200508823415e-06   3.432229261739195e-07   2.9429763960922063e-06
-6.411254294926923e-07   3.0856541926590304e-07   4.755755406144353e-06
-6.411254294926923e-07   3.0856541926590304e-07   4.755755406144353e-06
-6.411254294926923e-07   3.0856541926590304e-07   4.755755406144353e-06
-6.411254294926923e-07   3.0856541926590304e-07   4.755755406144353e-06
-2.6910399789284e-06   2.919799317704409e-07   1.3292798645875596e-06
-2.6910399789284e-06   2.919799317704409e-07   1.3292798645875596e-06
-2.6910399789284e-06   2.919799317704409e-07   1.3292798645875596e-06
-2.6910399789284e-06   2.919799317704409e-07   1.3292798645875596e-06
-2.7693994062658564e-06   2.4299955816335997e-07   4.801764321197557e-06
-2.7693994062658564e-06   2.4299955816335997e-07   4.801764321197557e-06
-2.7693994062658564e-06   2.4299955816335997e-07   4.801764321197557e-06
-2.7693994062658564e-06   2.4299955816335997e-07   4.801764321197557e-06
-7.210867832371368e-07   2.177544867840045e-07   1.403056992310624e-06
-7.210867832371368e-07   2.177544867840045e-07   1.403056992310624e-06
-7.210867832371368e-07   2.177544867840045e-07   1.403056992310624e-06
-7.210867832371368e-07   2.177544867840045e-07   1.403056992310624e-06
-1.6961462277640422e-06   2.888005009388998e-07   2.9855284580292075e-06
-1.6961462277640422e-06   2.888005009388998e-07   2.9855284580292075e-06
-1.6961462277640422e-06   2.888005009388998e-07   2.9855284580292075e-06
-1.6961462277640422e-06   2.888005009388998e-07   2.9855284580292075e-06
-2.533519911339879e-06   8.967944736818423e-07   4.231105306972554e-06
-2.533519911339879e-06   8.967944736818423e-07   4.231105306972554e-06
-2.533519911339879e-06   8.967944736818423e-07   4.231105306972554e-06
-2.533519911339879e-06   8.967944736818423e-07   4.231105306972554e-06
-4.564458292641818e-06   7.82864063733602e-07   7.778497588337293e-07
-4.564458292641818e-06   7.82864063733602e-07   7.778497588337293e-07
-4.564458292641818e-06   7.82864063733602e-07   7.778497588337293e-07
-4.564458292641818e-06   7.82864063733602e-07   7.778497588337293e-07
-4.648892062646062e-06   8.312452837178357e-07   4.181475070320586e-06
-4.648892062646062e-06   8.312452837178357e-07   4.181475070320586e-06
-4.648892062646062e-06   8.312452837178357e-07   4.181475070320586e-06
-4.648892062646062e-06   8.312452837178357e-07   4.181475070320586e-06
-2.6114799079238008e-06   7.07790140854511e-07   8.598612315014855e-07
-2.6114799079238008e-06   7.07790140854511e-07   8.598612315014855e-07
-2.6114799079238008e-06   7.07790140854511e-07   8.598612315014855e-07
-2.6114799079238008e-06   7.07790140854511e-07   8.598612315014855e-07
-3.5789718776461187e-06   7.886777110820706e-07   2.4238153055689143e-06
-3.5789718776461187e-06   7.886777110820706e-07   2.4238153055689143e-06
-3.5789718776461187e-06   7.886777110820706e-07   2.4238153055689143e-06
-3.5789718776461187e-06   7.886777110820706e-07   2.4238153055689143e-06
-2.611479907923811e-06   8.312452837178357e-07   4.2555481560385645e-06
-2.611479907923811e-06   8.312452837178357e-07   4.2555481560385645e-06
-2.611479907923811e-06   8.312452837178357e-07   4.2555481560385645e-06
-2.611479907923811e-06   8.312452837178357e-07   4.2555481560385645e-06
-4.648892062646056e-06   7.077901408545381e-07   7.857881457834731e-07
-4.648892062646056e-06   7.077901408545381e-07   7.857881457834731e-07
-4.648892062646056e-06   7.077901408545381e-07   7.857881457834731e-07
-4.648892062646056e-06   7.077901408545381e-07   7.857881457834731e-07
-4.7431712898690805e-06   7.683236770875232e-07   4.325616486935486e-06
-4.7431712898690805e-06   7.683236770875232e-07   4.325616486935486e-06
-4.7431712898690805e-06   7.683236770875232e-07   4.325616486935486e-06
-4.7431712898690805e-06   7.683236770875232e-07   4.325616486935486e-06
-2.691039978928393e-06   6.367287224933306e-07   9.843546081242326e-07
-2.691039978928393e-06   6.367287224933306e-07   9.843546081242326e-07
-2.691039978928393e-06   6.367287224933306e-07   9.843546081242326e-07
-2.691039978928393e-06   6.367287224933306e-07   9.843546081242326e-07
-3.6341444523715522e-06   7.38227126914463e-07   2.495296354543562e-06
-3.6341444523715522e-06   7.38227126914463e-07   2.495296354543562e-06
-3.6341444523715522e-06   7.38227126914463e-07   2.495296354543562e-06
-3.6341444523715522e-06   7.38227126914463e-07   2.495296354543562e-06
-2.6910399789283965e-06   7.683236770875232e-07   4.404573459691985e-06
-2.6910399789283965e-06   7.683236770875232e-07   4.404573459691985e-06
-2.6910399789283965e-06   7.683236770875232e-07   4.404573459691985e-06
-2.6910399789283965e-06   7.683236770875232e-07   4.404573459691985e-06
-4.743171289869067e-06   6.367287224933035e-07   9.053976353677129e-07
-4.743171289869067e-06   6.367287224933035e-07   9.053976353677129e-07
-4.743171289869067e-06   6.367287224933035e-07   9.053976353677129e-07
-4.743171289869067e-06   6.367287224933035e-07   9.053976353677129e-07
-4.825805676127195e-06   6.933547790849231e-07   4.440653130260682e-06
-4.825805676127195e-06   6.933547790849231e-07   4.440653130260682e-06
-4.825805676127195e-06   6.933547790849231e-07   4.440653130260682e-06
-4.825805676127195e-06   6.933547790849231e-07   4.440653130260682e-06
-2.7693994062658462e-06   5.557174063344089e-07   1.0958917708087839e-06
-2.7693994062658462e-06   5.557174063344089e-07   1.0958917708087839e-06
-2.7693994062658462e-06   5.557174063344089e-07   1.0958917708087839e-06
-2.7693994062658462e-06   5.557174063344089e-07   1.0958917708087839e-06
-3.730496071411991e-06   6.833312976829383e-07   2.6211512112432955e-06
-3.730496071411991e-06   6.833312976829383e-07   2.6211512112432955e-06
-3.730496071411991e-06   6.833312976829383e-07   2.6211512112432955e-06
-3.730496071411991e-06   6.833312976829383e-07   2.6211512112432955e-06
-4.564458292641818e-06   1.260158365340425e-06   2.0636091571375574e-06
-4.564458292641818e-06   1.260158365340425e-06   2.0636091571375574e-06
-4.564458292641818e-06   1.260158365340425e-06   2.0636091571375574e-06
-4.564458292641818e-06   1.260158365340425e-06   2.0636091571375574e-06
-6.511209215471356e-06   1.0502074571683046e-06   -1.3069462591483124e-06
-6.511209215471356e-06   1.0502074571683046e-06   -1.3069462591483124e-06
-6.511209215471356e-06   1.0502074571683046e-06   -1.3069462591483124e-06
-6.511209215471356e-06   1.0502074571683046e-06   -1.3069462591483124e-06
-6.6908168845377e-06   1.2609842512284236e-06   2.685956145691043e-06
-6.6908168845377e-06   1.2609842512284236e-06   2.685956145691043e-06
-6.6908168845377e-06   1.2609842512284236e-06   2.685956145691043e-06
-6.6908168845377e-06   1.2609842512284236e-06   2.685956145691043e-06
-4.648892062646042e-06   1.0301983524987684e-06   -5.787803515572239e-07
-4.648892062646042e-06   1.0301983524987684e-06   -5.787803515572239e-07
-4.648892062646042e-06   1.0301983524987684e-06   -5.787803515572239e-07
-4.648892062646042e-06   1.0301983524987684e-06   -5.787803515572239e-07
-5.392776323700608e-06   1.1268013962759484e-06   6.030649239341699e-07
-5.392776323700608e-06   1.1268013962759484e-06   6.030649239341699e-07
-5.392776323700608e-06   1.1268013962759484e-06   6.030649239341699e-07
-5.392776323700608e-06   1.1268013962759484e-06   6.030649239341699e-07
-4.648892062646062e-06   1.2609842512284236e-06   2.8244276849288797e-06
-4.648892062646062e-06   1.2609842512284236e-06   2.8244276849288797e-06
-4.648892062646062e-06   1.2609842512284236e-06   2.8244276849288797e-06
-4.648892062646062e-06   1.2609842512284236e-06   2.8244276849288797e-06
-6.690816884537714e-06   1.0301983524987684e-06   -7.172518907950061e-07
-6.690816884537714e-06   1.0301983524987684e-06   -7.172518907950061e-07
-6.690816884537714e-06   1.0301983524987684e-06   -7.172518907950061e-07
-6.690816884537714e-06   1.0301983524987684e-06   -7.172518907950061e-07
-6.845479166478813e-06   1.2376573084459152e-06   3.206149398571486e-06
-6.845479166478813e-06   1.2376573084459152e-06   3.206149398571486e-06
-6.845479166478813e-06   1.2376573084459152e-06   3.206149398571486e-06
-6.845479166478813e-06   1.2376573084459152e-06   3.206149398571486e-06
-4.74317128986906e-06   9.997175378915796e-07   -1.5493320011218204e-07
-4.74317128986906e-06   9.997175378915796e-07   -1.5493320011218204e-07
-4.74317128986906e-06   9.997175378915796e-07   -1.5493320011218204e-07
-4.74317128986906e-06   9.997175378915796e-07   -1.5493320011218204e-07
-5.589901220229439e-06   1.1305211125034204e-06   1.1778012057215518e-06
-5.589901220229439e-06   1.1305211125034204e-06   1.1778012057215518e-06
-5.589901220229439e-06   1.1305211125034204e-06   1.1778012057215518e-06
-5.589901220229439e-06   1.1305211125034204e-06   1.1778012057215518e-06
-4.743171289869067e-06   1.2376573084459152e-06   3.348913260904098e-06
-4.743171289869067e-06   1.2376573084459152e-06   3.348913260904098e-06
-4.743171289869067e-06   1.2376573084459152e-06   3.348913260904098e-06
-4.743171289869067e-06   1.2376573084459152e-06   3.348913260904098e-06
-6.845479166478834e-06   9.997175378916067e-07   -2.976970624447671e-07
-6.845479166478834e-06   9.997175378916067e-07   -2.976970624447671e-07
-6.845479166478834e-06   9.997175378916067e-07   -2.976970624447671e-07
-6.845479166478834e-06   9.997175378916067e-07   -2.976970624447671e-07
-7.023105678480063e-06   1.1290659643050857e-06   4.102718808121961e-06
-7.023105678480063e-06   1.1290659643050857e-06   4.102718808121961e-06
-7.023105678480063e-06   1.1290659643050857e-06   4.102718808121961e-06
-7.023105678480063e-06   1.1290659643050857e-06   4.102718808121961e-06
-4.825805676127175e-06   8.92735829015833e-07   5.823502187073625e-07
-4.825805676127175e-06   8.92735829015833e-07   5.823502187073625e-07
-4.825805676127175e-06   8.92735829015833e-07   5.823502187073625e-07
-4.825805676127175e-06   8.92735829015833e-07   5.823502187073625e-07
-5.6210416325389276e-06   1.0834861156247262e-06   1.7932933074282732e-06
-5.6210416325389276e-06   1.0834861156247262e-06   1.7932933074282732e-06
-5.6210416325389276e-06   1.0834861156247262e-06   1.7932933074282732e-06
-5.6210416325389276e-06   1.0834861156247262e-06   1.7932933074282732e-06
2.3220146081398786e-06   -2.68027683755453e-07   2.999980145499976e-06
2.3220146081398786e-06   -2.68027683755453e-07   2.999980145499976e-06
2.3220146081398786e-06   -2.68027683755453e-07   2.999980145499976e-06
2.3220146081398786e-06   -2.68027683755453e-07   2.999980145499976e-06
6.787219946615013e-07   -3.506292549067345e-08   4.0093797799484513e-07
6.787219946615013e-07   -3.506292549067345e-08   4.0093797799484513e-07
6.787219946615013e-07   -3.506292549067345e-08   4.0093797799484513e-07
6.787219946615013e-07   -3.506292549067345e-08   4.0093797799484513e-07
6.12498155137098e-07   -3.581118333930767e-07   2.772475112508885e-06
6.12498155137098e-07   -3.581118333930767e-07   2.772475112508885e-06
6.12498155137098e-07   -3.581118333930767e-07   2.772475112508885e-06
6.12498155137098e-07   -3.581118333930767e-07   2.772475112508885e-06
2.15620837111218e-06   -1.1756351072178084e-07   5.529575894767252e-08
2.15620837111218e-06   -1.1756351072178084e-07   5.529575894767252e-08
2.15620837111218e-06   -1.1756351072178084e-07   5.529575894767252e-08
2.15620837111218e-06   -1.1756351072178084e-07   5.529575894767252e-08
1.3605771072113832e-06   -2.0632596821351266e-07   1.4346053399441552e-06
1.3605771072113832e-06   -2.0632596821351266e-07   1.4346053399441552e-06
1.3605771072113832e-06   -2.0632596821351266e-07   1.4346053399441552e-06
1.3605771072113832e-06   -2.0632596821351266e-07   1.4346053399441552e-06
2.156208371112185e-06   -3.581118333930767e-07   2.6281461189061077e-06
2.156208371112185e-06   -3.581118333930767e-07   2.6281461189061077e-06
2.156208371112185e-06   -3.581118333930767e-07   2.6281461189061077e-06
2.156208371112185e-06   -3.581118333930767e-07   2.6281461189061077e-06
6.12498155137098e-07   -1.1756351072178084e-07   1.996247525504636e-07
6.12498155137098e-07   -1.1756351072178084e-07   1.996247525504636e-07
6.12498155137098e-07   -1.1756351072178084e-07   1.996247525504636e-07
6.12498155137098e-07   -1.1756351072178084e-07   1.996247525504636e-07
5.340159401941714e-07   -3.8767157232988663e-07   2.5856841854674125e-06
5.340159401941714e-07   -3.8767157232988663e-07   2.5856841854674125e-06
5.340159401941714e-07   -3.8767157232988663e-07   2.5856841854674125e-06
5.340159401941714e-07   -3.8767157232988663e-07   2.5856841854674125e-06
2.0143200526424726e-06   -1.510723676087511e-07   -2.3448858112438172e-08
2.0143200526424726e-06   -1.510723676087511e-07   -2.3448858112438172e-08
2.0143200526424726e-06   -1.510723676087511e-07   -2.3448858112438172e-08
2.0143200526424726e-06   -1.510723676087511e-07   -2.3448858112438172e-08
1.2854472354154865e-06   -2.425407578446055e-07   1.246220204740727e-06
1.2854472354154865e-06   -2.425407578446055e-07   1.246220204740727e-06
1.2854472354154865e-06   -2.425407578446055e-07   1.246220204740727e-06
1.2854472354154865e-06   -2.425407578446055e-07   1.246220204740727e-06
2.014320052642476e-06   -3.8767157232988663e-07   2.4437246626347257e-06
2.014320052642476e-06   -3.8767157232988663e-07   2.4437246626347257e-06
2.014320052642476e-06   -3.8767157232988663e-07   2.4437246626347257e-06
2.014320052642476e-06   -3.8767157232988663e-07   2.4437246626347257e-06
5.340159401941697e-07   -1.510723676087511e-07   1.185106647202418e-07
5.340159401941697e-07   -1.510723676087511e-07   1.185106647202418e-07
5.340159401941697e-07   -1.510723676087511e-07   1.185106647202418e-07
5.340159401941697e-07   -1.510723676087511e-07   1.185106647202418e-07
4.6533849962339636e-07   -4.2208232167422074e-07   2.357180410217938e-06
4.6533849962339636e-07   -4.2208232167422074e-07   2.357180410217938e-06
4.6533849962339636e-07   -4.2208232167422074e-07   2.357180410217938e-06
4.6533849962339636e-07   -4.2208232167422074e-07   2.357180410217938e-06
1.846013675034616e-06   -2.0298777389223064e-07   -7.540161080326661e-08
1.846013675034616e-06   -2.0298777389223064e-07   -7.540161080326661e-08
1.846013675034616e-06   -2.0298777389223064e-07   -7.540161080326661e-08
1.846013675034616e-06   -2.0298777389223064e-07   -7.540161080326661e-08
1.1607940506412503e-06   -2.574548643168202e-07   1.0993113507737956e-06
1.1607940506412503e-06   -2.574548643168202e-07   1.0993113507737956e-06
1.1607940506412503e-06   -2.574548643168202e-07   1.0993113507737956e-06
1.1607940506412503e-06   -2.574548643168202e-07   1.0993113507737956e-06
6.78721994661503e-07   1.0505161019327817e-07   3.984470869077136e-06
6.78721994661503e-07   1.0505161019327817e-07   3.984470869077136e-06
6.78721994661503e-07   1.0505161019327817e-07   3.984470869077136e-06
6.78721994661503e-07   1.0505161019327817e-07   3.984470869077136e-06
-8.06330849155427e-07   2.147623804264027e-07   1.5752092581888181e-06
-8.06330849155427e-07   2.147623804264027e-07   1.5752092581888181e-06
-8.06330849155427e-07   2.147623804264027e-07   1.5752092581888181e-06
-8.06330849155427e-07   2.147623804264027e-07   1.5752092581888181e-06
-8.652197781812661e-07   1.6424655342067197e-08   3.9914649289401105e-06
-8.652197781812661e-07   1.6424655342067197e-08   3.9914649289401105e-06
-8.652197781812661e-07   1.6424655342067197e-08   3.9914649289401105e-06
-8.652197781812661e-07   1.6424655342067197e-08   3.9914649289401105e-06
6.12498155137098e-07   1.24280653579018e-07   1.463888107800717e-06
6.12498155137098e-07   1.24280653579018e-07   1.463888107800717e-06
6.12498155137098e-07   1.24280653579018e-07   1.463888107800717e-06
6.12498155137098e-07   1.24280653579018e-07   1.463888107800717e-06
-1.070588615257766e-07   1.049275431145105e-07   2.674761668517647e-06
-1.070588615257766e-07   1.049275431145105e-07   2.674761668517647e-06
-1.070588615257766e-07   1.049275431145105e-07   2.674761668517647e-06
-1.070588615257766e-07   1.049275431145105e-07   2.674761668517647e-06
6.12498155137098e-07   1.6424655342094302e-08   3.926751329997935e-06
6.12498155137098e-07   1.6424655342094302e-08   3.926751329997935e-06
6.12498155137098e-07   1.6424655342094302e-08   3.926751329997935e-06
6.12498155137098e-07   1.6424655342094302e-08   3.926751329997935e-06
-8.652197781812661e-07   1.24280653579018e-07   1.528601706742865e-06
-8.652197781812661e-07   1.24280653579018e-07   1.528601706742865e-06
-8.652197781812661e-07   1.24280653579018e-07   1.528601706742865e-06
-8.652197781812661e-07   1.24280653579018e-07   1.528601706742865e-06
-9.261277276781666e-07   -5.4168222681454494e-08   3.954594693241994e-06
-9.261277276781666e-07   -5.4168222681454494e-08   3.954594693241994e-06
-9.261277276781666e-07   -5.4168222681454494e-08   3.954594693241994e-06
-9.261277276781666e-07   -5.4168222681454494e-08   3.954594693241994e-06
5.340159401941697e-07   4.963082005047799e-08   1.4587424878156078e-06
5.340159401941697e-07   4.963082005047799e-08   1.4587424878156078e-06
5.340159401941697e-07   4.963082005047799e-08   1.4587424878156078e-06
5.340159401941697e-07   4.963082005047799e-08   1.4587424878156078e-06
-1.707732471142988e-07   4.310452137747372e-08   2.637306912533577e-06
-1.707732471142988e-07   4.310452137747372e-08   2.637306912533577e-06
-1.707732471142988e-07   4.310452137747372e-08   2.637306912533577e-06
-1.707732471142988e-07   4.310452137747372e-08   2.637306912533577e-06
5.340159401941714e-07   -5.4168222681454494e-08   3.8923152676028185e-06
5.340159401941714e-07   -5.4168222681454494e-08   3.8923152676028185e-06
5.340159401941714e-07   -5.4168222681454494e-08   3.8923152676028185e-06
5.340159401941714e-07   -5.4168222681454494e-08   3.8923152676028185e-06
-9.261277276781666e-07   4.963082005047799e-08   1.5210219134547624e-06
-9.261277276781666e-07   4.963082005047799e-08   1.5210219134547624e-06
-9.261277276781666e-07   4.963082005047799e-08   1.5210219134547624e-06
-9.261277276781666e-07   4.963082005047799e-08   1.5210219134547624e-06
-9.864689215359601e-07   -1.2128865569765957e-07   3.995131735762589e-06
-9.864689215359601e-07   -1.2128865569765957e-07   3.995131735762589e-06
-9.864689215359601e-07   -1.2128865569765957e-07   3.995131735762589e-06
-9.864689215359601e-07   -1.2128865569765957e-07   3.995131735762589e-06
4.6533849962339467e-07   -2.416781258630799e-08   1.5171801946302175e-06
4.6533849962339467e-07   -2.416781258630799e-08   1.5171801946302175e-06
4.6533849962339467e-07   -2.416781258630799e-08   1.5171801946302175e-06
4.6533849962339467e-07   -2.416781258630799e-08   1.5171801946302175e-06
-2.2334739489985627e-07   -1.0045537309242647e-08   2.6565166536694043e-06
-2.2334739489985627e-07   -1.0045537309242647e-08   2.6565166536694043e-06
-2.2334739489985627e-07   -1.0045537309242647e-08   2.6565166536694043e-06
-2.2334739489985627e-07   -1.0045537309242647e-08   2.6565166536694043e-06
-8.06330849155427e-07   4.477875397170244e-07   4.3925497282096574e-06
-8.06330849155427e-07   4.477875397170244e-07   4.3925497282096574e-06
-8.06330849155427e-07   4.477875397170244e-07   4.3925497282096574e-06
-8.06330849155427e-07   4.477875397170244e-07   4.3925497282096574e-06
-2.258249715900455e-06   4.285890335867617e-07   1.9611658466231274e-06
-2.258249715900455e-06   4.285890335867617e-07   1.9611658466231274e-06
-2.258249715900455e-06   4.285890335867617e-07   1.9611658466231274e-06
-2.258249715900455e-06   4.285890335867617e-07   1.9611658466231274e-06
-2.315389395948795e-06   3.6940018546431164e-07   4.353210877545532e-06
-2.315389395948795e-06   3.6940018546431164e-07   4.353210877545532e-06
-2.315389395948795e-06   3.6940018546431164e-07   4.353210877545532e-06
-2.315389395948795e-06   3.6940018546431164e-07   4.353210877545532e-06
-8.652197781812627e-07   3.4724807887416336e-07   1.9495527785537465e-06
-8.652197781812627e-07   3.4724807887416336e-07   1.9495527785537465e-06
-8.652197781812627e-07   3.4724807887416336e-07   1.9495527785537465e-06
-8.652197781812627e-07   3.4724807887416336e-07   1.9495527785537465e-06
-1.5648346476479445e-06   3.8685183452582877e-07   3.091815307607344e-06
-1.5648346476479445e-06   3.8685183452582877e-07   3.091815307607344e-06
-1.5648346476479445e-06   3.8685183452582877e-07   3.091815307607344e-06
-1.5648346476479445e-06   3.8685183452582877e-07   3.091815307607344e-06
-8.652197781812661e-07   3.6940018546431164e-07   4.36650214149961e-06
-8.652197781812661e-07   3.6940018546431164e-07   4.36650214149961e-06
-8.652197781812661e-07   3.6940018546431164e-07   4.36650214149961e-06
-8.652197781812661e-07   3.6940018546431164e-07   4.36650214149961e-06
-2.315389395948795e-06   3.4724807887413626e-07   1.9362615145996785e-06
-2.315389395948795e-06   3.4724807887413626e-07   1.9362615145996785e-06
-2.315389395948795e-06   3.4724807887413626e-07   1.9362615145996785e-06
-2.315389395948795e-06   3.4724807887413626e-07   1.9362615145996785e-06
-2.3741565599417055e-06   2.919799317704409e-07   4.375745097008951e-06
-2.3741565599417055e-06   2.919799317704409e-07   4.375745097008951e-06
-2.3741565599417055e-06   2.919799317704409e-07   4.375745097008951e-06
-2.3741565599417055e-06   2.919799317704409e-07   4.375745097008951e-06
-9.261277276781632e-07   2.6638481339578924e-07   1.977720780927861e-06
-9.261277276781632e-07   2.6638481339578924e-07   1.977720780927861e-06
-9.261277276781632e-07   2.6638481339578924e-07   1.977720780927861e-06
-9.261277276781632e-07   2.6638481339578924e-07   1.977720780927861e-06
-1.6152055512355774e-06   3.259408053587424e-07   3.0904502250124358e-06
-1.6152055512355774e-06   3.259408053587424e-07   3.0904502250124358e-06
-1.6152055512355774e-06   3.259408053587424e-07   3.0904502250124358e-06
-1.6152055512355774e-06   3.259408053587424e-07   3.0904502250124358e-06
-9.261277276781666e-07   2.919799317704409e-07   4.391102168033737e-06
-9.261277276781666e-07   2.919799317704409e-07   4.391102168033737e-06
-9.261277276781666e-07   2.919799317704409e-07   4.391102168033737e-06
-9.261277276781666e-07   2.919799317704409e-07   4.391102168033737e-06
-2.374156559941702e-06   2.6638481339576214e-07   1.962363709903089e-06
-2.374156559941702e-06   2.6638481339576214e-07   1.962363709903089e-06
-2.374156559941702e-06   2.6638481339576214e-07   1.962363709903089e-06
-2.374156559941702e-06   2.6638481339576214e-07   1.962363709903089e-06
-2.431838222533841e-06   2.177544867840045e-07   4.4381457468878934e-06
-2.431838222533841e-06   2.177544867840045e-07   4.4381457468878934e-06
-2.431838222533841e-06   2.177544867840045e-07   4.4381457468878934e-06
-2.431838222533841e-06   2.177544867840045e-07   4.4381457468878934e-06
-9.864689215359567e-07   1.8949839429723524e-07   2.0461505673835127e-06
-9.864689215359567e-07   1.8949839429723524e-07   2.0461505673835127e-06
-9.864689215359567e-07   1.8949839429723524e-07   2.0461505673835127e-06
-9.864689215359567e-07   1.8949839429723524e-07   2.0461505673835127e-06
-1.6690658217872776e-06   2.665225435482133e-07   3.1375975782518565e-06
-1.6690658217872776e-06   2.665225435482133e-07   3.1375975782518565e-06
-1.6690658217872776e-06   2.665225435482133e-07   3.1375975782518565e-06
-1.6690658217872776e-06   2.665225435482133e-07   3.1375975782518565e-06
-2.258249715900455e-06   7.82864063733602e-07   3.888403040327228e-06
-2.258249715900455e-06   7.82864063733602e-07   3.888403040327228e-06
-2.258249715900455e-06   7.82864063733602e-07   3.888403040327228e-06
-2.258249715900455e-06   7.82864063733602e-07   3.888403040327228e-06
-3.6950016227061853e-06   6.509663685516566e-07   1.4146779118751513e-06
-3.6950016227061853e-06   6.509663685516566e-07   1.4146779118751513e-06
-3.6950016227061853e-06   6.509663685516566e-07   1.4146779118751513e-06
-3.6950016227061853e-06   6.509663685516566e-07   1.4146779118751513e-06
-3.7579847848700224e-06   7.07790140854511e-07   3.821080090924252e-06
-3.7579847848700224e-06   7.07790140854511e-07   3.821080090924252e-06
-3.7579847848700224e-06   7.07790140854511e-07   3.821080090924252e-06
-3.7579847848700224e-06   7.07790140854511e-07   3.821080090924252e-06
-2.3153893959487917e-06   5.698862049789081e-07   1.4994968042476433e-06
-2.3153893959487917e-06   5.698862049789081e-07   1.4994968042476433e-06
-2.3153893959487917e-06   5.698862049789081e-07   1.4994968042476433e-06
-2.3153893959487917e-06   5.698862049789081e-07   1.4994968042476433e-06
-2.9991200277485464e-06   6.642323593565743e-07   2.582440164620786e-06
-2.9991200277485464e-06   6.642323593565743e-07   2.582440164620786e-06
-2.9991200277485464e-06   6.642323593565743e-07   2.582440164620786e-06
-2.9991200277485464e-06   6.642323593565743e-07   2.582440164620786e-06
-2.315389395948795e-06   7.07790140854511e-07   3.903822452449657e-06
-2.315389395948795e-06   7.07790140854511e-07   3.903822452449657e-06
-2.315389395948795e-06   7.07790140854511e-07   3.903822452449657e-06
-2.315389395948795e-06   7.07790140854511e-07   3.903822452449657e-06
-3.7579847848700224e-06   5.698862049789081e-07   1.416754442722272e-06
-3.7579847848700224e-06   5.698862049789081e-07   1.416754442722272e-06
-3.7579847848700224e-06   5.698862049789081e-07   1.416754442722272e-06
-3.7579847848700224e-06   5.698862049789081e-07   1.416754442722272e-06
-3.831732966943214e-06   6.367287224933306e-07   3.945671301090471e-06
-3.831732966943214e-06   6.367287224933306e-07   3.945671301090471e-06
-3.831732966943214e-06   6.367287224933306e-07   3.945671301090471e-06
-3.831732966943214e-06   6.367287224933306e-07   3.945671301090471e-06
-2.3741565599416988e-06   4.948144900680817e-07   1.601525828876474e-06
-2.3741565599416988e-06   4.948144900680817e-07   1.601525828876474e-06
-2.3741565599416988e-06   4.948144900680817e-07   1.601525828876474e-06
-2.3741565599416988e-06   4.948144900680817e-07   1.601525828876474e-06
-3.0377396130303273e-06   6.076291154977231e-07   2.639808808766367e-06
-3.0377396130303273e-06   6.076291154977231e-07   2.639808808766367e-06
-3.0377396130303273e-06   6.076291154977231e-07   2.639808808766367e-06
-3.0377396130303273e-06   6.076291154977231e-07   2.639808808766367e-06
-2.374156559941702e-06   6.367287224933306e-07   4.030819840545577e-06
-2.374156559941702e-06   6.367287224933306e-07   4.030819840545577e-06
-2.374156559941702e-06   6.367287224933306e-07   4.030819840545577e-06
-2.374156559941702e-06   6.367287224933306e-07   4.030819840545577e-06
-3.831732966943207e-06   4.948144900680817e-07   1.516377289421307e-06
-3.831732966943207e-06   4.948144900680817e-07   1.516377289421307e-06
-3.831732966943207e-06   4.948144900680817e-07   1.516377289421307e-06
-3.831732966943207e-06   4.948144900680817e-07   1.516377289421307e-06
-3.893956092370535e-06   5.557174063344089e-07   4.06058991117927e-06
-3.893956092370535e-06   5.557174063344089e-07   4.06058991117927e-06
-3.893956092370535e-06   5.557174063344089e-07   4.06058991117927e-06
-3.893956092370535e-06   5.557174063344089e-07   4.06058991117927e-06
-2.4318382225338274e-06   4.131546446104015e-07   1.7092644518192145e-06
-2.4318382225338274e-06   4.131546446104015e-07   1.7092644518192145e-06
-2.4318382225338274e-06   4.131546446104015e-07   1.7092644518192145e-06
-2.4318382225338274e-06   4.131546446104015e-07   1.7092644518192145e-06
-3.108267049500646e-06   5.493945770101961e-07   2.7549018706574813e-06
-3.108267049500646e-06   5.493945770101961e-07   2.7549018706574813e-06
-3.108267049500646e-06   5.493945770101961e-07   2.7549018706574813e-06
-3.108267049500646e-06   5.493945770101961e-07   2.7549018706574813e-06
-3.695001622706199e-06   1.0502074571683046e-06   1.8504389501392752e-06
-3.695001622706199e-06   1.0502074571683046e-06   1.8504389501392752e-06
-3.695001622706199e-06   1.0502074571683046e-06   1.8504389501392752e-06
-3.695001622706199e-06   1.0502074571683046e-06   1.8504389501392752e-06
-5.034120466998369e-06   8.231511731688203e-07   -5.17659560747349e-07
-5.034120466998369e-06   8.231511731688203e-07   -5.17659560747349e-07
-5.034120466998369e-06   8.231511731688203e-07   -5.17659560747349e-07
-5.034120466998369e-06   8.231511731688203e-07   -5.17659560747349e-07
-5.1974668628982124e-06   1.0301983524987684e-06   2.308690657691837e-06
-5.1974668628982124e-06   1.0301983524987684e-06   2.308690657691837e-06
-5.1974668628982124e-06   1.0301983524987684e-06   2.308690657691837e-06
-5.1974668628982124e-06   1.0301983524987684e-06   2.308690657691837e-06
-3.7579847848700156e-06   7.838301260126032e-07   5.737479686989365e-08
-3.7579847848700156e-06   7.838301260126032e-07   5.737479686989365e-08
-3.7579847848700156e-06   7.838301260126032e-07   5.737479686989365e-08
-3.7579847848700156e-06   7.838301260126032e-07   5.737479686989365e-08
-4.258959927444105e-06   9.018728962439579e-07   8.215077056881168e-07
-4.258959927444105e-06   9.018728962439579e-07   8.215077056881168e-07
-4.258959927444105e-06   9.018728962439579e-07   8.215077056881168e-07
-4.258959927444105e-06   9.018728962439579e-07   8.215077056881168e-07
-3.7579847848700156e-06   1.0301983524987684e-06   2.4565115935835415e-06
-3.7579847848700156e-06   1.0301983524987684e-06   2.4565115935835415e-06
-3.7579847848700156e-06   1.0301983524987684e-06   2.4565115935835415e-06
-3.7579847848700156e-06   1.0301983524987684e-06   2.4565115935835415e-06
-5.197466862898219e-06   7.838301260126304e-07   -9.044613902178377e-08
-5.197466862898219e-06   7.838301260126304e-07   -9.044613902178377e-08
-5.197466862898219e-06   7.838301260126304e-07   -9.044613902178377e-08
-5.197466862898219e-06   7.838301260126304e-07   -9.044613902178377e-08
-5.336183876965159e-06   9.997175378916067e-07   2.73443119789307e-06
-5.336183876965159e-06   9.997175378916067e-07   2.73443119789307e-06
-5.336183876965159e-06   9.997175378916067e-07   2.73443119789307e-06
-5.336183876965159e-06   9.997175378916067e-07   2.73443119789307e-06
-3.8317329669432004e-06   7.482020916956867e-07   3.779222822406907e-07
-3.8317329669432004e-06   7.482020916956867e-07   3.779222822406907e-07
-3.8317329669432004e-06   7.482020916956867e-07   3.779222822406907e-07
-3.8317329669432004e-06   7.482020916956867e-07   3.779222822406907e-07
-4.419991463943642e-06   8.93521873858872e-07   1.2711612412769172e-06
-4.419991463943642e-06   8.93521873858872e-07   1.2711612412769172e-06
-4.419991463943642e-06   8.93521873858872e-07   1.2711612412769172e-06
-4.419991463943642e-06   8.93521873858872e-07   1.2711612412769172e-06
-3.831732966943207e-06   9.997175378915796e-07   2.8853404656105895e-06
-3.831732966943207e-06   9.997175378915796e-07   2.8853404656105895e-06
-3.831732966943207e-06   9.997175378915796e-07   2.8853404656105895e-06
-3.831732966943207e-06   9.997175378915796e-07   2.8853404656105895e-06
-5.3361838769651655e-06   7.482020916957139e-07   2.2701301452315772e-07
-5.3361838769651655e-06   7.482020916957139e-07   2.2701301452315772e-07
-5.3361838769651655e-06   7.482020916957139e-07   2.2701301452315772e-07
-5.3361838769651655e-06   7.482020916957139e-07   2.2701301452315772e-07
-5.5000716194341295e-06   8.9273582901586e-07   3.482057475048719e-06
-5.5000716194341295e-06   8.9273582901586e-07   3.482057475048719e-06
-5.5000716194341295e-06   8.9273582901586e-07   3.482057475048719e-06
-5.5000716194341295e-06   8.9273582901586e-07   3.482057475048719e-06
-3.893956092370522e-06   6.467803162168409e-07   9.527715709554832e-07
-3.893956092370522e-06   6.467803162168409e-07   9.527715709554832e-07
-3.893956092370522e-06   6.467803162168409e-07   9.527715709554832e-07
-3.893956092370522e-06   6.467803162168409e-07   9.527715709554832e-07
-4.451301504424595e-06   8.473775558631475e-07   1.7613222472578753e-06
-4.451301504424595e-06   8.473775558631475e-07   1.7613222472578753e-06
-4.451301504424595e-06   8.473775558631475e-07   1.7613222472578753e-06
-4.451301504424595e-06   8.473775558631475e-07   1.7613222472578753e-06
7.388443027159e-07   -3.506292549067345e-08   2.335582476942097e-06
7.388443027159e-07   -3.506292549067345e-08   2.335582476942097e-06
7.388443027159e-07   -3.506292549067345e-08   2.335582476942097e-06
7.388443027159e-07   -3.506292549067345e-08   2.335582476942097e-06
-2.833695289169446e-07   1.9543469444537726e-07   7.701913295156746e-07
-2.833695289169446e-07   1.9543469444537726e-07   7.701913295156746e-07
-2.833695289169446e-07   1.9543469444537726e-07   7.701913295156746e-07
-2.833695289169446e-07   1.9543469444537726e-07   7.701913295156746e-07
-3.344548850267464e-07   -1.1756351072175373e-07   2.2687389378028594e-06
-3.344548850267464e-07   -1.1756351072175373e-07   2.2687389378028594e-06
-3.344548850267464e-07   -1.1756351072175373e-07   2.2687389378028594e-06
-3.344548850267464e-07   -1.1756351072175373e-07   2.2687389378028594e-06
5.86804278529995e-07   1.1818656115052182e-07   5.918569554182666e-07
5.86804278529995e-07   1.1818656115052182e-07   5.918569554182666e-07
5.86804278529995e-07   1.1818656115052182e-07   5.918569554182666e-07
5.86804278529995e-07   1.1818656115052182e-07   5.918569554182666e-07
1.45306633169116e-07   2.60062650429035e-08   1.3829945420176234e-06
1.45306633169116e-07   2.60062650429035e-08   1.3829945420176234e-06
1.45306633169116e-07   2.60062650429035e-08   1.3829945420176234e-06
1.45306633169116e-07   2.60062650429035e-08   1.3829945420176234e-06
5.86804278529995e-07   -1.1756351072175373e-07   2.127288894679475e-06
5.86804278529995e-07   -1.1756351072175373e-07   2.127288894679475e-06
5.86804278529995e-07   -1.1756351072175373e-07   2.127288894679475e-06
5.86804278529995e-07   -1.1756351072175373e-07   2.127288894679475e-06
-3.344548850267464e-07   1.1818656115052182e-07   7.333069985416272e-07
-3.344548850267464e-07   1.1818656115052182e-07   7.333069985416272e-07
-3.344548850267464e-07   1.1818656115052182e-07   7.333069985416272e-07
-3.344548850267464e-07   1.1818656115052182e-07   7.333069985416272e-07
-3.982635006715618e-07   -1.510723676087511e-07   2.1872404091187984e-06
-3.982635006715618e-07   -1.510723676087511e-07   2.1872404091187984e-06
-3.982635006715618e-07   -1.510723676087511e-07   2.1872404091187984e-06
-3.982635006715618e-07   -1.510723676087511e-07   2.1872404091187984e-06
4.5303771790692163e-07   7.859157257026229e-08   6.30606680713915e-07
4.5303771790692163e-07   7.859157257026229e-08   6.30606680713915e-07
4.5303771790692163e-07   7.859157257026229e-08   6.30606680713915e-07
4.5303771790692163e-07   7.859157257026229e-08   6.30606680713915e-07
6.630852045491651e-08   -6.686486926182856e-09   1.3263221788317475e-06
6.630852045491651e-08   -6.686486926182856e-09   1.3263221788317475e-06
6.630852045491651e-08   -6.686486926182856e-09   1.3263221788317475e-06
6.630852045491651e-08   -6.686486926182856e-09   1.3263221788317475e-06
4.5303771790692163e-07   -1.510723676087511e-07   2.0494420450113877e-06
4.5303771790692163e-07   -1.510723676087511e-07   2.0494420450113877e-06
4.5303771790692163e-07   -1.510723676087511e-07   2.0494420450113877e-06
4.5303771790692163e-07   -1.510723676087511e-07   2.0494420450113877e-06
-3.98263500671561e-07   7.859157257026229e-08   7.684050448213223e-07
-3.98263500671561e-07   7.859157257026229e-08   7.684050448213223e-07
-3.98263500671561e-07   7.859157257026229e-08   7.684050448213223e-07
-3.98263500671561e-07   7.859157257026229e-08   7.684050448213223e-07
-4.527795764646693e-07   -2.0298777389223064e-07   2.125640213115768e-06
-4.527795764646693e-07   -2.0298777389223064e-07   2.125640213115768e-06
-4.527795764646693e-07   -2.0298777389223064e-07   2.125640213115768e-06
-4.527795764646693e-07   -2.0298777389223064e-07   2.125640213115768e-06
2.8377178865935107e-07   -2.5537152910707055e-09   7.777941694150579e-07
2.8377178865935107e-07   -2.5537152910707055e-09   7.777941694150579e-07
2.8377178865935107e-07   -2.5537152910707055e-09   7.777941694150579e-07
2.8377178865935107e-07   -2.5537152910707055e-09   7.777941694150579e-07
-2.9091686252018963e-08   -3.23628279603192e-08   1.3171187618688858e-06
-2.9091686252018963e-08   -3.23628279603192e-08   1.3171187618688858e-06
-2.9091686252018963e-08   -3.23628279603192e-08   1.3171187618688858e-06
-2.9091686252018963e-08   -3.23628279603192e-08   1.3171187618688858e-06
-2.833695289169446e-07   2.1476238042637558e-07   3.5823258669578147e-06
-2.833695289169446e-07   2.1476238042637558e-07   3.5823258669578147e-06
-2.833695289169446e-07   2.1476238042637558e-07   3.5823258669578147e-06
-2.833695289169446e-07   2.1476238042637558e-07   3.5823258669578147e-06
-1.133182017454444e-06   2.6582075988025155e-07   2.1966067470676316e-06
-1.133182017454444e-06   2.6582075988025155e-07   2.1966067470676316e-06
-1.133182017454444e-06   2.6582075988025155e-07   2.1966067470676316e-06
-1.133182017454444e-06   2.6582075988025155e-07   2.1966067470676316e-06
-1.1731817269381382e-06   1.24280653579018e-07   3.5671142918510093e-06
-1.1731817269381382e-06   1.24280653579018e-07   3.5671142918510093e-06
-1.1731817269381382e-06   1.24280653579018e-07   3.5671142918510093e-06
-1.1731817269381382e-06   1.24280653579018e-07   3.5671142918510093e-06
-3.344548850267464e-07   1.8113398490883785e-07   2.1351242232007836e-06
-3.344548850267464e-07   1.8113398490883785e-07   2.1351242232007836e-06
-3.344548850267464e-07   1.8113398490883785e-07   2.1351242232007836e-06
-3.344548850267464e-07   1.8113398490883785e-07   2.1351242232007836e-06
-7.384181424441518e-07   1.8501885584869845e-07   2.8060653963325277e-06
-7.384181424441518e-07   1.8501885584869845e-07   2.8060653963325277e-06
-7.384181424441518e-07   1.8501885584869845e-07   2.8060653963325277e-06
-7.384181424441518e-07   1.8501885584869845e-07   2.8060653963325277e-06
-3.344548850267464e-07   1.24280653579018e-07   3.5330022930530713e-06
-3.344548850267464e-07   1.24280653579018e-07   3.5330022930530713e-06
-3.344548850267464e-07   1.24280653579018e-07   3.5330022930530713e-06
-3.344548850267464e-07   1.24280653579018e-07   3.5330022930530713e-06
-1.1731817269381348e-06   1.8113398490883785e-07   2.1692362219986937e-06
-1.1731817269381348e-06   1.8113398490883785e-07   2.1692362219986937e-06
-1.1731817269381348e-06   1.8113398490883785e-07   2.1692362219986937e-06
-1.1731817269381348e-06   1.8113398490883785e-07   2.1692362219986937e-06
-1.2146504891820323e-06   4.963082005047799e-08   3.561050640168913e-06
-1.2146504891820323e-06   4.963082005047799e-08   3.561050640168913e-06
-1.2146504891820323e-06   4.963082005047799e-08   3.561050640168913e-06
-1.2146504891820323e-06   4.963082005047799e-08   3.561050640168913e-06
-3.98263500671561e-07   1.0559483330834169e-07   2.166827251363389e-06
-3.98263500671561e-07   1.0559483330834169e-07   2.166827251363389e-06
-3.98263500671561e-07   1.0559483330834169e-07   2.166827251363389e-06
-3.98263500671561e-07   1.0559483330834169e-07   2.166827251363389e-06
-7.797240152251408e-07   1.2469415974663872e-07   2.7911351797564005e-06
-7.797240152251408e-07   1.2469415974663872e-07   2.7911351797564005e-06
-7.797240152251408e-07   1.2469415974663872e-07   2.7911351797564005e-06
-7.797240152251408e-07   1.2469415974663872e-07   2.7911351797564005e-06
-3.98263500671561e-07   4.963082005047799e-08   3.5274722322141432e-06
-3.98263500671561e-07   4.963082005047799e-08   3.5274722322141432e-06
-3.98263500671561e-07   4.963082005047799e-08   3.5274722322141432e-06
-3.98263500671561e-07   4.963082005047799e-08   3.5274722322141432e-06
-1.214650489182029e-06   1.0559483330834169e-07   2.200405659318134e-06
-1.214650489182029e-06   1.0559483330834169e-07   2.200405659318134e-06
-1.214650489182029e-06   1.0559483330834169e-07   2.200405659318134e-06
-1.214650489182029e-06   1.0559483330834169e-07   2.200405659318134e-06
-1.2558866308480597e-06   -2.416781258630799e-08   3.617198944990015e-06
-1.2558866308480597e-06   -2.416781258630799e-08   3.617198944990015e-06
-1.2558866308480597e-06   -2.416781258630799e-08   3.617198944990015e-06
-1.2558866308480597e-06   -2.416781258630799e-08   3.617198944990015e-06
-4.527795764646676e-07   2.6554945930221986e-08   2.248253532574437e-06
-4.527795764646676e-07   2.6554945930221986e-08   2.248253532574437e-06
-4.527795764646676e-07   2.6554945930221986e-08   2.248253532574437e-06
-4.527795764646676e-07   2.6554945930221986e-08   2.248253532574437e-06
-8.200278466322815e-07   6.792815569100141e-08   2.8355100569972986e-06
-8.200278466322815e-07   6.792815569100141e-08   2.8355100569972986e-06
-8.200278466322815e-07   6.792815569100141e-08   2.8355100569972986e-06
-8.200278466322815e-07   6.792815569100141e-08   2.8355100569972986e-06
-1.133182017454444e-06   4.285890335867888e-07   4.0104365867425854e-06
-1.133182017454444e-06   4.285890335867888e-07   4.0104365867425854e-06
-1.133182017454444e-06   4.285890335867888e-07   4.0104365867425854e-06
-1.133182017454444e-06   4.285890335867888e-07   4.0104365867425854e-06
-1.965364972226065e-06   3.36187231459264e-07   2.568023914180037e-06
-1.965364972226065e-06   3.36187231459264e-07   2.568023914180037e-06
-1.965364972226065e-06   3.36187231459264e-07   2.568023914180037e-06
-1.965364972226065e-06   3.36187231459264e-07   2.568023914180037e-06
-2.0001914456987185e-06   3.4724807887416336e-07   3.9355944063853546e-06
-2.0001914456987185e-06   3.4724807887416336e-07   3.9355944063853546e-06
-2.0001914456987185e-06   3.4724807887416336e-07   3.9355944063853546e-06
-2.0001914456987185e-06   3.4724807887416336e-07   3.9355944063853546e-06
-1.1731817269381348e-06   2.5979648341327975e-07   2.6097158323942502e-06
-1.1731817269381348e-06   2.5979648341327975e-07   2.6097158323942502e-06
-1.1731817269381348e-06   2.5979648341327975e-07   2.6097158323942502e-06
-1.1731817269381348e-06   2.5979648341327975e-07   2.6097158323942502e-06
-1.5697866321836719e-06   3.3416090761915216e-07   3.226105353279966e-06
-1.5697866321836719e-06   3.3416090761915216e-07   3.226105353279966e-06
-1.5697866321836719e-06   3.3416090761915216e-07   3.226105353279966e-06
-1.5697866321836719e-06   3.3416090761915216e-07   3.226105353279966e-06
-1.1731817269381348e-06   3.4724807887413626e-07   3.988065363661874e-06
-1.1731817269381348e-06   3.4724807887413626e-07   3.988065363661874e-06
-1.1731817269381348e-06   3.4724807887413626e-07   3.988065363661874e-06
-1.1731817269381348e-06   3.4724807887413626e-07   3.988065363661874e-06
-2.0001914456987185e-06   2.5979648341327975e-07   2.5572448751177174e-06
-2.0001914456987185e-06   2.5979648341327975e-07   2.5572448751177174e-06
-2.0001914456987185e-06   2.5979648341327975e-07   2.5572448751177174e-06
-2.0001914456987185e-06   2.5979648341327975e-07   2.5572448751177174e-06
-2.037133339569408e-06   2.6638481339576214e-07   3.9673435041636285e-06
-2.037133339569408e-06   2.6638481339576214e-07   3.9673435041636285e-06
-2.037133339569408e-06   2.6638481339576214e-07   3.9673435041636285e-06
-2.037133339569408e-06   2.6638481339576214e-07   3.9673435041636285e-06
-1.214650489182029e-06   1.823748075984973e-07   2.6469447569963845e-06
-1.214650489182029e-06   1.823748075984973e-07   2.6469447569963845e-06
-1.214650489182029e-06   1.823748075984973e-07   2.6469447569963845e-06
-1.214650489182029e-06   1.823748075984973e-07   2.6469447569963845e-06
-1.599604522675868e-06   2.741232005032976e-07   3.2334857770764973e-06
-1.599604522675868e-06   2.741232005032976e-07   3.2334857770764973e-06
-1.599604522675868e-06   2.741232005032976e-07   3.2334857770764973e-06
-1.599604522675868e-06   2.741232005032976e-07   3.2334857770764973e-06
-1.214650489182029e-06   2.6638481339576214e-07   4.017749507641985e-06
-1.214650489182029e-06   2.6638481339576214e-07   4.017749507641985e-06
-1.214650489182029e-06   2.6638481339576214e-07   4.017749507641985e-06
-1.214650489182029e-06   2.6638481339576214e-07   4.017749507641985e-06
-2.037133339569408e-06   1.823748075984973e-07   2.596538753518001e-06
-2.037133339569408e-06   1.823748075984973e-07   2.596538753518001e-06
-2.037133339569408e-06   1.823748075984973e-07   2.596538753518001e-06
-2.037133339569408e-06   1.823748075984973e-07   2.596538753518001e-06
-2.073335805257894e-06   1.8949839429723524e-07   4.040210260186102e-06
-2.073335805257894e-06   1.8949839429723524e-07   4.040210260186102e-06
-2.073335805257894e-06   1.8949839429723524e-07   4.040210260186102e-06
-2.073335805257894e-06   1.8949839429723524e-07   4.040210260186102e-06
-1.2558866308480597e-06   1.1002080814654421e-07   2.725481521193468e-06
-1.2558866308480597e-06   1.1002080814654421e-07   2.725481521193468e-06
-1.2558866308480597e-06   1.1002080814654421e-07   2.725481521193468e-06
-1.2558866308480597e-06   1.1002080814654421e-07   2.725481521193468e-06
-1.6327462282684095e-06   2.154174561011513e-07   3.2903428614545907e-06
-1.6327462282684095e-06   2.154174561011513e-07   3.2903428614545907e-06
-1.6327462282684095e-06   2.154174561011513e-07   3.2903428614545907e-06
-1.6327462282684095e-06   2.154174561011513e-07   3.2903428614545907e-06
-1.9653649722260717e-06   6.509663685516566e-07   3.487646187827289e-06
-1.9653649722260717e-06   6.509663685516566e-07   3.487646187827289e-06
-1.9653649722260717e-06   6.509663685516566e-07   3.487646187827289e-06
-1.9653649722260717e-06   6.509663685516566e-07   3.487646187827289e-06
-2.7908053770226462e-06   4.6578500240799657e-07   2.0008033601467856e-06
-2.7908053770226462e-06   4.6578500240799657e-07   2.0008033601467856e-06
-2.7908053770226462e-06   4.6578500240799657e-07   2.0008033601467856e-06
-2.7908053770226462e-06   4.6578500240799657e-07   2.0008033601467856e-06
-2.8294042465845805e-06   5.698862049789081e-07   3.3882997420253648e-06
-2.8294042465845805e-06   5.698862049789081e-07   3.3882997420253648e-06
-2.8294042465845805e-06   5.698862049789081e-07   3.3882997420253648e-06
-2.8294042465845805e-06   5.698862049789081e-07   3.3882997420253648e-06
-2.0001914456987185e-06   3.8566961496557146e-07   2.1168083612235785e-06
-2.0001914456987185e-06   3.8566961496557146e-07   2.1168083612235785e-06
-2.0001914456987185e-06   3.8566961496557146e-07   2.1168083612235785e-06
-2.0001914456987185e-06   3.8566961496557146e-07   2.1168083612235785e-06
-2.391309127826379e-06   5.107612442110119e-07   2.6936161872223905e-06
-2.391309127826379e-06   5.107612442110119e-07   2.6936161872223905e-06
-2.391309127826379e-06   5.107612442110119e-07   2.6936161872223905e-06
-2.391309127826379e-06   5.107612442110119e-07   2.6936161872223905e-06
-2.0001914456987185e-06   5.698862049789081e-07   3.4988296960333125e-06
-2.0001914456987185e-06   5.698862049789081e-07   3.4988296960333125e-06
-2.0001914456987185e-06   5.698862049789081e-07   3.4988296960333125e-06
-2.0001914456987185e-06   5.698862049789081e-07   3.4988296960333125e-06
-2.829404246584567e-06   3.8566961496557146e-07   2.006278407215563e-06
-2.829404246584567e-06   3.8566961496557146e-07   2.006278407215563e-06
-2.829404246584567e-06   3.8566961496557146e-07   2.006278407215563e-06
-2.829404246584567e-06   3.8566961496557146e-07   2.006278407215563e-06
-2.880751321727312e-06   4.948144900681088e-07   3.4976251175817055e-06
-2.880751321727312e-06   4.948144900681088e-07   3.4976251175817055e-06
-2.880751321727312e-06   4.948144900681088e-07   3.4976251175817055e-06
-2.880751321727312e-06   4.948144900681088e-07   3.4976251175817055e-06
-2.037133339569408e-06   3.133469808092059e-07   2.2004756528738514e-06
-2.037133339569408e-06   3.133469808092059e-07   2.2004756528738514e-06
-2.037133339569408e-06   3.133469808092059e-07   2.2004756528738514e-06
-2.037133339569408e-06   3.133469808092059e-07   2.2004756528738514e-06
-2.412140324337487e-06   4.526491449928201e-07   2.7419059956437482e-06
-2.412140324337487e-06   4.526491449928201e-07   2.7419059956437482e-06
-2.412140324337487e-06   4.526491449928201e-07   2.7419059956437482e-06
-2.412140324337487e-06   4.526491449928201e-07   2.7419059956437482e-06
-2.0371333395694012e-06   4.948144900680817e-07   3.606505623136993e-06
-2.0371333395694012e-06   4.948144900680817e-07   3.606505623136993e-06
-2.0371333395694012e-06   4.948144900680817e-07   3.606505623136993e-06
-2.0371333395694012e-06   4.948144900680817e-07   3.606505623136993e-06
-2.880751321727305e-06   3.1334698080923303e-07   2.0915951473185436e-06
-2.880751321727305e-06   3.1334698080923303e-07   2.0915951473185436e-06
-2.880751321727305e-06   3.1334698080923303e-07   2.0915951473185436e-06
-2.880751321727305e-06   3.1334698080923303e-07   2.0915951473185436e-06
-2.921450929799795e-06   4.131546446104015e-07   3.6155152942384027e-06
-2.921450929799795e-06   4.131546446104015e-07   3.6155152942384027e-06
-2.921450929799795e-06   4.131546446104015e-07   3.6155152942384027e-06
-2.921450929799795e-06   4.131546446104015e-07   3.6155152942384027e-06
-2.073335805257894e-06   2.3855046815140124e-07   2.306752592544004e-06
-2.073335805257894e-06   2.3855046815140124e-07   2.306752592544004e-06
-2.073335805257894e-06   2.3855046815140124e-07   2.306752592544004e-06
-2.073335805257894e-06   2.3855046815140124e-07   2.306752592544004e-06
-2.4557735894467253e-06   3.961633342630265e-07   2.8495811798584563e-06
-2.4557735894467253e-06   3.961633342630265e-07   2.8495811798584563e-06
-2.4557735894467253e-06   3.961633342630265e-07   2.8495811798584563e-06
-2.4557735894467253e-06   3.961633342630265e-07   2.8495811798584563e-06
-2.7908053770226462e-06   8.231511731688474e-07   1.5804336659182479e-06
-2.7908053770226462e-06   8.231511731688474e-07   1.5804336659182479e-06
-2.7908053770226462e-06   8.231511731688474e-07   1.5804336659182479e-06
-2.7908053770226462e-06   8.231511731688474e-07   1.5804336659182479e-06
-3.4906541638617876e-06   5.699114746798178e-07   2.6207520209295767e-07
-3.4906541638617876e-06   5.699114746798178e-07   2.6207520209295767e-07
-3.4906541638617876e-06   5.699114746798178e-07   2.6207520209295767e-07
-3.4906541638617876e-06   5.699114746798178e-07   2.6207520209295767e-07
-3.6304626621056255e-06   7.838301260126032e-07   1.8687594482312206e-06
-3.6304626621056255e-06   7.838301260126032e-07   1.8687594482312206e-06
-3.6304626621056255e-06   7.838301260126032e-07   1.8687594482312206e-06
-3.6304626621056255e-06   7.838301260126032e-07   1.8687594482312206e-06
-2.8294042465845738e-06   5.168957127763766e-07   6.938227369712176e-07
-2.8294042465845738e-06   5.168957127763766e-07   6.938227369712176e-07
-2.8294042465845738e-06   5.168957127763766e-07   6.938227369712176e-07
-2.8294042465845738e-06   5.168957127763766e-07   6.938227369712176e-07
-3.073541321074048e-06   6.629490834901715e-07   1.0130858386920693e-06
-3.073541321074048e-06   6.629490834901715e-07   1.0130858386920693e-06
-3.073541321074048e-06   6.629490834901715e-07   1.0130858386920693e-06
-3.073541321074048e-06   6.629490834901715e-07   1.0130858386920693e-06
-2.829404246584567e-06   7.838301260126304e-07   2.028920096172932e-06
-2.829404246584567e-06   7.838301260126304e-07   2.028920096172932e-06
-2.829404246584567e-06   7.838301260126304e-07   2.028920096172932e-06
-2.829404246584567e-06   7.838301260126304e-07   2.028920096172932e-06
-3.6304626621056255e-06   5.168957127763766e-07   5.33662089029479e-07
-3.6304626621056255e-06   5.168957127763766e-07   5.33662089029479e-07
-3.6304626621056255e-06   5.168957127763766e-07   5.33662089029479e-07
-3.6304626621056255e-06   5.168957127763766e-07   5.33662089029479e-07
-3.748986958037993e-06   7.482020916957139e-07   2.1979622063004285e-06
-3.748986958037993e-06   7.482020916957139e-07   2.1979622063004285e-06
-3.748986958037993e-06   7.482020916957139e-07   2.1979622063004285e-06
-3.748986958037993e-06   7.482020916957139e-07   2.1979622063004285e-06
-2.880751321727305e-06   4.795222515280003e-07   9.121107165499358e-07
-2.880751321727305e-06   4.795222515280003e-07   9.121107165499358e-07
-2.880751321727305e-06   4.795222515280003e-07   9.121107165499358e-07
-2.880751321727305e-06   4.795222515280003e-07   9.121107165499358e-07
-3.1945871513342125e-06   6.440832812462953e-07   1.3364338147304377e-06
-3.1945871513342125e-06   6.440832812462953e-07   1.3364338147304377e-06
-3.1945871513342125e-06   6.440832812462953e-07   1.3364338147304377e-06
-3.1945871513342125e-06   6.440832812462953e-07   1.3364338147304377e-06
-2.880751321727305e-06   7.482020916957139e-07   2.3591701104010485e-06
-2.880751321727305e-06   7.482020916957139e-07   2.3591701104010485e-06
-2.880751321727305e-06   7.482020916957139e-07   2.3591701104010485e-06
-2.880751321727305e-06   7.482020916957139e-07   2.3591701104010485e-06
-3.748986958037993e-06   4.795222515280003e-07   7.509028124493022e-07
-3.748986958037993e-06   4.795222515280003e-07   7.509028124493022e-07
-3.748986958037993e-06   4.795222515280003e-07   7.509028124493022e-07
-3.748986958037993e-06   4.795222515280003e-07   7.509028124493022e-07
-3.896578082488709e-06   6.467803162168409e-07   2.789862469797515e-06
-3.896578082488709e-06   6.467803162168409e-07   2.789862469797515e-06
-3.896578082488709e-06   6.467803162168409e-07   2.789862469797515e-06
-3.896578082488709e-06   6.467803162168409e-07   2.789862469797515e-06
-2.921450929799788e-06   3.88950981864176e-07   1.3193481492609042e-06
-2.921450929799788e-06   3.88950981864176e-07   1.3193481492609042e-06
-2.921450929799788e-06   3.88950981864176e-07   1.3193481492609042e-06
-2.921450929799788e-06   3.88950981864176e-07   1.3193481492609042e-06
-3.2248962218647588e-06   6.014890583331948e-07   1.6975674568211097e-06
-3.2248962218647588e-06   6.014890583331948e-07   1.6975674568211097e-06
-3.2248962218647588e-06   6.014890583331948e-07   1.6975674568211097e-06
-3.2248962218647588e-06   6.014890583331948e-07   1.6975674568211097e-06
-9.616013811158632e-07   1.9543469444537726e-07   1.7584289099884372e-06
-9.616013811158632e-07   1.9543469444537726e-07   1.7584289099884372e-06
-9.616013811158632e-07   1.9543469444537726e-07   1.7584289099884372e-06
-9.616013811158632e-07   1.9543469444537726e-07   1.7584289099884372e-06
-1.2555977822568518e-06   4.062665710331603e-07   1.394934034039478e-06
-1.2555977822568518e-06   4.062665710331603e-07   1.394934034039478e-06
-1.2555977822568518e-06   4.062665710331603e-07   1.394934034039478e-06
-1.2555977822568518e-06   4.062665710331603e-07   1.394934034039478e-06
-1.298148373839848e-06   1.1818656115052182e-07   1.8330865101740727e-06
-1.298148373839848e-06   1.1818656115052182e-07   1.8330865101740727e-06
-1.298148373839848e-06   1.1818656115052182e-07   1.8330865101740727e-06
-1.298148373839848e-06   1.1818656115052182e-07   1.8330865101740727e-06
-1.120488302664914e-06   3.09998343333133e-07   1.4218993222396084e-06
-1.120488302664914e-06   3.09998343333133e-07   1.4218993222396084e-06
-1.120488302664914e-06   3.09998343333133e-07   1.4218993222396084e-06
-1.120488302664914e-06   3.09998343333133e-07   1.4218993222396084e-06
-1.1362856191152647e-06   2.3683291027876802e-07   1.4921274428228187e-06
-1.1362856191152647e-06   2.3683291027876802e-07   1.4921274428228187e-06
-1.1362856191152647e-06   2.3683291027876802e-07   1.4921274428228187e-06
-1.1362856191152647e-06   2.3683291027876802e-07   1.4921274428228187e-06
-1.1204883026649156e-06   1.1818656115052182e-07   1.7179994408645115e-06
-1.1204883026649156e-06   1.1818656115052182e-07   1.7179994408645115e-06
-1.1204883026649156e-06   1.1818656115052182e-07   1.7179994408645115e-06
-1.1204883026649156e-06   1.1818656115052182e-07   1.7179994408645115e-06
-1.298148373839848e-06   3.09998343333133e-07   1.5369863915491765e-06
-1.298148373839848e-06   3.09998343333133e-07   1.5369863915491765e-06
-1.298148373839848e-06   3.09998343333133e-07   1.5369863915491765e-06
-1.298148373839848e-06   3.09998343333133e-07   1.5369863915491765e-06
-1.3529805668568488e-06   7.859157257026229e-08   1.858743074172609e-06
-1.3529805668568488e-06   7.859157257026229e-08   1.858743074172609e-06
-1.3529805668568488e-06   7.859157257026229e-08   1.858743074172609e-06
-1.3529805668568488e-06   7.859157257026229e-08   1.858743074172609e-06
-1.277389563004564e-06   2.4637215158648156e-07   1.6320897203423995e-06
-1.277389563004564e-06   2.4637215158648156e-07   1.6320897203423995e-06
-1.277389563004564e-06   2.4637215158648156e-07   1.6320897203423995e-06
-1.277389563004564e-06   2.4637215158648156e-07   1.6320897203423995e-06
-1.2297173307460546e-06   1.9618347235374732e-07   1.5827492074512047e-06
-1.2297173307460546e-06   1.9618347235374732e-07   1.5827492074512047e-06
-1.2297173307460546e-06   1.9618347235374732e-07   1.5827492074512047e-06
-1.2297173307460546e-06   1.9618347235374732e-07   1.5827492074512047e-06
-1.2773895630045657e-06   7.859157257028939e-08   1.7580747267628558e-06
-1.2773895630045657e-06   7.859157257028939e-08   1.7580747267628558e-06
-1.2773895630045657e-06   7.859157257028939e-08   1.7580747267628558e-06
-1.2773895630045657e-06   7.859157257028939e-08   1.7580747267628558e-06
-1.3529805668568488e-06   2.4637215158648156e-07   1.732758067752129e-06
-1.3529805668568488e-06   2.4637215158648156e-07   1.732758067752129e-06
-1.3529805668568488e-06   2.4637215158648156e-07   1.732758067752129e-06
-1.3529805668568488e-06   2.4637215158648156e-07   1.732758067752129e-06
-1.3916012873680854e-06   -2.5537152910436005e-09   1.9862700649740775e-06
-1.3916012873680854e-06   -2.5537152910436005e-09   1.9862700649740775e-06
-1.3916012873680854e-06   -2.5537152910436005e-09   1.9862700649740775e-06
-1.3916012873680854e-06   -2.5537152910436005e-09   1.9862700649740775e-06
-1.4459437733371169e-06   9.149520375279668e-08   2.0204115234961247e-06
-1.4459437733371169e-06   9.149520375279668e-08   2.0204115234961247e-06
-1.4459437733371169e-06   9.149520375279668e-08   2.0204115234961247e-06
-1.4459437733371169e-06   9.149520375279668e-08   2.0204115234961247e-06
-1.3063412554322375e-06   1.499756833874509e-07   1.7526523725404737e-06
-1.3063412554322375e-06   1.499756833874509e-07   1.7526523725404737e-06
-1.3063412554322375e-06   1.499756833874509e-07   1.7526523725404737e-06
-1.3063412554322375e-06   1.499756833874509e-07   1.7526523725404737e-06
-1.2555977822568518e-06   2.6582075988025155e-07   3.280708425820782e-06
-1.2555977822568518e-06   2.6582075988025155e-07   3.280708425820782e-06
-1.2555977822568518e-06   2.6582075988025155e-07   3.280708425820782e-06
-1.2555977822568518e-06   2.6582075988025155e-07   3.280708425820782e-06
-1.3975306941037644e-06   1.070485364414853e-07   2.948890238679323e-06
-1.3975306941037644e-06   1.070485364414853e-07   2.948890238679323e-06
-1.3975306941037644e-06   1.070485364414853e-07   2.948890238679323e-06
-1.3975306941037644e-06   1.070485364414853e-07   2.948890238679323e-06
-1.416196438392294e-06   1.8113398490883785e-07   3.153630035712893e-06
-1.416196438392294e-06   1.8113398490883785e-07   3.153630035712893e-06
-1.416196438392294e-06   1.8113398490883785e-07   3.153630035712893e-06
-1.416196438392294e-06   1.8113398490883785e-07   3.153630035712893e-06
-1.298148373839848e-06   4.567781970826984e-08   3.0381569605791543e-06
-1.298148373839848e-06   4.567781970826984e-08   3.0381569605791543e-06
-1.298148373839848e-06   4.567781970826984e-08   3.0381569605791543e-06
-1.298148373839848e-06   4.567781970826984e-08   3.0381569605791543e-06
-1.340496801528132e-06   1.3035563398116734e-07   3.057930984829218e-06
-1.340496801528132e-06   1.3035563398116734e-07   3.057930984829218e-06
-1.340496801528132e-06   1.3035563398116734e-07   3.057930984829218e-06
-1.340496801528132e-06   1.3035563398116734e-07   3.057930984829218e-06
-1.2981483738398496e-06   1.8113398490883785e-07   3.2349037348332013e-06
-1.2981483738398496e-06   1.8113398490883785e-07   3.2349037348332013e-06
-1.2981483738398496e-06   1.8113398490883785e-07   3.2349037348332013e-06
-1.2981483738398496e-06   1.8113398490883785e-07   3.2349037348332013e-06
-1.416196438392294e-06   4.567781970826984e-08   2.9568832614588087e-06
-1.416196438392294e-06   4.567781970826984e-08   2.9568832614588087e-06
-1.416196438392294e-06   4.567781970826984e-08   2.9568832614588087e-06
-1.416196438392294e-06   4.567781970826984e-08   2.9568832614588087e-06
-1.4382492809852299e-06   1.0559483330834169e-07   3.1815932080537054e-06
-1.4382492809852299e-06   1.0559483330834169e-07   3.1815932080537054e-06
-1.4382492809852299e-06   1.0559483330834169e-07   3.1815932080537054e-06
-1.4382492809852299e-06   1.0559483330834169e-07   3.1815932080537054e-06
-1.3529805668568488e-06   -2.0358621126613193e-08   3.1150507571673695e-06
-1.3529805668568488e-06   -2.0358621126613193e-08   3.1150507571673695e-06
-1.3529805668568488e-06   -2.0358621126613193e-08   3.1150507571673695e-06
-1.3529805668568488e-06   -2.0358621126613193e-08   3.1150507571673695e-06
-1.3622002288328302e-06   8.227619629314845e-08   3.0688359700088557e-06
-1.3622002288328302e-06   8.227619629314845e-08   3.0688359700088557e-06
-1.3622002288328302e-06   8.227619629314845e-08   3.0688359700088557e-06
-1.3622002288328302e-06   8.227619629314845e-08   3.0688359700088557e-06
-1.3529805668568488e-06   1.0559483330836879e-07   3.257165280714651e-06
-1.3529805668568488e-06   1.0559483330836879e-07   3.257165280714651e-06
-1.3529805668568488e-06   1.0559483330836879e-07   3.257165280714651e-06
-1.3529805668568488e-06   1.0559483330836879e-07   3.257165280714651e-06
-1.4382492809852265e-06   -2.0358621126613193e-08   3.039478684506383e-06
-1.4382492809852265e-06   -2.0358621126613193e-08   3.039478684506383e-06
-1.4382492809852265e-06   -2.0358621126613193e-08   3.039478684506383e-06
-1.4382492809852265e-06   -2.0358621126613193e-08   3.039478684506383e-06
-1.4574212315906033e-06   2.6554945930221986e-08   3.2581472122687982e-06
-1.4574212315906033e-06   2.6554945930221986e-08   3.2581472122687982e-06
-1.4574212315906033e-06   2.6554945930221986e-08   3.2581472122687982e-06
-1.4574212315906033e-06   2.6554945930221986e-08   3.2581472122687982e-06
-1.3916012873680829e-06   -1.0398135524298114e-07   3.2267690859351665e-06
-1.3916012873680829e-06   -1.0398135524298114e-07   3.2267690859351665e-06
-1.3916012873680829e-06   -1.0398135524298114e-07   3.2267690859351665e-06
-1.3916012873680829e-06   -1.0398135524298114e-07   3.2267690859351665e-06
-1.3915137130326589e-06   2.8873204272432526e-08   3.146910393000146e-06
-1.3915137130326589e-06   2.8873204272432526e-08   3.146910393000146e-06
-1.3915137130326589e-06   2.8873204272432526e-08   3.146910393000146e-06
-1.3915137130326589e-06   2.8873204272432526e-08   3.146910393000146e-06
-1.3975306941037678e-06   3.36187231459264e-07   3.6123033401464503e-06
-1.3975306941037678e-06   3.36187231459264e-07   3.6123033401464503e-06
-1.3975306941037678e-06   3.36187231459264e-07   3.6123033401464503e-06
-1.3975306941037678e-06   3.36187231459264e-07   3.6123033401464503e-06
-1.6057230383093488e-06   3.247732152834729e-08   3.0830901538452562e-06
-1.6057230383093488e-06   3.247732152834729e-08   3.0830901538452562e-06
-1.6057230383093488e-06   3.247732152834729e-08   3.0830901538452562e-06
-1.6057230383093488e-06   3.247732152834729e-08   3.0830901538452562e-06
-1.6174573529021202e-06   2.5979648341327975e-07   3.4285188035323966e-06
-1.6174573529021202e-06   2.5979648341327975e-07   3.4285188035323966e-06
-1.6174573529021202e-06   2.5979648341327975e-07   3.4285188035323966e-06
-1.6174573529021202e-06   2.5979648341327975e-07   3.4285188035323966e-06
-1.416196438392294e-06   -1.6188254213454745e-08   3.2586747885920704e-06
-1.416196438392294e-06   -1.6188254213454745e-08   3.2586747885920704e-06
-1.416196438392294e-06   -1.6188254213454745e-08   3.2586747885920704e-06
-1.416196438392294e-06   -1.6188254213454745e-08   3.2586747885920704e-06
-1.5080073061045076e-06   1.462638619289375e-07   3.314221631760337e-06
-1.5080073061045076e-06   1.462638619289375e-07   3.314221631760337e-06
-1.5080073061045076e-06   1.462638619289375e-07   3.314221631760337e-06
-1.5080073061045076e-06   1.462638619289375e-07   3.314221631760337e-06
-1.416196438392294e-06   2.5979648341327975e-07   3.5941096461084427e-06
-1.416196438392294e-06   2.5979648341327975e-07   3.5941096461084427e-06
-1.416196438392294e-06   2.5979648341327975e-07   3.5941096461084427e-06
-1.416196438392294e-06   2.5979648341327975e-07   3.5941096461084427e-06
-1.6174573529021202e-06   -1.6188254213454745e-08   3.0930839460160242e-06
-1.6174573529021202e-06   -1.6188254213454745e-08   3.0930839460160242e-06
-1.6174573529021202e-06   -1.6188254213454745e-08   3.0930839460160242e-06
-1.6174573529021202e-06   -1.6188254213454745e-08   3.0930839460160242e-06
-1.6324883906960972e-06   1.823748075984973e-07   3.4741730283278997e-06
-1.6324883906960972e-06   1.823748075984973e-07   3.4741730283278997e-06
-1.6324883906960972e-06   1.823748075984973e-07   3.4741730283278997e-06
-1.6324883906960972e-06   1.823748075984973e-07   3.4741730283278997e-06
-1.4382492809852265e-06   -7.422398807491355e-08   3.3044004562138106e-06
-1.4382492809852265e-06   -7.422398807491355e-08   3.3044004562138106e-06
-1.4382492809852265e-06   -7.422398807491355e-08   3.3044004562138106e-06
-1.4382492809852265e-06   -7.422398807491355e-08   3.3044004562138106e-06
-1.5165259697796916e-06   9.942611745402579e-08   3.330671540887226e-06
-1.5165259697796916e-06   9.942611745402579e-08   3.330671540887226e-06
-1.5165259697796916e-06   9.942611745402579e-08   3.330671540887226e-06
-1.5165259697796916e-06   9.942611745402579e-08   3.330671540887226e-06
-1.4382492809852265e-06   1.823748075984702e-07   3.6281323057319083e-06
-1.4382492809852265e-06   1.823748075984702e-07   3.6281323057319083e-06
-1.4382492809852265e-06   1.823748075984702e-07   3.6281323057319083e-06
-1.4382492809852265e-06   1.823748075984702e-07   3.6281323057319083e-06
-1.6324883906960972e-06   -7.422398807491355e-08   3.150441178809775e-06
-1.6324883906960972e-06   -7.422398807491355e-08   3.150441178809775e-06
-1.6324883906960972e-06   -7.422398807491355e-08   3.150441178809775e-06
-1.6324883906960972e-06   -7.422398807491355e-08   3.150441178809775e-06
-1.6452554892577495e-06   1.1002080814654421e-07   3.560623363871792e-06
-1.6452554892577495e-06   1.1002080814654421e-07   3.560623363871792e-06
-1.6452554892577495e-06   1.1002080814654421e-07   3.560623363871792e-06
-1.6452554892577495e-06   1.1002080814654421e-07   3.560623363871792e-06
-1.4574212315906e-06   -1.3050949503032642e-07   3.39188444966598e-06
-1.4574212315906e-06   -1.3050949503032642e-07   3.39188444966598e-06
-1.4574212315906e-06   -1.3050949503032642e-07   3.39188444966598e-06
-1.4574212315906e-06   -1.3050949503032642e-07   3.39188444966598e-06
-1.5279886281811603e-06   5.1707698154733906e-08   3.400166461405791e-06
-1.5279886281811603e-06   5.1707698154733906e-08   3.400166461405791e-06
-1.5279886281811603e-06   5.1707698154733906e-08   3.400166461405791e-06
-1.5279886281811603e-06   5.1707698154733906e-08   3.400166461405791e-06
-1.6057230383093488e-06   4.6578500240799657e-07   2.9739656598408274e-06
-1.6057230383093488e-06   4.6578500240799657e-07   2.9739656598408274e-06
-1.6057230383093488e-06   4.6578500240799657e-07   2.9739656598408274e-06
-1.6057230383093488e-06   4.6578500240799657e-07   2.9739656598408274e-06
-1.8623747157809839e-06   1.5839913728998573e-07   2.3617813449839796e-06
-1.8623747157809839e-06   1.5839913728998573e-07   2.3617813449839796e-06
-1.8623747157809839e-06   1.5839913728998573e-07   2.3617813449839796e-06
-1.8623747157809839e-06   1.5839913728998573e-07   2.3617813449839796e-06
-1.873627901813701e-06   3.8566961496554436e-07   2.8126001451480003e-06
-1.873627901813701e-06   3.8566961496554436e-07   2.8126001451480003e-06
-1.873627901813701e-06   3.8566961496554436e-07   2.8126001451480003e-06
-1.873627901813701e-06   3.8566961496554436e-07   2.8126001451480003e-06
-1.6174573529021202e-06   9.319937414844408e-08   2.561131374785621e-06
-1.6174573529021202e-06   9.319937414844408e-08   2.561131374785621e-06
-1.6174573529021202e-06   9.319937414844408e-08   2.561131374785621e-06
-1.6174573529021202e-06   9.319937414844408e-08   2.561131374785621e-06
-1.735486186527218e-06   2.79619147736324e-07   2.6459942333413936e-06
-1.735486186527218e-06   2.79619147736324e-07   2.6459942333413936e-06
-1.735486186527218e-06   2.79619147736324e-07   2.6459942333413936e-06
-1.735486186527218e-06   2.79619147736324e-07   2.6459942333413936e-06
-1.6174573529021202e-06   3.8566961496557146e-07   2.988082289638258e-06
-1.6174573529021202e-06   3.8566961496557146e-07   2.988082289638258e-06
-1.6174573529021202e-06   3.8566961496557146e-07   2.988082289638258e-06
-1.6174573529021202e-06   3.8566961496557146e-07   2.988082289638258e-06
-1.8736279018136942e-06   9.319937414844408e-08   2.3856492302953635e-06
-1.8736279018136942e-06   9.319937414844408e-08   2.3856492302953635e-06
-1.8736279018136942e-06   9.319937414844408e-08   2.3856492302953635e-06
-1.8736279018136942e-06   9.319937414844408e-08   2.3856492302953635e-06
-1.900592250744363e-06   3.133469808092059e-07   2.912159614972947e-06
-1.900592250744363e-06   3.133469808092059e-07   2.912159614972947e-06
-1.900592250744363e-06   3.133469808092059e-07   2.912159614972947e-06
-1.900592250744363e-06   3.133469808092059e-07   2.912159614972947e-06
-1.6324883906960972e-06   3.6763126291187564e-08   2.6312701609366608e-06
-1.6324883906960972e-06   3.6763126291187564e-08   2.6312701609366608e-06
-1.6324883906960972e-06   3.6763126291187564e-08   2.6312701609366608e-06
-1.6324883906960972e-06   3.6763126291187564e-08   2.6312701609366608e-06
-1.7378963330837242e-06   2.2754921138987724e-07   2.692478413856837e-06
-1.7378963330837242e-06   2.2754921138987724e-07   2.692478413856837e-06
-1.7378963330837242e-06   2.2754921138987724e-07   2.692478413856837e-06
-1.7378963330837242e-06   2.2754921138987724e-07   2.692478413856837e-06
-1.632488390696104e-06   3.133469808092059e-07   3.0781099276837092e-06
-1.632488390696104e-06   3.133469808092059e-07   3.0781099276837092e-06
-1.632488390696104e-06   3.133469808092059e-07   3.0781099276837092e-06
-1.632488390696104e-06   3.133469808092059e-07   3.0781099276837092e-06
-1.900592250744363e-06   3.6763126291187564e-08   2.465319848225858e-06
-1.900592250744363e-06   3.6763126291187564e-08   2.465319848225858e-06
-1.900592250744363e-06   3.6763126291187564e-08   2.465319848225858e-06
-1.900592250744363e-06   3.6763126291187564e-08   2.465319848225858e-06
-1.9189083810415133e-06   2.3855046815137414e-07   3.0341351453209173e-06
-1.9189083810415133e-06   2.3855046815137414e-07   3.0341351453209173e-06
-1.9189083810415133e-06   2.3855046815137414e-07   3.0341351453209173e-06
-1.9189083810415133e-06   2.3855046815137414e-07   3.0341351453209173e-06
-1.6452554892577428e-06   -2.052593450170895e-08   2.733492833939805e-06
-1.6452554892577428e-06   -2.052593450170895e-08   2.733492833939805e-06
-1.6452554892577428e-06   -2.052593450170895e-08   2.733492833939805e-06
-1.6452554892577428e-06   -2.052593450170895e-08   2.733492833939805e-06
-1.754428411822931e-06   1.8021981127263318e-07   2.7950002574170967e-06
-1.754428411822931e-06   1.8021981127263318e-07   2.7950002574170967e-06
-1.754428411822931e-06   1.8021981127263318e-07   2.7950002574170967e-06
-1.754428411822931e-06   1.8021981127263318e-07   2.7950002574170967e-06
-1.8623747157809839e-06   5.699114746798178e-07   1.2027498018095959e-06
-1.8623747157809839e-06   5.699114746798178e-07   1.2027498018095959e-06
-1.8623747157809839e-06   5.699114746798178e-07   1.2027498018095959e-06
-1.8623747157809839e-06   5.699114746798178e-07   1.2027498018095959e-06
-1.9551210777900508e-06   2.747932511631653e-07   8.711015976844879e-07
-1.9551210777900508e-06   2.747932511631653e-07   8.711015976844879e-07
-1.9551210777900508e-06   2.747932511631653e-07   8.711015976844879e-07
-1.9551210777900508e-06   2.747932511631653e-07   8.711015976844879e-07
-2.0562304520256624e-06   5.168957127763495e-07   1.3261552660694044e-06
-2.0562304520256624e-06   5.168957127763495e-07   1.3261552660694044e-06
-2.0562304520256624e-06   5.168957127763495e-07   1.3261552660694044e-06
-2.0562304520256624e-06   5.168957127763495e-07   1.3261552660694044e-06
-1.8736279018136942e-06   2.26913698052637e-07   1.1958068912170414e-06
-1.8736279018136942e-06   2.26913698052637e-07   1.1958068912170414e-06
-1.8736279018136942e-06   2.26913698052637e-07   1.1958068912170414e-06
-1.8736279018136942e-06   2.26913698052637e-07   1.1958068912170414e-06
-1.8728146997541839e-06   4.0599735797477955e-07   1.0870013584978936e-06
-1.8728146997541839e-06   4.0599735797477955e-07   1.0870013584978936e-06
-1.8728146997541839e-06   4.0599735797477955e-07   1.0870013584978936e-06
-1.8728146997541839e-06   4.0599735797477955e-07   1.0870013584978936e-06
-1.8736279018136942e-06   5.168957127763495e-07   1.5001444749036211e-06
-1.8736279018136942e-06   5.168957127763495e-07   1.5001444749036211e-06
-1.8736279018136942e-06   5.168957127763495e-07   1.5001444749036211e-06
-1.8736279018136942e-06   5.168957127763495e-07   1.5001444749036211e-06
-2.056230452025649e-06   2.26913698052637e-07   1.0218176823827908e-06
-2.056230452025649e-06   2.26913698052637e-07   1.0218176823827908e-06
-2.056230452025649e-06   2.26913698052637e-07   1.0218176823827908e-06
-2.056230452025649e-06   2.26913698052637e-07   1.0218176823827908e-06
-2.1441322233302785e-06   4.795222515280003e-07   1.562588088098411e-06
-2.1441322233302785e-06   4.795222515280003e-07   1.562588088098411e-06
-2.1441322233302785e-06   4.795222515280003e-07   1.562588088098411e-06
-2.1441322233302785e-06   4.795222515280003e-07   1.562588088098411e-06
-1.9005922507443562e-06   1.9604375801814686e-07   1.3267752298944325e-06
-1.9005922507443562e-06   1.9604375801814686e-07   1.3267752298944325e-06
-1.9005922507443562e-06   1.9604375801814686e-07   1.3267752298944325e-06
-1.9005922507443562e-06   1.9604375801814686e-07   1.3267752298944325e-06
-1.9478602219897335e-06   3.8074576930832076e-07   1.2947339751960557e-06
-1.9478602219897335e-06   3.8074576930832076e-07   1.2947339751960557e-06
-1.9478602219897335e-06   3.8074576930832076e-07   1.2947339751960557e-06
-1.9478602219897335e-06   3.8074576930832076e-07   1.2947339751960557e-06
-1.9005922507443562e-06   4.795222515280274e-07   1.7326751842042986e-06
-1.9005922507443562e-06   4.795222515280274e-07   1.7326751842042986e-06
-1.9005922507443562e-06   4.795222515280274e-07   1.7326751842042986e-06
-1.9005922507443562e-06   4.795222515280274e-07   1.7326751842042986e-06
-2.144132223330292e-06   1.9604375801814686e-07   1.156688133788538e-06
-2.144132223330292e-06   1.9604375801814686e-07   1.156688133788538e-06
-2.144132223330292e-06   1.9604375801814686e-07   1.156688133788538e-06
-2.144132223330292e-06   1.9604375801814686e-07   1.156688133788538e-06
-2.2678838011310588e-06   3.88950981864176e-07   1.9954539431187956e-06
-2.2678838011310588e-06   3.88950981864176e-07   1.9954539431187956e-06
-2.2678838011310588e-06   3.88950981864176e-07   1.9954539431187956e-06
-2.2678838011310588e-06   3.88950981864176e-07   1.9954539431187956e-06
-1.9189083810415133e-06   1.2888554054018447e-07   1.5698675077639322e-06
-1.9189083810415133e-06   1.2888554054018447e-07   1.5698675077639322e-06
-1.9189083810415133e-06   1.2888554054018447e-07   1.5698675077639322e-06
-1.9189083810415133e-06   1.2888554054018447e-07   1.5698675077639322e-06
-1.9739153038835722e-06   3.4676691008545825e-07   1.5308168907734028e-06
-1.9739153038835722e-06   3.4676691008545825e-07   1.5308168907734028e-06
-1.9739153038835722e-06   3.4676691008545825e-07   1.5308168907734028e-06
-1.9739153038835722e-06   3.4676691008545825e-07   1.5308168907734028e-06
-3.0494691901475316e-06   4.062665710331603e-07   1.545468427257391e-06
-3.0494691901475316e-06   4.062665710331603e-07   1.545468427257391e-06
-3.0494691901475316e-06   4.062665710331603e-07   1.545468427257391e-06
-3.0494691901475316e-06   4.062665710331603e-07   1.545468427257391e-06
-2.1533021313270093e-06   5.509457759125287e-07   3.1258877148858746e-06
-2.1533021313270093e-06   5.509457759125287e-07   3.1258877148858746e-06
-2.1533021313270093e-06   5.509457759125287e-07   3.1258877148858746e-06
-2.1533021313270093e-06   5.509457759125287e-07   3.1258877148858746e-06
-2.1588456592161367e-06   3.09998343333133e-07   1.6669203011646352e-06
-2.1588456592161367e-06   3.09998343333133e-07   1.6669203011646352e-06
-2.1588456592161367e-06   3.09998343333133e-07   1.6669203011646352e-06
-2.1588456592161367e-06   3.09998343333133e-07   1.6669203011646352e-06
-3.4118363124534545e-06   1.7619999223299936e-07   3.835517067220256e-06
-3.4118363124534545e-06   1.7619999223299936e-07   3.835517067220256e-06
-3.4118363124534545e-06   1.7619999223299936e-07   3.835517067220256e-06
-3.4118363124534545e-06   1.7619999223299936e-07   3.835517067220256e-06
-2.5524000013362185e-06   3.1557173170135603e-07   2.3195001716771735e-06
-2.5524000013362185e-06   3.1557173170135603e-07   2.3195001716771735e-06
-2.5524000013362185e-06   3.1557173170135603e-07   2.3195001716771735e-06
-2.5524000013362185e-06   3.1557173170135603e-07   2.3195001716771735e-06
-3.4118363124534605e-06   3.09998343333133e-07   1.7471993118246896e-06
-3.4118363124534605e-06   3.09998343333133e-07   1.7471993118246896e-06
-3.4118363124534605e-06   3.09998343333133e-07   1.7471993118246896e-06
-3.4118363124534605e-06   3.09998343333133e-07   1.7471993118246896e-06
-2.1588456592161324e-06   1.7619999223299936e-07   3.755238056560169e-06
-2.1588456592161324e-06   1.7619999223299936e-07   3.755238056560169e-06
-2.1588456592161324e-06   1.7619999223299936e-07   3.755238056560169e-06
-2.1588456592161324e-06   1.7619999223299936e-07   3.755238056560169e-06
-2.204978593699378e-06   2.4637215158648156e-07   1.8227149033178702e-06
-2.204978593699378e-06   2.4637215158648156e-07   1.8227149033178702e-06
-2.204978593699378e-06   2.4637215158648156e-07   1.8227149033178702e-06
-2.204978593699378e-06   2.4637215158648156e-07   1.8227149033178702e-06
-3.438972012035849e-06   1.0975603067027342e-07   3.961340273095052e-06
-3.438972012035849e-06   1.0975603067027342e-07   3.961340273095052e-06
-3.438972012035849e-06   1.0975603067027342e-07   3.961340273095052e-06
-3.438972012035849e-06   1.0975603067027342e-07   3.961340273095052e-06
-2.7503558154002657e-06   1.798603579369792e-07   2.7715840156756943e-06
-2.7503558154002657e-06   1.798603579369792e-07   2.7715840156756943e-06
-2.7503558154002657e-06   1.798603579369792e-07   2.7715840156756943e-06
-2.7503558154002657e-06   1.798603579369792e-07   2.7715840156756943e-06
-3.4389720120358567e-06   2.4637215158648156e-07   1.9046845758676195e-06
-3.4389720120358567e-06   2.4637215158648156e-07   1.9046845758676195e-06
-3.4389720120358567e-06   2.4637215158648156e-07   1.9046845758676195e-06
-3.4389720120358567e-06   2.4637215158648156e-07   1.9046845758676195e-06
-2.2049785936993746e-06   1.0975603067027342e-07   3.87937060054533e-06
-2.2049785936993746e-06   1.0975603067027342e-07   3.87937060054533e-06
-2.2049785936993746e-06   1.0975603067027342e-07   3.87937060054533e-06
-2.2049785936993746e-06   1.0975603067027342e-07   3.87937060054533e-06
-2.197877686161033e-06   9.149520375279668e-08   2.0919767232936994e-06
-2.197877686161033e-06   9.149520375279668e-08   2.0919767232936994e-06
-2.197877686161033e-06   9.149520375279668e-08   2.0919767232936994e-06
-2.197877686161033e-06   9.149520375279668e-08   2.0919767232936994e-06
-3.5022839333579777e-06   -1.826631361685825e-07   4.43048213924142e-06
-3.5022839333579777e-06   -1.826631361685825e-07   4.43048213924142e-06
-3.5022839333579777e-06   -1.826631361685825e-07   4.43048213924142e-06
-3.5022839333579777e-06   -1.826631361685825e-07   4.43048213924142e-06
-2.7253039344336996e-06   6.63412597893165e-08   2.9861128367928953e-06
-2.7253039344336996e-06   6.63412597893165e-08   2.9861128367928953e-06
-2.7253039344336996e-06   6.63412597893165e-08   2.9861128367928953e-06
-2.7253039344336996e-06   6.63412597893165e-08   2.9861128367928953e-06
-2.1533021313270136e-06   1.070485364414853e-07   3.281495488888117e-06
-2.1533021313270136e-06   1.070485364414853e-07   3.281495488888117e-06
-2.1533021313270136e-06   1.070485364414853e-07   3.281495488888117e-06
-2.1533021313270136e-06   1.070485364414853e-07   3.281495488888117e-06
-1.366694117435411e-06   -7.732582474600453e-07   4.064324775033202e-06
-1.366694117435411e-06   -7.732582474600453e-07   4.064324775033202e-06
-1.366694117435411e-06   -7.732582474600453e-07   4.064324775033202e-06
-1.366694117435411e-06   -7.732582474600453e-07   4.064324775033202e-06
-1.3801405406368712e-06   4.567781970826984e-08   2.751815854581187e-06
-1.3801405406368712e-06   4.567781970826984e-08   2.751815854581187e-06
-1.3801405406368712e-06   4.567781970826984e-08   2.751815854581187e-06
-1.3801405406368712e-06   4.567781970826984e-08   2.751815854581187e-06
-2.1588456592161324e-06   -6.481138729807584e-07   4.465932734493382e-06
-2.1588456592161324e-06   -6.481138729807584e-07   4.465932734493382e-06
-2.1588456592161324e-06   -6.481138729807584e-07   4.465932734493382e-06
-2.1588456592161324e-06   -6.481138729807584e-07   4.465932734493382e-06
-1.759378603538264e-06   -3.854329961910978e-07   3.6425457822898052e-06
-1.759378603538264e-06   -3.854329961910978e-07   3.6425457822898052e-06
-1.759378603538264e-06   -3.854329961910978e-07   3.6425457822898052e-06
-1.759378603538264e-06   -3.854329961910978e-07   3.6425457822898052e-06
-2.158845659216134e-06   4.567781970826984e-08   3.168090870194562e-06
-2.158845659216134e-06   4.567781970826984e-08   3.168090870194562e-06
-2.158845659216134e-06   4.567781970826984e-08   3.168090870194562e-06
-2.158845659216134e-06   4.567781970826984e-08   3.168090870194562e-06
-1.3801405406368678e-06   -6.481138729807584e-07   4.049657718879964e-06
-1.3801405406368678e-06   -6.481138729807584e-07   4.049657718879964e-06
-1.3801405406368678e-06   -6.481138729807584e-07   4.049657718879964e-06
-1.3801405406368678e-06   -6.481138729807584e-07   4.049657718879964e-06
-1.4007746259543503e-06   -2.0358621126613193e-08   2.8225440310163298e-06
-1.4007746259543503e-06   -2.0358621126613193e-08   2.8225440310163298e-06
-1.4007746259543503e-06   -2.0358621126613193e-08   2.8225440310163298e-06
-1.4007746259543503e-06   -2.0358621126613193e-08   2.8225440310163298e-06
-2.2049785936993746e-06   -6.577978906545791e-07   4.545347538974815e-06
-2.2049785936993746e-06   -6.577978906545791e-07   4.545347538974815e-06
-2.2049785936993746e-06   -6.577978906545791e-07   4.545347538974815e-06
-2.2049785936993746e-06   -6.577978906545791e-07   4.545347538974815e-06
-1.7574218687935022e-06   -3.3748574944589553e-07   3.6072323794064867e-06
-1.7574218687935022e-06   -3.3748574944589553e-07   3.6072323794064867e-06
-1.7574218687935022e-06   -3.3748574944589553e-07   3.6072323794064867e-06
-1.7574218687935022e-06   -3.3748574944589553e-07   3.6072323794064867e-06
-2.204978593699378e-06   -2.0358621126613193e-08   3.205007592733124e-06
-2.204978593699378e-06   -2.0358621126613193e-08   3.205007592733124e-06
-2.204978593699378e-06   -2.0358621126613193e-08   3.205007592733124e-06
-2.204978593699378e-06   -2.0358621126613193e-08   3.205007592733124e-06
-1.4007746259543503e-06   -6.577978906545791e-07   4.162883977258036e-06
-1.4007746259543503e-06   -6.577978906545791e-07   4.162883977258036e-06
-1.4007746259543503e-06   -6.577978906545791e-07   4.162883977258036e-06
-1.4007746259543503e-06   -6.577978906545791e-07   4.162883977258036e-06
-1.4053522612612382e-06   -1.0398135524298114e-07   2.914444174604506e-06
-1.4053522612612382e-06   -1.0398135524298114e-07   2.914444174604506e-06
-1.4053522612612382e-06   -1.0398135524298114e-07   2.914444174604506e-06
-1.4053522612612382e-06   -1.0398135524298114e-07   2.914444174604506e-06
-2.1978776861610272e-06   -6.497492880795397e-07   4.562780642472739e-06
-2.1978776861610272e-06   -6.497492880795397e-07   4.562780642472739e-06
-2.1978776861610272e-06   -6.497492880795397e-07   4.562780642472739e-06
-2.1978776861610272e-06   -6.497492880795397e-07   4.562780642472739e-06
-1.7817538563363101e-06   -3.6933831202530857e-07   3.70099434046568e-06
-1.7817538563363101e-06   -3.6933831202530857e-07   3.70099434046568e-06
-1.7817538563363101e-06   -3.6933831202530857e-07   3.70099434046568e-06
-1.7817538563363101e-06   -3.6933831202530857e-07   3.70099434046568e-06
-1.366694117435411e-06   3.247732152834729e-08   3.069737279671668e-06
-1.366694117435411e-06   3.247732152834729e-08   3.069737279671668e-06
-1.366694117435411e-06   3.247732152834729e-08   3.069737279671668e-06
-1.366694117435411e-06   3.247732152834729e-08   3.069737279671668e-06
-1.0596825444735748e-06   -6.05707565422972e-07   3.1985123024372637e-06
-1.0596825444735748e-06   -6.05707565422972e-07   3.1985123024372637e-06
-1.0596825444735748e-06   -6.05707565422972e-07   3.1985123024372637e-06
-1.0596825444735748e-06   -6.05707565422972e-07   3.1985123024372637e-06
-1.062396344118398e-06   -1.6188254213454745e-08   2.7063533982804447e-06
-1.062396344118398e-06   -1.6188254213454745e-08   2.7063533982804447e-06
-1.062396344118398e-06   -1.6188254213454745e-08   2.7063533982804447e-06
-1.062396344118398e-06   -1.6188254213454745e-08   2.7063533982804447e-06
-1.3801405406368678e-06   -5.949448932701079e-07   3.5831810425785687e-06
-1.3801405406368678e-06   -5.949448932701079e-07   3.5831810425785687e-06
-1.3801405406368678e-06   -5.949448932701079e-07   3.5831810425785687e-06
-1.3801405406368678e-06   -5.949448932701079e-07   3.5831810425785687e-06
-1.211592798530594e-06   -3.0287656818610395e-07   3.1270271440176912e-06
-1.211592798530594e-06   -3.0287656818610395e-07   3.1270271440176912e-06
-1.211592798530594e-06   -3.0287656818610395e-07   3.1270271440176912e-06
-1.211592798530594e-06   -3.0287656818610395e-07   3.1270271440176912e-06
-1.3801405406368678e-06   -1.6188254213454745e-08   3.0536073817144285e-06
-1.3801405406368678e-06   -1.6188254213454745e-08   3.0536073817144285e-06
-1.3801405406368678e-06   -1.6188254213454745e-08   3.0536073817144285e-06
-1.3801405406368678e-06   -1.6188254213454745e-08   3.0536073817144285e-06
-1.062396344118398e-06   -5.949448932701079e-07   3.2359270591445714e-06
-1.062396344118398e-06   -5.949448932701079e-07   3.2359270591445714e-06
-1.062396344118398e-06   -5.949448932701079e-07   3.2359270591445714e-06
-1.062396344118398e-06   -5.949448932701079e-07   3.2359270591445714e-06
-1.0688295287192108e-06   -7.422398807491355e-08   2.765870268362804e-06
-1.0688295287192108e-06   -7.422398807491355e-08   2.765870268362804e-06
-1.0688295287192108e-06   -7.422398807491355e-08   2.765870268362804e-06
-1.0688295287192108e-06   -7.422398807491355e-08   2.765870268362804e-06
-1.4007746259543503e-06   -6.102165453431422e-07   3.6407076314489876e-06
-1.4007746259543503e-06   -6.102165453431422e-07   3.6407076314489876e-06
-1.4007746259543503e-06   -6.102165453431422e-07   3.6407076314489876e-06
-1.4007746259543503e-06   -6.102165453431422e-07   3.6407076314489876e-06
-1.2131576875140575e-06   -3.164519021705116e-07   3.15175394814488e-06
-1.2131576875140575e-06   -3.164519021705116e-07   3.15175394814488e-06
-1.2131576875140575e-06   -3.164519021705116e-07   3.15175394814488e-06
-1.2131576875140575e-06   -3.164519021705116e-07   3.15175394814488e-06
-1.4007746259543503e-06   -7.422398807491355e-08   3.087465802723764e-06
-1.4007746259543503e-06   -7.422398807491355e-08   3.087465802723764e-06
-1.4007746259543503e-06   -7.422398807491355e-08   3.087465802723764e-06
-1.4007746259543503e-06   -7.422398807491355e-08   3.087465802723764e-06
-1.0688295287192108e-06   -6.102165453431422e-07   3.3191120970880477e-06
-1.0688295287192108e-06   -6.102165453431422e-07   3.3191120970880477e-06
-1.0688295287192108e-06   -6.102165453431422e-07   3.3191120970880477e-06
-1.0688295287192108e-06   -6.102165453431422e-07   3.3191120970880477e-06
-1.0649747994528024e-06   -1.3050949503031286e-07   2.8599155248429023e-06
-1.0649747994528024e-06   -1.3050949503031286e-07   2.8599155248429023e-06
-1.0649747994528024e-06   -1.3050949503031286e-07   2.8599155248429023e-06
-1.0649747994528024e-06   -1.3050949503031286e-07   2.8599155248429023e-06
-1.4053522612612382e-06   -6.271191520242314e-07   3.725177088719952e-06
-1.4053522612612382e-06   -6.271191520242314e-07   3.725177088719952e-06
-1.4053522612612382e-06   -6.271191520242314e-07   3.725177088719952e-06
-1.4053522612612382e-06   -6.271191520242314e-07   3.725177088719952e-06
-1.2159085297413914e-06   -3.391202591260874e-07   3.2366382004479815e-06
-1.2159085297413914e-06   -3.391202591260874e-07   3.2366382004479815e-06
-1.2159085297413914e-06   -3.391202591260874e-07   3.2366382004479815e-06
-1.2159085297413914e-06   -3.391202591260874e-07   3.2366382004479815e-06
-1.0596825444735748e-06   1.5839913728998573e-07   2.1499490577104132e-06
-1.0596825444735748e-06   1.5839913728998573e-07   2.1499490577104132e-06
-1.0596825444735748e-06   1.5839913728998573e-07   2.1499490577104132e-06
-1.0596825444735748e-06   1.5839913728998573e-07   2.1499490577104132e-06
-9.47255924310596e-07   -2.540128495251087e-07   2.0898795658929925e-06
-9.47255924310596e-07   -2.540128495251087e-07   2.0898795658929925e-06
-9.47255924310596e-07   -2.540128495251087e-07   2.0898795658929925e-06
-9.47255924310596e-07   -2.540128495251087e-07   2.0898795658929925e-06
-9.409332626150911e-07   9.319937414844408e-08   1.9431458849856152e-06
-9.409332626150911e-07   9.319937414844408e-08   1.9431458849856152e-06
-9.409332626150911e-07   9.319937414844408e-08   1.9431458849856152e-06
-9.409332626150911e-07   9.319937414844408e-08   1.9431458849856152e-06
-1.062396344118398e-06   -2.9222552929230016e-07   2.376839296222242e-06
-1.062396344118398e-06   -2.9222552929230016e-07   2.376839296222242e-06
-1.062396344118398e-06   -2.9222552929230016e-07   2.376839296222242e-06
-1.062396344118398e-06   -2.9222552929230016e-07   2.376839296222242e-06
-9.95878055729999e-07   -5.8841854369044385e-08   2.125945277287622e-06
-9.95878055729999e-07   -5.8841854369044385e-08   2.125945277287622e-06
-9.95878055729999e-07   -5.8841854369044385e-08   2.125945277287622e-06
-9.95878055729999e-07   -5.8841854369044385e-08   2.125945277287622e-06
-1.062396344118398e-06   9.319937414844408e-08   2.174400827050028e-06
-1.062396344118398e-06   9.319937414844408e-08   2.174400827050028e-06
-1.062396344118398e-06   9.319937414844408e-08   2.174400827050028e-06
-1.062396344118398e-06   9.319937414844408e-08   2.174400827050028e-06
-9.409332626150911e-07   -2.922255292922934e-07   2.1455843541578023e-06
-9.409332626150911e-07   -2.922255292922934e-07   2.1455843541578023e-06
-9.409332626150911e-07   -2.922255292922934e-07   2.1455843541578023e-06
-9.409332626150911e-07   -2.922255292922934e-07   2.1455843541578023e-06
-9.462223443877481e-07   3.6763126291187564e-08   2.031131715541897e-06
-9.462223443877481e-07   3.6763126291187564e-08   2.031131715541897e-06
-9.462223443877481e-07   3.6763126291187564e-08   2.031131715541897e-06
-9.462223443877481e-07   3.6763126291187564e-08   2.031131715541897e-06
-1.0688295287192108e-06   -3.2251609862183445e-07   2.4510445577087943e-06
-1.0688295287192108e-06   -3.2251609862183445e-07   2.4510445577087943e-06
-1.0688295287192108e-06   -3.2251609862183445e-07   2.4510445577087943e-06
-1.0688295287192108e-06   -3.2251609862183445e-07   2.4510445577087943e-06
-9.891475310819048e-07   -9.652582373469946e-08   2.1826470633809584e-06
-9.891475310819048e-07   -9.652582373469946e-08   2.1826470633809584e-06
-9.891475310819048e-07   -9.652582373469946e-08   2.1826470633809584e-06
-9.891475310819048e-07   -9.652582373469946e-08   2.1826470633809584e-06
-1.068829528719204e-06   3.6763126291187564e-08   2.2466992504896965e-06
-1.068829528719204e-06   3.6763126291187564e-08   2.2466992504896965e-06
-1.068829528719204e-06   3.6763126291187564e-08   2.2466992504896965e-06
-1.068829528719204e-06   3.6763126291187564e-08   2.2466992504896965e-06
-9.462223443877481e-07   -3.2251609862183445e-07   2.2354770227609946e-06
-9.462223443877481e-07   -3.2251609862183445e-07   2.2354770227609946e-06
-9.462223443877481e-07   -3.2251609862183445e-07   2.2354770227609946e-06
-9.462223443877481e-07   -3.2251609862183445e-07   2.2354770227609946e-06
-9.460574559222703e-07   -2.0525934501722503e-08   2.141583044898757e-06
-9.460574559222703e-07   -2.0525934501722503e-08   2.141583044898757e-06
-9.460574559222703e-07   -2.0525934501722503e-08   2.141583044898757e-06
-9.460574559222703e-07   -2.0525934501722503e-08   2.141583044898757e-06
-1.0649747994528024e-06   -3.6095767804184556e-07   2.5440376635736976e-06
-1.0649747994528024e-06   -3.6095767804184556e-07   2.5440376635736976e-06
-1.0649747994528024e-06   -3.6095767804184556e-07   2.5440376635736976e-06
-1.0649747994528024e-06   -3.6095767804184556e-07   2.5440376635736976e-06
-9.889480341426187e-07   -1.3085451481468884e-07   2.279264490120489e-06
-9.889480341426187e-07   -1.3085451481468884e-07   2.279264490120489e-06
-9.889480341426187e-07   -1.3085451481468884e-07   2.279264490120489e-06
-9.889480341426187e-07   -1.3085451481468884e-07   2.279264490120489e-06
-9.472559243105892e-07   2.7479325116315176e-07   5.888930524318659e-07
-9.472559243105892e-07   2.7479325116315176e-07   5.888930524318659e-07
-9.472559243105892e-07   2.7479325116315176e-07   5.888930524318659e-07
-9.472559243105892e-07   2.7479325116315176e-07   5.888930524318659e-07
-6.464971455905435e-07   -1.9559864899498043e-08   9.135458139943395e-07
-6.464971455905435e-07   -1.9559864899498043e-08   9.135458139943395e-07
-6.464971455905435e-07   -1.9559864899498043e-08   9.135458139943395e-07
-6.464971455905435e-07   -1.9559864899498043e-08   9.135458139943395e-07
-6.942281648148179e-07   2.26913698052637e-07   5.985655747199614e-07
-6.942281648148179e-07   2.26913698052637e-07   5.985655747199614e-07
-6.942281648148179e-07   2.26913698052637e-07   5.985655747199614e-07
-6.942281648148179e-07   2.26913698052637e-07   5.985655747199614e-07
-9.409332626150911e-07   -3.0982920592924844e-08   1.1644787089077778e-06
-9.409332626150911e-07   -3.0982920592924844e-08   1.1644787089077778e-06
-9.409332626150911e-07   -3.0982920592924844e-08   1.1644787089077778e-06
-9.409332626150911e-07   -3.0982920592924844e-08   1.1644787089077778e-06
-7.791822545150184e-07   1.4347004860441155e-07   7.902219138892396e-07
-7.791822545150184e-07   1.4347004860441155e-07   7.902219138892396e-07
-7.791822545150184e-07   1.4347004860441155e-07   7.902219138892396e-07
-7.791822545150184e-07   1.4347004860441155e-07   7.902219138892396e-07
-9.409332626150843e-07   2.26913698052637e-07   7.533035459072524e-07
-9.409332626150843e-07   2.26913698052637e-07   7.533035459072524e-07
-9.409332626150843e-07   2.26913698052637e-07   7.533035459072524e-07
-9.409332626150843e-07   2.26913698052637e-07   7.533035459072524e-07
-6.942281648148179e-07   -3.098292059293162e-08   1.0097407377204258e-06
-6.942281648148179e-07   -3.098292059293162e-08   1.0097407377204258e-06
-6.942281648148179e-07   -3.098292059293162e-08   1.0097407377204258e-06
-6.942281648148179e-07   -3.098292059293162e-08   1.0097407377204258e-06
-7.352168267525964e-07   1.9604375801814686e-07   7.478325440981942e-07
-7.352168267525964e-07   1.9604375801814686e-07   7.478325440981942e-07
-7.352168267525964e-07   1.9604375801814686e-07   7.478325440981942e-07
-7.352168267525964e-07   1.9604375801814686e-07   7.478325440981942e-07
-9.462223443877481e-07   -4.521383050229942e-08   1.2442629599357174e-06
-9.462223443877481e-07   -4.521383050229942e-08   1.2442629599357174e-06
-9.462223443877481e-07   -4.521383050229942e-08   1.2442629599357174e-06
-9.462223443877481e-07   -4.521383050229942e-08   1.2442629599357174e-06
-8.075239152885815e-07   1.2205531154101546e-07   9.127374262111126e-07
-8.075239152885815e-07   1.2205531154101546e-07   9.127374262111126e-07
-8.075239152885815e-07   1.2205531154101546e-07   9.127374262111126e-07
-8.075239152885815e-07   1.2205531154101546e-07   9.127374262111126e-07
-9.462223443877481e-07   1.9604375801814686e-07   8.925870972105053e-07
-9.462223443877481e-07   1.9604375801814686e-07   8.925870972105053e-07
-9.462223443877481e-07   1.9604375801814686e-07   8.925870972105053e-07
-9.462223443877481e-07   1.9604375801814686e-07   8.925870972105053e-07
-7.352168267525964e-07   -4.521383050229942e-08   1.0995084068234401e-06
-7.352168267525964e-07   -4.521383050229942e-08   1.0995084068234401e-06
-7.352168267525964e-07   -4.521383050229942e-08   1.0995084068234401e-06
-7.352168267525964e-07   -4.521383050229942e-08   1.0995084068234401e-06
-8.120417596722227e-07   1.2888554054018447e-07   1.0160728022604276e-06
-8.120417596722227e-07   1.2888554054018447e-07   1.0160728022604276e-06
-8.120417596722227e-07   1.2888554054018447e-07   1.0160728022604276e-06
-8.120417596722227e-07   1.2888554054018447e-07   1.0160728022604276e-06
-9.460574559222703e-07   -6.66657228836956e-08   1.3567630540648043e-06
-9.460574559222703e-07   -6.66657228836956e-08   1.3567630540648043e-06
-9.460574559222703e-07   -6.66657228836956e-08   1.3567630540648043e-06
-9.460574559222703e-07   -6.66657228836956e-08   1.3567630540648043e-06
-8.21527053727655e-07   1.0535551931431866e-07   1.045999638421655e-06
-8.21527053727655e-07   1.0535551931431866e-07   1.045999638421655e-06
-8.21527053727655e-07   1.0535551931431866e-07   1.045999638421655e-06
-8.21527053727655e-07   1.0535551931431866e-07   1.045999638421655e-06
-7.67026312231806e-06   5.509457759125287e-07   3.904831378358662e-06
-7.67026312231806e-06   5.509457759125287e-07   3.904831378358662e-06
-7.67026312231806e-06   5.509457759125287e-07   3.904831378358662e-06
-7.67026312231806e-06   5.509457759125287e-07   3.904831378358662e-06
-1.7320174687932878e-06   -4.5056375457548205e-06   1.0767957474566209e-05
-1.7320174687932878e-06   -4.5056375457548205e-06   1.0767957474566209e-05
-1.7320174687932878e-06   -4.5056375457548205e-06   1.0767957474566209e-05
-1.7320174687932878e-06   -4.5056375457548205e-06   1.0767957474566209e-05
-2.081644410832756e-06   1.7619999223299936e-07   2.0813495860417748e-06
-2.081644410832756e-06   1.7619999223299936e-07   2.0813495860417748e-06
-2.081644410832756e-06   1.7619999223299936e-07   2.0813495860417748e-06
-2.081644410832756e-06   1.7619999223299936e-07   2.0813495860417748e-06
-6.996000795832826e-06   -3.6164232013905012e-06   1.2547517477215975e-05
-6.996000795832826e-06   -3.6164232013905012e-06   1.2547517477215975e-05
-6.996000795832826e-06   -3.6164232013905012e-06   1.2547517477215975e-05
-6.996000795832826e-06   -3.6164232013905012e-06   1.2547517477215975e-05
-4.645784546021383e-06   -1.7953542221747064e-06   7.537849006667423e-06
-4.645784546021383e-06   -1.7953542221747064e-06   7.537849006667423e-06
-4.645784546021383e-06   -1.7953542221747064e-06   7.537849006667423e-06
-4.645784546021383e-06   -1.7953542221747064e-06   7.537849006667423e-06
-6.996000795832814e-06   1.7619999223299936e-07   4.3569235022158685e-06
-6.996000795832814e-06   1.7619999223299936e-07   4.3569235022158685e-06
-6.996000795832814e-06   1.7619999223299936e-07   4.3569235022158685e-06
-6.996000795832814e-06   1.7619999223299936e-07   4.3569235022158685e-06
-2.0816444108327592e-06   -3.6164232013905012e-06   1.0271943561041875e-05
-2.0816444108327592e-06   -3.6164232013905012e-06   1.0271943561041875e-05
-2.0816444108327592e-06   -3.6164232013905012e-06   1.0271943561041875e-05
-2.0816444108327592e-06   -3.6164232013905012e-06   1.0271943561041875e-05
-2.1530561791227886e-06   1.0975603067027342e-07   2.291539611228187e-06
-2.1530561791227886e-06   1.0975603067027342e-07   2.291539611228187e-06
-2.1530561791227886e-06   1.0975603067027342e-07   2.291539611228187e-06
-2.1530561791227886e-06   1.0975603067027342e-07   2.291539611228187e-06
-6.606286520005069e-06   -3.2032137861834766e-06   1.1701372069477559e-05
-6.606286520005069e-06   -3.2032137861834766e-06   1.1701372069477559e-05
-6.606286520005069e-06   -3.2032137861834766e-06   1.1701372069477559e-05
-6.606286520005069e-06   -3.2032137861834766e-06   1.1701372069477559e-05
-4.52597546725207e-06   -1.7130447316651276e-06   7.340085548844889e-06
-4.52597546725207e-06   -1.7130447316651276e-06   7.340085548844889e-06
-4.52597546725207e-06   -1.7130447316651276e-06   7.340085548844889e-06
-4.52597546725207e-06   -1.7130447316651276e-06   7.340085548844889e-06
-6.606286520005057e-06   1.0975603067027342e-07   4.279321501340433e-06
-6.606286520005057e-06   1.0975603067027342e-07   4.279321501340433e-06
-6.606286520005057e-06   1.0975603067027342e-07   4.279321501340433e-06
-6.606286520005057e-06   1.0975603067027342e-07   4.279321501340433e-06
-2.1530561791227903e-06   -3.2032137861834766e-06   9.713590179365307e-06
-2.1530561791227903e-06   -3.2032137861834766e-06   9.713590179365307e-06
-2.1530561791227903e-06   -3.2032137861834766e-06   9.713590179365307e-06
-2.1530561791227903e-06   -3.2032137861834766e-06   9.713590179365307e-06
-2.408105193065043e-06   -1.826631361685825e-07   2.846789855067154e-06
-2.408105193065043e-06   -1.826631361685825e-07   2.846789855067154e-06
-2.408105193065043e-06   -1.826631361685825e-07   2.846789855067154e-06
-2.408105193065043e-06   -1.826631361685825e-07   2.846789855067154e-06
-6.09858899666211e-06   -2.6446857183588704e-06   1.0474809743709756e-05
-6.09858899666211e-06   -2.6446857183588704e-06   1.0474809743709756e-05
-6.09858899666211e-06   -2.6446857183588704e-06   1.0474809743709756e-05
-6.09858899666211e-06   -2.6446857183588704e-06   1.0474809743709756e-05
-4.378868527440068e-06   -1.586694727685168e-06   6.973814367268804e-06
-4.378868527440068e-06   -1.586694727685168e-06   6.973814367268804e-06
-4.378868527440068e-06   -1.586694727685168e-06   6.973814367268804e-06
-4.378868527440068e-06   -1.586694727685168e-06   6.973814367268804e-06
-1.7320174687932853e-06   -7.732582474600453e-07   2.3375025158464917e-06
-1.7320174687932853e-06   -7.732582474600453e-07   2.3375025158464917e-06
-1.7320174687932853e-06   -7.732582474600453e-07   2.3375025158464917e-06
-1.7320174687932853e-06   -7.732582474600453e-07   2.3375025158464917e-06
-5.825103523578462e-07   -1.6060034474674452e-06   3.7537005899011165e-06
-5.825103523578462e-07   -1.6060034474674452e-06   3.7537005899011165e-06
-5.825103523578462e-07   -1.6060034474674452e-06   3.7537005899011165e-06
-5.825103523578462e-07   -1.6060034474674452e-06   3.7537005899011165e-06
-6.793537423215861e-07   -6.481138729807652e-07   1.9558124130329894e-06
-6.793537423215861e-07   -6.481138729807652e-07   1.9558124130329894e-06
-6.793537423215861e-07   -6.481138729807652e-07   1.9558124130329894e-06
-6.793537423215861e-07   -6.481138729807652e-07   1.9558124130329894e-06
-2.0816444108327592e-06   -2.041833624550764e-06   5.129195378160259e-06
-2.0816444108327592e-06   -2.041833624550764e-06   5.129195378160259e-06
-2.0816444108327592e-06   -2.041833624550764e-06   5.129195378160259e-06
-2.0816444108327592e-06   -2.041833624550764e-06   5.129195378160259e-06
-1.202294320769926e-06   -1.0381813814192048e-06   3.0614205488432573e-06
-1.202294320769926e-06   -1.0381813814192048e-06   3.0614205488432573e-06
-1.202294320769926e-06   -1.0381813814192048e-06   3.0614205488432573e-06
-1.202294320769926e-06   -1.0381813814192048e-06   3.0614205488432573e-06
-2.081644410832754e-06   -6.481138729807652e-07   2.7920442639749585e-06
-2.081644410832754e-06   -6.481138729807652e-07   2.7920442639749585e-06
-2.081644410832754e-06   -6.481138729807652e-07   2.7920442639749585e-06
-2.081644410832754e-06   -6.481138729807652e-07   2.7920442639749585e-06
-6.793537423215861e-07   -2.041833624550764e-06   4.292963527218258e-06
-6.793537423215861e-07   -2.041833624550764e-06   4.292963527218258e-06
-6.793537423215861e-07   -2.041833624550764e-06   4.292963527218258e-06
-6.793537423215861e-07   -2.041833624550764e-06   4.292963527218258e-06
-7.64522918974372e-07   -6.577978906545791e-07   2.2026654706239156e-06
-7.64522918974372e-07   -6.577978906545791e-07   2.2026654706239156e-06
-7.64522918974372e-07   -6.577978906545791e-07   2.2026654706239156e-06
-7.64522918974372e-07   -6.577978906545791e-07   2.2026654706239156e-06
-2.1530561791227903e-06   -1.9158830223775236e-06   5.271738649905027e-06
-2.1530561791227903e-06   -1.9158830223775236e-06   5.271738649905027e-06
-2.1530561791227903e-06   -1.9158830223775236e-06   5.271738649905027e-06
-2.1530561791227903e-06   -1.9158830223775236e-06   5.271738649905027e-06
-1.3879459665289399e-06   -1.2417095939841581e-06   3.592050905212617e-06
-1.3879459665289399e-06   -1.2417095939841581e-06   3.592050905212617e-06
-1.3879459665289399e-06   -1.2417095939841581e-06   3.592050905212617e-06
-1.3879459665289399e-06   -1.2417095939841581e-06   3.592050905212617e-06
-2.1530561791227903e-06   -6.577978906545791e-07   2.9575165496576777e-06
-2.1530561791227903e-06   -6.577978906545791e-07   2.9575165496576777e-06
-2.1530561791227903e-06   -6.577978906545791e-07   2.9575165496576777e-06
-2.1530561791227903e-06   -6.577978906545791e-07   2.9575165496576777e-06
-7.64522918974372e-07   -1.9158830223775236e-06   4.516887570871267e-06
-7.64522918974372e-07   -1.9158830223775236e-06   4.516887570871267e-06
-7.64522918974372e-07   -1.9158830223775236e-06   4.516887570871267e-06
-7.64522918974372e-07   -1.9158830223775236e-06   4.516887570871267e-06
-9.078544617467088e-07   -6.497492880795397e-07   2.4346549172810417e-06
-9.078544617467088e-07   -6.497492880795397e-07   2.4346549172810417e-06
-9.078544617467088e-07   -6.497492880795397e-07   2.4346549172810417e-06
-9.078544617467088e-07   -6.497492880795397e-07   2.4346549172810417e-06
-2.4081051930650466e-06   -1.8312966963633268e-06   5.644001247781852e-06
-2.4081051930650466e-06   -1.8312966963633268e-06   5.644001247781852e-06
-2.4081051930650466e-06   -1.8312966963633268e-06   5.644001247781852e-06
-2.4081051930650466e-06   -1.8312966963633268e-06   5.644001247781852e-06
-1.5128830207133654e-06   -1.1383035600180934e-06   3.7361684120552563e-06
-1.5128830207133654e-06   -1.1383035600180934e-06   3.7361684120552563e-06
-1.5128830207133654e-06   -1.1383035600180934e-06   3.7361684120552563e-06
-1.5128830207133654e-06   -1.1383035600180934e-06   3.7361684120552563e-06
-5.825103523578462e-07   -6.05707565422972e-07   1.3549538554169077e-06
-5.825103523578462e-07   -6.05707565422972e-07   1.3549538554169077e-06
-5.825103523578462e-07   -6.05707565422972e-07   1.3549538554169077e-06
-5.825103523578462e-07   -6.05707565422972e-07   1.3549538554169077e-06
-3.3788025438672255e-07   -5.670278578502893e-07   1.78587850991239e-06
-3.3788025438672255e-07   -5.670278578502893e-07   1.78587850991239e-06
-3.3788025438672255e-07   -5.670278578502893e-07   1.78587850991239e-06
-3.3788025438672255e-07   -5.670278578502893e-07   1.78587850991239e-06
-3.3963990923191077e-07   -5.949448932701147e-07   1.4242913254489044e-06
-3.3963990923191077e-07   -5.949448932701147e-07   1.4242913254489044e-06
-3.3963990923191077e-07   -5.949448932701147e-07   1.4242913254489044e-06
-3.3963990923191077e-07   -5.949448932701147e-07   1.4242913254489044e-06
-6.793537423215861e-07   -7.033522454079033e-07   2.0555254585476922e-06
-6.793537423215861e-07   -7.033522454079033e-07   2.0555254585476922e-06
-6.793537423215861e-07   -7.033522454079033e-07   2.0555254585476922e-06
-6.793537423215861e-07   -7.033522454079033e-07   2.0555254585476922e-06
-4.527563867702495e-07   -5.656526266105382e-07   1.5952434280170228e-06
-4.527563867702495e-07   -5.656526266105382e-07   1.5952434280170228e-06
-4.527563867702495e-07   -5.656526266105382e-07   1.5952434280170228e-06
-4.527563867702495e-07   -5.656526266105382e-07   1.5952434280170228e-06
-6.793537423215861e-07   -5.949448932701079e-07   1.4893357367315835e-06
-6.793537423215861e-07   -5.949448932701079e-07   1.4893357367315835e-06
-6.793537423215861e-07   -5.949448932701079e-07   1.4893357367315835e-06
-6.793537423215861e-07   -5.949448932701079e-07   1.4893357367315835e-06
-3.3963990923191077e-07   -7.033522454079033e-07   1.9904810472650165e-06
-3.3963990923191077e-07   -7.033522454079033e-07   1.9904810472650165e-06
-3.3963990923191077e-07   -7.033522454079033e-07   1.9904810472650165e-06
-3.3963990923191077e-07   -7.033522454079033e-07   1.9904810472650165e-06
-3.55483492524892e-07   -6.10216545343149e-07   1.5328090655683643e-06
-3.55483492524892e-07   -6.10216545343149e-07   1.5328090655683643e-06
-3.55483492524892e-07   -6.10216545343149e-07   1.5328090655683643e-06
-3.55483492524892e-07   -6.10216545343149e-07   1.5328090655683643e-06
-7.64522918974372e-07   -8.563499774206383e-07   2.3622215022306423e-06
-7.64522918974372e-07   -8.563499774206383e-07   2.3622215022306423e-06
-7.64522918974372e-07   -8.563499774206383e-07   2.3622215022306423e-06
-7.64522918974372e-07   -8.563499774206383e-07   2.3622215022306423e-06
-4.989908199009191e-07   -6.175412717268626e-07   1.776382780358623e-06
-4.989908199009191e-07   -6.175412717268626e-07   1.776382780358623e-06
-4.989908199009191e-07   -6.175412717268626e-07   1.776382780358623e-06
-4.989908199009191e-07   -6.175412717268626e-07   1.776382780358623e-06
-7.64522918974372e-07   -6.102165453431422e-07   1.6804891248148637e-06
-7.64522918974372e-07   -6.102165453431422e-07   1.6804891248148637e-06
-7.64522918974372e-07   -6.102165453431422e-07   1.6804891248148637e-06
-7.64522918974372e-07   -6.102165453431422e-07   1.6804891248148637e-06
-3.55483492524892e-07   -8.563499774206383e-07   2.2145414429841463e-06
-3.55483492524892e-07   -8.563499774206383e-07   2.2145414429841463e-06
-3.55483492524892e-07   -8.563499774206383e-07   2.2145414429841463e-06
-3.55483492524892e-07   -8.563499774206383e-07   2.2145414429841463e-06
-3.884566747482866e-07   -6.271191520242382e-07   1.7011123710187023e-06
-3.884566747482866e-07   -6.271191520242382e-07   1.7011123710187023e-06
-3.884566747482866e-07   -6.271191520242382e-07   1.7011123710187023e-06
-3.884566747482866e-07   -6.271191520242382e-07   1.7011123710187023e-06
-9.078544617467088e-07   -9.994520723766765e-07   2.7901751015608673e-06
-9.078544617467088e-07   -9.994520723766765e-07   2.7901751015608673e-06
-9.078544617467088e-07   -9.994520723766765e-07   2.7901751015608673e-06
-9.078544617467088e-07   -9.994520723766765e-07   2.7901751015608673e-06
-5.553074316124912e-07   -6.603217136494749e-07   1.9991185027675207e-06
-5.553074316124912e-07   -6.603217136494749e-07   1.9991185027675207e-06
-5.553074316124912e-07   -6.603217136494749e-07   1.9991185027675207e-06
-5.553074316124912e-07   -6.603217136494749e-07   1.9991185027675207e-06
-3.3788025438672255e-07   -2.540128495251155e-07   5.169761355052982e-07
-3.3788025438672255e-07   -2.540128495251155e-07   5.169761355052982e-07
-3.3788025438672255e-07   -2.540128495251155e-07   5.169761355052982e-07
-3.3788025438672255e-07   -2.540128495251155e-07   5.169761355052982e-07
-2.7993152970812884e-07   -3.755543252823047e-08   7.43431793501097e-07
-2.7993152970812884e-07   -3.755543252823047e-08   7.43431793501097e-07
-2.7993152970812884e-07   -3.755543252823047e-08   7.43431793501097e-07
-2.7993152970812884e-07   -3.755543252823047e-08   7.43431793501097e-07
-2.392112480710808e-07   -2.922255292922934e-07   6.823714673447902e-07
-2.392112480710808e-07   -2.922255292922934e-07   6.823714673447902e-07
-2.392112480710808e-07   -2.922255292922934e-07   6.823714673447902e-07
-2.392112480710808e-07   -2.922255292922934e-07   6.823714673447902e-07
-3.3963990923191077e-07   -9.69456879285964e-08   7.325846644612736e-07
-3.3963990923191077e-07   -9.69456879285964e-08   7.325846644612736e-07
-3.3963990923191077e-07   -9.69456879285964e-08   7.325846644612736e-07
-3.3963990923191077e-07   -9.69456879285964e-08   7.325846644612736e-07
-2.7959767274440036e-07   -1.6014551977718916e-07   6.704341694245661e-07
-2.7959767274440036e-07   -1.6014551977718916e-07   6.704341694245661e-07
-2.7959767274440036e-07   -1.6014551977718916e-07   6.704341694245661e-07
-2.7959767274440036e-07   -1.6014551977718916e-07   6.704341694245661e-07
-3.3963990923191077e-07   -2.922255292922934e-07   5.652035625265819e-07
-3.3963990923191077e-07   -2.922255292922934e-07   5.652035625265819e-07
-3.3963990923191077e-07   -2.922255292922934e-07   5.652035625265819e-07
-3.3963990923191077e-07   -2.922255292922934e-07   5.652035625265819e-07
-2.392112480710808e-07   -9.69456879285964e-08   8.497525692794956e-07
-2.392112480710808e-07   -9.69456879285964e-08   8.497525692794956e-07
-2.392112480710808e-07   -9.69456879285964e-08   8.497525692794956e-07
-2.392112480710808e-07   -9.69456879285964e-08   8.497525692794956e-07
-2.2232141368354292e-07   -3.2251609862183445e-07   7.509722834751986e-07
-2.2232141368354292e-07   -3.2251609862183445e-07   7.509722834751986e-07
-2.2232141368354292e-07   -3.2251609862183445e-07   7.509722834751986e-07
-2.2232141368354292e-07   -3.2251609862183445e-07   7.509722834751986e-07
-3.55483492524892e-07   -1.7879816981172302e-07   8.866783242580283e-07
-3.55483492524892e-07   -1.7879816981172302e-07   8.866783242580283e-07
-3.55483492524892e-07   -1.7879816981172302e-07   8.866783242580283e-07
-3.55483492524892e-07   -1.7879816981172302e-07   8.866783242580283e-07
-2.652467968724807e-07   -1.9626872590334547e-07   7.46766165158995e-07
-2.652467968724807e-07   -1.9626872590334547e-07   7.46766165158995e-07
-2.652467968724807e-07   -1.9626872590334547e-07   7.46766165158995e-07
-2.652467968724807e-07   -1.9626872590334547e-07   7.46766165158995e-07
-3.55483492524892e-07   -3.2251609862183445e-07   6.647415261891109e-07
-3.55483492524892e-07   -3.2251609862183445e-07   6.647415261891109e-07
-3.55483492524892e-07   -3.2251609862183445e-07   6.647415261891109e-07
-3.55483492524892e-07   -3.2251609862183445e-07   6.647415261891109e-07
-2.2232141368354292e-07   -1.7879816981172302e-07   9.729090815440957e-07
-2.2232141368354292e-07   -1.7879816981172302e-07   9.729090815440957e-07
-2.2232141368354292e-07   -1.7879816981172302e-07   9.729090815440957e-07
-2.2232141368354292e-07   -1.7879816981172302e-07   9.729090815440957e-07
-1.9720127591216138e-07   -3.6095767804184556e-07   8.356034911025784e-07
-1.9720127591216138e-07   -3.6095767804184556e-07   8.356034911025784e-07
-1.9720127591216138e-07   -3.6095767804184556e-07   8.356034911025784e-07
-1.9720127591216138e-07   -3.6095767804184556e-07   8.356034911025784e-07
-3.884566747482866e-07   -3.3151642631890134e-07   1.13669773812899e-06
-3.884566747482866e-07   -3.3151642631890134e-07   1.13669773812899e-06
-3.884566747482866e-07   -3.3151642631890134e-07   1.13669773812899e-06
-3.884566747482866e-07   -3.3151642631890134e-07   1.13669773812899e-06
-2.5969184644086677e-07   -2.456034113974088e-07   8.70541881997129e-07
-2.5969184644086677e-07   -2.456034113974088e-07   8.70541881997129e-07
-2.5969184644086677e-07   -2.456034113974088e-07   8.70541881997129e-07
-2.5969184644086677e-07   -2.456034113974088e-07   8.70541881997129e-07
-2.7993152970812884e-07   -1.9559864899498043e-08   -3.5287129655761756e-07
-2.7993152970812884e-07   -1.9559864899498043e-08   -3.5287129655761756e-07
-2.7993152970812884e-07   -1.9559864899498043e-08   -3.5287129655761756e-07
-2.7993152970812884e-07   -1.9559864899498043e-08   -3.5287129655761756e-07
-8.27466913139402e-08   2.7747016145712585e-08   4.154229393154348e-09
-8.27466913139402e-08   2.7747016145712585e-08   4.154229393154348e-09
-8.27466913139402e-08   2.7747016145712585e-08   4.154229393154348e-09
-8.27466913139402e-08   2.7747016145712585e-08   4.154229393154348e-09
-4.389022455525871e-08   -3.098292059293162e-08   -2.5426713443237373e-07
-4.389022455525871e-08   -3.098292059293162e-08   -2.5426713443237373e-07
-4.389022455525871e-08   -3.098292059293162e-08   -2.5426713443237373e-07
-4.389022455525871e-08   -3.098292059293162e-08   -2.5426713443237373e-07
-2.392112480710808e-07   4.312881852849582e-08   2.680086128775737e-08
-2.392112480710808e-07   4.312881852849582e-08   2.680086128775737e-08
-2.392112480710808e-07   4.312881852849582e-08   2.680086128775737e-08
-2.392112480710808e-07   4.312881852849582e-08   2.680086128775737e-08
-1.4737792754389143e-07   1.652943794756869e-08   -1.1029504457568239e-07
-1.4737792754389143e-07   1.652943794756869e-08   -1.1029504457568239e-07
-1.4737792754389143e-07   1.652943794756869e-08   -1.1029504457568239e-07
-1.4737792754389143e-07   1.652943794756869e-08   -1.1029504457568239e-07
-2.392112480710808e-07   -3.098292059293162e-08   -2.987341779052478e-07
-2.392112480710808e-07   -3.098292059293162e-08   -2.987341779052478e-07
-2.392112480710808e-07   -3.098292059293162e-08   -2.987341779052478e-07
-2.392112480710808e-07   -3.098292059293162e-08   -2.987341779052478e-07
-4.389022455527226e-08   4.312881852849582e-08   7.126790476062468e-08
-4.389022455527226e-08   4.312881852849582e-08   7.126790476062468e-08
-4.389022455527226e-08   4.312881852849582e-08   7.126790476062468e-08
-4.389022455527226e-08   4.312881852849582e-08   7.126790476062468e-08
-2.9247455537678257e-08   -4.521383050229942e-08   -1.9904253464154238e-07
-2.9247455537678257e-08   -4.521383050229942e-08   -1.9904253464154238e-07
-2.9247455537678257e-08   -4.521383050229942e-08   -1.9904253464154238e-07
-2.9247455537678257e-08   -4.521383050229942e-08   -1.9904253464154238e-07
-2.2232141368354292e-07   2.3451577345270817e-08   8.154815089297723e-08
-2.2232141368354292e-07   2.3451577345270817e-08   8.154815089297723e-08
-2.2232141368354292e-07   2.3451577345270817e-08   8.154815089297723e-08
-2.2232141368354292e-07   2.3451577345270817e-08   8.154815089297723e-08
-1.2152801249168483e-07   9.696495748041668e-09   -7.818780213504411e-08
-1.2152801249168483e-07   9.696495748041668e-09   -7.818780213504411e-08
-1.2152801249168483e-07   9.696495748041668e-09   -7.818780213504411e-08
-1.2152801249168483e-07   9.696495748041668e-09   -7.818780213504411e-08
-2.2232141368354292e-07   -4.521383050229942e-08   -2.4024177935008876e-07
-2.2232141368354292e-07   -4.521383050229942e-08   -2.4024177935008876e-07
-2.2232141368354292e-07   -4.521383050229942e-08   -2.4024177935008876e-07
-2.2232141368354292e-07   -4.521383050229942e-08   -2.4024177935008876e-07
-2.924745553769181e-08   2.3451577345270817e-08   1.2274739560151344e-07
-2.924745553769181e-08   2.3451577345270817e-08   1.2274739560151344e-07
-2.924745553769181e-08   2.3451577345270817e-08   1.2274739560151344e-07
-2.924745553769181e-08   2.3451577345270817e-08   1.2274739560151344e-07
-1.4791397508212437e-08   -6.666572288368882e-08   -1.1081492708429365e-07
-1.4791397508212437e-08   -6.666572288368882e-08   -1.1081492708429365e-07
-1.4791397508212437e-08   -6.666572288368882e-08   -1.1081492708429365e-07
-1.4791397508212437e-08   -6.666572288368882e-08   -1.1081492708429365e-07
-1.9720127591216138e-07   -5.670480887124993e-09   1.5660439172430704e-07
-1.9720127591216138e-07   -5.670480887124993e-09   1.5660439172430704e-07
-1.9720127591216138e-07   -5.670480887124993e-09   1.5660439172430704e-07
-1.9720127591216138e-07   -5.670480887124993e-09   1.5660439172430704e-07
-9.944631798610606e-08   -1.167643165336308e-09   -9.022240785526957e-09
-9.944631798610606e-08   -1.167643165336308e-09   -9.022240785526957e-09
-9.944631798610606e-08   -1.167643165336308e-09   -9.022240785526957e-09
-9.944631798610606e-08   -1.167643165336308e-09   -9.022240785526957e-09
              </DataArray>   
             <DataArray type="Float64" NumberOfComponents="3" Name="Stress" format="ascii">   
-0.4091415526352295   -0.10228538815880737   -0.10228538815880737
-0.4091415526352295   -0.10228538815880737   -0.10228538815880737
-0.4091415526352295   -0.10228538815880737   -0.10228538815880737
-0.4091415526352295   -0.10228538815880737   -0.10228538815880737
-0.23636122434022108   -0.008342731897107353   -0.005073982425247347
-0.23636122434022108   -0.008342731897107353   -0.005073982425247347
-0.23636122434022108   -0.008342731897107353   -0.005073982425247347
-0.23636122434022108   -0.008342731897107353   -0.005073982425247347
-0.2540218708356564   -0.0635054677089141   -0.0635054677089141
-0.2540218708356564   -0.0635054677089141   -0.0635054677089141
-0.2540218708356564   -0.0635054677089141   -0.0635054677089141
-0.2540218708356564   -0.0635054677089141   -0.0635054677089141
-0.3940015462396722   -0.03302892073662645   -0.01284259687589316
-0.3940015462396722   -0.03302892073662645   -0.01284259687589316
-0.3940015462396722   -0.03302892073662645   -0.01284259687589316
-0.3940015462396722   -0.03302892073662645   -0.01284259687589316
-0.30880865992255735   -0.05102624813810892   -0.0008993486651873474
-0.30880865992255735   -0.05102624813810892   -0.0008993486651873474
-0.30880865992255735   -0.05102624813810892   -0.0008993486651873474
-0.30880865992255735   -0.05102624813810892   -0.0008993486651873474
-0.42758582524129884   -0.10689645631032471   -0.10689645631032471
-0.42758582524129884   -0.10689645631032471   -0.10689645631032471
-0.42758582524129884   -0.10689645631032471   -0.10689645631032471
-0.42758582524129884   -0.10689645631032471   -0.10689645631032471
-0.22847132187311656   0.0023283378256979542   -0.0015865284308268137
-0.22847132187311656   0.0023283378256979542   -0.0015865284308268137
-0.22847132187311656   0.0023283378256979542   -0.0015865284308268137
-0.22847132187311656   0.0023283378256979542   -0.0015865284308268137
-0.2542134463134375   -0.06355336157835938   -0.06355336157835938
-0.2542134463134375   -0.06355336157835938   -0.06355336157835938
-0.2542134463134375   -0.06355336157835938   -0.06355336157835938
-0.2542134463134375   -0.06355336157835938   -0.06355336157835938
-0.40665378009741093   -0.0331808871737116   -0.018746442713409868
-0.40665378009741093   -0.0331808871737116   -0.018746442713409868
-0.40665378009741093   -0.0331808871737116   -0.018746442713409868
-0.40665378009741093   -0.0331808871737116   -0.018746442713409868
-0.31976344916706145   -0.04785259490027624   -0.016916289936876498
-0.31976344916706145   -0.04785259490027624   -0.016916289936876498
-0.31976344916706145   -0.04785259490027624   -0.016916289936876498
-0.31976344916706145   -0.04785259490027624   -0.016916289936876498
-0.4402981267999859   -0.11007453169999648   -0.11007453169999648
-0.4402981267999859   -0.11007453169999648   -0.11007453169999648
-0.4402981267999859   -0.11007453169999648   -0.11007453169999648
-0.4402981267999859   -0.11007453169999648   -0.11007453169999648
-0.22731783857047516   0.006591543988313166   0.000779771569778152
-0.22731783857047516   0.006591543988313166   0.000779771569778152
-0.22731783857047516   0.006591543988313166   0.000779771569778152
-0.22731783857047516   0.006591543988313166   0.000779771569778152
-0.253488217368763   -0.06337205434219075   -0.06337205434219075
-0.253488217368763   -0.06337205434219075   -0.06337205434219075
-0.253488217368763   -0.06337205434219075   -0.06337205434219075
-0.253488217368763   -0.06337205434219075   -0.06337205434219075
-0.4294341556755237   -0.028723932364362798   -0.011525496967874263
-0.4294341556755237   -0.028723932364362798   -0.011525496967874263
-0.4294341556755237   -0.028723932364362798   -0.011525496967874263
-0.4294341556755237   -0.028723932364362798   -0.011525496967874263
-0.3276869415333343   -0.046947694774676314   -0.030467738512313124
-0.3276869415333343   -0.046947694774676314   -0.030467738512313124
-0.3276869415333343   -0.046947694774676314   -0.030467738512313124
-0.3276869415333343   -0.046947694774676314   -0.030467738512313124
-0.2596420905286117   -0.06491052263215293   -0.06491052263215293
-0.2596420905286117   -0.06491052263215293   -0.06491052263215293
-0.2596420905286117   -0.06491052263215293   -0.06491052263215293
-0.2596420905286117   -0.06491052263215293   -0.06491052263215293
-0.10902540777448191   -0.00781646697668846   -0.0024886413607096355
-0.10902540777448191   -0.00781646697668846   -0.0024886413607096355
-0.10902540777448191   -0.00781646697668846   -0.0024886413607096355
-0.10902540777448191   -0.00781646697668846   -0.0024886413607096355
-0.11379609149419742   -0.028449022873549355   -0.028449022873549355
-0.11379609149419742   -0.028449022873549355   -0.028449022873549355
-0.11379609149419742   -0.028449022873549355   -0.028449022873549355
-0.11379609149419742   -0.028449022873549355   -0.028449022873549355
-0.2360301204418871   -0.028094140152352207   -0.008958043296629477
-0.2360301204418871   -0.028094140152352207   -0.008958043296629477
-0.2360301204418871   -0.028094140152352207   -0.008958043296629477
-0.2360301204418871   -0.028094140152352207   -0.008958043296629477
-0.17443975554135294   -0.03323798299186434   0.001275114836419125
-0.17443975554135294   -0.03323798299186434   0.001275114836419125
-0.17443975554135294   -0.03323798299186434   0.001275114836419125
-0.17443975554135294   -0.03323798299186434   0.001275114836419125
-0.2540218708356562   -0.06350546770891405   -0.06350546770891405
-0.2540218708356562   -0.06350546770891405   -0.06350546770891405
-0.2540218708356562   -0.06350546770891405   -0.06350546770891405
-0.2540218708356562   -0.06350546770891405   -0.06350546770891405
-0.10238530812761729   0.0003813376558233321   -0.00022546657002137267
-0.10238530812761729   0.0003813376558233321   -0.00022546657002137267
-0.10238530812761729   0.0003813376558233321   -0.00022546657002137267
-0.10238530812761729   0.0003813376558233321   -0.00022546657002137267
-0.11074351436110628   -0.02768587859027657   -0.02768587859027657
-0.11074351436110628   -0.02768587859027657   -0.02768587859027657
-0.11074351436110628   -0.02768587859027657   -0.02768587859027657
-0.11074351436110628   -0.02768587859027657   -0.02768587859027657
-0.23492781606039673   -0.022779230881743596   -0.007899341009771157
-0.23492781606039673   -0.022779230881743596   -0.007899341009771157
-0.23492781606039673   -0.022779230881743596   -0.007899341009771157
-0.23492781606039673   -0.022779230881743596   -0.007899341009771157
-0.1715017422823991   -0.027875973464102415   -0.008910621255178178
-0.1715017422823991   -0.027875973464102415   -0.008910621255178178
-0.1715017422823991   -0.027875973464102415   -0.008910621255178178
-0.1715017422823991   -0.027875973464102415   -0.008910621255178178
-0.2542134463134375   -0.06355336157835938   -0.06355336157835938
-0.2542134463134375   -0.06355336157835938   -0.06355336157835938
-0.2542134463134375   -0.06355336157835938   -0.06355336157835938
-0.2542134463134375   -0.06355336157835938   -0.06355336157835938
-0.09783300225978815   0.006713133954616691   0.002467669371421709
-0.09783300225978815   0.006713133954616691   0.002467669371421709
-0.09783300225978815   0.006713133954616691   0.002467669371421709
-0.09783300225978815   0.006713133954616691   0.002467669371421709
-0.10787720792812087   -0.02696930198203022   -0.02696930198203022
-0.10787720792812087   -0.02696930198203022   -0.02696930198203022
-0.10787720792812087   -0.02696930198203022   -0.02696930198203022
-0.10787720792812087   -0.02696930198203022   -0.02696930198203022
-0.23264312835922102   -0.01742922370919918   -0.0050894399274734135
-0.23264312835922102   -0.01742922370919918   -0.0050894399274734135
-0.23264312835922102   -0.01742922370919918   -0.0050894399274734135
-0.23264312835922102   -0.01742922370919918   -0.0050894399274734135
-0.17180032247207955   -0.02452273753624791   -0.019774902780643734
-0.17180032247207955   -0.02452273753624791   -0.019774902780643734
-0.17180032247207955   -0.02452273753624791   -0.019774902780643734
-0.17180032247207955   -0.02452273753624791   -0.019774902780643734
-0.11884931789666943   -0.029712329474167357   -0.029712329474167357
-0.11884931789666943   -0.029712329474167357   -0.029712329474167357
-0.11884931789666943   -0.029712329474167357   -0.029712329474167357
-0.11884931789666943   -0.029712329474167357   -0.029712329474167357
0.01248614684293634   0.0005432421070395051   0.0001255209606911146
0.01248614684293634   0.0005432421070395051   0.0001255209606911146
0.01248614684293634   0.0005432421070395051   0.0001255209606911146
0.01248614684293634   0.0005432421070395051   0.0001255209606911146
0.01719362787435871   0.0042984069685896775   0.0042984069685896775
0.01719362787435871   0.0042984069685896775   0.0042984069685896775
0.01719362787435871   0.0042984069685896775   0.0042984069685896775
0.01719362787435871   0.0042984069685896775   0.0042984069685896775
-0.10695173232668063   -0.018471364194752572   -0.004204885714762154
-0.10695173232668063   -0.018471364194752572   -0.004204885714762154
-0.10695173232668063   -0.018471364194752572   -0.004204885714762154
-0.10695173232668063   -0.018471364194752572   -0.004204885714762154
-0.04660182903576526   -0.01178781741846929   0.007503974789841514
-0.04660182903576526   -0.01178781741846929   0.007503974789841514
-0.04660182903576526   -0.01178781741846929   0.007503974789841514
-0.04660182903576526   -0.01178781741846929   0.007503974789841514
-0.11379609149419762   -0.028449022873549404   -0.028449022873549404
-0.11379609149419762   -0.028449022873549404   -0.028449022873549404
-0.11379609149419762   -0.028449022873549404   -0.028449022873549404
-0.11379609149419762   -0.028449022873549404   -0.028449022873549404
0.017577583585161042   0.007815662190671977   0.002700930300518917
0.017577583585161042   0.007815662190671977   0.002700930300518917
0.017577583585161042   0.007815662190671977   0.002700930300518917
0.017577583585161042   0.007815662190671977   0.002700930300518917
0.020000748194622837   0.005000187048655709   0.005000187048655709
0.020000748194622837   0.005000187048655709   0.005000187048655709
0.020000748194622837   0.005000187048655709   0.005000187048655709
0.020000748194622837   0.005000187048655709   0.005000187048655709
-0.10268484828980316   -0.012263987242012688   -0.0028144395820257533
-0.10268484828980316   -0.012263987242012688   -0.0028144395820257533
-0.10268484828980316   -0.012263987242012688   -0.0028144395820257533
-0.10268484828980316   -0.012263987242012688   -0.0028144395820257533
-0.04419604221353274   -0.007212215049597225   -0.002728473594023652
-0.04419604221353274   -0.007212215049597225   -0.002728473594023652
-0.04419604221353274   -0.007212215049597225   -0.002728473594023652
-0.04419604221353274   -0.007212215049597225   -0.002728473594023652
-0.11074351436110648   -0.02768587859027662   -0.02768587859027662
-0.11074351436110648   -0.02768587859027662   -0.02768587859027662
-0.11074351436110648   -0.02768587859027662   -0.02768587859027662
-0.11074351436110648   -0.02768587859027662   -0.02768587859027662
0.02173024540102545   0.014092909532019249   0.00455495059730507
0.02173024540102545   0.014092909532019249   0.00455495059730507
0.02173024540102545   0.014092909532019249   0.00455495059730507
0.02173024540102545   0.014092909532019249   0.00455495059730507
0.023603527732216904   0.005900881933054226   0.005900881933054226
0.023603527732216904   0.005900881933054226   0.005900881933054226
0.023603527732216904   0.005900881933054226   0.005900881933054226
0.023603527732216904   0.005900881933054226   0.005900881933054226
-0.09804981103822474   -0.004902750282826059   0.0001011307682458407
-0.09804981103822474   -0.004902750282826059   0.0001011307682458407
-0.09804981103822474   -0.004902750282826059   0.0001011307682458407
-0.09804981103822474   -0.004902750282826059   0.0001011307682458407
-0.042346833860134055   -0.0028004220961867134   -0.012868777289482483
-0.042346833860134055   -0.0028004220961867134   -0.012868777289482483
-0.042346833860134055   -0.0028004220961867134   -0.012868777289482483
-0.042346833860134055   -0.0028004220961867134   -0.012868777289482483
0.013724882477100266   0.0034312206192750666   0.0034312206192750666
0.013724882477100266   0.0034312206192750666   0.0034312206192750666
0.013724882477100266   0.0034312206192750666   0.0034312206192750666
0.013724882477100266   0.0034312206192750666   0.0034312206192750666
0.14592236126600266   0.01345552703775564   0.004802276180450867
0.14592236126600266   0.01345552703775564   0.004802276180450867
0.14592236126600266   0.01345552703775564   0.004802276180450867
0.14592236126600266   0.01345552703775564   0.004802276180450867
0.15901660495326375   0.03975415123831594   0.03975415123831594
0.15901660495326375   0.03975415123831594   0.03975415123831594
0.15901660495326375   0.03975415123831594   0.03975415123831594
0.15901660495326375   0.03975415123831594   0.03975415123831594
0.013046733404074461   -0.0102222068881275   -0.0019154515261146621
0.013046733404074461   -0.0102222068881275   -0.0019154515261146621
0.013046733404074461   -0.0102222068881275   -0.0019154515261146621
0.013046733404074461   -0.0102222068881275   -0.0019154515261146621
0.08278484037934618   0.010337672197708609   0.014918182980703259
0.08278484037934618   0.010337672197708609   0.014918182980703259
0.08278484037934618   0.010337672197708609   0.014918182980703259
0.08278484037934618   0.010337672197708609   0.014918182980703259
0.01719362787435877   0.004298406968589692   0.004298406968589692
0.01719362787435877   0.004298406968589692   0.004298406968589692
0.01719362787435877   0.004298406968589692   0.004298406968589692
0.01719362787435877   0.004298406968589692   0.004298406968589692
0.14828939311089112   0.01865322000951044   0.007219023255258335
0.14828939311089112   0.01865322000951044   0.007219023255258335
0.14828939311089112   0.01865322000951044   0.007219023255258335
0.14828939311089112   0.01865322000951044   0.007219023255258335
0.15890161827275825   0.039725404568189564   0.039725404568189564
0.15890161827275825   0.039725404568189564   0.039725404568189564
0.15890161827275825   0.039725404568189564   0.039725404568189564
0.15890161827275825   0.039725404568189564   0.039725404568189564
0.01722265781035946   -0.004130742109524869   0.0002406642855192309
0.01722265781035946   -0.004130742109524869   0.0002406642855192309
0.01722265781035946   -0.004130742109524869   0.0002406642855192309
0.01722265781035946   -0.004130742109524869   0.0002406642855192309
0.08275043261142767   0.013782219590255251   0.0037556396358699143
0.08275043261142767   0.013782219590255251   0.0037556396358699143
0.08275043261142767   0.013782219590255251   0.0037556396358699143
0.08275043261142767   0.013782219590255251   0.0037556396358699143
0.020000748194622855   0.005000187048655714   0.005000187048655714
0.020000748194622855   0.005000187048655714   0.005000187048655714
0.020000748194622855   0.005000187048655714   0.005000187048655714
0.020000748194622855   0.005000187048655714   0.005000187048655714
0.14960966097336567   0.024080608494879814   0.00891041414453643
0.14960966097336567   0.024080608494879814   0.00891041414453643
0.14960966097336567   0.024080608494879814   0.00891041414453643
0.14960966097336567   0.024080608494879814   0.00891041414453643
0.1625229714125189   0.040630742853129724   0.040630742853129724
0.1625229714125189   0.040630742853129724   0.040630742853129724
0.1625229714125189   0.040630742853129724   0.040630742853129724
0.1625229714125189   0.040630742853129724   0.040630742853129724
0.02255343516464502   0.0038752453205197724   0.002676055707729064
0.02255343516464502   0.0038752453205197724   0.002676055707729064
0.02255343516464502   0.0038752453205197724   0.002676055707729064
0.02255343516464502   0.0038752453205197724   0.002676055707729064
0.08458507849492729   0.018838215759401287   -0.006591192400833472
0.08458507849492729   0.018838215759401287   -0.006591192400833472
0.08458507849492729   0.018838215759401287   -0.006591192400833472
0.08458507849492729   0.018838215759401287   -0.006591192400833472
0.1580786673581793   0.039519666839544824   0.039519666839544824
0.1580786673581793   0.039519666839544824   0.039519666839544824
0.1580786673581793   0.039519666839544824   0.039519666839544824
0.1580786673581793   0.039519666839544824   0.039519666839544824
0.331290291164254   0.02543395426490129   0.009405733864450358
0.331290291164254   0.02543395426490129   0.009405733864450358
0.331290291164254   0.02543395426490129   0.009405733864450358
0.331290291164254   0.02543395426490129   0.009405733864450358
0.3392876729826524   0.0848219182456631   0.0848219182456631
0.3392876729826524   0.0848219182456631   0.0848219182456631
0.3392876729826524   0.0848219182456631   0.0848219182456631
0.3392876729826524   0.0848219182456631   0.0848219182456631
0.14148981670058836   -0.007791917205468242   -0.000333721581276817
0.14148981670058836   -0.007791917205468242   -0.000333721581276817
0.14148981670058836   -0.007791917205468242   -0.000333721581276817
0.14148981670058836   -0.007791917205468242   -0.000333721581276817
0.23580853624108608   0.03357132497727503   0.02639709046128415
0.23580853624108608   0.03357132497727503   0.02639709046128415
0.23580853624108608   0.03357132497727503   0.02639709046128415
0.23580853624108608   0.03357132497727503   0.02639709046128415
0.15901660495326359   0.039754151238315896   0.039754151238315896
0.15901660495326359   0.039754151238315896   0.039754151238315896
0.15901660495326359   0.039754151238315896   0.039754151238315896
0.15901660495326359   0.039754151238315896   0.039754151238315896
0.3146885193203928   0.030203484392295747   0.01644458378773791
0.3146885193203928   0.030203484392295747   0.01644458378773791
0.3146885193203928   0.030203484392295747   0.01644458378773791
0.3146885193203928   0.030203484392295747   0.01644458378773791
0.3298269068855325   0.08245672672138313   0.08245672672138313
0.3298269068855325   0.08245672672138313   0.08245672672138313
0.3298269068855325   0.08245672672138313   0.08245672672138313
0.3298269068855325   0.08245672672138313   0.08245672672138313
0.14251945980367298   -0.003995313167466534   0.0015353299584193111
0.14251945980367298   -0.003995313167466534   0.0015353299584193111
0.14251945980367298   -0.003995313167466534   0.0015353299584193111
0.14251945980367298   -0.003995313167466534   0.0015353299584193111
0.2294475786119189   0.03471634601629791   0.012623645406005708
0.2294475786119189   0.03471634601629791   0.012623645406005708
0.2294475786119189   0.03471634601629791   0.012623645406005708
0.2294475786119189   0.03471634601629791   0.012623645406005708
0.15890161827275825   0.039725404568189564   0.039725404568189564
0.15890161827275825   0.039725404568189564   0.039725404568189564
0.15890161827275825   0.039725404568189564   0.039725404568189564
0.15890161827275825   0.039725404568189564   0.039725404568189564
0.3051758252521698   0.030467085821450503   0.011190959454507017
0.3051758252521698   0.030467085821450503   0.011190959454507017
0.3051758252521698   0.030467085821450503   0.011190959454507017
0.3051758252521698   0.030467085821450503   0.011190959454507017
0.31534684445392586   0.07883671111348146   0.07883671111348146
0.31534684445392586   0.07883671111348146   0.07883671111348146
0.31534684445392586   0.07883671111348146   0.07883671111348146
0.31534684445392586   0.07883671111348146   0.07883671111348146
0.14836784319066593   0.005533263089979493   0.004952581507016461
0.14836784319066593   0.005533263089979493   0.004952581507016461
0.14836784319066593   0.005533263089979493   0.004952581507016461
0.14836784319066593   0.005533263089979493   0.004952581507016461
0.22028882293690288   0.037850425147858274   -0.003465351598383044
0.22028882293690288   0.037850425147858274   -0.003465351598383044
0.22028882293690288   0.037850425147858274   -0.003465351598383044
0.22028882293690288   0.037850425147858274   -0.003465351598383044
-0.3184780131022253   -0.022893452484036   0.0042892034021141286
-0.3184780131022253   -0.022893452484036   0.0042892034021141286
-0.3184780131022253   -0.022893452484036   0.0042892034021141286
-0.3184780131022253   -0.022893452484036   0.0042892034021141286
-0.2034092948784224   -0.005359595832506864   -0.0015622313651318977
-0.2034092948784224   -0.005359595832506864   -0.0015622313651318977
-0.2034092948784224   -0.005359595832506864   -0.0015622313651318977
-0.2034092948784224   -0.005359595832506864   -0.0015622313651318977
-0.20422421399498605   0.008436935720972434   0.0047093531674155635
-0.20422421399498605   0.008436935720972434   0.0047093531674155635
-0.20422421399498605   0.008436935720972434   0.0047093531674155635
-0.20422421399498605   0.008436935720972434   0.0047093531674155635
-0.32293519641319035   -0.02238358375257625   -0.004135070708088485
-0.32293519641319035   -0.02238358375257625   -0.004135070708088485
-0.32293519641319035   -0.02238358375257625   -0.004135070708088485
-0.32293519641319035   -0.02238358375257625   -0.004135070708088485
-0.2520120025133701   -0.008818013513302483   -0.0013605190800898143
-0.2520120025133701   -0.008818013513302483   -0.0013605190800898143
-0.2520120025133701   -0.008818013513302483   -0.0013605190800898143
-0.2520120025133701   -0.008818013513302483   -0.0013605190800898143
-0.3202681842935912   -0.015292039787304632   0.002108445924635372
-0.3202681842935912   -0.015292039787304632   0.002108445924635372
-0.3202681842935912   -0.015292039787304632   0.002108445924635372
-0.3202681842935912   -0.015292039787304632   0.002108445924635372
-0.2071962297738947   0.0010403880963920156   -0.0027541781025437247
-0.2071962297738947   0.0010403880963920156   -0.0027541781025437247
-0.2071962297738947   0.0010403880963920156   -0.0027541781025437247
-0.2071962297738947   0.0010403880963920156   -0.0027541781025437247
-0.2041231286144215   0.012122937704919436   0.005242030196756347
-0.2041231286144215   0.012122937704919436   0.005242030196756347
-0.2041231286144215   0.012122937704919436   0.005242030196756347
-0.2041231286144215   0.012122937704919436   0.005242030196756347
-0.32440922594302435   -0.019588199423644218   -0.0054240960468892215
-0.32440922594302435   -0.019588199423644218   -0.0054240960468892215
-0.32440922594302435   -0.019588199423644218   -0.0054240960468892215
-0.32440922594302435   -0.019588199423644218   -0.0054240960468892215
-0.25865770966609025   -0.005763456940185804   -0.0026277557827664513
-0.25865770966609025   -0.005763456940185804   -0.0026277557827664513
-0.25865770966609025   -0.005763456940185804   -0.0026277557827664513
-0.25865770966609025   -0.005763456940185804   -0.0026277557827664513
-0.3182282748241987   -0.008806671293056935   0.01469913141665175
-0.3182282748241987   -0.008806671293056935   0.01469913141665175
-0.3182282748241987   -0.008806671293056935   0.01469913141665175
-0.3182282748241987   -0.008806671293056935   0.01469913141665175
-0.20781541609486004   0.0038300732127196715   -0.004926542713235005
-0.20781541609486004   0.0038300732127196715   -0.004926542713235005
-0.20781541609486004   0.0038300732127196715   -0.004926542713235005
-0.20781541609486004   0.0038300732127196715   -0.004926542713235005
-0.20002286815665843   0.021299495733292532   0.009180356001537354
-0.20002286815665843   0.021299495733292532   0.009180356001537354
-0.20002286815665843   0.021299495733292532   0.009180356001537354
-0.20002286815665843   0.021299495733292532   0.009180356001537354
-0.3147205160775238   -0.015505067727684042   -0.008707866136770279
-0.3147205160775238   -0.015505067727684042   -0.008707866136770279
-0.3147205160775238   -0.015505067727684042   -0.008707866136770279
-0.3147205160775238   -0.015505067727684042   -0.008707866136770279
-0.2482274565895742   0.002637079429644369   0.005617996655600119
-0.2482274565895742   0.002637079429644369   0.005617996655600119
-0.2482274565895742   0.002637079429644369   0.005617996655600119
-0.2482274565895742   0.002637079429644369   0.005617996655600119
-0.20826293502305845   -0.027836874782021383   -0.0033531531387976828
-0.20826293502305845   -0.027836874782021383   -0.0033531531387976828
-0.20826293502305845   -0.027836874782021383   -0.0033531531387976828
-0.20826293502305845   -0.027836874782021383   -0.0033531531387976828
-0.09682354435746313   -0.0025896797096482717   0.0009232917227305825
-0.09682354435746313   -0.0025896797096482717   0.0009232917227305825
-0.09682354435746313   -0.0025896797096482717   0.0009232917227305825
-0.09682354435746313   -0.0025896797096482717   0.0009232917227305825
-0.0978652334598146   0.001658107586354693   0.001638308414832504
-0.0978652334598146   0.001658107586354693   0.001638308414832504
-0.0978652334598146   0.001658107586354693   0.001638308414832504
-0.0978652334598146   0.001658107586354693   0.001638308414832504
-0.21217700578574963   -0.020311513071111682   -0.006306156994318265
-0.21217700578574963   -0.020311513071111682   -0.006306156994318265
-0.21217700578574963   -0.020311513071111682   -0.006306156994318265
-0.21217700578574963   -0.020311513071111682   -0.006306156994318265
-0.15381049904385571   -0.0126981795839716   -0.0037049654843517533
-0.15381049904385571   -0.0126981795839716   -0.0037049654843517533
-0.15381049904385571   -0.0126981795839716   -0.0037049654843517533
-0.15381049904385571   -0.0126981795839716   -0.0037049654843517533
-0.211907868365735   -0.02211039805905623   -0.0031615849063014855
-0.211907868365735   -0.02211039805905623   -0.0031615849063014855
-0.211907868365735   -0.02211039805905623   -0.0031615849063014855
-0.211907868365735   -0.02211039805905623   -0.0031615849063014855
-0.0977636793561452   0.003827684097982953   -2.3497578449544268e-05
-0.0977636793561452   0.003827684097982953   -2.3497578449544268e-05
-0.0977636793561452   0.003827684097982953   -2.3497578449544268e-05
-0.0977636793561452   0.003827684097982953   -2.3497578449544268e-05
-0.09718725216355095   0.006767005747817956   0.0020912782411908444
-0.09718725216355095   0.006767005747817956   0.0020912782411908444
-0.09718725216355095   0.006767005747817956   0.0020912782411908444
-0.09718725216355095   0.006767005747817956   0.0020912782411908444
-0.21190730386433665   -0.01470953150665779   -0.006846376841242171
-0.21190730386433665   -0.01470953150665779   -0.006846376841242171
-0.21190730386433665   -0.01470953150665779   -0.006846376841242171
-0.21190730386433665   -0.01470953150665779   -0.006846376841242171
-0.1532000279306096   -0.006993783825159767   -0.0017747473673095605
-0.1532000279306096   -0.006993783825159767   -0.0017747473673095605
-0.1532000279306096   -0.006993783825159767   -0.0017747473673095605
-0.1532000279306096   -0.006993783825159767   -0.0017747473673095605
-0.21102034937792394   -0.016535080438718448   -0.000586055477117947
-0.21102034937792394   -0.016535080438718448   -0.000586055477117947
-0.21102034937792394   -0.016535080438718448   -0.000586055477117947
-0.21102034937792394   -0.016535080438718448   -0.000586055477117947
-0.09738158922453485   0.009285172105307674   -0.001398573421217594
-0.09738158922453485   0.009285172105307674   -0.001398573421217594
-0.09738158922453485   0.009285172105307674   -0.001398573421217594
-0.09738158922453485   0.009285172105307674   -0.001398573421217594
-0.09526507848170727   0.011866666373980372   0.004011960610910621
-0.09526507848170727   0.011866666373980372   0.004011960610910621
-0.09526507848170727   0.011866666373980372   0.004011960610910621
-0.09526507848170727   0.011866666373980372   0.004011960610910621
-0.20929194635483503   -0.008231396540231986   -0.007634142715820332
-0.20929194635483503   -0.008231396540231986   -0.007634142715820332
-0.20929194635483503   -0.008231396540231986   -0.007634142715820332
-0.20929194635483503   -0.008231396540231986   -0.007634142715820332
-0.1522231765466951   -0.001589235782372432   0.0007482438838028876
-0.1522231765466951   -0.001589235782372432   0.0007482438838028876
-0.1522231765466951   -0.001589235782372432   0.0007482438838028876
-0.1522231765466951   -0.001589235782372432   0.0007482438838028876
-0.10196122914013331   -0.0232019163848053   -0.004152895515463283
-0.10196122914013331   -0.0232019163848053   -0.004152895515463283
-0.10196122914013331   -0.0232019163848053   -0.004152895515463283
-0.10196122914013331   -0.0232019163848053   -0.004152895515463283
0.008859877952304238   0.001996135024988098   0.00396971806714056
0.008859877952304238   0.001996135024988098   0.00396971806714056
0.008859877952304238   0.001996135024988098   0.00396971806714056
0.008859877952304238   0.001996135024988098   0.00396971806714056
0.008691643390363744   0.0055727942305859104   0.00037253069488587653
0.008691643390363744   0.0055727942305859104   0.00037253069488587653
0.008691643390363744   0.0055727942305859104   0.00037253069488587653
0.008691643390363744   0.0055727942305859104   0.00037253069488587653
-0.10210748712768247   -0.015249409540641147   -0.0026654427975118136
-0.10210748712768247   -0.015249409540641147   -0.0026654427975118136
-0.10210748712768247   -0.015249409540641147   -0.0026654427975118136
-0.10210748712768247   -0.015249409540641147   -0.0026654427975118136
-0.04708585140133402   -0.007812614117623821   -0.0015823397402908671
-0.04708585140133402   -0.007812614117623821   -0.0015823397402908671
-0.04708585140133402   -0.007812614117623821   -0.0015823397402908671
-0.04708585140133402   -0.007812614117623821   -0.0015823397402908671
-0.1028229943617595   -0.017585930967102932   -0.003906457541435114
-0.1028229943617595   -0.017585930967102932   -0.003906457541435114
-0.1028229943617595   -0.017585930967102932   -0.003906457541435114
-0.1028229943617595   -0.017585930967102932   -0.003906457541435114
0.009779101510799224   0.008281266543406147   0.0031013489842429587
0.009779101510799224   0.008281266543406147   0.0031013489842429587
0.009779101510799224   0.008281266543406147   0.0031013489842429587
0.009779101510799224   0.008281266543406147   0.0031013489842429587
0.0098018157982739   0.011159127451051404   0.0018144697952173976
0.0098018157982739   0.011159127451051404   0.0018144697952173976
0.0098018157982739   0.011159127451051404   0.0018144697952173976
0.0098018157982739   0.011159127451051404   0.0018144697952173976
-0.10145172356246483   -0.009114524805209436   -0.0033495482003519953
-0.10145172356246483   -0.009114524805209436   -0.0033495482003519953
-0.10145172356246483   -0.009114524805209436   -0.0033495482003519953
-0.10145172356246483   -0.009114524805209436   -0.0033495482003519953
-0.046053178394425874   -0.001896910538124916   0.00047684717243574306
-0.046053178394425874   -0.001896910538124916   0.00047684717243574306
-0.046053178394425874   -0.001896910538124916   0.00047684717243574306
-0.046053178394425874   -0.001896910538124916   0.00047684717243574306
-0.10175225624461141   -0.011923273499856672   -0.0020434629164376664
-0.10175225624461141   -0.011923273499856672   -0.0020434629164376664
-0.10175225624461141   -0.011923273499856672   -0.0020434629164376664
-0.10175225624461141   -0.011923273499856672   -0.0020434629164376664
0.010505695352730264   0.014371223018008413   0.0021217720005421493
0.010505695352730264   0.014371223018008413   0.0021217720005421493
0.010505695352730264   0.014371223018008413   0.0021217720005421493
0.010505695352730264   0.014371223018008413   0.0021217720005421493
0.010356508899417074   0.017344387322051083   0.002930498854989737
0.010356508899417074   0.017344387322051083   0.002930498854989737
0.010356508899417074   0.017344387322051083   0.002930498854989737
0.010356508899417074   0.017344387322051083   0.002930498854989737
-0.09980835923966952   -0.00258067913301209   -0.004257097671908478
-0.09980835923966952   -0.00258067913301209   -0.004257097671908478
-0.09980835923966952   -0.00258067913301209   -0.004257097671908478
-0.09980835923966952   -0.00258067913301209   -0.004257097671908478
-0.04459321359098691   0.004288386826790953   0.002731923976264318
-0.04459321359098691   0.004288386826790953   0.002731923976264318
-0.04459321359098691   0.004288386826790953   0.002731923976264318
-0.04459321359098691   0.004288386826790953   0.002731923976264318
0.0031936311262985998   -0.017103125361546005   -0.005262255676353536
0.0031936311262985998   -0.017103125361546005   -0.005262255676353536
0.0031936311262985998   -0.017103125361546005   -0.005262255676353536
0.0031936311262985998   -0.017103125361546005   -0.005262255676353536
0.11805881147840494   0.00795521839627402   0.007393353996296037
0.11805881147840494   0.00795521839627402   0.007393353996296037
0.11805881147840494   0.00795521839627402   0.007393353996296037
0.11805881147840494   0.00795521839627402   0.007393353996296037
0.11818969056499706   0.010940002266478828   -0.0012473629140056183
0.11818969056499706   0.010940002266478828   -0.0012473629140056183
0.11818969056499706   0.010940002266478828   -0.0012473629140056183
0.11818969056499706   0.010940002266478828   -0.0012473629140056183
0.005674352740165567   -0.010062095287695316   0.0009209669621761422
0.005674352740165567   -0.010062095287695316   0.0009209669621761422
0.005674352740165567   -0.010062095287695316   0.0009209669621761422
0.005674352740165567   -0.010062095287695316   0.0009209669621761422
0.06050393825043859   -0.001603907457626166   2.3241193758470006e-05
0.06050393825043859   -0.001603907457626166   2.3241193758470006e-05
0.06050393825043859   -0.001603907457626166   2.3241193758470006e-05
0.06050393825043859   -0.001603907457626166   2.3241193758470006e-05
0.004217814306308446   -0.01240805375118226   -0.0040157667436224505
0.004217814306308446   -0.01240805375118226   -0.0040157667436224505
0.004217814306308446   -0.01240805375118226   -0.0040157667436224505
0.004217814306308446   -0.01240805375118226   -0.0040157667436224505
0.12033425332900284   0.01397398506011461   0.00644146811238753
0.12033425332900284   0.01397398506011461   0.00644146811238753
0.12033425332900284   0.01397398506011461   0.00644146811238753
0.12033425332900284   0.01397398506011461   0.00644146811238753
0.11951526089767238   0.01648578772185033   0.001030710355082562
0.11951526089767238   0.01648578772185033   0.001030710355082562
0.11951526089767238   0.01648578772185033   0.001030710355082562
0.11951526089767238   0.01648578772185033   0.001030710355082562
0.006261104781344258   -0.004559545140041754   -0.00017041269833766286
0.006261104781344258   -0.004559545140041754   -0.00017041269833766286
0.006261104781344258   -0.004559545140041754   -0.00017041269833766286
0.006261104781344258   -0.004559545140041754   -0.00017041269833766286
0.06169047903080688   0.0036841767093775835   0.0025566099775004045
0.06169047903080688   0.0036841767093775835   0.0025566099775004045
0.06169047903080688   0.0036841767093775835   0.0025566099775004045
0.06169047903080688   0.0036841767093775835   0.0025566099775004045
0.005165360688354458   -0.007193391709746158   -0.00301528659358221
0.005165360688354458   -0.007193391709746158   -0.00301528659358221
0.005165360688354458   -0.007193391709746158   -0.00301528659358221
0.005165360688354458   -0.007193391709746158   -0.00301528659358221
0.12111209803350874   0.01962072733440151   0.005879956421714185
0.12111209803350874   0.01962072733440151   0.005879956421714185
0.12111209803350874   0.01962072733440151   0.005879956421714185
0.12111209803350874   0.01962072733440151   0.005879956421714185
0.11790801510608526   0.02287681543925301   0.0023293263599550094
0.11790801510608526   0.02287681543925301   0.0023293263599550094
0.11790801510608526   0.02287681543925301   0.0023293263599550094
0.11790801510608526   0.02287681543925301   0.0023293263599550094
0.006517931129884739   0.0021933523141731514   -0.0011113549847940082
0.006517931129884739   0.0021933523141731514   -0.0011113549847940082
0.006517931129884739   0.0021933523141731514   -0.0011113549847940082
0.006517931129884739   0.0021933523141731514   -0.0011113549847940082
0.06297317981936557   0.009717598736110687   0.004921802017682921
0.06297317981936557   0.009717598736110687   0.004921802017682921
0.06297317981936557   0.009717598736110687   0.004921802017682921
0.06297317981936557   0.009717598736110687   0.004921802017682921
0.10838273216067316   -0.023029224289935604   -0.010002599906153258
0.10838273216067316   -0.023029224289935604   -0.010002599906153258
0.10838273216067316   -0.023029224289935604   -0.010002599906153258
0.10838273216067316   -0.023029224289935604   -0.010002599906153258
0.22480817087395963   0.014868417622546946   0.007522750310233818
0.22480817087395963   0.014868417622546946   0.007522750310233818
0.22480817087395963   0.014868417622546946   0.007522750310233818
0.22480817087395963   0.014868417622546946   0.007522750310233818
0.22776233293721307   0.006512500657629643   -0.015084148502412355
0.22776233293721307   0.006512500657629643   -0.015084148502412355
0.22776233293721307   0.006512500657629643   -0.015084148502412355
0.22776233293721307   0.006512500657629643   -0.015084148502412355
0.1163275306058058   -0.004228512155004742   0.004610351711520456
0.1163275306058058   -0.004228512155004742   0.004610351711520456
0.1163275306058058   -0.004228512155004742   0.004610351711520456
0.1163275306058058   -0.004228512155004742   0.004610351711520456
0.16083627164851272   -0.0031697766457967347   -0.004294284652857579
0.16083627164851272   -0.0031697766457967347   -0.004294284652857579
0.16083627164851272   -0.0031697766457967347   -0.004294284652857579
0.16083627164851272   -0.0031697766457967347   -0.004294284652857579
0.11189222643884912   -0.015003022664344789   -0.00679165861392104
0.11189222643884912   -0.015003022664344789   -0.00679165861392104
0.11189222643884912   -0.015003022664344789   -0.00679165861392104
0.11189222643884912   -0.015003022664344789   -0.00679165861392104
0.23433758935581128   0.019426963418611595   0.00487767082959667
0.23433758935581128   0.019426963418611595   0.00487767082959667
0.23433758935581128   0.019426963418611595   0.00487767082959667
0.23433758935581128   0.019426963418611595   0.00487767082959667
0.2308615886374782   0.012597652877239407   -0.003841968651856407
0.2308615886374782   0.012597652877239407   -0.003841968651856407
0.2308615886374782   0.012597652877239407   -0.003841968651856407
0.2308615886374782   0.012597652877239407   -0.003841968651856407
0.11623038786549894   -0.0014448042429983828   0.0025369371590641043
0.11623038786549894   -0.0014448042429983828   0.0025369371590641043
0.11623038786549894   -0.0014448042429983828   0.0025369371590641043
0.11623038786549894   -0.0014448042429983828   0.0025369371590641043
0.16990319318638447   0.004279136971011337   0.002860796431033796
0.16990319318638447   0.004279136971011337   0.002860796431033796
0.16990319318638447   0.004279136971011337   0.002860796431033796
0.16990319318638447   0.004279136971011337   0.002860796431033796
0.11261498173892913   -0.011400211929546294   -0.005584685787236079
0.11261498173892913   -0.011400211929546294   -0.005584685787236079
0.11261498173892913   -0.011400211929546294   -0.005584685787236079
0.11261498173892913   -0.011400211929546294   -0.005584685787236079
0.2342329002500158   0.02230896604975518   0.00330327623831597
0.2342329002500158   0.02230896604975518   0.00330327623831597
0.2342329002500158   0.02230896604975518   0.00330327623831597
0.2342329002500158   0.02230896604975518   0.00330327623831597
0.2311443835547157   0.019954485053678472   -0.005717849038538395
0.2311443835547157   0.019954485053678472   -0.005717849038538395
0.2311443835547157   0.019954485053678472   -0.005717849038538395
0.2311443835547157   0.019954485053678472   -0.005717849038538395
0.11414005363196865   0.004837443628415195   0.0015288908002088564
0.11414005363196865   0.004837443628415195   0.0015288908002088564
0.11414005363196865   0.004837443628415195   0.0015288908002088564
0.11414005363196865   0.004837443628415195   0.0015288908002088564
0.16602275274967507   0.0077332448956549844   0.002336159803363178
0.16602275274967507   0.0077332448956549844   0.002336159803363178
0.16602275274967507   0.0077332448956549844   0.002336159803363178
0.16602275274967507   0.0077332448956549844   0.002336159803363178
-0.2463321514049941   -0.010936739433313976   0.013474907157403218
-0.2463321514049941   -0.010936739433313976   0.013474907157403218
-0.2463321514049941   -0.010936739433313976   0.013474907157403218
-0.2463321514049941   -0.010936739433313976   0.013474907157403218
-0.16482226929401717   -0.006774785129076262   -0.0035057894706932158
-0.16482226929401717   -0.006774785129076262   -0.0035057894706932158
-0.16482226929401717   -0.006774785129076262   -0.0035057894706932158
-0.16482226929401717   -0.006774785129076262   -0.0035057894706932158
-0.15843913308127477   0.013586861549567043   0.011221092470712454
-0.15843913308127477   0.013586861549567043   0.011221092470712454
-0.15843913308127477   0.013586861549567043   0.011221092470712454
-0.15843913308127477   0.013586861549567043   0.011221092470712454
-0.2473101443010687   -0.01783780239609669   -0.005444266844695509
-0.2473101443010687   -0.01783780239609669   -0.005444266844695509
-0.2473101443010687   -0.01783780239609669   -0.005444266844695509
-0.2473101443010687   -0.01783780239609669   -0.005444266844695509
-0.19601621446635606   -0.003020326709684204   -0.0007189809606621151
-0.19601621446635606   -0.003020326709684204   -0.0007189809606621151
-0.19601621446635606   -0.003020326709684204   -0.0007189809606621151
-0.19601621446635606   -0.003020326709684204   -0.0007189809606621151
-0.24005807308708804   -0.001987906316596559   0.014966193145707681
-0.24005807308708804   -0.001987906316596559   0.014966193145707681
-0.24005807308708804   -0.001987906316596559   0.014966193145707681
-0.24005807308708804   -0.001987906316596559   0.014966193145707681
-0.1645569380566252   -0.0011287682913028244   -0.004652302565169719
-0.1645569380566252   -0.0011287682913028244   -0.004652302565169719
-0.1645569380566252   -0.0011287682913028244   -0.004652302565169719
-0.1645569380566252   -0.0011287682913028244   -0.004652302565169719
-0.1576214011474354   0.016921590359943263   0.01033702807545829
-0.1576214011474354   0.016921590359943263   0.01033702807545829
-0.1576214011474354   0.016921590359943263   0.01033702807545829
-0.1576214011474354   0.016921590359943263   0.01033702807545829
-0.24309757781217273   -0.014796009201908995   -0.007397451105251092
-0.24309757781217273   -0.014796009201908995   -0.007397451105251092
-0.24309757781217273   -0.014796009201908995   -0.007397451105251092
-0.24309757781217273   -0.014796009201908995   -0.007397451105251092
-0.19611722149086708   0.0008926730098885588   0.002085096807884594
-0.19611722149086708   0.0008926730098885588   0.002085096807884594
-0.19611722149086708   0.0008926730098885588   0.002085096807884594
-0.19611722149086708   0.0008926730098885588   0.002085096807884594
-0.23636661872343137   0.0011645068808014483   0.010296828255745204
-0.23636661872343137   0.0011645068808014483   0.010296828255745204
-0.23636661872343137   0.0011645068808014483   0.010296828255745204
-0.23636661872343137   0.0011645068808014483   0.010296828255745204
-0.16398072372784944   0.0013327107855603815   -0.005870705252227503
-0.16398072372784944   0.0013327107855603815   -0.005870705252227503
-0.16398072372784944   0.0013327107855603815   -0.005870705252227503
-0.16398072372784944   0.0013327107855603815   -0.005870705252227503
-0.15761882722086792   0.01929812016125529   0.008206384451270496
-0.15761882722086792   0.01929812016125529   0.008206384451270496
-0.15761882722086792   0.01929812016125529   0.008206384451270496
-0.15761882722086792   0.01929812016125529   0.008206384451270496
-0.2377332491789911   -0.011466368377429606   -0.009383497698914368
-0.2377332491789911   -0.011466368377429606   -0.009383497698914368
-0.2377332491789911   -0.011466368377429606   -0.009383497698914368
-0.2377332491789911   -0.011466368377429606   -0.009383497698914368
-0.1902130812731987   0.004443352241251239   0.004645006412680569
-0.1902130812731987   0.004443352241251239   0.004645006412680569
-0.1902130812731987   0.004443352241251239   0.004645006412680569
-0.1902130812731987   0.004443352241251239   0.004645006412680569
-0.16507852775052798   -0.015614756757726753   0.004052889875403052
-0.16507852775052798   -0.015614756757726753   0.004052889875403052
-0.16507852775052798   -0.015614756757726753   0.004052889875403052
-0.16507852775052798   -0.015614756757726753   0.004052889875403052
-0.0845115627359067   -0.003344738843901015   0.00010658695798153404
-0.0845115627359067   -0.003344738843901015   0.00010658695798153404
-0.0845115627359067   -0.003344738843901015   0.00010658695798153404
-0.0845115627359067   -0.003344738843901015   0.00010658695798153404
-0.0818991722698795   0.00821927650766813   0.006069957383710639
-0.0818991722698795   0.00821927650766813   0.006069957383710639
-0.0818991722698795   0.00821927650766813   0.006069957383710639
-0.0818991722698795   0.00821927650766813   0.006069957383710639
-0.1676387994537504   -0.015396866137728303   -0.005793511704370273
-0.1676387994537504   -0.015396866137728303   -0.005793511704370273
-0.1676387994537504   -0.015396866137728303   -0.005793511704370273
-0.1676387994537504   -0.015396866137728303   -0.005793511704370273
-0.1243792737069831   -0.006107911074922822   -0.0026905200853505054
-0.1243792737069831   -0.006107911074922822   -0.0026905200853505054
-0.1243792737069831   -0.006107911074922822   -0.0026905200853505054
-0.1243792737069831   -0.006107911074922822   -0.0026905200853505054
-0.1643724405065177   -0.008717571031323958   0.003858987925388387
-0.1643724405065177   -0.008717571031323958   0.003858987925388387
-0.1643724405065177   -0.008717571031323958   0.003858987925388387
-0.1643724405065177   -0.008717571031323958   0.003858987925388387
-0.08451704446909211   0.0021884681492842055   -0.0009885952539679206
-0.08451704446909211   0.0021884681492842055   -0.0009885952539679206
-0.08451704446909211   0.0021884681492842055   -0.0009885952539679206
-0.08451704446909211   0.0021884681492842055   -0.0009885952539679206
-0.08149073137656275   0.013787676456999461   0.0052230904892702
-0.08149073137656275   0.013787676456999461   0.0052230904892702
-0.08149073137656275   0.013787676456999461   0.0052230904892702
-0.08149073137656275   0.013787676456999461   0.0052230904892702
-0.1664906481694524   -0.010228604787674005   -0.006859011887009393
-0.1664906481694524   -0.010228604787674005   -0.006859011887009393
-0.1664906481694524   -0.010228604787674005   -0.006859011887009393
-0.1664906481694524   -0.010228604787674005   -0.006859011887009393
-0.12285846790184025   -0.0005256716623962161   -0.00010263489538063931
-0.12285846790184025   -0.0005256716623962161   -0.00010263489538063931
-0.12285846790184025   -0.0005256716623962161   -0.00010263489538063931
-0.12285846790184025   -0.0005256716623962161   -0.00010263489538063931
-0.16316132467789216   -0.00306605012041411   0.0026250509035317705
-0.16316132467789216   -0.00306605012041411   0.0026250509035317705
-0.16316132467789216   -0.00306605012041411   0.0026250509035317705
-0.16316132467789216   -0.00306605012041411   0.0026250509035317705
-0.08429308135306313   0.007152095304799565   -0.0021530782410308247
-0.08429308135306313   0.007152095304799565   -0.0021530782410308247
-0.08429308135306313   0.007152095304799565   -0.0021530782410308247
-0.08429308135306313   0.007152095304799565   -0.0021530782410308247
-0.08132135172919816   0.019667540478559467   0.0038899477525000583
-0.08132135172919816   0.019667540478559467   0.0038899477525000583
-0.08132135172919816   0.019667540478559467   0.0038899477525000583
-0.08132135172919816   0.019667540478559467   0.0038899477525000583
-0.16551550379281085   -0.004612229020714925   -0.0073666492264748504
-0.16551550379281085   -0.004612229020714925   -0.0073666492264748504
-0.16551550379281085   -0.004612229020714925   -0.0073666492264748504
-0.16551550379281085   -0.004612229020714925   -0.0073666492264748504
-0.1227599314276297   0.00464586791673291   0.0018999326423953591
-0.1227599314276297   0.00464586791673291   0.0018999326423953591
-0.1227599314276297   0.00464586791673291   0.0018999326423953591
-0.1227599314276297   0.00464586791673291   0.0018999326423953591
-0.08756099363267736   -0.01814920348282568   -0.00033610288694769694
-0.08756099363267736   -0.01814920348282568   -0.00033610288694769694
-0.08756099363267736   -0.01814920348282568   -0.00033610288694769694
-0.08756099363267736   -0.01814920348282568   -0.00033610288694769694
-0.004860738545776101   0.0005189022870029823   0.003726689669529145
-0.004860738545776101   0.0005189022870029823   0.003726689669529145
-0.004860738545776101   0.0005189022870029823   0.003726689669529145
-0.004860738545776101   0.0005189022870029823   0.003726689669529145
-0.005038507207651026   0.005057956050935295   0.001802405240338946
-0.005038507207651026   0.005057956050935295   0.001802405240338946
-0.005038507207651026   0.005057956050935295   0.001802405240338946
-0.005038507207651026   0.005057956050935295   0.001802405240338946
-0.0874733867637843   -0.01147084041611034   -0.002110998162035852
-0.0874733867637843   -0.01147084041611034   -0.002110998162035852
-0.0874733867637843   -0.01147084041611034   -0.002110998162035852
-0.0874733867637843   -0.01147084041611034   -0.002110998162035852
-0.046383992813262366   -0.0058017445971736935   -0.0015421600742447656
-0.046383992813262366   -0.0058017445971736935   -0.0015421600742447656
-0.046383992813262366   -0.0058017445971736935   -0.0015421600742447656
-0.046383992813262366   -0.0058017445971736935   -0.0015421600742447656
-0.08737755507640012   -0.011992392165939317   -0.0011102879752850274
-0.08737755507640012   -0.011992392165939317   -0.0011102879752850274
-0.08737755507640012   -0.011992392165939317   -0.0011102879752850274
-0.08737755507640012   -0.011992392165939317   -0.0011102879752850274
-0.004653786126861924   0.006060060568938033   0.002723906126281719
-0.004653786126861924   0.006060060568938033   0.002723906126281719
-0.004653786126861924   0.006060060568938033   0.002723906126281719
-0.004653786126861924   0.006060060568938033   0.002723906126281719
-0.004488320848086119   0.011110820435930873   0.0008137752909708352
-0.004488320848086119   0.011110820435930873   0.0008137752909708352
-0.004488320848086119   0.011110820435930873   0.0008137752909708352
-0.004488320848086119   0.011110820435930873   0.0008137752909708352
-0.08710034811939629   -0.005911972628343698   -0.0031253441395543372
-0.08710034811939629   -0.005911972628343698   -0.0031253441395543372
-0.08710034811939629   -0.005911972628343698   -0.0031253441395543372
-0.08710034811939629   -0.005911972628343698   -0.0031253441395543372
-0.045790060499689346   -0.00022635247398072704   0.0005566997958205509
-0.045790060499689346   -0.00022635247398072704   0.0005566997958205509
-0.045790060499689346   -0.00022635247398072704   0.0005566997958205509
-0.045790060499689346   -0.00022635247398072704   0.0005566997958205509
-0.08697363875369028   -0.006024793492714769   -0.002378976446653215
-0.08697363875369028   -0.006024793492714769   -0.002378976446653215
-0.08697363875369028   -0.006024793492714769   -0.002378976446653215
-0.08697363875369028   -0.006024793492714769   -0.002378976446653215
-0.00421946865074297   0.011619202863351106   0.0016496538502663496
-0.00421946865074297   0.011619202863351106   0.0016496538502663496
-0.00421946865074297   0.011619202863351106   0.0016496538502663496
-0.00421946865074297   0.011619202863351106   0.0016496538502663496
-0.004252222210155317   0.017334538108484492   -0.00023714849393975147
-0.004252222210155317   0.017334538108484492   -0.00023714849393975147
-0.004252222210155317   0.017334538108484492   -0.00023714849393975147
-0.004252222210155317   0.017334538108484492   -0.00023714849393975147
-0.08691885344585998   -0.0002678071930825761   -0.004162213159166622
-0.08691885344585998   -0.0002678071930825761   -0.004162213159166622
-0.08691885344585998   -0.0002678071930825761   -0.004162213159166622
-0.08691885344585998   -0.0002678071930825761   -0.004162213159166622
-0.045294862021700265   0.005355201060687247   0.002484061011840496
-0.045294862021700265   0.005355201060687247   0.002484061011840496
-0.045294862021700265   0.005355201060687247   0.002484061011840496
-0.045294862021700265   0.005355201060687247   0.002484061011840496
-0.010604479715365114   -0.020125611183351648   -0.00434750270806126
-0.010604479715365114   -0.020125611183351648   -0.00434750270806126
-0.010604479715365114   -0.020125611183351648   -0.00434750270806126
-0.010604479715365114   -0.020125611183351648   -0.00434750270806126
0.07422596200781358   0.004995504365963115   0.007106747369523259
0.07422596200781358   0.004995504365963115   0.007106747369523259
0.07422596200781358   0.004995504365963115   0.007106747369523259
0.07422596200781358   0.004995504365963115   0.007106747369523259
0.07175286212294903   0.002372538839183711   -0.002984371786213158
0.07175286212294903   0.002372538839183711   -0.002984371786213158
0.07175286212294903   0.002372538839183711   -0.002984371786213158
0.07175286212294903   0.002372538839183711   -0.002984371786213158
-0.007511306911146563   -0.00716369397104829   0.001660056744844846
-0.007511306911146563   -0.00716369397104829   0.001660056744844846
-0.007511306911146563   -0.00716369397104829   0.001660056744844846
-0.007511306911146563   -0.00716369397104829   0.001660056744844846
0.03149745227241567   -0.004888553793828123   -0.000908783285434422
0.03149745227241567   -0.004888553793828123   -0.000908783285434422
0.03149745227241567   -0.004888553793828123   -0.000908783285434422
0.03149745227241567   -0.004888553793828123   -0.000908783285434422
-0.010426167143995855   -0.01456831694587718   -0.005509621444572723
-0.010426167143995855   -0.01456831694587718   -0.005509621444572723
-0.010426167143995855   -0.01456831694587718   -0.005509621444572723
-0.010426167143995855   -0.01456831694587718   -0.005509621444572723
0.07521545484204314   0.010324894300257287   0.006376236348183037
0.07521545484204314   0.010324894300257287   0.006376236348183037
0.07521545484204314   0.010324894300257287   0.006376236348183037
0.07521545484204314   0.010324894300257287   0.006376236348183037
0.07316861975006082   0.008019530489879512   -0.0041825495174478925
0.07316861975006082   0.008019530489879512   -0.0041825495174478925
0.07316861975006082   0.008019530489879512   -0.0041825495174478925
0.07316861975006082   0.008019530489879512   -0.0041825495174478925
-0.007195204152965317   -0.002177859337306366   0.0005680385398121607
-0.007195204152965317   -0.002177859337306366   0.0005680385398121607
-0.007195204152965317   -0.002177859337306366   0.0005680385398121607
-0.007195204152965317   -0.002177859337306366   0.0005680385398121607
0.03198529340202076   0.00019290146090854884   0.001190994466674344
0.03198529340202076   0.00019290146090854884   0.001190994466674344
0.03198529340202076   0.00019290146090854884   0.001190994466674344
0.03198529340202076   0.00019290146090854884   0.001190994466674344
-0.010034515334476246   -0.009121551637123426   -0.006684825067925521
-0.010034515334476246   -0.009121551637123426   -0.006684825067925521
-0.010034515334476246   -0.009121551637123426   -0.006684825067925521
-0.010034515334476246   -0.009121551637123426   -0.006684825067925521
0.07660606094236835   0.015561352800493039   0.005462834133475507
0.07660606094236835   0.015561352800493039   0.005462834133475507
0.07660606094236835   0.015561352800493039   0.005462834133475507
0.07660606094236835   0.015561352800493039   0.005462834133475507
0.07411057528578104   0.015047138982675907   -0.004435065798176522
0.07411057528578104   0.015047138982675907   -0.004435065798176522
0.07411057528578104   0.015047138982675907   -0.004435065798176522
0.07411057528578104   0.015047138982675907   -0.004435065798176522
-0.007057096272036286   0.0035956096265020864   -0.0005225903213621175
-0.007057096272036286   0.0035956096265020864   -0.0005225903213621175
-0.007057096272036286   0.0035956096265020864   -0.0005225903213621175
-0.007057096272036286   0.0035956096265020864   -0.0005225903213621175
0.03333820764631754   0.005801116310806849   0.003659854304946889
0.03333820764631754   0.005801116310806849   0.003659854304946889
0.03333820764631754   0.005801116310806849   0.003659854304946889
0.03333820764631754   0.005801116310806849   0.003659854304946889
0.06605967445831482   -0.020109724104191797   -0.008619461907815101
0.06605967445831482   -0.020109724104191797   -0.008619461907815101
0.06605967445831482   -0.020109724104191797   -0.008619461907815101
0.06605967445831482   -0.020109724104191797   -0.008619461907815101
0.14722686689631156   0.010968001889011932   0.008148473931869118
0.14722686689631156   0.010968001889011932   0.008148473931869118
0.14722686689631156   0.010968001889011932   0.008148473931869118
0.14722686689631156   0.010968001889011932   0.008148473931869118
0.14613398554245188   -0.0014858807980154577   -0.011482946440180166
0.14613398554245188   -0.0014858807980154577   -0.011482946440180166
0.14613398554245188   -0.0014858807980154577   -0.011482946440180166
0.14613398554245188   -0.0014858807980154577   -0.011482946440180166
0.07271674308728059   -0.001331859031329756   0.0055394309059580895
0.07271674308728059   -0.001331859031329756   0.0055394309059580895
0.07271674308728059   -0.001331859031329756   0.0055394309059580895
0.07271674308728059   -0.001331859031329756   0.0055394309059580895
0.10277726806697042   -0.004119219172379011   -0.0035202667062393415
0.10277726806697042   -0.004119219172379011   -0.0035202667062393415
0.10277726806697042   -0.004119219172379011   -0.0035202667062393415
0.10277726806697042   -0.004119219172379011   -0.0035202667062393415
0.06629573518486487   -0.017280362590822516   -0.010617105046627488
0.06629573518486487   -0.017280362590822516   -0.010617105046627488
0.06629573518486487   -0.017280362590822516   -0.010617105046627488
0.06629573518486487   -0.017280362590822516   -0.010617105046627488
0.1530107968784519   0.0149184261950615   0.006496803246743029
0.1530107968784519   0.0149184261950615   0.006496803246743029
0.1530107968784519   0.0149184261950615   0.006496803246743029
0.1530107968784519   0.0149184261950615   0.006496803246743029
0.15016209224889981   0.0017349843195491599   -0.01549582441159811
0.15016209224889981   0.0017349843195491599   -0.01549582441159811
0.15016209224889981   0.0017349843195491599   -0.01549582441159811
0.15016209224889981   0.0017349843195491599   -0.01549582441159811
0.07346505872663471   0.0011316646585431828   0.004187511196758577
0.07346505872663471   0.0011316646585431828   0.004187511196758577
0.07346505872663471   0.0011316646585431828   0.004187511196758577
0.07346505872663471   0.0011316646585431828   0.004187511196758577
0.10780746243436003   -0.0006007879318883497   -0.000990095404211357
0.10780746243436003   -0.0006007879318883497   -0.000990095404211357
0.10780746243436003   -0.0006007879318883497   -0.000990095404211357
0.10780746243436003   -0.0006007879318883497   -0.000990095404211357
0.06726111564514416   -0.01407179502442725   -0.011628744527724484
0.06726111564514416   -0.01407179502442725   -0.011628744527724484
0.06726111564514416   -0.01407179502442725   -0.011628744527724484
0.06726111564514416   -0.01407179502442725   -0.011628744527724484
0.15737936062680535   0.017951769298934602   0.004373732498545036
0.15737936062680535   0.017951769298934602   0.004373732498545036
0.15737936062680535   0.017951769298934602   0.004373732498545036
0.15737936062680535   0.017951769298934602   0.004373732498545036
0.15653389341535043   0.010073718497225166   -0.014683574639123106
0.15653389341535043   0.010073718497225166   -0.014683574639123106
0.15653389341535043   0.010073718497225166   -0.014683574639123106
0.15653389341535043   0.010073718497225166   -0.014683574639123106
0.07389632762847609   0.006443514989480568   0.0030973199084945594
0.07389632762847609   0.006443514989480568   0.0030973199084945594
0.07389632762847609   0.006443514989480568   0.0030973199084945594
0.07389632762847609   0.006443514989480568   0.0030973199084945594
0.1089951939977909   0.0033669939662916114   0.0018649928216578574
0.1089951939977909   0.0033669939662916114   0.0018649928216578574
0.1089951939977909   0.0033669939662916114   0.0018649928216578574
0.1089951939977909   0.0033669939662916114   0.0018649928216578574
-0.1727166356215093   -0.005254272319113448   0.011991140906613018
-0.1727166356215093   -0.005254272319113448   0.011991140906613018
-0.1727166356215093   -0.005254272319113448   0.011991140906613018
-0.1727166356215093   -0.005254272319113448   0.011991140906613018
-0.12241371201496126   -0.008580448731817656   -0.0044331753786331935
-0.12241371201496126   -0.008580448731817656   -0.0044331753786331935
-0.12241371201496126   -0.008580448731817656   -0.0044331753786331935
-0.12241371201496126   -0.008580448731817656   -0.0044331753786331935
-0.1149641898275873   0.011754581830437809   0.01017169981449557
-0.1149641898275873   0.011754581830437809   0.01017169981449557
-0.1149641898275873   0.011754581830437809   0.01017169981449557
-0.1149641898275873   0.011754581830437809   0.01017169981449557
-0.1727119638202227   -0.014307138780070169   -0.006504995113307298
-0.1727119638202227   -0.014307138780070169   -0.006504995113307298
-0.1727119638202227   -0.014307138780070169   -0.006504995113307298
-0.1727119638202227   -0.014307138780070169   -0.006504995113307298
-0.1398189157188285   -0.002137059989924913   -0.0006318272712610455
-0.1398189157188285   -0.002137059989924913   -0.0006318272712610455
-0.1398189157188285   -0.002137059989924913   -0.0006318272712610455
-0.1398189157188285   -0.002137059989924913   -0.0006318272712610455
-0.1659177227876576   0.001801124607845185   0.011357946661602768
-0.1659177227876576   0.001801124607845185   0.011357946661602768
-0.1659177227876576   0.001801124607845185   0.011357946661602768
-0.1659177227876576   0.001801124607845185   0.011357946661602768
-0.12119814173418347   -0.0037933924315088074   -0.005450085456537773
-0.12119814173418347   -0.0037933924315088074   -0.005450085456537773
-0.12119814173418347   -0.0037933924315088074   -0.005450085456537773
-0.12119814173418347   -0.0037933924315088074   -0.005450085456537773
-0.11386688502429616   0.014241574913154028   0.008559776682187457
-0.11386688502429616   0.014241574913154028   0.008559776682187457
-0.11386688502429616   0.014241574913154028   0.008559776682187457
-0.11386688502429616   0.014241574913154028   0.008559776682187457
-0.1684216289767718   -0.011526400584798643   -0.008173571839283675
-0.1684216289767718   -0.011526400584798643   -0.008173571839283675
-0.1684216289767718   -0.011526400584798643   -0.008173571839283675
-0.1684216289767718   -0.011526400584798643   -0.008173571839283675
-0.13869615683323178   0.0011226192062199249   0.0012531807718319243
-0.13869615683323178   0.0011226192062199249   0.0012531807718319243
-0.13869615683323178   0.0011226192062199249   0.0012531807718319243
-0.13869615683323178   0.0011226192062199249   0.0012531807718319243
-0.1617130876594099   0.004774104901865986   0.009068629260860987
-0.1617130876594099   0.004774104901865986   0.009068629260860987
-0.1617130876594099   0.004774104901865986   0.009068629260860987
-0.1617130876594099   0.004774104901865986   0.009068629260860987
-0.12007583790255029   -0.0015593421344027199   -0.00668407066152557
-0.12007583790255029   -0.0015593421344027199   -0.00668407066152557
-0.12007583790255029   -0.0015593421344027199   -0.00668407066152557
-0.12007583790255029   -0.0015593421344027199   -0.00668407066152557
-0.11326606499614703   0.016775942569086093   0.00736087285081812
-0.11326606499614703   0.016775942569086093   0.00736087285081812
-0.11326606499614703   0.016775942569086093   0.00736087285081812
-0.11326606499614703   0.016775942569086093   0.00736087285081812
-0.1627332899063266   -0.007799435420131135   -0.009755741917965098
-0.1627332899063266   -0.007799435420131135   -0.009755741917965098
-0.1627332899063266   -0.007799435420131135   -0.009755741917965098
-0.1627332899063266   -0.007799435420131135   -0.009755741917965098
-0.13338802858733567   0.0042256122897486245   0.0038346642281110854
-0.13338802858733567   0.0042256122897486245   0.0038346642281110854
-0.13338802858733567   0.0042256122897486245   0.0038346642281110854
-0.13338802858733567   0.0042256122897486245   0.0038346642281110854
-0.12080390862385382   -0.009681205703391465   0.00471659854847641
-0.12080390862385382   -0.009681205703391465   0.00471659854847641
-0.12080390862385382   -0.009681205703391465   0.00471659854847641
-0.12080390862385382   -0.009681205703391465   0.00471659854847641
-0.07148827254132989   -0.005550111877298031   -0.0007215404387791893
-0.07148827254132989   -0.005550111877298031   -0.0007215404387791893
-0.07148827254132989   -0.005550111877298031   -0.0007215404387791893
-0.07148827254132989   -0.005550111877298031   -0.0007215404387791893
-0.0678207359133291   0.006821030134881091   0.005477906118253475
-0.0678207359133291   0.006821030134881091   0.005477906118253475
-0.0678207359133291   0.006821030134881091   0.005477906118253475
-0.0678207359133291   0.006821030134881091   0.005477906118253475
-0.12269384494033266   -0.011624068084541195   -0.005097925834252272
-0.12269384494033266   -0.011624068084541195   -0.005097925834252272
-0.12269384494033266   -0.011624068084541195   -0.005097925834252272
-0.12269384494033266   -0.011624068084541195   -0.005097925834252272
-0.0953605187942045   -0.004551877093821613   -0.002085644220624616
-0.0953605187942045   -0.004551877093821613   -0.002085644220624616
-0.0953605187942045   -0.004551877093821613   -0.002085644220624616
-0.0953605187942045   -0.004551877093821613   -0.002085644220624616
-0.11933981939666216   -0.0038072841879374063   0.003855417987495972
-0.11933981939666216   -0.0038072841879374063   0.003855417987495972
-0.11933981939666216   -0.0038072841879374063   0.003855417987495972
-0.11933981939666216   -0.0038072841879374063   0.003855417987495972
-0.0707421860291485   -0.0005631783338716882   -0.0017451359920908124
-0.0707421860291485   -0.0005631783338716882   -0.0017451359920908124
-0.0707421860291485   -0.0005631783338716882   -0.0017451359920908124
-0.0707421860291485   -0.0005631783338716882   -0.0017451359920908124
-0.06696375219720131   0.011943177810717461   0.0044730051326968435
-0.06696375219720131   0.011943177810717461   0.0044730051326968435
-0.06696375219720131   0.011943177810717461   0.0044730051326968435
-0.06696375219720131   0.011943177810717461   0.0044730051326968435
-0.12099816123980096   -0.006836348842352572   -0.006018680639830025
-0.12099816123980096   -0.006836348842352572   -0.006018680639830025
-0.12099816123980096   -0.006836348842352572   -0.006018680639830025
-0.12099816123980096   -0.006836348842352572   -0.006018680639830025
-0.09351901119874227   0.00042753009984742435   5.717450733335773e-05
-0.09351901119874227   0.00042753009984742435   5.717450733335773e-05
-0.09351901119874227   0.00042753009984742435   5.717450733335773e-05
-0.09351901119874227   0.00042753009984742435   5.717450733335773e-05
-0.11739122133711366   0.0016658474687053504   0.0035138225625486446
-0.11739122133711366   0.0016658474687053504   0.0035138225625486446
-0.11739122133711366   0.0016658474687053504   0.0035138225625486446
-0.11739122133711366   0.0016658474687053504   0.0035138225625486446
-0.07003367982196307   0.0039779937775855055   -0.0029114489579794654
-0.07003367982196307   0.0039779937775855055   -0.0029114489579794654
-0.07003367982196307   0.0039779937775855055   -0.0029114489579794654
-0.07003367982196307   0.0039779937775855055   -0.0029114489579794654
-0.06613405226498785   0.017444846701321993   0.003537277855888669
-0.06613405226498785   0.017444846701321993   0.003537277855888669
-0.06613405226498785   0.017444846701321993   0.003537277855888669
-0.06613405226498785   0.017444846701321993   0.003537277855888669
-0.11974616598252324   -0.0016311847177810646   -0.00663250479419583
-0.11974616598252324   -0.0016311847177810646   -0.00663250479419583
-0.11974616598252324   -0.0016311847177810646   -0.00663250479419583
-0.11974616598252324   -0.0016311847177810646   -0.00663250479419583
-0.09278330537437514   0.005171706749507683   0.0021197731024048616
-0.09278330537437514   0.005171706749507683   0.0021197731024048616
-0.09278330537437514   0.005171706749507683   0.0021197731024048616
-0.09278330537437514   0.005171706749507683   0.0021197731024048616
-0.0729200580489617   -0.013770346265323127   0.0003397664110861096
-0.0729200580489617   -0.013770346265323127   0.0003397664110861096
-0.0729200580489617   -0.013770346265323127   0.0003397664110861096
-0.0729200580489617   -0.013770346265323127   0.0003397664110861096
-0.02095050334449035   -0.0019390128467841232   0.0029407786932844834
-0.02095050334449035   -0.0019390128467841232   0.0029407786932844834
-0.02095050334449035   -0.0019390128467841232   0.0029407786932844834
-0.02095050334449035   -0.0019390128467841232   0.0029407786932844834
-0.020501976028934003   0.0025464309441319546   0.001003947904323407
-0.020501976028934003   0.0025464309441319546   0.001003947904323407
-0.020501976028934003   0.0025464309441319546   0.001003947904323407
-0.020501976028934003   0.0025464309441319546   0.001003947904323407
-0.07212687429549569   -0.007910431036288704   -0.0013213246214104843
-0.07212687429549569   -0.007910431036288704   -0.0013213246214104843
-0.07212687429549569   -0.007910431036288704   -0.0013213246214104843
-0.07212687429549569   -0.007910431036288704   -0.0013213246214104843
-0.04671139371727457   -0.00503317427374429   -0.0014999401889811586
-0.04671139371727457   -0.00503317427374429   -0.0014999401889811586
-0.04671139371727457   -0.00503317427374429   -0.0014999401889811586
-0.04671139371727457   -0.00503317427374429   -0.0014999401889811586
-0.07199970446577103   -0.008060904688262763   -0.0005350018208131466
-0.07199970446577103   -0.008060904688262763   -0.0005350018208131466
-0.07199970446577103   -0.008060904688262763   -0.0005350018208131466
-0.07199970446577103   -0.008060904688262763   -0.0005350018208131466
-0.020195192244496753   0.003130858210267918   0.001953439560373681
-0.020195192244496753   0.003130858210267918   0.001953439560373681
-0.020195192244496753   0.003130858210267918   0.001953439560373681
-0.020195192244496753   0.003130858210267918   0.001953439560373681
-0.019463281015758893   0.008281779820039161   0.00020635099872255138
-0.019463281015758893   0.008281779820039161   0.00020635099872255138
-0.019463281015758893   0.008281779820039161   0.00020635099872255138
-0.019463281015758893   0.008281779820039161   0.00020635099872255138
-0.07126651250369281   -0.0028002108073482447   -0.002297407781694986
-0.07126651250369281   -0.0028002108073482447   -0.002297407781694986
-0.07126651250369281   -0.0028002108073482447   -0.002297407781694986
-0.07126651250369281   -0.0028002108073482447   -0.002297407781694986
-0.04559971290680015   9.737769357769273e-05   0.000529622872069473
-0.04559971290680015   9.737769357769273e-05   0.000529622872069473
-0.04559971290680015   9.737769357769273e-05   0.000529622872069473
-0.04559971290680015   9.737769357769273e-05   0.000529622872069473
-0.0709943528754079   -0.002344224034299059   -0.0013925964133195499
-0.0709943528754079   -0.002344224034299059   -0.0013925964133195499
-0.0709943528754079   -0.002344224034299059   -0.0013925964133195499
-0.0709943528754079   -0.002344224034299059   -0.0013925964133195499
-0.019334498533076006   0.008226735157957785   0.0009053080742183494
-0.019334498533076006   0.008226735157957785   0.0009053080742183494
-0.019334498533076006   0.008226735157957785   0.0009053080742183494
-0.019334498533076006   0.008226735157957785   0.0009053080742183494
-0.01852427861235393   0.014100542356777858   -0.0007150402433704923
-0.01852427861235393   0.014100542356777858   -0.0007150402433704923
-0.01852427861235393   0.014100542356777858   -0.0007150402433704923
-0.01852427861235393   0.014100542356777858   -0.0007150402433704923
-0.07052404371307322   0.0023644065070855085   -0.0033322391903014958
-0.07052404371307322   0.0023644065070855085   -0.0033322391903014958
-0.07052404371307322   0.0023644065070855085   -0.0033322391903014958
-0.07052404371307322   0.0023644065070855085   -0.0033322391903014958
-0.044586225509251586   0.005253000126894046   0.0024851406379845834
-0.044586225509251586   0.005253000126894046   0.0024851406379845834
-0.044586225509251586   0.005253000126894046   0.0024851406379845834
-0.044586225509251586   0.005253000126894046   0.0024851406379845834
-0.025355390734272776   -0.017122208230700993   -0.0039004628717109373
-0.025355390734272776   -0.017122208230700993   -0.0039004628717109373
-0.025355390734272776   -0.017122208230700993   -0.0039004628717109373
-0.025355390734272776   -0.017122208230700993   -0.0039004628717109373
0.028604563216048748   0.0020814878603352587   0.00635880539285738
0.028604563216048748   0.0020814878603352587   0.00635880539285738
0.028604563216048748   0.0020814878603352587   0.00635880539285738
0.028604563216048748   0.0020814878603352587   0.00635880539285738
0.026239336988980157   -0.0015036585848740881   -0.0037904102244108637
0.026239336988980157   -0.0015036585848740881   -0.0037904102244108637
0.026239336988980157   -0.0015036585848740881   -0.0037904102244108637
0.026239336988980157   -0.0015036585848740881   -0.0037904102244108637
-0.021492975461160208   -0.0038539209599858988   0.00244930264731006
-0.021492975461160208   -0.0038539209599858988   0.00244930264731006
-0.021492975461160208   -0.0038539209599858988   0.00244930264731006
-0.021492975461160208   -0.0038539209599858988   0.00244930264731006
0.0018261201244764312   -0.004954383610103026   -0.001080519314446767
0.0018261201244764312   -0.004954383610103026   -0.001080519314446767
0.0018261201244764312   -0.004954383610103026   -0.001080519314446767
0.0018261201244764312   -0.004954383610103026   -0.001080519314446767
-0.024555277748450486   -0.011873104531086212   -0.004843025218040842
-0.024555277748450486   -0.011873104531086212   -0.004843025218040842
-0.024555277748450486   -0.011873104531086212   -0.004843025218040842
-0.024555277748450486   -0.011873104531086212   -0.004843025218040842
0.02981659401504438   0.007030479725000201   0.005561736596035972
0.02981659401504438   0.007030479725000201   0.005561736596035972
0.02981659401504438   0.007030479725000201   0.005561736596035972
0.02981659401504438   0.007030479725000201   0.005561736596035972
0.028197070028503905   0.003925524891781035   -0.00430731449622006
0.028197070028503905   0.003925524891781035   -0.00430731449622006
0.028197070028503905   0.003925524891781035   -0.00430731449622006
0.028197070028503905   0.003925524891781035   -0.00430731449622006
-0.020745755695282458   0.0007155018274839307   0.0013602555936597428
-0.020745755695282458   0.0007155018274839307   0.0013602555936597428
-0.020745755695282458   0.0007155018274839307   0.0013602555936597428
-0.020745755695282458   0.0007155018274839307   0.0013602555936597428
0.002883241947919339   -0.0002696085205627194   0.0009947785979430499
0.002883241947919339   -0.0002696085205627194   0.0009947785979430499
0.002883241947919339   -0.0002696085205627194   0.0009947785979430499
0.002883241947919339   -0.0002696085205627194   0.0009947785979430499
-0.023701763312493282   -0.006778029175130384   -0.005926251489779963
-0.023701763312493282   -0.006778029175130384   -0.005926251489779963
-0.023701763312493282   -0.006778029175130384   -0.005926251489779963
-0.023701763312493282   -0.006778029175130384   -0.005926251489779963
0.03160069851429846   0.011866676762979061   0.00476967606155447
0.03160069851429846   0.011866676762979061   0.00476967606155447
0.03160069851429846   0.011866676762979061   0.00476967606155447
0.03160069851429846   0.011866676762979061   0.00476967606155447
0.029783616194068205   0.010068213654936632   -0.005000282645295804
0.029783616194068205   0.010068213654936632   -0.005000282645295804
0.029783616194068205   0.010068213654936632   -0.005000282645295804
0.029783616194068205   0.010068213654936632   -0.005000282645295804
-0.019949761649791564   0.005934315422446179   0.00032377150377301206
-0.019949761649791564   0.005934315422446179   0.00032377150377301206
-0.019949761649791564   0.005934315422446179   0.00032377150377301206
-0.019949761649791564   0.005934315422446179   0.00032377150377301206
0.004463137049898499   0.0047635185603835725   0.003123100597978809
0.004463137049898499   0.0047635185603835725   0.003123100597978809
0.004463137049898499   0.0047635185603835725   0.003123100597978809
0.004463137049898499   0.0047635185603835725   0.003123100597978809
0.021894835022162495   -0.01729147401286587   -0.007816873703372751
0.021894835022162495   -0.01729147401286587   -0.007816873703372751
0.021894835022162495   -0.01729147401286587   -0.007816873703372751
0.021894835022162495   -0.01729147401286587   -0.007816873703372751
0.07161614465865707   0.007255115034071674   0.008438697821276932
0.07161614465865707   0.007255115034071674   0.008438697821276932
0.07161614465865707   0.007255115034071674   0.008438697821276932
0.07161614465865707   0.007255115034071674   0.008438697821276932
0.07077548698605148   -0.004890705123296108   -0.010313543452644553
0.07077548698605148   -0.004890705123296108   -0.010313543452644553
0.07077548698605148   -0.004890705123296108   -0.010313543452644553
0.07077548698605148   -0.004890705123296108   -0.010313543452644553
0.028893043572339523   0.0016452168462194197   0.006329247261292464
0.028893043572339523   0.0016452168462194197   0.006329247261292464
0.028893043572339523   0.0016452168462194197   0.006329247261292464
0.028893043572339523   0.0016452168462194197   0.006329247261292464
0.045755430222123694   -0.0037750100485689237   -0.0026087671096822807
0.045755430222123694   -0.0037750100485689237   -0.0026087671096822807
0.045755430222123694   -0.0037750100485689237   -0.0026087671096822807
0.045755430222123694   -0.0037750100485689237   -0.0026087671096822807
0.022632687692526153   -0.014268349458152715   -0.009058965833402266
0.022632687692526153   -0.014268349458152715   -0.009058965833402266
0.022632687692526153   -0.014268349458152715   -0.009058965833402266
0.022632687692526153   -0.014268349458152715   -0.009058965833402266
0.07756071857873732   0.011547736893948501   0.007174172493540072
0.07756071857873732   0.011547736893948501   0.007174172493540072
0.07756071857873732   0.011547736893948501   0.007174172493540072
0.07756071857873732   0.011547736893948501   0.007174172493540072
0.07511420470317759   -0.0018638004905887108   -0.012438960525441876
0.07511420470317759   -0.0018638004905887108   -0.012438960525441876
0.07511420470317759   -0.0018638004905887108   -0.012438960525441876
0.07511420470317759   -0.0018638004905887108   -0.012438960525441876
0.03004164857872617   0.003867042985749734   0.004974060160922331
0.03004164857872617   0.003867042985749734   0.004974060160922331
0.03004164857872617   0.003867042985749734   0.004974060160922331
0.03004164857872617   0.003867042985749734   0.004974060160922331
0.05002065143009414   -0.0006906888009271753   -0.00019408233538938937
0.05002065143009414   -0.0006906888009271753   -0.00019408233538938937
0.05002065143009414   -0.0006906888009271753   -0.00019408233538938937
0.05002065143009414   -0.0006906888009271753   -0.00019408233538938937
0.02381228162675948   -0.011747949436180159   -0.010557782176981001
0.02381228162675948   -0.011747949436180159   -0.010557782176981001
0.02381228162675948   -0.011747949436180159   -0.010557782176981001
0.02381228162675948   -0.011747949436180159   -0.010557782176981001
0.08189663299197117   0.014304253268168091   0.005305127159769131
0.08189663299197117   0.014304253268168091   0.005305127159769131
0.08189663299197117   0.014304253268168091   0.005305127159769131
0.08189663299197117   0.014304253268168091   0.005305127159769131
0.08184276911711512   0.004738074346743185   -0.013376324793831388
0.08184276911711512   0.004738074346743185   -0.013376324793831388
0.08184276911711512   0.004738074346743185   -0.013376324793831388
0.08184276911711512   0.004738074346743185   -0.013376324793831388
0.031212945328263908   0.008246488840722824   0.003968087839896313
0.031212945328263908   0.008246488840722824   0.003968087839896313
0.031212945328263908   0.008246488840722824   0.003968087839896313
0.031212945328263908   0.008246488840722824   0.003968087839896313
0.05233705212781331   0.002654054890082273   0.0019336569486448386
0.05233705212781331   0.002654054890082273   0.0019336569486448386
0.05233705212781331   0.002654054890082273   0.0019336569486448386
0.05233705212781331   0.002654054890082273   0.0019336569486448386
-0.10056717606779193   -0.0012160712791860137   0.010542175937355682
-0.10056717606779193   -0.0012160712791860137   0.010542175937355682
-0.10056717606779193   -0.0012160712791860137   0.010542175937355682
-0.10056717606779193   -0.0012160712791860137   0.010542175937355682
-0.08047788401685703   -0.010554510329376456   -0.0050584039427958
-0.08047788401685703   -0.010554510329376456   -0.0050584039427958
-0.08047788401685703   -0.010554510329376456   -0.0050584039427958
-0.08047788401685703   -0.010554510329376456   -0.0050584039427958
-0.07276399750977308   0.00877710933170288   0.008968279135108361
-0.07276399750977308   0.00877710933170288   0.008968279135108361
-0.07276399750977308   0.00877710933170288   0.008968279135108361
-0.07276399750977308   0.00877710933170288   0.008968279135108361
-0.10024316693003744   -0.010996847523073684   -0.006948236412533955
-0.10024316693003744   -0.010996847523073684   -0.006948236412533955
-0.10024316693003744   -0.010996847523073684   -0.006948236412533955
-0.10024316693003744   -0.010996847523073684   -0.006948236412533955
-0.08522071685356884   -0.0022414660803290083   -0.001574056934199747
-0.08522071685356884   -0.0022414660803290083   -0.001574056934199747
-0.08522071685356884   -0.0022414660803290083   -0.001574056934199747
-0.08522071685356884   -0.0022414660803290083   -0.001574056934199747
-0.09368453152555482   0.004807471099071613   0.010040621987733766
-0.09368453152555482   0.004807471099071613   0.010040621987733766
-0.09368453152555482   0.004807471099071613   0.010040621987733766
-0.09368453152555482   0.004807471099071613   0.010040621987733766
-0.07884848804960738   -0.006553064425793391   -0.006123999806566372
-0.07884848804960738   -0.006553064425793391   -0.006123999806566372
-0.07884848804960738   -0.006553064425793391   -0.006123999806566372
-0.07884848804960738   -0.006553064425793391   -0.006123999806566372
-0.07106779534499168   0.011089596844723526   0.0075525816765470545
-0.07106779534499168   0.011089596844723526   0.0075525816765470545
-0.07106779534499168   0.011089596844723526   0.0075525816765470545
-0.07106779534499168   0.011089596844723526   0.0075525816765470545
-0.09553039914970095   -0.008371559173108093   -0.008627061280022729
-0.09553039914970095   -0.008371559173108093   -0.008627061280022729
-0.09553039914970095   -0.008371559173108093   -0.008627061280022729
-0.09553039914970095   -0.008371559173108093   -0.008627061280022729
-0.08275396900976009   0.0007616198729134931   0.000373370581577266
-0.08275396900976009   0.0007616198729134931   0.000373370581577266
-0.08275396900976009   0.0007616198729134931   0.000373370581577266
-0.08275396900976009   0.0007616198729134931   0.000373370581577266
-0.08899423819737762   0.007608524000528239   0.008073660307956573
-0.08899423819737762   0.007608524000528239   0.008073660307956573
-0.08899423819737762   0.007608524000528239   0.008073660307956573
-0.08899423819737762   0.007608524000528239   0.008073660307956573
-0.0771621185163918   -0.00444864854798961   -0.007380788787739458
-0.0771621185163918   -0.00444864854798961   -0.007380788787739458
-0.0771621185163918   -0.00444864854798961   -0.007380788787739458
-0.0771621185163918   -0.00444864854798961   -0.007380788787739458
-0.0697271365271749   0.014054636716018998   0.006508465383633853
-0.0697271365271749   0.014054636716018998   0.006508465383633853
-0.0697271365271749   0.014054636716018998   0.006508465383633853
-0.0697271365271749   0.014054636716018998   0.006508465383633853
-0.08921443510222969   -0.004151658338782449   -0.009962648705319644
-0.08921443510222969   -0.004151658338782449   -0.009962648705319644
-0.08921443510222969   -0.004151658338782449   -0.009962648705319644
-0.08921443510222969   -0.004151658338782449   -0.009962648705319644
-0.07785634375024672   0.0037711471658473765   0.0027501090977284717
-0.07785634375024672   0.0037711471658473765   0.0027501090977284717
-0.07785634375024672   0.0037711471658473765   0.0027501090977284717
-0.07785634375024672   0.0037711471658473765   0.0027501090977284717
-0.07743436032229002   -0.005561733754668063   0.005166437955330783
-0.07743436032229002   -0.005561733754668063   0.005166437955330783
-0.07743436032229002   -0.005561733754668063   0.005166437955330783
-0.07743436032229002   -0.005561733754668063   0.005166437955330783
-0.058661560779006056   -0.007977547265518402   -0.0014861670533578633
-0.058661560779006056   -0.007977547265518402   -0.0014861670533578633
-0.058661560779006056   -0.007977547265518402   -0.0014861670533578633
-0.058661560779006056   -0.007977547265518402   -0.0014861670533578633
-0.054441219321346455   0.003964188252335736   0.004590730231144251
-0.054441219321346455   0.003964188252335736   0.004590730231144251
-0.054441219321346455   0.003964188252335736   0.004590730231144251
-0.054441219321346455   0.003964188252335736   0.004590730231144251
-0.07876774507378388   -0.008056562720779526   -0.004216786632461786
-0.07876774507378388   -0.008056562720779526   -0.004216786632461786
-0.07876774507378388   -0.008056562720779526   -0.004216786632461786
-0.07876774507378388   -0.008056562720779526   -0.004216786632461786
-0.06718492985647175   -0.004031464676113419   -0.0019178220852275373
-0.06718492985647175   -0.004031464676113419   -0.0019178220852275373
-0.06718492985647175   -0.004031464676113419   -0.0019178220852275373
-0.06718492985647175   -0.004031464676113419   -0.0019178220852275373
-0.07549160926821237   -0.00028547487361983356   0.0043928045482342455
-0.07549160926821237   -0.00028547487361983356   0.0043928045482342455
-0.07549160926821237   -0.00028547487361983356   0.0043928045482342455
-0.07549160926821237   -0.00028547487361983356   0.0043928045482342455
-0.057335545159917733   -0.0034250896278242744   -0.002491621081551673
-0.057335545159917733   -0.0034250896278242744   -0.002491621081551673
-0.057335545159917733   -0.0034250896278242744   -0.002491621081551673
-0.057335545159917733   -0.0034250896278242744   -0.002491621081551673
-0.052990526343869415   0.008700500611612497   0.0036579317340618422
-0.052990526343869415   0.008700500611612497   0.0036579317340618422
-0.052990526343869415   0.008700500611612497   0.0036579317340618422
-0.052990526343869415   0.008700500611612497   0.0036579317340618422
-0.0765193554469581   -0.0035567179897352773   -0.005058903998824894
-0.0765193554469581   -0.0035567179897352773   -0.005058903998824894
-0.0765193554469581   -0.0035567179897352773   -0.005058903998824894
-0.0765193554469581   -0.0035567179897352773   -0.005058903998824894
-0.06503305543192787   0.0004811696148311721   0.00010233759847036276
-0.06503305543192787   0.0004811696148311721   0.00010233759847036276
-0.06503305543192787   0.0004811696148311721   0.00010233759847036276
-0.06503305543192787   0.0004811696148311721   0.00010233759847036276
-0.07304859425487348   0.004754114564142705   0.003984069407718878
-0.07304859425487348   0.004754114564142705   0.003984069407718878
-0.07304859425487348   0.004754114564142705   0.003984069407718878
-0.07304859425487348   0.004754114564142705   0.003984069407718878
-0.05602080004186559   0.0008301555518229701   -0.0036230916961300153
-0.05602080004186559   0.0008301555518229701   -0.0036230916961300153
-0.05602080004186559   0.0008301555518229701   -0.0036230916961300153
-0.05602080004186559   0.0008301555518229701   -0.0036230916961300153
-0.051542410654254696   0.013889904719501266   0.0027691870639453596
-0.051542410654254696   0.013889904719501266   0.0027691870639453596
-0.051542410654254696   0.013889904719501266   0.0027691870639453596
-0.051542410654254696   0.013889904719501266   0.0027691870639453596
-0.07470193650754815   0.0014067707284668787   -0.005717668530679336
-0.07470193650754815   0.0014067707284668787   -0.005717668530679336
-0.07470193650754815   0.0014067707284668787   -0.005717668530679336
-0.07470193650754815   0.0014067707284668787   -0.005717668530679336
-0.06349411158714638   0.0049631556997353846   0.002099401073765674
-0.06349411158714638   0.0049631556997353846   0.002099401073765674
-0.06349411158714638   0.0049631556997353846   0.002099401073765674
-0.06349411158714638   0.0049631556997353846   0.002099401073765674
-0.0585350564256998   -0.009841931426793373   0.0010107388744476674
-0.0585350564256998   -0.009841931426793373   0.0010107388744476674
-0.0585350564256998   -0.009841931426793373   0.0010107388744476674
-0.0585350564256998   -0.009841931426793373   0.0010107388744476674
-0.03700325374084468   -0.004467153201308263   0.002094843779763461
-0.03700325374084468   -0.004467153201308263   0.002094843779763461
-0.03700325374084468   -0.004467153201308263   0.002094843779763461
-0.03700325374084468   -0.004467153201308263   0.002094843779763461
-0.03596569421634828   -0.0003633557067953992   0.00025287194691054563
-0.03596569421634828   -0.0003633557067953992   0.00025287194691054563
-0.03596569421634828   -0.0003633557067953992   0.00025287194691054563
-0.03596569421634828   -0.0003633557067953992   0.00025287194691054563
-0.0571195851406638   -0.004378873450434254   -0.0004580371626724876
-0.0571195851406638   -0.004378873450434254   -0.0004580371626724876
-0.0571195851406638   -0.004378873450434254   -0.0004580371626724876
-0.0571195851406638   -0.004378873450434254   -0.0004580371626724876
-0.0472347193803949   -0.004533866256175233   -0.001413287267512209
-0.0472347193803949   -0.004533866256175233   -0.001413287267512209
-0.0472347193803949   -0.004533866256175233   -0.001413287267512209
-0.0472347193803949   -0.004533866256175233   -0.001413287267512209
-0.0570315740123789   -0.004588730874766814   0.00019187590308408341
-0.0570315740123789   -0.004588730874766814   0.00019187590308408341
-0.0570315740123789   -0.004588730874766814   0.00019187590308408341
-0.0570315740123789   -0.004588730874766814   0.00019187590308408341
-0.03567259398509248   0.00022761307707777796   0.001127404319316357
-0.03567259398509248   0.00022761307707777796   0.001127404319316357
-0.03567259398509248   0.00022761307707777796   0.001127404319316357
-0.03567259398509248   0.00022761307707777796   0.001127404319316357
-0.034374362010654205   0.0049333204589752065   -0.0005219019431163515
-0.034374362010654205   0.0049333204589752065   -0.0005219019431163515
-0.034374362010654205   0.0049333204589752065   -0.0005219019431163515
-0.034374362010654205   0.0049333204589752065   -0.0005219019431163515
-0.0556642774855727   0.000385021881896451   -0.00139534524473852
-0.0556642774855727   0.000385021881896451   -0.00139534524473852
-0.0556642774855727   0.000385021881896451   -0.00139534524473852
-0.0556642774855727   0.000385021881896451   -0.00139534524473852
-0.04554775802095429   0.00020368055040856543   0.0005576148128656842
-0.04554775802095429   0.00020368055040856543   0.0005576148128656842
-0.04554775802095429   0.00020368055040856543   0.0005576148128656842
-0.04554775802095429   0.00020368055040856543   0.0005576148128656842
-0.05545460826427522   0.0006910467880025771   -0.0006530240443584825
-0.05545460826427522   0.0006910467880025771   -0.0006530240443584825
-0.05545460826427522   0.0006910467880025771   -0.0006530240443584825
-0.05545460826427522   0.0006910467880025771   -0.0006530240443584825
-0.03423847101919428   0.004972855765626281   0.00011801770753220578
-0.03423847101919428   0.004972855765626281   0.00011801770753220578
-0.03423847101919428   0.004972855765626281   0.00011801770753220578
-0.03423847101919428   0.004972855765626281   0.00011801770753220578
-0.03286897125506782   0.010283835558741884   -0.0013901663900230971
-0.03286897125506782   0.010283835558741884   -0.0013901663900230971
-0.03286897125506782   0.010283835558741884   -0.0013901663900230971
-0.03286897125506782   0.010283835558741884   -0.0013901663900230971
-0.054319893454889405   0.005183849391143896   -0.002412171610870593
-0.054319893454889405   0.005183849391143896   -0.002412171610870593
-0.054319893454889405   0.005183849391143896   -0.002412171610870593
-0.054319893454889405   0.005183849391143896   -0.002412171610870593
-0.0439617414138298   0.0049590039162517065   0.0024478911904220945
-0.0439617414138298   0.0049590039162517065   0.0024478911904220945
-0.0439617414138298   0.0049590039162517065   0.0024478911904220945
-0.0439617414138298   0.0049590039162517065   0.0024478911904220945
-0.03986324204334694   -0.013515237047438913   -0.0031570138866177924
-0.03986324204334694   -0.013515237047438913   -0.0031570138866177924
-0.03986324204334694   -0.013515237047438913   -0.0031570138866177924
-0.03986324204334694   -0.013515237047438913   -0.0031570138866177924
-0.016306580952393398   -0.0007479718259323967   0.005464363829104293
-0.016306580952393398   -0.0007479718259323967   0.005464363829104293
-0.016306580952393398   -0.0007479718259323967   0.005464363829104293
-0.016306580952393398   -0.0007479718259323967   0.005464363829104293
-0.01806988628343728   -0.004518375072629898   -0.004296057093632857
-0.01806988628343728   -0.004518375072629898   -0.004296057093632857
-0.01806988628343728   -0.004518375072629898   -0.004296057093632857
-0.01806988628343728   -0.004518375072629898   -0.004296057093632857
-0.03540237215283053   -0.0005019368166034885   0.003208063374307152
-0.03540237215283053   -0.0005019368166034885   0.003208063374307152
-0.03540237215283053   -0.0005019368166034885   0.003208063374307152
-0.03540237215283053   -0.0005019368166034885   0.003208063374307152
-0.027365205759772273   -0.004616241284272039   -0.0010246798777575408
-0.027365205759772273   -0.004616241284272039   -0.0010246798777575408
-0.027365205759772273   -0.004616241284272039   -0.0010246798777575408
-0.027365205759772273   -0.004616241284272039   -0.0010246798777575408
-0.038459241635411465   -0.0085438990794487   -0.004034321775752681
-0.038459241635411465   -0.0085438990794487   -0.004034321775752681
-0.038459241635411465   -0.0085438990794487   -0.004034321775752681
-0.038459241635411465   -0.0085438990794487   -0.004034321775752681
-0.01458834569426158   0.003948258296810017   0.004645012482805736
-0.01458834569426158   0.003948258296810017   0.004645012482805736
-0.01458834569426158   0.003948258296810017   0.004645012482805736
-0.01458834569426158   0.003948258296810017   0.004645012482805736
-0.015666299192821982   0.0004907858449339679   -0.004842780821550548
-0.015666299192821982   0.0004907858449339679   -0.004842780821550548
-0.015666299192821982   0.0004907858449339679   -0.004842780821550548
-0.015666299192821982   0.0004907858449339679   -0.004842780821550548
-0.034071110174465825   0.0037712493589784676   0.0021564283378219225
-0.034071110174465825   0.0037712493589784676   0.0021564283378219225
-0.034071110174465825   0.0037712493589784676   0.0021564283378219225
-0.034071110174465825   0.0037712493589784676   0.0021564283378219225
-0.02553695457975152   -0.00017715507079649282   0.0009931955928121042
-0.02553695457975152   -0.00017715507079649282   0.0009931955928121042
-0.02553695457975152   -0.00017715507079649282   0.0009931955928121042
-0.02553695457975152   -0.00017715507079649282   0.0009931955928121042
-0.03702975562729243   -0.003822049325930511   -0.005043500241402498
-0.03702975562729243   -0.003822049325930511   -0.005043500241402498
-0.03702975562729243   -0.003822049325930511   -0.005043500241402498
-0.03702975562729243   -0.003822049325930511   -0.005043500241402498
-0.012311518078895365   0.008480220190943574   0.003941690402073161
-0.012311518078895365   0.008480220190943574   0.003941690402073161
-0.012311518078895365   0.008480220190943574   0.003941690402073161
-0.012311518078895365   0.008480220190943574   0.003941690402073161
-0.013639780788358303   0.006042923191316741   -0.005443170513309346
-0.013639780788358303   0.006042923191316741   -0.005443170513309346
-0.013639780788358303   0.006042923191316741   -0.005443170513309346
-0.013639780788358303   0.006042923191316741   -0.005443170513309346
-0.032707320387423085   0.008560205688484599   0.0011417178184581073
-0.032707320387423085   0.008560205688484599   0.0011417178184581073
-0.032707320387423085   0.008560205688484599   0.0011417178184581073
-0.032707320387423085   0.008560205688484599   0.0011417178184581073
-0.02368225113621202   0.004390109685421605   0.0029906334227432045
-0.02368225113621202   0.004390109685421605   0.0029906334227432045
-0.02368225113621202   0.004390109685421605   0.0029906334227432045
-0.02368225113621202   0.004390109685421605   0.0029906334227432045
-0.021537137693457102   -0.014458799450863223   -0.006977592251283389
-0.021537137693457102   -0.014458799450863223   -0.006977592251283389
-0.021537137693457102   -0.014458799450863223   -0.006977592251283389
-0.021537137693457102   -0.014458799450863223   -0.006977592251283389
-0.0019734644285306956   0.003667734533790703   0.008532406366224722
-0.0019734644285306956   0.003667734533790703   0.008532406366224722
-0.0019734644285306956   0.003667734533790703   0.008532406366224722
-0.0019734644285306956   0.003667734533790703   0.008532406366224722
-0.002112060154004169   -0.007680465188459749   -0.009294059185761601
-0.002112060154004169   -0.007680465188459749   -0.009294059185761601
-0.002112060154004169   -0.007680465188459749   -0.009294059185761601
-0.002112060154004169   -0.007680465188459749   -0.009294059185761601
-0.013993940428505502   0.0045740090077730465   0.006991288100622864
-0.013993940428505502   0.0045740090077730465   0.006991288100622864
-0.013993940428505502   0.0045740090077730465   0.006991288100622864
-0.013993940428505502   0.0045740090077730465   0.006991288100622864
-0.00978784573573134   -0.0032690754609578897   -0.001474712810038048
-0.00978784573573134   -0.0032690754609578897   -0.001474712810038048
-0.00978784573573134   -0.0032690754609578897   -0.001474712810038048
-0.00978784573573134   -0.0032690754609578897   -0.001474712810038048
-0.02012081079811616   -0.01103101202338442   -0.008038042716272965
-0.02012081079811616   -0.01103101202338442   -0.008038042716272965
-0.02012081079811616   -0.01103101202338442   -0.008038042716272965
-0.02012081079811616   -0.01103101202338442   -0.008038042716272965
0.004465831657204855   0.008375577284296082   0.007539357397527684
0.004465831657204855   0.008375577284296082   0.007539357397527684
0.004465831657204855   0.008375577284296082   0.007539357397527684
0.004465831657204855   0.008375577284296082   0.007539357397527684
0.0026127089525858054   -0.004831825347665408   -0.011091341880013013
0.0026127089525858054   -0.004831825347665408   -0.011091341880013013
0.0026127089525858054   -0.004831825347665408   -0.011091341880013013
0.0026127089525858054   -0.004831825347665408   -0.011091341880013013
-0.012340620837706606   0.0066429091701713005   0.005633487628788987
-0.012340620837706606   0.0066429091701713005   0.005633487628788987
-0.012340620837706606   0.0066429091701713005   0.005633487628788987
-0.012340620837706606   0.0066429091701713005   0.005633487628788987
-0.006027925270256297   -0.0003100202928814919   0.0006809209115492954
-0.006027925270256297   -0.0003100202928814919   0.0006809209115492954
-0.006027925270256297   -0.0003100202928814919   0.0006809209115492954
-0.006027925270256297   -0.0003100202928814919   0.0006809209115492954
-0.018400971818354376   -0.008684470622255462   -0.009340887482023096
-0.018400971818354376   -0.008684470622255462   -0.009340887482023096
-0.018400971818354376   -0.008684470622255462   -0.009340887482023096
-0.018400971818354376   -0.008684470622255462   -0.009340887482023096
0.009129484832792807   0.010951979344320028   0.005708732829037039
0.009129484832792807   0.010951979344320028   0.005708732829037039
0.009129484832792807   0.010951979344320028   0.005708732829037039
0.009129484832792807   0.010951979344320028   0.005708732829037039
0.009349426438828586   0.0006949318062057434   -0.011926178443251853
0.009349426438828586   0.0006949318062057434   -0.011926178443251853
0.009349426438828586   0.0006949318062057434   -0.011926178443251853
0.009349426438828586   0.0006949318062057434   -0.011926178443251853
-0.010805725022405554   0.01018602211049062   0.004584009397280532
-0.010805725022405554   0.01018602211049062   0.004584009397280532
-0.010805725022405554   0.01018602211049062   0.004584009397280532
-0.010805725022405554   0.01018602211049062   0.004584009397280532
-0.002436997750030254   0.002747762900494132   0.0028322278734768222
-0.002436997750030254   0.002747762900494132   0.0028322278734768222
-0.002436997750030254   0.002747762900494132   0.0028322278734768222
-0.002436997750030254   0.002747762900494132   0.0028322278734768222
-0.03010964016625772   0.0024858197065311576   0.009775002386142958
-0.03010964016625772   0.0024858197065311576   0.009775002386142958
-0.03010964016625772   0.0024858197065311576   0.009775002386142958
-0.03010964016625772   0.0024858197065311576   0.009775002386142958
-0.03963422718913157   -0.012548608297074939   -0.005581020316236068
-0.03963422718913157   -0.012548608297074939   -0.005581020316236068
-0.03963422718913157   -0.012548608297074939   -0.005581020316236068
-0.03963422718913157   -0.012548608297074939   -0.005581020316236068
-0.03164719095609642   0.005703877397154581   0.007959412214662526
-0.03164719095609642   0.005703877397154581   0.007959412214662526
-0.03164719095609642   0.005703877397154581   0.007959412214662526
-0.03164719095609642   0.005703877397154581   0.007959412214662526
-0.029347319633620587   -0.007743325964426906   -0.00727469238114659
-0.029347319633620587   -0.007743325964426906   -0.00727469238114659
-0.029347319633620587   -0.007743325964426906   -0.00727469238114659
-0.029347319633620587   -0.007743325964426906   -0.00727469238114659
-0.03198129670489775   -0.0024385396242952674   -0.002849377252093972
-0.03198129670489775   -0.0024385396242952674   -0.002849377252093972
-0.03198129670489775   -0.0024385396242952674   -0.002849377252093972
-0.03198129670489775   -0.0024385396242952674   -0.002849377252093972
-0.022994472313345306   0.007659818611610731   0.00908639964419216
-0.022994472313345306   0.007659818611610731   0.00908639964419216
-0.022994472313345306   0.007659818611610731   0.00908639964419216
-0.022994472313345306   0.007659818611610731   0.00908639964419216
-0.037575323949395285   -0.00927455285190656   -0.0067028225027701525
-0.037575323949395285   -0.00927455285190656   -0.0067028225027701525
-0.037575323949395285   -0.00927455285190656   -0.0067028225027701525
-0.037575323949395285   -0.00927455285190656   -0.0067028225027701525
-0.02937249181562765   0.00791853855707163   0.006665520036802581
-0.02937249181562765   0.00791853855707163   0.006665520036802581
-0.02937249181562765   0.00791853855707163   0.006665520036802581
-0.02937249181562765   0.00791853855707163   0.006665520036802581
-0.02415098195616783   -0.005240467560520854   -0.00899682308490225
-0.02415098195616783   -0.005240467560520854   -0.00899682308490225
-0.02415098195616783   -0.005240467560520854   -0.00899682308490225
-0.02415098195616783   -0.005240467560520854   -0.00899682308490225
-0.028154646697720435   0.00036385720306342413   -0.0007590820966289777
-0.028154646697720435   0.00036385720306342413   -0.0007590820966289777
-0.028154646697720435   0.00036385720306342413   -0.0007590820966289777
-0.028154646697720435   0.00036385720306342413   -0.0007590820966289777
-0.01778988678128153   0.01034632716865168   0.007221858060356717
-0.01778988678128153   0.01034632716865168   0.007221858060356717
-0.01778988678128153   0.01034632716865168   0.007221858060356717
-0.01778988678128153   0.01034632716865168   0.007221858060356717
-0.035341411300857585   -0.007276080482444546   -0.007984458349830954
-0.035341411300857585   -0.007276080482444546   -0.007984458349830954
-0.035341411300857585   -0.007276080482444546   -0.007984458349830954
-0.035341411300857585   -0.007276080482444546   -0.007984458349830954
-0.027318724294514138   0.011370351580282696   0.005751690082290533
-0.027318724294514138   0.011370351580282696   0.005751690082290533
-0.027318724294514138   0.011370351580282696   0.005751690082290533
-0.027318724294514138   0.011370351580282696   0.005751690082290533
-0.017201292172648763   -0.0004896671800910853   -0.01011495231410665
-0.017201292172648763   -0.0004896671800910853   -0.01011495231410665
-0.017201292172648763   -0.0004896671800910853   -0.01011495231410665
-0.017201292172648763   -0.0004896671800910853   -0.01011495231410665
-0.02363298584302074   0.0033389835027234317   0.0014461915756244078
-0.02363298584302074   0.0033389835027234317   0.0014461915756244078
-0.02363298584302074   0.0033389835027234317   0.0014461915756244078
-0.02363298584302074   0.0033389835027234317   0.0014461915756244078
-0.03523142573290884   -0.0018478425933891266   0.005732221261191302
-0.03523142573290884   -0.0018478425933891266   0.005732221261191302
-0.03523142573290884   -0.0018478425933891266   0.005732221261191302
-0.03523142573290884   -0.0018478425933891266   0.005732221261191302
-0.046304969600176625   -0.010253070525855331   -0.0021749488831751917
-0.046304969600176625   -0.010253070525855331   -0.0021749488831751917
-0.046304969600176625   -0.010253070525855331   -0.0021749488831751917
-0.046304969600176625   -0.010253070525855331   -0.0021749488831751917
-0.04163916892256943   0.0009534104064191171   0.003704502852316967
-0.04163916892256943   0.0009534104064191171   0.003704502852316967
-0.04163916892256943   0.0009534104064191171   0.003704502852316967
-0.04163916892256943   0.0009534104064191171   0.003704502852316967
-0.035912793294990475   -0.004448091837216388   -0.003216630245436233
-0.035912793294990475   -0.004448091837216388   -0.003216630245436233
-0.035912793294990475   -0.004448091837216388   -0.003216630245436233
-0.035912793294990475   -0.004448091837216388   -0.003216630245436233
-0.039842153515756845   -0.0035769818126650654   -0.0019155234390519195
-0.039842153515756845   -0.0035769818126650654   -0.0019155234390519195
-0.039842153515756845   -0.0035769818126650654   -0.0019155234390519195
-0.039842153515756845   -0.0035769818126650654   -0.0019155234390519195
-0.03278409477912657   0.002982732303314573   0.0049960381933513865
-0.03278409477912657   0.002982732303314573   0.0049960381933513865
-0.03278409477912657   0.002982732303314573   0.0049960381933513865
-0.03278409477912657   0.002982732303314573   0.0049960381933513865
-0.04443215907137654   -0.006141705367055257   -0.003165332118244513
-0.04443215907137654   -0.006141705367055257   -0.003165332118244513
-0.04443215907137654   -0.006141705367055257   -0.003165332118244513
-0.04443215907137654   -0.006141705367055257   -0.003165332118244513
-0.03962372401715319   0.005397230531774901   0.0028152071789210725
-0.03962372401715319   0.005397230531774901   0.0028152071789210725
-0.03962372401715319   0.005397230531774901   0.0028152071789210725
-0.03962372401715319   0.005397230531774901   0.0028152071789210725
-0.03313416725316818   -0.0002205316672371973   -0.004003786926590761
-0.03313416725316818   -0.0002205316672371973   -0.004003786926590761
-0.03313416725316818   -0.0002205316672371973   -0.004003786926590761
-0.03313416725316818   -0.0002205316672371973   -0.004003786926590761
-0.037394972741972794   0.0005203353752470819   -2.3487860108997033e-06
-0.037394972741972794   0.0005203353752470819   -2.3487860108997033e-06
-0.037394972741972794   0.0005203353752470819   -2.3487860108997033e-06
-0.037394972741972794   0.0005203353752470819   -2.3487860108997033e-06
-0.029849143225847724   0.00769105463567212   0.004509746907101701
-0.029849143225847724   0.00769105463567212   0.004509746907101701
-0.029849143225847724   0.00769105463567212   0.004509746907101701
-0.029849143225847724   0.00769105463567212   0.004509746907101701
-0.04254986197657594   -0.00215546970323624   -0.0042627823831820535
-0.04254986197657594   -0.00215546970323624   -0.0042627823831820535
-0.04254986197657594   -0.00215546970323624   -0.0042627823831820535
-0.04254986197657594   -0.00215546970323624   -0.0042627823831820535
-0.037594000501321695   0.010365769850177987   0.001969391071649767
-0.037594000501321695   0.010365769850177987   0.001969391071649767
-0.037594000501321695   0.010365769850177987   0.001969391071649767
-0.037594000501321695   0.010365769850177987   0.001969391071649767
-0.030781064667716202   0.00452292726939723   -0.004712587472834321
-0.030781064667716202   0.00452292726939723   -0.004712587472834321
-0.030781064667716202   0.00452292726939723   -0.004712587472834321
-0.030781064667716202   0.00452292726939723   -0.004712587472834321
-0.03507623301620582   0.0048079489765383565   0.00196491680161583
-0.03507623301620582   0.0048079489765383565   0.00196491680161583
-0.03507623301620582   0.0048079489765383565   0.00196491680161583
-0.03507623301620582   0.0048079489765383565   0.00196491680161583
-0.04470035542417393   -0.006088776666442036   0.0016838281374238363
-0.04470035542417393   -0.006088776666442036   0.0016838281374238363
-0.04470035542417393   -0.006088776666442036   0.0016838281374238363
-0.04470035542417393   -0.006088776666442036   0.0016838281374238363
-0.05282315990265866   -0.006763971904550208   0.001282666449259757
-0.05282315990265866   -0.006763971904550208   0.001282666449259757
-0.05282315990265866   -0.006763971904550208   0.001282666449259757
-0.05282315990265866   -0.006763971904550208   0.001282666449259757
-0.05126030298235473   -0.003216704866555564   -0.0005064764015881048
-0.05126030298235473   -0.003216704866555564   -0.0005064764015881048
-0.05126030298235473   -0.003216704866555564   -0.0005064764015881048
-0.05126030298235473   -0.003216704866555564   -0.0005064764015881048
-0.04263402041257249   -0.0007718327089966358   0.00045548851771737417
-0.04263402041257249   -0.0007718327089966358   0.00045548851771737417
-0.04263402041257249   -0.0007718327089966358   0.00045548851771737417
-0.04263402041257249   -0.0007718327089966358   0.00045548851771737417
-0.047926975495981   -0.00397328060013893   -0.0013000595701837343
-0.047926975495981   -0.00397328060013893   -0.0013000595701837343
-0.047926975495981   -0.00397328060013893   -0.0013000595701837343
-0.047926975495981   -0.00397328060013893   -0.0013000595701837343
-0.042634958169732555   -0.0012121226826085733   0.000891089705528504
-0.042634958169732555   -0.0012121226826085733   0.000891089705528504
-0.042634958169732555   -0.0012121226826085733   0.000891089705528504
-0.042634958169732555   -0.0012121226826085733   0.000891089705528504
-0.05093921422732993   -0.002456263895079528   0.00033852640206034684
-0.05093921422732993   -0.002456263895079528   0.00033852640206034684
-0.05093921422732993   -0.002456263895079528   0.00033852640206034684
-0.05093921422732993   -0.002456263895079528   0.00033852640206034684
-0.04912716327927097   0.0017184451469974184   -0.0012653431255354119
-0.04912716327927097   0.0017184451469974184   -0.0012653431255354119
-0.04912716327927097   0.0017184451469974184   -0.0012653431255354119
-0.04912716327927097   0.0017184451469974184   -0.0012653431255354119
-0.04062488316893553   0.0036518148467745704   -0.0004451728949903459
-0.04062488316893553   0.0036518148467745704   -0.0004451728949903459
-0.04062488316893553   0.0036518148467745704   -0.0004451728949903459
-0.04062488316893553   0.0036518148467745704   -0.0004451728949903459
-0.045687938905459274   0.0004154397732544588   0.0006017636187562922
-0.045687938905459274   0.0004154397732544588   0.0006017636187562922
-0.045687938905459274   0.0004154397732544588   0.0006017636187562922
-0.045687938905459274   0.0004154397732544588   0.0006017636187562922
-0.04051468405759198   0.0037046142651177977   5.3023243383671856e-05
-0.04051468405759198   0.0037046142651177977   5.3023243383671856e-05
-0.04051468405759198   0.0037046142651177977   5.3023243383671856e-05
-0.04051468405759198   0.0037046142651177977   5.3023243383671856e-05
-0.0489557095479765   0.0019472985712927667   -0.0006369278933584023
-0.0489557095479765   0.0019472985712927667   -0.0006369278933584023
-0.0489557095479765   0.0019472985712927667   -0.0006369278933584023
-0.0489557095479765   0.0019472985712927667   -0.0006369278933584023
-0.04708289072632937   0.006692288314193759   -0.0021069797241813166
-0.04708289072632937   0.006692288314193759   -0.0021069797241813166
-0.04708289072632937   0.006692288314193759   -0.0021069797241813166
-0.04708289072632937   0.006692288314193759   -0.0021069797241813166
-0.03873218342921418   0.008093665846190055   -0.0014494195638244424
-0.03873218342921418   0.008093665846190055   -0.0014494195638244424
-0.03873218342921418   0.008093665846190055   -0.0014494195638244424
-0.03873218342921418   0.008093665846190055   -0.0014494195638244424
-0.04356528292583363   0.00481435730584341   0.0024130534379470663
-0.04356528292583363   0.00481435730584341   0.0024130534379470663
-0.04356528292583363   0.00481435730584341   0.0024130534379470663
-0.04356528292583363   0.00481435730584341   0.0024130534379470663
-0.05419394402207817   -0.009904468680139352   -0.0024307573722495497
-0.05419394402207817   -0.009904468680139352   -0.0024307573722495497
-0.05419394402207817   -0.009904468680139352   -0.0024307573722495497
-0.05419394402207817   -0.009904468680139352   -0.0024307573722495497
-0.06005685331465069   -0.0033357147522445774   0.004555570829388423
-0.06005685331465069   -0.0033357147522445774   0.004555570829388423
-0.06005685331465069   -0.0033357147522445774   0.004555570829388423
-0.06005685331465069   -0.0033357147522445774   0.004555570829388423
-0.06120591029554885   -0.007268165265496508   -0.00481954072743962
-0.06120591029554885   -0.007268165265496508   -0.00481954072743962
-0.06120591029554885   -0.007268165265496508   -0.00481954072743962
-0.06120591029554885   -0.007268165265496508   -0.00481954072743962
-0.04914902573094019   0.0028857644370130497   0.003947440551916007
-0.04914902573094019   0.0028857644370130497   0.003947440551916007
-0.04914902573094019   0.0028857644370130497   0.003947440551916007
-0.04914902573094019   0.0028857644370130497   0.003947440551916007
-0.0558914956696937   -0.004139044733332157   -0.0008287982503966834
-0.0558914956696937   -0.004139044733332157   -0.0008287982503966834
-0.0558914956696937   -0.004139044733332157   -0.0008287982503966834
-0.0558914956696937   -0.004139044733332157   -0.0008287982503966834
-0.05219703929857845   -0.00515321290872189   -0.0032536499405407694
-0.05219703929857845   -0.00515321290872189   -0.0032536499405407694
-0.05219703929857845   -0.00515321290872189   -0.0032536499405407694
-0.05219703929857845   -0.00515321290872189   -0.0032536499405407694
-0.05782289674589608   0.0011058120622535125   0.0037215496930742076
-0.05782289674589608   0.0011058120622535125   0.0037215496930742076
-0.05782289674589608   0.0011058120622535125   0.0037215496930742076
-0.05782289674589608   0.0011058120622535125   0.0037215496930742076
-0.058327034482111365   -0.0025934339134786478   -0.005411063716821955
-0.058327034482111365   -0.0025934339134786478   -0.005411063716821955
-0.058327034482111365   -0.0025934339134786478   -0.005411063716821955
-0.058327034482111365   -0.0025934339134786478   -0.005411063716821955
-0.04725614862674124   0.006868152485763959   0.002940022798346686
-0.04725614862674124   0.006868152485763959   0.002940022798346686
-0.04725614862674124   0.006868152485763959   0.002940022798346686
-0.04725614862674124   0.006868152485763959   0.002940022798346686
-0.053288954750949   0.00010742593358370293   0.0011440040343609504
-0.053288954750949   0.00010742593358370293   0.0011440040343609504
-0.053288954750949   0.00010742593358370293   0.0011440040343609504
-0.053288954750949   0.00010742593358370293   0.0011440040343609504
-0.05020716895824987   -0.000730527783357875   -0.004216398590075745
-0.05020716895824987   -0.000730527783357875   -0.004216398590075745
-0.05020716895824987   -0.000730527783357875   -0.004216398590075745
-0.05020716895824987   -0.000730527783357875   -0.004216398590075745
-0.05503765564551312   0.0053436048607319805   0.0030987916919586658
-0.05503765564551312   0.0053436048607319805   0.0030987916919586658
-0.05503765564551312   0.0053436048607319805   0.0030987916919586658
-0.05503765564551312   0.0053436048607319805   0.0030987916919586658
-0.05582003080427785   0.0025188633387321305   -0.005952283513445626
-0.05582003080427785   0.0025188633387321305   -0.005952283513445626
-0.05582003080427785   0.0025188633387321305   -0.005952283513445626
-0.05582003080427785   0.0025188633387321305   -0.005952283513445626
-0.045358957915928026   0.01126000826935535   0.001944964372663809
-0.045358957915928026   0.01126000826935535   0.001944964372663809
-0.045358957915928026   0.01126000826935535   0.001944964372663809
-0.045358957915928026   0.01126000826935535   0.001944964372663809
-0.05115667748164158   0.004266170572350465   0.0030112537251369437
-0.05115667748164158   0.004266170572350465   0.0030112537251369437
-0.05115667748164158   0.004266170572350465   0.0030112537251369437
-0.05115667748164158   0.004266170572350465   0.0030112537251369437
-0.06388113266369326   -0.011667157100083952   -0.006234383567985989
-0.06388113266369326   -0.011667157100083952   -0.006234383567985989
-0.06388113266369326   -0.011667157100083952   -0.006234383567985989
-0.06388113266369326   -0.011667157100083952   -0.006234383567985989
-0.0732926990618837   0.0002862951384519242   0.008443356559612347
-0.0732926990618837   0.0002862951384519242   0.008443356559612347
-0.0732926990618837   0.0002862951384519242   0.008443356559612347
-0.0732926990618837   0.0002862951384519242   0.008443356559612347
-0.07270326658896492   -0.010245347957256977   -0.00839617056407166
-0.07270326658896492   -0.010245347957256977   -0.00839617056407166
-0.07270326658896492   -0.010245347957256977   -0.00839617056407166
-0.07270326658896492   -0.010245347957256977   -0.00839617056407166
-0.055789896734831104   0.007430213929042424   0.00756214788160974
-0.055789896734831104   0.007430213929042424   0.00756214788160974
-0.055789896734831104   0.007430213929042424   0.00756214788160974
-0.055789896734831104   0.007430213929042424   0.00756214788160974
-0.06369913607708108   -0.002710076751029014   -0.00020192583656550257
-0.06369913607708108   -0.002710076751029014   -0.00020192583656550257
-0.06369913607708108   -0.002710076751029014   -0.00020192583656550257
-0.06369913607708108   -0.002710076751029014   -0.00020192583656550257
-0.06177941859783328   -0.0078103281225741904   -0.007144919381785542
-0.06177941859783328   -0.0078103281225741904   -0.007144919381785542
-0.06177941859783328   -0.0078103281225741904   -0.007144919381785542
-0.06177941859783328   -0.0078103281225741904   -0.007144919381785542
-0.06636093551365778   0.005348003306663565   0.007722133548542112
-0.06636093551365778   0.005348003306663565   0.007722133548542112
-0.06636093551365778   0.005348003306663565   0.007722133548542112
-0.06636093551365778   0.005348003306663565   0.007722133548542112
-0.06756026767112536   -0.007537409695072671   -0.010048459864012111
-0.06756026767112536   -0.007537409695072671   -0.010048459864012111
-0.06756026767112536   -0.007537409695072671   -0.010048459864012111
-0.06756026767112536   -0.007537409695072671   -0.010048459864012111
-0.05361644187088552   0.009338989308502231   0.006209476117325967
-0.05361644187088552   0.009338989308502231   0.006209476117325967
-0.05361644187088552   0.009338989308502231   0.006209476117325967
-0.05361644187088552   0.009338989308502231   0.006209476117325967
-0.0603990332167659   0.00014684388941353134   0.0016645354457343968
-0.0603990332167659   0.00014684388941353134   0.0016645354457343968
-0.0603990332167659   0.00014684388941353134   0.0016645354457343968
-0.0603990332167659   0.00014684388941353134   0.0016645354457343968
-0.059503403897940704   -0.0055780115912697804   -0.008308333118178482
-0.059503403897940704   -0.0055780115912697804   -0.008308333118178482
-0.059503403897940704   -0.0055780115912697804   -0.008308333118178482
-0.059503403897940704   -0.0055780115912697804   -0.008308333118178482
-0.061301201093493504   0.0077516957552751335   0.005957767573798463
-0.061301201093493504   0.0077516957552751335   0.005957767573798463
-0.061301201093493504   0.0077516957552751335   0.005957767573798463
-0.061301201093493504   0.0077516957552751335   0.005957767573798463
-0.060681979568985994   -0.002911272773248064   -0.011026210474832435
-0.060681979568985994   -0.002911272773248064   -0.011026210474832435
-0.060681979568985994   -0.002911272773248064   -0.011026210474832435
-0.060681979568985994   -0.002911272773248064   -0.011026210474832435
-0.05169496584660278   0.012077746611722945   0.005114158001938925
-0.05169496584660278   0.012077746611722945   0.005114158001938925
-0.05169496584660278   0.012077746611722945   0.005114158001938925
-0.05169496584660278   0.012077746611722945   0.005114158001938925
-0.05551712628420129   0.0029529868597252765   0.003871933617347438
-0.05551712628420129   0.0029529868597252765   0.003871933617347438
-0.05551712628420129   0.0029529868597252765   0.003871933617347438
-0.05551712628420129   0.0029529868597252765   0.003871933617347438
0.03914358394165226   0.006164154893423902   0.009204984505478141
0.03914358394165226   0.006164154893423902   0.009204984505478141
0.03914358394165226   0.006164154893423902   0.009204984505478141
0.03914358394165226   0.006164154893423902   0.009204984505478141
0.00014400270897308018   -0.014623401666900713   -0.005934583517718504
0.00014400270897308018   -0.014623401666900713   -0.005934583517718504
0.00014400270897308018   -0.014623401666900713   -0.005934583517718504
0.00014400270897308018   -0.014623401666900713   -0.005934583517718504
0.008395119523797515   0.0026739734171239374   0.0070693653691895255
0.008395119523797515   0.0026739734171239374   0.0070693653691895255
0.008395119523797515   0.0026739734171239374   0.0070693653691895255
0.008395119523797515   0.0026739734171239374   0.0070693653691895255
0.04034778235131041   -0.0045710505201304215   -0.0075044467153771634
0.04034778235131041   -0.0045710505201304215   -0.0075044467153771634
0.04034778235131041   -0.0045710505201304215   -0.0075044467153771634
0.04034778235131041   -0.0045710505201304215   -0.0075044467153771634
0.020085908010899434   -0.002630383696992447   -0.004492072748864507
0.020085908010899434   -0.002630383696992447   -0.004492072748864507
0.020085908010899434   -0.002630383696992447   -0.004492072748864507
0.020085908010899434   -0.002630383696992447   -0.004492072748864507
0.046531686236280484   0.010546848436375982   0.008297173752966782
0.046531686236280484   0.010546848436375982   0.008297173752966782
0.046531686236280484   0.010546848436375982   0.008297173752966782
0.046531686236280484   0.010546848436375982   0.008297173752966782
0.0026191487729742727   -0.012035992405234362   -0.007100522562568389
0.0026191487729742727   -0.012035992405234362   -0.007100522562568389
0.0026191487729742727   -0.012035992405234362   -0.007100522562568389
0.0026191487729742727   -0.012035992405234362   -0.007100522562568389
0.011194817239311929   0.004801333496485488   0.005866383004649701
0.011194817239311929   0.004801333496485488   0.005866383004649701
0.011194817239311929   0.004801333496485488   0.005866383004649701
0.011194817239311929   0.004801333496485488   0.005866383004649701
0.0460167799231299   -0.0021752356221241328   -0.009306126125532662
0.0460167799231299   -0.0021752356221241328   -0.009306126125532662
0.0460167799231299   -0.0021752356221241328   -0.009306126125532662
0.0460167799231299   -0.0021752356221241328   -0.009306126125532662
0.025234979323998555   -1.1678155989743033e-05   -0.002204237736580572
0.025234979323998555   -1.1678155989743033e-05   -0.002204237736580572
0.025234979323998555   -1.1678155989743033e-05   -0.002204237736580572
0.025234979323998555   -1.1678155989743033e-05   -0.002204237736580572
0.052240150581883193   0.01313685156107645   0.006498639985033249
0.052240150581883193   0.01313685156107645   0.006498639985033249
0.052240150581883193   0.01313685156107645   0.006498639985033249
0.052240150581883193   0.01313685156107645   0.006498639985033249
0.005358138107435526   -0.01012406215983812   -0.008391616998408227
0.005358138107435526   -0.01012406215983812   -0.008391616998408227
0.005358138107435526   -0.01012406215983812   -0.008391616998408227
0.005358138107435526   -0.01012406215983812   -0.008391616998408227
0.013899214735119503   0.008767917974015181   0.005072466548656411
0.013899214735119503   0.008767917974015181   0.005072466548656411
0.013899214735119503   0.008767917974015181   0.005072466548656411
0.013899214735119503   0.008767917974015181   0.005072466548656411
0.05357587552178758   0.0031682619066758996   -0.010236258408245172
0.05357587552178758   0.0031682619066758996   -0.010236258408245172
0.05357587552178758   0.0031682619066758996   -0.010236258408245172
0.05357587552178758   0.0031682619066758996   -0.010236258408245172
0.029394804695858583   0.0029694710639425353   -7.999806984345683e-05
0.029394804695858583   0.0029694710639425353   -7.999806984345683e-05
0.029394804695858583   0.0029694710639425353   -7.999806984345683e-05
0.029394804695858583   0.0029694710639425353   -7.999806984345683e-05
0.0059224608153911   0.0019118886694895242   0.00642241667798136
0.0059224608153911   0.0019118886694895242   0.00642241667798136
0.0059224608153911   0.0019118886694895242   0.00642241667798136
0.0059224608153911   0.0019118886694895242   0.00642241667798136
-0.034585474870626874   -0.012495030952168078   -0.0027378109092706863
-0.034585474870626874   -0.012495030952168078   -0.0027378109092706863
-0.034585474870626874   -0.012495030952168078   -0.0027378109092706863
-0.034585474870626874   -0.012495030952168078   -0.0027378109092706863
-0.029500687160232207   -0.001953166894979744   0.0028458883309887143
-0.029500687160232207   -0.001953166894979744   0.0028458883309887143
-0.029500687160232207   -0.001953166894979744   0.0028458883309887143
-0.029500687160232207   -0.001953166894979744   0.0028458883309887143
0.00582878661545348   -0.001012816126970362   -0.0020755096284363534
0.00582878661545348   -0.001012816126970362   -0.0020755096284363534
0.00582878661545348   -0.001012816126970362   -0.0020755096284363534
0.00582878661545348   -0.001012816126970362   -0.0020755096284363534
-0.01339245562291569   -0.0030686759354998537   -0.002114297090244605
-0.01339245562291569   -0.0030686759354998537   -0.002114297090244605
-0.01339245562291569   -0.0030686759354998537   -0.002114297090244605
-0.01339245562291569   -0.0030686759354998537   -0.002114297090244605
0.008841875776249467   0.006284660029861323   0.005692460018712375
0.008841875776249467   0.006284660029861323   0.005692460018712375
0.008841875776249467   0.006284660029861323   0.005692460018712375
0.008841875776249467   0.006284660029861323   0.005692460018712375
-0.032208325606148565   -0.008945192336932993   -0.0037002784566398023
-0.032208325606148565   -0.008945192336932993   -0.0037002784566398023
-0.032208325606148565   -0.008945192336932993   -0.0037002784566398023
-0.032208325606148565   -0.008945192336932993   -0.0037002784566398023
-0.026963571955365022   0.002214260472204294   0.001999578472809702
-0.026963571955365022   0.002214260472204294   0.001999578472809702
-0.026963571955365022   0.002214260472204294   0.001999578472809702
-0.026963571955365022   0.002214260472204294   0.001999578472809702
0.009074388988122519   0.00288987606973374   -0.002824300824545119
0.009074388988122519   0.00288987606973374   -0.002824300824545119
0.009074388988122519   0.00288987606973374   -0.002824300824545119
0.009074388988122519   0.00288987606973374   -0.002824300824545119
-0.010694415052500359   0.0005679164263831752   -0.00029755921700063293
-0.010694415052500359   0.0005679164263831752   -0.00029755921700063293
-0.010694415052500359   0.0005679164263831752   -0.00029755921700063293
-0.010694415052500359   0.0005679164263831752   -0.00029755921700063293
0.012219776369967676   0.01067459739465909   0.005117914759754827
0.012219776369967676   0.01067459739465909   0.005117914759754827
0.012219776369967676   0.01067459739465909   0.005117914759754827
0.012219776369967676   0.01067459739465909   0.005117914759754827
-0.02981155396653298   -0.0052730554820433016   -0.004753015628782498
-0.02981155396653298   -0.0052730554820433016   -0.004753015628782498
-0.02981155396653298   -0.0052730554820433016   -0.004753015628782498
-0.02981155396653298   -0.0052730554820433016   -0.004753015628782498
-0.024404091446576927   0.0069795130634218204   0.001193368276149361
-0.024404091446576927   0.0069795130634218204   0.001193368276149361
-0.024404091446576927   0.0069795130634218204   0.001193368276149361
-0.024404091446576927   0.0069795130634218204   0.001193368276149361
0.011887569981289823   0.007369232454327445   -0.0035870717008042543
0.011887569981289823   0.007369232454327445   -0.0035870717008042543
0.011887569981289823   0.007369232454327445   -0.0035870717008042543
0.011887569981289823   0.007369232454327445   -0.0035870717008042543
-0.007655487676575585   0.0046372865074102675   0.0016594299416081183
-0.007655487676575585   0.0046372865074102675   0.0016594299416081183
-0.007655487676575585   0.0046372865074102675   0.0016594299416081183
-0.007655487676575585   0.0046372865074102675   0.0016594299416081183
-0.03152078890699881   -0.002284927836608233   0.00237551579330979
-0.03152078890699881   -0.002284927836608233   0.00237551579330979
-0.03152078890699881   -0.002284927836608233   0.00237551579330979
-0.03152078890699881   -0.002284927836608233   0.00237551579330979
-0.06864473683260483   -0.009180034655271264   0.0004970953972768318
-0.06864473683260483   -0.009180034655271264   0.0004970953972768318
-0.06864473683260483   -0.009180034655271264   0.0004970953972768318
-0.06864473683260483   -0.009180034655271264   0.0004970953972768318
-0.0664813383172254   -0.005887113504186877   -0.001273597553580926
-0.0664813383172254   -0.005887113504186877   -0.001273597553580926
-0.0664813383172254   -0.005887113504186877   -0.001273597553580926
-0.0664813383172254   -0.005887113504186877   -0.001273597553580926
-0.028911704821626045   0.0024514031983972383   0.0013862299306425436
-0.028911704821626045   0.0024514031983972383   0.0013862299306425436
-0.028911704821626045   0.0024514031983972383   0.0013862299306425436
-0.028911704821626045   0.0024514031983972383   0.0013862299306425436
-0.04895887549787512   -0.0034365328961094895   -0.0012701767384488269
-0.04895887549787512   -0.0034365328961094895   -0.0012701767384488269
-0.04895887549787512   -0.0034365328961094895   -0.0012701767384488269
-0.04895887549787512   -0.0034365328961094895   -0.0012701767384488269
-0.028917669819533382   0.0022015844449736937   0.00160622369452991
-0.028917669819533382   0.0022015844449736937   0.00160622369452991
-0.028917669819533382   0.0022015844449736937   0.00160622369452991
-0.028917669819533382   0.0022015844449736937   0.00160622369452991
-0.06620572396837157   -0.005367645399816847   -0.00041499391368236
-0.06620572396837157   -0.005367645399816847   -0.00041499391368236
-0.06620572396837157   -0.005367645399816847   -0.00041499391368236
-0.06620572396837157   -0.005367645399816847   -0.00041499391368236
-0.06379967141726108   -0.001294344453410921   -0.0020011811475922577
-0.06379967141726108   -0.001294344453410921   -0.0020011811475922577
-0.06379967141726108   -0.001294344453410921   -0.0020011811475922577
-0.06379967141726108   -0.001294344453410921   -0.0020011811475922577
-0.0264023680113479   0.006474922612827133   0.0005449360522724505
-0.0264023680113479   0.006474922612827133   0.0005449360522724505
-0.0264023680113479   0.006474922612827133   0.0005449360522724505
-0.0264023680113479   0.006474922612827133   0.0005449360522724505
-0.04617984018914588   0.000578491567121078   0.0005740040476468009
-0.04617984018914588   0.000578491567121078   0.0005740040476468009
-0.04617984018914588   0.000578491567121078   0.0005740040476468009
-0.04617984018914588   0.000578491567121078   0.0005740040476468009
-0.02630034693475865   0.006759791235180985   0.0007701728128648492
-0.02630034693475865   0.006759791235180985   0.0007701728128648492
-0.02630034693475865   0.006759791235180985   0.0007701728128648492
-0.02630034693475865   0.006759791235180985   0.0007701728128648492
-0.06368043070688649   -0.001357951288801021   -0.0013413707603297381
-0.06368043070688649   -0.001357951288801021   -0.0013413707603297381
-0.06368043070688649   -0.001357951288801021   -0.0013413707603297381
-0.06368043070688649   -0.001357951288801021   -0.0013413707603297381
-0.061222959367762154   0.0033223198509693044   -0.0028153736013802255
-0.061222959367762154   0.0033223198509693044   -0.0028153736013802255
-0.061222959367762154   0.0033223198509693044   -0.0028153736013802255
-0.061222959367762154   0.0033223198509693044   -0.0028153736013802255
-0.02402446750251792   0.010509990249531278   -0.0004389891896645704
-0.02402446750251792   0.010509990249531278   -0.0004389891896645704
-0.02402446750251792   0.010509990249531278   -0.0004389891896645704
-0.02402446750251792   0.010509990249531278   -0.0004389891896645704
-0.04355951819013054   0.004587727544781968   0.002298186859516747
-0.04355951819013054   0.004587727544781968   0.002298186859516747
-0.04355951819013054   0.004587727544781968   0.002298186859516747
-0.04355951819013054   0.004587727544781968   0.002298186859516747
-0.06851887815792057   -0.0062916358864083186   -0.0017620099981642458
-0.06851887815792057   -0.0062916358864083186   -0.0017620099981642458
-0.06851887815792057   -0.0062916358864083186   -0.0017620099981642458
-0.06851887815792057   -0.0062916358864083186   -0.0017620099981642458
-0.10278154509307907   -0.00604960196871689   0.003639018223192919
-0.10278154509307907   -0.00604960196871689   0.003639018223192919
-0.10278154509307907   -0.00604960196871689   0.003639018223192919
-0.10278154509307907   -0.00604960196871689   0.003639018223192919
-0.10316726753661343   -0.009778381091058167   -0.005355045282766843
-0.10316726753661343   -0.009778381091058167   -0.005355045282766843
-0.10316726753661343   -0.009778381091058167   -0.005355045282766843
-0.10316726753661343   -0.009778381091058167   -0.005355045282766843
-0.06294677989803804   0.005866156102436669   0.004645924935731775
-0.06294677989803804   0.005866156102436669   0.004645924935731775
-0.06294677989803804   0.005866156102436669   0.004645924935731775
-0.06294677989803804   0.005866156102436669   0.004645924935731775
-0.08386481604335294   -0.0036880865557727873   -0.0005657583361302035
-0.08386481604335294   -0.0036880865557727873   -0.0005657583361302035
-0.08386481604335294   -0.0036880865557727873   -0.0005657583361302035
-0.08386481604335294   -0.0036880865557727873   -0.0005657583361302035
-0.06590363358981294   -0.0017575689410708542   -0.0025146184796346156
-0.06590363358981294   -0.0017575689410708542   -0.0025146184796346156
-0.06590363358981294   -0.0017575689410708542   -0.0025146184796346156
-0.06590363358981294   -0.0017575689410708542   -0.0025146184796346156
-0.09997747768595831   -0.0019217198886695673   0.0027372427681208724
-0.09997747768595831   -0.0019217198886695673   0.0027372427681208724
-0.09997747768595831   -0.0019217198886695673   0.0027372427681208724
-0.09997747768595831   -0.0019217198886695673   0.0027372427681208724
-0.0997324308996829   -0.005407721290125501   -0.0059630638081589575
-0.0997324308996829   -0.005407721290125501   -0.0059630638081589575
-0.0997324308996829   -0.005407721290125501   -0.0059630638081589575
-0.0997324308996829   -0.005407721290125501   -0.0059630638081589575
-0.060496650192030994   0.009516025502997969   0.0037035550221487185
-0.060496650192030994   0.009516025502997969   0.0037035550221487185
-0.060496650192030994   0.009516025502997969   0.0037035550221487185
-0.060496650192030994   0.009516025502997969   0.0037035550221487185
-0.08044628623238226   0.0003693462920898692   0.0013487192816209938
-0.08044628623238226   0.0003693462920898692   0.0013487192816209938
-0.08044628623238226   0.0003693462920898692   0.0013487192816209938
-0.08044628623238226   0.0003693462920898692   0.0013487192816209938
-0.06335170367633901   0.0023749162807470605   -0.0034306031771400448
-0.06335170367633901   0.0023749162807470605   -0.0034306031771400448
-0.06335170367633901   0.0023749162807470605   -0.0034306031771400448
-0.06335170367633901   0.0023749162807470605   -0.0034306031771400448
-0.09661771978885575   0.0019930455586446086   0.0022097248972066654
-0.09661771978885575   0.0019930455586446086   0.0022097248972066654
-0.09661771978885575   0.0019930455586446086   0.0022097248972066654
-0.09661771978885575   0.0019930455586446086   0.0022097248972066654
-0.09667062717536873   -0.0006777324732263786   -0.00643207008080413
-0.09667062717536873   -0.0006777324732263786   -0.00643207008080413
-0.09667062717536873   -0.0006777324732263786   -0.00643207008080413
-0.09667062717536873   -0.0006777324732263786   -0.00643207008080413
-0.05807484402883134   0.01349682175933472   0.0027507011849084396
-0.05807484402883134   0.01349682175933472   0.0027507011849084396
-0.05807484402883134   0.01349682175933472   0.0027507011849084396
-0.05807484402883134   0.01349682175933472   0.0027507011849084396
-0.07801253872601574   0.004105832272087981   0.0030501497066285164
-0.07801253872601574   0.004105832272087981   0.0030501497066285164
-0.07801253872601574   0.004105832272087981   0.0030501497066285164
-0.07801253872601574   0.004105832272087981   0.0030501497066285164
-0.1051965181372843   -0.0089001914848839   -0.005585257481666163
-0.1051965181372843   -0.0089001914848839   -0.005585257481666163
-0.1051965181372843   -0.0089001914848839   -0.005585257481666163
-0.1051965181372843   -0.0089001914848839   -0.005585257481666163
-0.14207109686126584   -0.0029948055363683314   0.008228224473813236
-0.14207109686126584   -0.0029948055363683314   0.008228224473813236
-0.14207109686126584   -0.0029948055363683314   0.008228224473813236
-0.14207109686126584   -0.0029948055363683314   0.008228224473813236
-0.14060663585110358   -0.012563438995539987   -0.007589377625029826
-0.14060663585110358   -0.012563438995539987   -0.007589377625029826
-0.14060663585110358   -0.012563438995539987   -0.007589377625029826
-0.14060663585110358   -0.012563438995539987   -0.007589377625029826
-0.09651233069491588   0.010032063615078142   0.008109194219584564
-0.09651233069491588   0.010032063615078142   0.008109194219584564
-0.09651233069491588   0.010032063615078142   0.008109194219584564
-0.09651233069491588   0.010032063615078142   0.008109194219584564
-0.11583773260074304   -0.002111941016222793   0.0011282117415827922
-0.11583773260074304   -0.002111941016222793   0.0011282117415827922
-0.11583773260074304   -0.002111941016222793   0.0011282117415827922
-0.11583773260074304   -0.002111941016222793   0.0011282117415827922
-0.10233933297719572   -0.0046590446759163864   -0.0063347089008197
-0.10233933297719572   -0.0046590446759163864   -0.0063347089008197
-0.10233933297719572   -0.0046590446759163864   -0.0063347089008197
-0.10233933297719572   -0.0046590446759163864   -0.0063347089008197
-0.1345612165975341   0.0023460862667438916   0.007728193380531509
-0.1345612165975341   0.0023460862667438916   0.007728193380531509
-0.1345612165975341   0.0023460862667438916   0.007728193380531509
-0.1345612165975341   0.0023460862667438916   0.007728193380531509
-0.1349856094581009   -0.009990853971605332   -0.009070572696000293
-0.1349856094581009   -0.009990853971605332   -0.009070572696000293
-0.1349856094581009   -0.009990853971605332   -0.009070572696000293
-0.1349856094581009   -0.009990853971605332   -0.009070572696000293
-0.09377113450159995   0.011727367924502644   0.006708328967626891
-0.09377113450159995   0.011727367924502644   0.006708328967626891
-0.09377113450159995   0.011727367924502644   0.006708328967626891
-0.09377113450159995   0.011727367924502644   0.006708328967626891
-0.11291436187185512   0.0006152773208089914   0.0026514801030873203
-0.11291436187185512   0.0006152773208089914   0.0026514801030873203
-0.11291436187185512   0.0006152773208089914   0.0026514801030873203
-0.11291436187185512   0.0006152773208089914   0.0026514801030873203
-0.09943753089221506   -0.0025386506095142966   -0.007357634451430978
-0.09943753089221506   -0.0025386506095142966   -0.007357634451430978
-0.09943753089221506   -0.0025386506095142966   -0.007357634451430978
-0.09943753089221506   -0.0025386506095142966   -0.007357634451430978
-0.12905895469302087   0.004535422936876983   0.006036424220915715
-0.12905895469302087   0.004535422936876983   0.006036424220915715
-0.12905895469302087   0.004535422936876983   0.006036424220915715
-0.12905895469302087   0.004535422936876983   0.006036424220915715
-0.12793563453625348   -0.006226156645579885   -0.010164689594924534
-0.12793563453625348   -0.006226156645579885   -0.010164689594924534
-0.12793563453625348   -0.006226156645579885   -0.010164689594924534
-0.12793563453625348   -0.006226156645579885   -0.010164689594924534
-0.09140292793354186   0.013645516248802756   0.005583177406301071
-0.09140292793354186   0.013645516248802756   0.005583177406301071
-0.09140292793354186   0.013645516248802756   0.005583177406301071
-0.09140292793354186   0.013645516248802756   0.005583177406301071
-0.10675632444027595   0.0031238992468826075   0.004853277048653869
-0.10675632444027595   0.0031238992468826075   0.004853277048653869
-0.10675632444027595   0.0031238992468826075   0.004853277048653869
-0.10675632444027595   0.0031238992468826075   0.004853277048653869
0.10793341429903826   0.009902890948225456   0.008907467967839484
0.10793341429903826   0.009902890948225456   0.008907467967839484
0.10793341429903826   0.009902890948225456   0.008907467967839484
0.10793341429903826   0.009902890948225456   0.008907467967839484
0.03898362692631947   -0.01702122611369588   -0.0058396647513515795
0.03898362692631947   -0.01702122611369588   -0.0058396647513515795
0.03898362692631947   -0.01702122611369588   -0.0058396647513515795
0.03898362692631947   -0.01702122611369588   -0.0058396647513515795
0.04739173929156432   -0.00038900100267366157   0.00636184393164506
0.04739173929156432   -0.00038900100267366157   0.00636184393164506
0.04739173929156432   -0.00038900100267366157   0.00636184393164506
0.04739173929156432   -0.00038900100267366157   0.00636184393164506
0.10945699117318712   -0.0016742760907452782   -0.007487898602967654
0.10945699117318712   -0.0016742760907452782   -0.007487898602967654
0.10945699117318712   -0.0016742760907452782   -0.007487898602967654
0.10945699117318712   -0.0016742760907452782   -0.007487898602967654
0.07127884457730443   -0.002867375781960727   -0.00666547702508714
0.07127884457730443   -0.002867375781960727   -0.00666547702508714
0.07127884457730443   -0.002867375781960727   -0.00666547702508714
0.07127884457730443   -0.002867375781960727   -0.00666547702508714
0.11553987550407524   0.01351558903803723   0.0077366579226885845
0.11553987550407524   0.01351558903803723   0.0077366579226885845
0.11553987550407524   0.01351558903803723   0.0077366579226885845
0.11553987550407524   0.01351558903803723   0.0077366579226885845
0.041761072350091015   -0.015126648742041513   -0.0070538430363527
0.041761072350091015   -0.015126648742041513   -0.0070538430363527
0.041761072350091015   -0.015126648742041513   -0.0070538430363527
0.041761072350091015   -0.015126648742041513   -0.0070538430363527
0.05051514633904948   0.0016279562213593977   0.005211466675965405
0.05051514633904948   0.0016279562213593977   0.005211466675965405
0.05051514633904948   0.0016279562213593977   0.005211466675965405
0.05051514633904948   0.0016279562213593977   0.005211466675965405
0.11542598561029278   0.0006021860556796009   -0.009331636950623553
0.11542598561029278   0.0006021860556796009   -0.009331636950623553
0.11542598561029278   0.0006021860556796009   -0.009331636950623553
0.11542598561029278   0.0006021860556796009   -0.009331636950623553
0.07760979578265047   -0.0004358107111888422   -0.00409898246891726
0.07760979578265047   -0.0004358107111888422   -0.00409898246891726
0.07760979578265047   -0.0004358107111888422   -0.00409898246891726
0.07760979578265047   -0.0004358107111888422   -0.00409898246891726
0.12155140302265181   0.01597703454688052   0.005920601619968697
0.12155140302265181   0.01597703454688052   0.005920601619968697
0.12155140302265181   0.01597703454688052   0.005920601619968697
0.12155140302265181   0.01597703454688052   0.005920601619968697
0.04485127312147191   -0.013285348075060384   -0.00819459511550262
0.04485127312147191   -0.013285348075060384   -0.00819459511550262
0.04485127312147191   -0.013285348075060384   -0.00819459511550262
0.04485127312147191   -0.013285348075060384   -0.00819459511550262
0.05363882458912433   0.0061312186955955385   0.004515576469016265
0.05363882458912433   0.0061312186955955385   0.004515576469016265
0.05363882458912433   0.0061312186955955385   0.004515576469016265
0.05363882458912433   0.0061312186955955385   0.004515576469016265
0.12331444031795752   0.006526225511027554   -0.010033359352580408
0.12331444031795752   0.006526225511027554   -0.010033359352580408
0.12331444031795752   0.006526225511027554   -0.010033359352580408
0.12331444031795752   0.006526225511027554   -0.010033359352580408
0.08125926774749634   0.002572044312207731   -0.0019367375206629225
0.08125926774749634   0.002572044312207731   -0.0019367375206629225
0.08125926774749634   0.002572044312207731   -0.0019367375206629225
0.08125926774749634   0.002572044312207731   -0.0019367375206629225
0.046153928576386956   0.005665446163454332   0.007325171221835186
0.046153928576386956   0.005665446163454332   0.007325171221835186
0.046153928576386956   0.005665446163454332   0.007325171221835186
0.046153928576386956   0.005665446163454332   0.007325171221835186
-0.02351324791105953   -0.015919670287868514   -0.0030953788041467737
-0.02351324791105953   -0.015919670287868514   -0.0030953788041467737
-0.02351324791105953   -0.015919670287868514   -0.0030953788041467737
-0.02351324791105953   -0.015919670287868514   -0.0030953788041467737
-0.017864871128457433   -0.004911856816820255   0.002122944666232767
-0.017864871128457433   -0.004911856816820255   0.002122944666232767
-0.017864871128457433   -0.004911856816820255   0.002122944666232767
-0.017864871128457433   -0.004911856816820255   0.002122944666232767
0.04619536629983484   0.0008200413535281031   -0.0008290633832036139
0.04619536629983484   0.0008200413535281031   -0.0008290633832036139
0.04619536629983484   0.0008200413535281031   -0.0008290633832036139
0.04619536629983484   0.0008200413535281031   -0.0008290633832036139
0.012128913781928253   -0.0031641714314271587   -0.002764882402081167
0.012128913781928253   -0.0031641714314271587   -0.002764882402081167
0.012128913781928253   -0.0031641714314271587   -0.002764882402081167
0.012128913781928253   -0.0031641714314271587   -0.002764882402081167
0.04939112707294124   0.009423925214486775   0.006545856621369234
0.04939112707294124   0.009423925214486775   0.006545856621369234
0.04939112707294124   0.009423925214486775   0.006545856621369234
0.04939112707294124   0.009423925214486775   0.006545856621369234
-0.02077067458493686   -0.013225783361152032   -0.004092146071832585
-0.02077067458493686   -0.013225783361152032   -0.004092146071832585
-0.02077067458493686   -0.013225783361152032   -0.004092146071832585
-0.02077067458493686   -0.013225783361152032   -0.004092146071832585
-0.014968865905789832   -0.0010901920353916645   0.001318613543740209
-0.014968865905789832   -0.0010901920353916645   0.001318613543740209
-0.014968865905789832   -0.0010901920353916645   0.001318613543740209
-0.014968865905789832   -0.0010901920353916645   0.001318613543740209
0.049668738838589084   0.004211971154389616   -0.001604585759366763
0.049668738838589084   0.004211971154389616   -0.001604585759366763
0.049668738838589084   0.004211971154389616   -0.001604585759366763
0.049668738838589084   0.004211971154389616   -0.001604585759366763
0.014901081655534594   -0.00016492741328801843   -0.0010886768538037098
0.014901081655534594   -0.00016492741328801843   -0.0010886768538037098
0.014901081655534594   -0.00016492741328801843   -0.0010886768538037098
0.014901081655534594   -0.00016492741328801843   -0.0010886768538037098
0.05299735369095282   0.013407850922148886   0.005842608734692634
0.05299735369095282   0.013407850922148886   0.005842608734692634
0.05299735369095282   0.013407850922148886   0.005842608734692634
0.05299735369095282   0.013407850922148886   0.005842608734692634
-0.01800980964681707   -0.00999840069181444   -0.004977896504973212
-0.01800980964681707   -0.00999840069181444   -0.004977896504973212
-0.01800980964681707   -0.00999840069181444   -0.004977896504973212
-0.01800980964681707   -0.00999840069181444   -0.004977896504973212
-0.012097379395067057   0.003394315620415891   0.0005232935060025252
-0.012097379395067057   0.003394315620415891   0.0005232935060025252
-0.012097379395067057   0.003394315620415891   0.0005232935060025252
-0.012097379395067057   0.003394315620415891   0.0005232935060025252
0.05270828741520003   0.00830019328061309   -0.002306083985622302
0.05270828741520003   0.00830019328061309   -0.002306083985622302
0.05270828741520003   0.00830019328061309   -0.002306083985622302
0.05270828741520003   0.00830019328061309   -0.002306083985622302
0.018444782699308514   0.0035610877982364033   0.0008830743976616963
0.018444782699308514   0.0035610877982364033   0.0008830743976616963
0.018444782699308514   0.0035610877982364033   0.0008830743976616963
0.018444782699308514   0.0035610877982364033   0.0008830743976616963
-0.018809213467650503   0.0013238963027264457   0.003181226822303397
-0.018809213467650503   0.0013238963027264457   0.003181226822303397
-0.018809213467650503   0.0013238963027264457   0.003181226822303397
-0.018809213467650503   0.0013238963027264457   0.003181226822303397
-0.08479327592303046   -0.014184558919579504   -0.0004905847037439832
-0.08479327592303046   -0.014184558919579504   -0.0004905847037439832
-0.08479327592303046   -0.014184558919579504   -0.0004905847037439832
-0.08479327592303046   -0.014184558919579504   -0.0004905847037439832
-0.08141563811977753   -0.008719630242898188   -0.0019650039776830945
-0.08141563811977753   -0.008719630242898188   -0.0019650039776830945
-0.08141563811977753   -0.008719630242898188   -0.0019650039776830945
-0.08141563811977753   -0.008719630242898188   -0.0019650039776830945
-0.016359929637372907   0.0026804803305590687   0.0020553149742760673
-0.016359929637372907   0.0026804803305590687   0.0020553149742760673
-0.016359929637372907   0.0026804803305590687   0.0020553149742760673
-0.016359929637372907   0.0026804803305590687   0.0020553149742760673
-0.05042591021936905   -0.0042946627063739405   -0.0017432981859599715
-0.05042591021936905   -0.0042946627063739405   -0.0017432981859599715
-0.05042591021936905   -0.0042946627063739405   -0.0017432981859599715
-0.05042591021936905   -0.0042946627063739405   -0.0017432981859599715
-0.015761508745774776   0.0052914803166701175   0.0024364194461556723
-0.015761508745774776   0.0052914803166701175   0.0024364194461556723
-0.015761508745774776   0.0052914803166701175   0.0024364194461556723
-0.015761508745774776   0.0052914803166701175   0.0024364194461556723
-0.08180380297032609   -0.01112037418795967   -0.001505084285364435
-0.08180380297032609   -0.01112037418795967   -0.001505084285364435
-0.08180380297032609   -0.01112037418795967   -0.001505084285364435
-0.08180380297032609   -0.01112037418795967   -0.001505084285364435
-0.07821298070055031   -0.004525802470309639   -0.0026480766742166665
-0.07821298070055031   -0.004525802470309639   -0.0026480766742166665
-0.07821298070055031   -0.004525802470309639   -0.0026480766742166665
-0.07821298070055031   -0.004525802470309639   -0.0026480766742166665
-0.013547461167903903   0.006114826594978227   0.001220618602799962
-0.013547461167903903   0.006114826594978227   0.001220618602799962
-0.013547461167903903   0.006114826594978227   0.001220618602799962
-0.013547461167903903   0.006114826594978227   0.001220618602799962
-0.047187215763932415   -0.0007931850663275546   -1.6802892974150142e-05
-0.047187215763932415   -0.0007931850663275546   -1.6802892974150142e-05
-0.047187215763932415   -0.0007931850663275546   -1.6802892974150142e-05
-0.047187215763932415   -0.0007931850663275546   -1.6802892974150142e-05
-0.01281885710118432   0.00939860890890056   0.0015798566224760062
-0.01281885710118432   0.00939860890890056   0.0015798566224760062
-0.01281885710118432   0.00939860890890056   0.0015798566224760062
-0.01281885710118432   0.00939860890890056   0.0015798566224760062
-0.07874975792795212   -0.007617757944915406   -0.0022400073366199693
-0.07874975792795212   -0.007617757944915406   -0.0022400073366199693
-0.07874975792795212   -0.007617757944915406   -0.0022400073366199693
-0.07874975792795212   -0.007617757944915406   -0.0022400073366199693
-0.07522499858629952   -0.0003313093176901642   -0.0034449559419901755
-0.07522499858629952   -0.0003313093176901642   -0.0034449559419901755
-0.07522499858629952   -0.0003313093176901642   -0.0034449559419901755
-0.07522499858629952   -0.0003313093176901642   -0.0034449559419901755
-0.010885848548662824   0.00960723958784922   0.0003680237705903709
-0.010885848548662824   0.00960723958784922   0.0003680237705903709
-0.010885848548662824   0.00960723958784922   0.0003680237705903709
-0.010885848548662824   0.00960723958784922   0.0003680237705903709
-0.044225659910039954   0.002698688773822594   0.0016191713566073114
-0.044225659910039954   0.002698688773822594   0.0016191713566073114
-0.044225659910039954   0.002698688773822594   0.0016191713566073114
-0.044225659910039954   0.002698688773822594   0.0016191713566073114
-0.08266445435926426   -0.002966828856242363   -0.0010642069482492732
-0.08266445435926426   -0.002966828856242363   -0.0010642069482492732
-0.08266445435926426   -0.002966828856242363   -0.0010642069482492732
-0.08266445435926426   -0.002966828856242363   -0.0010642069482492732
-0.1452588943993294   -0.011723897971915628   0.002423160124223638
-0.1452588943993294   -0.011723897971915628   0.002423160124223638
-0.1452588943993294   -0.011723897971915628   0.002423160124223638
-0.1452588943993294   -0.011723897971915628   0.002423160124223638
-0.1439137277761026   -0.012429081296098692   -0.005863314178888146
-0.1439137277761026   -0.012429081296098692   -0.005863314178888146
-0.1439137277761026   -0.012429081296098692   -0.005863314178888146
-0.1439137277761026   -0.012429081296098692   -0.005863314178888146
-0.07712289698932   0.005748890470660815   0.005030180961046172
-0.07712289698932   0.005748890470660815   0.005030180961046172
-0.07712289698932   0.005748890470660815   0.005030180961046172
-0.07712289698932   0.005748890470660815   0.005030180961046172
-0.11146562027178569   -0.0047202247682996586   -0.000625462691203775
-0.11146562027178569   -0.0047202247682996586   -0.000625462691203775
-0.11146562027178569   -0.0047202247682996586   -0.000625462691203775
-0.11146562027178569   -0.0047202247682996586   -0.000625462691203775
-0.07935801056883078   0.0013128547399699313   -0.0017093512058168467
-0.07935801056883078   0.0013128547399699313   -0.0017093512058168467
-0.07935801056883078   0.0013128547399699313   -0.0017093512058168467
-0.07935801056883078   0.0013128547399699313   -0.0017093512058168467
-0.14161958969803587   -0.00793402106685187   0.0011123159821986167
-0.14161958969803587   -0.00793402106685187   0.0011123159821986167
-0.14161958969803587   -0.00793402106685187   0.0011123159821986167
-0.14161958969803587   -0.00793402106685187   0.0011123159821986167
-0.13967013660259933   -0.008357053948998536   -0.0064883558272731245
-0.13967013660259933   -0.008357053948998536   -0.0064883558272731245
-0.13967013660259933   -0.008357053948998536   -0.0064883558272731245
-0.13967013660259933   -0.008357053948998536   -0.0064883558272731245
-0.07417021517160309   0.008995200323531977   0.004044748176678497
-0.07417021517160309   0.008995200323531977   0.004044748176678497
-0.07417021517160309   0.008995200323531977   0.004044748176678497
-0.07417021517160309   0.008995200323531977   0.004044748176678497
-0.10708662743406368   -0.0008647682932116617   0.0011276712687588617
-0.10708662743406368   -0.0008647682932116617   0.0011276712687588617
-0.10708662743406368   -0.0008647682932116617   0.0011276712687588617
-0.10708662743406368   -0.0008647682932116617   0.0011276712687588617
-0.07626996369744353   0.005107410809740691   -0.002566204938732804
-0.07626996369744353   0.005107410809740691   -0.002566204938732804
-0.07626996369744353   0.005107410809740691   -0.002566204938732804
-0.07626996369744353   0.005107410809740691   -0.002566204938732804
-0.13740979878902454   -0.004308675147472983   0.000764954439075179
-0.13740979878902454   -0.004308675147472983   0.000764954439075179
-0.13740979878902454   -0.004308675147472983   0.000764954439075179
-0.13740979878902454   -0.004308675147472983   0.000764954439075179
-0.13588178832143402   -0.0039823405420573825   -0.006838166029449388
-0.13588178832143402   -0.0039823405420573825   -0.006838166029449388
-0.13588178832143402   -0.0039823405420573825   -0.006838166029449388
-0.13588178832143402   -0.0039823405420573825   -0.006838166029449388
-0.07131133634313136   0.01251734782236149   0.003274698133799563
-0.07131133634313136   0.01251734782236149   0.003274698133799563
-0.07131133634313136   0.01251734782236149   0.003274698133799563
-0.07131133634313136   0.01251734782236149   0.003274698133799563
-0.1042961833277547   0.0023942982967641926   0.0026266341259375218
-0.1042961833277547   0.0023942982967641926   0.0026266341259375218
-0.1042961833277547   0.0023942982967641926   0.0026266341259375218
-0.1042961833277547   0.0023942982967641926   0.0026266341259375218
-0.1456711029840248   -0.00636067317493047   -0.005001107596238464
-0.1456711029840248   -0.00636067317493047   -0.005001107596238464
-0.1456711029840248   -0.00636067317493047   -0.005001107596238464
-0.1456711029840248   -0.00636067317493047   -0.005001107596238464
-0.2087844394343334   -0.007695729536883494   0.00859675336006032
-0.2087844394343334   -0.007695729536883494   0.00859675336006032
-0.2087844394343334   -0.007695729536883494   0.00859675336006032
-0.2087844394343334   -0.007695729536883494   0.00859675336006032
-0.20552951377500975   -0.01475636604707281   -0.006815771011076348
-0.20552951377500975   -0.01475636604707281   -0.006815771011076348
-0.20552951377500975   -0.01475636604707281   -0.006815771011076348
-0.20552951377500975   -0.01475636604707281   -0.006815771011076348
-0.13623137609729669   0.011288266283356854   0.008831096635684682
-0.13623137609729669   0.011288266283356854   0.008831096635684682
-0.13623137609729669   0.011288266283356854   0.008831096635684682
-0.13623137609729669   0.011288266283356854   0.008831096635684682
-0.1662910697980881   -0.002038593730758112   0.0021768541758094926
-0.1662910697980881   -0.002038593730758112   0.0021768541758094926
-0.1662910697980881   -0.002038593730758112   0.0021768541758094926
-0.1662910697980881   -0.002038593730758112   0.0021768541758094926
-0.14171978375867494   -0.00174650076596769   -0.005576174621881702
-0.14171978375867494   -0.00174650076596769   -0.005576174621881702
-0.14171978375867494   -0.00174650076596769   -0.005576174621881702
-0.14171978375867494   -0.00174650076596769   -0.005576174621881702
-0.19991026890484848   -0.001590761788966187   0.008114849081621293
-0.19991026890484848   -0.001590761788966187   0.008114849081621293
-0.19991026890484848   -0.001590761788966187   0.008114849081621293
-0.19991026890484848   -0.001590761788966187   0.008114849081621293
-0.19891209236250784   -0.01225492629829946   -0.008062184285471912
-0.19891209236250784   -0.01225492629829946   -0.008062184285471912
-0.19891209236250784   -0.01225492629829946   -0.008062184285471912
-0.19891209236250784   -0.01225492629829946   -0.008062184285471912
-0.13272746823284975   0.012825322986558405   0.007042609085917901
-0.13272746823284975   0.012825322986558405   0.007042609085917901
-0.13272746823284975   0.012825322986558405   0.007042609085917901
-0.13272746823284975   0.012825322986558405   0.007042609085917901
-0.16324672997571912   0.0007082502849503278   0.003570597919233998
-0.16324672997571912   0.0007082502849503278   0.003570597919233998
-0.16324672997571912   0.0007082502849503278   0.003570597919233998
-0.16324672997571912   0.0007082502849503278   0.003570597919233998
-0.13792489717078726   0.0002759225614139757   -0.006395135178625286
-0.13792489717078726   0.0002759225614139757   -0.006395135178625286
-0.13792489717078726   0.0002759225614139757   -0.006395135178625286
-0.13792489717078726   0.0002759225614139757   -0.006395135178625286
-0.19357576034107585   0.00043337721033754467   0.00593117231304738
-0.19357576034107585   0.00043337721033754467   0.00593117231304738
-0.19357576034107585   0.00043337721033754467   0.00593117231304738
-0.19357576034107585   0.00043337721033754467   0.00593117231304738
-0.19156544294807734   -0.009352097748810378   -0.009242377567232953
-0.19156544294807734   -0.009352097748810378   -0.009242377567232953
-0.19156544294807734   -0.009352097748810378   -0.009242377567232953
-0.19156544294807734   -0.009352097748810378   -0.009242377567232953
-0.12970286701603434   0.014088353443603194   0.005985746511888459
-0.12970286701603434   0.014088353443603194   0.005985746511888459
-0.12970286701603434   0.014088353443603194   0.005985746511888459
-0.12970286701603434   0.014088353443603194   0.005985746511888459
-0.1556685704100904   0.0029461420654021825   0.005783833738739178
-0.1556685704100904   0.0029461420654021825   0.005783833738739178
-0.1556685704100904   0.0029461420654021825   0.005783833738739178
-0.1556685704100904   0.0029461420654021825   0.005783833738739178
0.17602880884469696   0.01332084088557096   0.008825488326597464
0.17602880884469696   0.01332084088557096   0.008825488326597464
0.17602880884469696   0.01332084088557096   0.008825488326597464
0.17602880884469696   0.01332084088557096   0.008825488326597464
0.07681675765540813   -0.01978752846633383   -0.004269935551791403
0.07681675765540813   -0.01978752846633383   -0.004269935551791403
0.07681675765540813   -0.01978752846633383   -0.004269935551791403
0.07681675765540813   -0.01978752846633383   -0.004269935551791403
0.08494548769531356   -0.0038829234798845626   0.0059803679292095005
0.08494548769531356   -0.0038829234798845626   0.0059803679292095005
0.08494548769531356   -0.0038829234798845626   0.0059803679292095005
0.08494548769531356   -0.0038829234798845626   0.0059803679292095005
0.17756580207726827   0.0006233391692694046   -0.006544085678445711
0.17756580207726827   0.0006233391692694046   -0.006544085678445711
0.17756580207726827   0.0006233391692694046   -0.006544085678445711
0.17756580207726827   0.0006233391692694046   -0.006544085678445711
0.12133596692095507   -0.003296646558279378   -0.009151371021647401
0.12133596692095507   -0.003296646558279378   -0.009151371021647401
0.12133596692095507   -0.003296646558279378   -0.009151371021647401
0.12133596692095507   -0.003296646558279378   -0.009151371021647401
0.18344289989661344   0.016094528243369214   0.0073702143441785025
0.18344289989661344   0.016094528243369214   0.0073702143441785025
0.18344289989661344   0.016094528243369214   0.0073702143441785025
0.18344289989661344   0.016094528243369214   0.0073702143441785025
0.07964146746502242   -0.018781034964930558   -0.00564162173719969
0.07964146746502242   -0.018781034964930558   -0.00564162173719969
0.07964146746502242   -0.018781034964930558   -0.00564162173719969
0.07964146746502242   -0.018781034964930558   -0.00564162173719969
0.08796753268694164   -0.0020631472739382796   0.004800149324638168
0.08796753268694164   -0.0020631472739382796   0.004800149324638168
0.08796753268694164   -0.0020631472739382796   0.004800149324638168
0.08796753268694164   -0.0020631472739382796   0.004800149324638168
0.18308120728003816   0.002614431671666112   -0.008076415787260658
0.18308120728003816   0.002614431671666112   -0.008076415787260658
0.18308120728003816   0.002614431671666112   -0.008076415787260658
0.18308120728003816   0.002614431671666112   -0.008076415787260658
0.12841980371759604   -0.0012030097642880405   -0.006284336643224211
0.12841980371759604   -0.0012030097642880405   -0.006284336643224211
0.12841980371759604   -0.0012030097642880405   -0.006284336643224211
0.12841980371759604   -0.0012030097642880405   -0.006284336643224211
0.18891006672722127   0.018251493577711855   0.005430819542609207
0.18891006672722127   0.018251493577711855   0.005430819542609207
0.18891006672722127   0.018251493577711855   0.005430819542609207
0.18891006672722127   0.018251493577711855   0.005430819542609207
0.08263132035583635   -0.017207562063906185   -0.006736497540920336
0.08263132035583635   -0.017207562063906185   -0.006736497540920336
0.08263132035583635   -0.017207562063906185   -0.006736497540920336
0.08263132035583635   -0.017207562063906185   -0.006736497540920336
0.09072623744598286   0.0028570315416990115   0.004208873672751545
0.09072623744598286   0.0028570315416990115   0.004208873672751545
0.09072623744598286   0.0028570315416990115   0.004208873672751545
0.09072623744598286   0.0028570315416990115   0.004208873672751545
0.18994274997488125   0.008472634369687378   -0.008422518648266297
0.18994274997488125   0.008472634369687378   -0.008422518648266297
0.18994274997488125   0.008472634369687378   -0.008422518648266297
0.18994274997488125   0.008472634369687378   -0.008422518648266297
0.1307581374608902   0.0016751077835728545   -0.004354281576053131
0.1307581374608902   0.0016751077835728545   -0.004354281576053131
0.1307581374608902   0.0016751077835728545   -0.004354281576053131
0.1307581374608902   0.0016751077835728545   -0.004354281576053131
0.08491191999373052   0.008056757157180013   0.008361590516305807
0.08491191999373052   0.008056757157180013   0.008361590516305807
0.08491191999373052   0.008056757157180013   0.008361590516305807
0.08491191999373052   0.008056757157180013   0.008361590516305807
-0.012158087423154995   -0.02399925066536663   -0.0024882800737542074
-0.012158087423154995   -0.02399925066536663   -0.0024882800737542074
-0.012158087423154995   -0.02399925066536663   -0.0024882800737542074
-0.012158087423154995   -0.02399925066536663   -0.0024882800737542074
-0.005326068966406592   -0.00893045293188329   0.001939900455980859
-0.005326068966406592   -0.00893045293188329   0.001939900455980859
-0.005326068966406592   -0.00893045293188329   0.001939900455980859
-0.005326068966406592   -0.00893045293188329   0.001939900455980859
0.08403553478127072   -0.002986371406280955   0.0005340512853916918
0.08403553478127072   -0.002986371406280955   0.0005340512853916918
0.08403553478127072   -0.002986371406280955   0.0005340512853916918
0.08403553478127072   -0.002986371406280955   0.0005340512853916918
0.03683099958568374   -0.006270327922996574   -0.004181695328468533
0.03683099958568374   -0.006270327922996574   -0.004181695328468533
0.03683099958568374   -0.006270327922996574   -0.004181695328468533
0.03683099958568374   -0.006270327922996574   -0.004181695328468533
0.08818612450945379   0.010870109480081528   0.007430519039944558
0.08818612450945379   0.010870109480081528   0.007430519039944558
0.08818612450945379   0.010870109480081528   0.007430519039944558
0.08818612450945379   0.010870109480081528   0.007430519039944558
-0.009157325956043207   -0.02246760107969932   -0.0036792363443861956
-0.009157325956043207   -0.02246760107969932   -0.0036792363443861956
-0.009157325956043207   -0.02246760107969932   -0.0036792363443861956
-0.009157325956043207   -0.02246760107969932   -0.0036792363443861956
-0.002253540057938069   -0.005625291637379688   0.001131379178321546
-0.002253540057938069   -0.005625291637379688   0.001131379178321546
-0.002253540057938069   -0.005625291637379688   0.001131379178321546
-0.002253540057938069   -0.005625291637379688   0.001131379178321546
0.08722946925956361   -0.00048791725073744213   -0.00046539783545282865
0.08722946925956361   -0.00048791725073744213   -0.00046539783545282865
0.08722946925956361   -0.00048791725073744213   -0.00046539783545282865
0.08722946925956361   -0.00048791725073744213   -0.00046539783545282865
0.03943668916440979   -0.004226286890973985   -0.0026769502769351905
0.03943668916440979   -0.004226286890973985   -0.0026769502769351905
0.03943668916440979   -0.004226286890973985   -0.0026769502769351905
0.03943668916440979   -0.004226286890973985   -0.0026769502769351905
0.09160330264471302   0.014252476196165929   0.006663375643390864
0.09160330264471302   0.014252476196165929   0.006663375643390864
0.09160330264471302   0.014252476196165929   0.006663375643390864
0.09160330264471302   0.014252476196165929   0.006663375643390864
-0.006422145852109649   -0.020160457493305226   -0.005176483936610819
-0.006422145852109649   -0.020160457493305226   -0.005176483936610819
-0.006422145852109649   -0.020160457493305226   -0.005176483936610819
-0.006422145852109649   -0.020160457493305226   -0.005176483936610819
0.00016838580233605736   -0.001682380937700729   0.00032094653568025266
0.00016838580233605736   -0.001682380937700729   0.00032094653568025266
0.00016838580233605736   -0.001682380937700729   0.00032094653568025266
0.00016838580233605736   -0.001682380937700729   0.00032094653568025266
0.08959158598309594   0.0027463165855848397   -0.0013536686855703112
0.08959158598309594   0.0027463165855848397   -0.0013536686855703112
0.08959158598309594   0.0027463165855848397   -0.0013536686855703112
0.08959158598309594   0.0027463165855848397   -0.0013536686855703112
0.04280763646878827   -0.0011401660079974393   -0.0010161269757041334
0.04280763646878827   -0.0011401660079974393   -0.0010161269757041334
0.04280763646878827   -0.0011401660079974393   -0.0010161269757041334
0.04280763646878827   -0.0011401660079974393   -0.0010161269757041334
-0.0054941408499751985   0.0026165212176120327   0.0042156809091661055
-0.0054941408499751985   0.0026165212176120327   0.0042156809091661055
-0.0054941408499751985   0.0026165212176120327   0.0042156809091661055
-0.0054941408499751985   0.0026165212176120327   0.0042156809091661055
-0.10037102469086669   -0.02972258295568956   -0.001893403894573604
-0.10037102469086669   -0.02972258295568956   -0.001893403894573604
-0.10037102469086669   -0.02972258295568956   -0.001893403894573604
-0.10037102469086669   -0.02972258295568956   -0.001893403894573604
-0.09366894177937897   -0.013623069073871766   -0.002153419905872042
-0.09366894177937897   -0.013623069073871766   -0.002153419905872042
-0.09366894177937897   -0.013623069073871766   -0.002153419905872042
-0.09366894177937897   -0.013623069073871766   -0.002153419905872042
-0.005224923333122888   -0.008485855989007958   0.0020010316795240446
-0.005224923333122888   -0.008485855989007958   0.0020010316795240446
-0.005224923333122888   -0.008485855989007958   0.0020010316795240446
-0.005224923333122888   -0.008485855989007958   0.0020010316795240446
-0.05138755300735444   -0.01163776974141598   -0.0036861816857065464
-0.05138755300735444   -0.01163776974141598   -0.0036861816857065464
-0.05138755300735444   -0.01163776974141598   -0.0036861816857065464
-0.05138755300735444   -0.01163776974141598   -0.0036861816857065464
-0.002073134751205775   0.005818000027464677   0.0034561185726369736
-0.002073134751205775   0.005818000027464677   0.0034561185726369736
-0.002073134751205775   0.005818000027464677   0.0034561185726369736
-0.002073134751205775   0.005818000027464677   0.0034561185726369736
-0.09658348250454979   -0.027689677233598095   -0.002659515371999753
-0.09658348250454979   -0.027689677233598095   -0.002659515371999753
-0.09658348250454979   -0.027689677233598095   -0.002659515371999753
-0.09658348250454979   -0.027689677233598095   -0.002659515371999753
-0.0898423482526499   -0.009964602336852542   -0.0028816389716078685
-0.0898423482526499   -0.009964602336852542   -0.0028816389716078685
-0.0898423482526499   -0.009964602336852542   -0.0028816389716078685
-0.0898423482526499   -0.009964602336852542   -0.0028816389716078685
-0.0023779035711312636   -0.0060715819779667305   0.0009558519529426148
-0.0023779035711312636   -0.0060715819779667305   0.0009558519529426148
-0.0023779035711312636   -0.0060715819779667305   0.0009558519529426148
-0.0023779035711312636   -0.0060715819779667305   0.0009558519529426148
-0.04767252290659183   -0.00898204637484462   -0.0019849848500964047
-0.04767252290659183   -0.00898204637484462   -0.0019849848500964047
-0.04767252290659183   -0.00898204637484462   -0.0019849848500964047
-0.04767252290659183   -0.00898204637484462   -0.0019849848500964047
0.0010513640017350955   0.009330491230172974   0.002700116609134705
0.0010513640017350955   0.009330491230172974   0.002700116609134705
0.0010513640017350955   0.009330491230172974   0.002700116609134705
0.0010513640017350955   0.009330491230172974   0.002700116609134705
-0.09323472573487146   -0.02532978545434617   -0.004478343265222044
-0.09323472573487146   -0.02532978545434617   -0.004478343265222044
-0.09323472573487146   -0.02532978545434617   -0.004478343265222044
-0.09323472573487146   -0.02532978545434617   -0.004478343265222044
-0.08712941409115606   -0.006451620490439064   -0.0036827110783654872
-0.08712941409115606   -0.006451620490439064   -0.0036827110783654872
-0.08712941409115606   -0.006451620490439064   -0.0036827110783654872
-0.08712941409115606   -0.006451620490439064   -0.0036827110783654872
-0.0005313122376503073   -0.004078082405745329   -0.0007818421962069713
-0.0005313122376503073   -0.004078082405745329   -0.0007818421962069713
-0.0005313122376503073   -0.004078082405745329   -0.0007818421962069713
-0.0005313122376503073   -0.004078082405745329   -0.0007818421962069713
-0.044957389366632274   -0.006471785266451074   -0.0008735037572659135
-0.044957389366632274   -0.006471785266451074   -0.0008735037572659135
-0.044957389366632274   -0.006471785266451074   -0.0008735037572659135
-0.044957389366632274   -0.006471785266451074   -0.0008735037572659135
-0.09445641059315896   -0.0020471804232259604   4.26406150150823e-06
-0.09445641059315896   -0.0020471804232259604   4.26406150150823e-06
-0.09445641059315896   -0.0020471804232259604   4.26406150150823e-06
-0.09445641059315896   -0.0020471804232259604   4.26406150150823e-06
-0.18936281778239436   -0.03195515002129802   -0.0014183749959573628
-0.18936281778239436   -0.03195515002129802   -0.0014183749959573628
-0.18936281778239436   -0.03195515002129802   -0.0014183749959573628
-0.18936281778239436   -0.03195515002129802   -0.0014183749959573628
-0.1823788489728519   -0.017541194122367505   -0.0061642900205712324
-0.1823788489728519   -0.017541194122367505   -0.0061642900205712324
-0.1823788489728519   -0.017541194122367505   -0.0061642900205712324
-0.1823788489728519   -0.017541194122367505   -0.0061642900205712324
-0.09147925954459311   -0.008881286276361285   0.004053208470546766
-0.09147925954459311   -0.008881286276361285   0.004053208470546766
-0.09147925954459311   -0.008881286276361285   0.004053208470546766
-0.09147925954459311   -0.008881286276361285   0.004053208470546766
-0.13825475216768676   -0.014200373788202722   -0.002570669751741699
-0.13825475216768676   -0.014200373788202722   -0.002570669751741699
-0.13825475216768676   -0.014200373788202722   -0.002570669751741699
-0.13825475216768676   -0.014200373788202722   -0.002570669751741699
-0.09022427530864181   0.0020099560744809564   -0.000563112700538976
-0.09022427530864181   0.0020099560744809564   -0.000563112700538976
-0.09022427530864181   0.0020099560744809564   -0.000563112700538976
-0.09022427530864181   0.0020099560744809564   -0.000563112700538976
-0.18364478357762012   -0.028443386842025183   -0.0015917703247533511
-0.18364478357762012   -0.028443386842025183   -0.0015917703247533511
-0.18364478357762012   -0.028443386842025183   -0.0015917703247533511
-0.18364478357762012   -0.028443386842025183   -0.0015917703247533511
-0.1768494252099372   -0.013769750730035783   -0.007100797052818527
-0.1768494252099372   -0.013769750730035783   -0.007100797052818527
-0.1768494252099372   -0.013769750730035783   -0.007100797052818527
-0.1768494252099372   -0.013769750730035783   -0.007100797052818527
-0.08780731509521986   -0.006087274231579289   0.003416198710270091
-0.08780731509521986   -0.006087274231579289   0.003416198710270091
-0.08780731509521986   -0.006087274231579289   0.003416198710270091
-0.08780731509521986   -0.006087274231579289   0.003416198710270091
-0.132474475471311   -0.010577768068230863   -0.0007098039323431534
-0.132474475471311   -0.010577768068230863   -0.0007098039323431534
-0.132474475471311   -0.010577768068230863   -0.0007098039323431534
-0.132474475471311   -0.010577768068230863   -0.0007098039323431534
-0.08639961400093377   0.005511547426960483   -0.0011441174768406373
-0.08639961400093377   0.005511547426960483   -0.0011441174768406373
-0.08639961400093377   0.005511547426960483   -0.0011441174768406373
-0.08639961400093377   0.005511547426960483   -0.0011441174768406373
-0.17847022449908692   -0.025581670583439187   -0.003392873645162321
-0.17847022449908692   -0.025581670583439187   -0.003392873645162321
-0.17847022449908692   -0.025581670583439187   -0.003392873645162321
-0.17847022449908692   -0.025581670583439187   -0.003392873645162321
-0.17246593080509745   -0.009838977170543915   -0.007352332368753681
-0.17246593080509745   -0.009838977170543915   -0.007352332368753681
-0.17246593080509745   -0.009838977170543915   -0.007352332368753681
-0.17246593080509745   -0.009838977170543915   -0.007352332368753681
-0.08571892217134565   -0.00431053875675343   0.0012286667870016676
-0.08571892217134565   -0.00431053875675343   0.0012286667870016676
-0.08571892217134565   -0.00431053875675343   0.0012286667870016676
-0.08571892217134565   -0.00431053875675343   0.0012286667870016676
-0.1295577413061854   -0.008389546222339402   -7.23894808945056e-05
-0.1295577413061854   -0.008389546222339402   -7.23894808945056e-05
-0.1295577413061854   -0.008389546222339402   -7.23894808945056e-05
-0.1295577413061854   -0.008389546222339402   -7.23894808945056e-05
-0.18460859023314688   -0.005416989852384903   -0.004185397418633233
-0.18460859023314688   -0.005416989852384903   -0.004185397418633233
-0.18460859023314688   -0.005416989852384903   -0.004185397418633233
-0.18460859023314688   -0.005416989852384903   -0.004185397418633233
-0.27859728860138544   -0.022538878455551914   0.00950344835633048
-0.27859728860138544   -0.022538878455551914   0.00950344835633048
-0.27859728860138544   -0.022538878455551914   0.00950344835633048
-0.27859728860138544   -0.022538878455551914   0.00950344835633048
-0.27024509146452136   -0.018449939942651157   -0.0058462191271307085
-0.27024509146452136   -0.018449939942651157   -0.0058462191271307085
-0.27024509146452136   -0.018449939942651157   -0.0058462191271307085
-0.27024509146452136   -0.018449939942651157   -0.0058462191271307085
-0.17475789568518837   0.00542136905636164   0.008977913239015766
-0.17475789568518837   0.00542136905636164   0.008977913239015766
-0.17475789568518837   0.00542136905636164   0.008977913239015766
-0.17475789568518837   0.00542136905636164   0.008977913239015766
-0.21678367429574874   -0.006795509492467738   0.001605946322800613
-0.21678367429574874   -0.006795509492467738   0.001605946322800613
-0.21678367429574874   -0.006795509492467738   0.001605946322800613
-0.21678367429574874   -0.006795509492467738   0.001605946322800613
-0.1785443467406111   0.00012738185934316193   -0.004660354841077036
-0.1785443467406111   0.00012738185934316193   -0.004660354841077036
-0.1785443467406111   0.00012738185934316193   -0.004660354841077036
-0.1785443467406111   0.00012738185934316193   -0.004660354841077036
-0.26585211788938296   -0.012549430225915661   0.010218139031823819
-0.26585211788938296   -0.012549430225915661   0.010218139031823819
-0.26585211788938296   -0.012549430225915661   0.010218139031823819
-0.26585211788938296   -0.012549430225915661   0.010218139031823819
-0.261214723141344   -0.01567315384781344   -0.0069625201774470725
-0.261214723141344   -0.01567315384781344   -0.0069625201774470725
-0.261214723141344   -0.01567315384781344   -0.0069625201774470725
-0.261214723141344   -0.01567315384781344   -0.0069625201774470725
-0.16933659343125884   0.008112555031344573   0.00858105607919286
-0.16933659343125884   0.008112555031344573   0.00858105607919286
-0.16933659343125884   0.008112555031344573   0.00858105607919286
-0.16933659343125884   0.008112555031344573   0.00858105607919286
-0.21195886179700457   -0.0027338029034971595   0.004474990675830874
-0.21195886179700457   -0.0027338029034971595   0.004474990675830874
-0.21195886179700457   -0.0027338029034971595   0.004474990675830874
-0.21195886179700457   -0.0027338029034971595   0.004474990675830874
-0.17323064404754113   0.002300698010217074   -0.0050773399810896454
-0.17323064404754113   0.002300698010217074   -0.0050773399810896454
-0.17323064404754113   0.002300698010217074   -0.0050773399810896454
-0.17323064404754113   0.002300698010217074   -0.0050773399810896454
-0.2571638946234329   -0.00970451892505906   0.0073229874893563935
-0.2571638946234329   -0.00970451892505906   0.0073229874893563935
-0.2571638946234329   -0.00970451892505906   0.0073229874893563935
-0.2571638946234329   -0.00970451892505906   0.0073229874893563935
-0.2518219331505541   -0.013222454816522497   -0.008449228654220185
-0.2518219331505541   -0.013222454816522497   -0.008449228654220185
-0.2518219331505541   -0.013222454816522497   -0.008449228654220185
-0.2518219331505541   -0.013222454816522497   -0.008449228654220185
-0.16551088393714894   0.011057163513777765   0.00652676128666867
-0.16551088393714894   0.011057163513777765   0.00652676128666867
-0.16551088393714894   0.011057163513777765   0.00652676128666867
-0.16551088393714894   0.011057163513777765   0.00652676128666867
-0.20157467751344837   0.0006750325778267507   0.007515794851741444
-0.20157467751344837   0.0006750325778267507   0.007515794851741444
-0.20157467751344837   0.0006750325778267507   0.007515794851741444
-0.20157467751344837   0.0006750325778267507   0.007515794851741444
0.23638395930245634   0.014582160999980914   0.008011310132734102
0.23638395930245634   0.014582160999980914   0.008011310132734102
0.23638395930245634   0.014582160999980914   0.008011310132734102
0.23638395930245634   0.014582160999980914   0.008011310132734102
0.11159946531957331   -0.020245181594043375   0.0012240531288318333
0.11159946531957331   -0.020245181594043375   0.0012240531288318333
0.11159946531957331   -0.020245181594043375   0.0012240531288318333
0.11159946531957331   -0.020245181594043375   0.0012240531288318333
0.11725353520432008   -0.00893261660352035   0.005988402330553689
0.11725353520432008   -0.00893261660352035   0.005988402330553689
0.11725353520432008   -0.00893261660352035   0.005988402330553689
0.11725353520432008   -0.00893261660352035   0.005988402330553689
0.2373222080896761   0.0031273658347403394   -0.0022618111044015957
0.2373222080896761   0.0031273658347403394   -0.0022618111044015957
0.2373222080896761   0.0031273658347403394   -0.0022618111044015957
0.2373222080896761   0.0031273658347403394   -0.0022618111044015957
0.16556004193883617   -0.004026802403309486   -0.010624443328936377
0.16556004193883617   -0.004026802403309486   -0.010624443328936377
0.16556004193883617   -0.004026802403309486   -0.010624443328936377
0.16556004193883617   -0.004026802403309486   -0.010624443328936377
0.24161106691287132   0.016002649201118456   0.006307199645196448
0.24161106691287132   0.016002649201118456   0.006307199645196448
0.24161106691287132   0.016002649201118456   0.006307199645196448
0.24161106691287132   0.016002649201118456   0.006307199645196448
0.1139559033916244   -0.020816672959398926   0.0013842996229537965
0.1139559033916244   -0.020816672959398926   0.0013842996229537965
0.1139559033916244   -0.020816672959398926   0.0013842996229537965
0.1139559033916244   -0.020816672959398926   0.0013842996229537965
0.11927185218831372   -0.0076291914053517595   0.004514823919374423
0.11927185218831372   -0.0076291914053517595   0.004514823919374423
0.11927185218831372   -0.0076291914053517595   0.004514823919374423
0.11927185218831372   -0.0076291914053517595   0.004514823919374423
0.2410891147297868   0.00457573156787118   -0.0011464395146690842
0.2410891147297868   0.00457573156787118   -0.0011464395146690842
0.2410891147297868   0.00457573156787118   -0.0011464395146690842
0.2410891147297868   0.00457573156787118   -0.0011464395146690842
0.17199504403473473   -0.003103184010753386   -0.007368510612346283
0.17199504403473473   -0.003103184010753386   -0.007368510612346283
0.17199504403473473   -0.003103184010753386   -0.007368510612346283
0.17199504403473473   -0.003103184010753386   -0.007368510612346283
0.24475580642569894   0.01743098730400245   0.004331763228760254
0.24475580642569894   0.01743098730400245   0.004331763228760254
0.24475580642569894   0.01743098730400245   0.004331763228760254
0.24475580642569894   0.01743098730400245   0.004331763228760254
0.11629357149205002   -0.019796036141834616   0.0017902651745387334
0.11629357149205002   -0.019796036141834616   0.0017902651745387334
0.11629357149205002   -0.019796036141834616   0.0017902651745387334
0.11629357149205002   -0.019796036141834616   0.0017902651745387334
0.12229976941567394   -0.002545538620559059   0.0041295969597165095
0.12229976941567394   -0.002545538620559059   0.0041295969597165095
0.12229976941567394   -0.002545538620559059   0.0041295969597165095
0.12229976941567394   -0.002545538620559059   0.0041295969597165095
0.2450952140286571   0.008100449921037145   -0.0006846316311179251
0.2450952140286571   0.008100449921037145   -0.0006846316311179251
0.2450952140286571   0.008100449921037145   -0.0006846316311179251
0.2450952140286571   0.008100449921037145   -0.0006846316311179251
0.17243906265416678   -0.0011983374484409379   -0.005659597776630235
0.17243906265416678   -0.0011983374484409379   -0.005659597776630235
0.17243906265416678   -0.0011983374484409379   -0.005659597776630235
0.17243906265416678   -0.0011983374484409379   -0.005659597776630235
0.11801916819301983   0.004291111377519495   0.008786274524501606
0.11801916819301983   0.004291111377519495   0.008786274524501606
0.11801916819301983   0.004291111377519495   0.008786274524501606
0.11801916819301983   0.004291111377519495   0.008786274524501606
0.003558831846990398   -0.03877062912525921   0.0034487547899486916
0.003558831846990398   -0.03877062912525921   0.0034487547899486916
0.003558831846990398   -0.03877062912525921   0.0034487547899486916
0.003558831846990398   -0.03877062912525921   0.0034487547899486916
0.010710918217236487   -0.017063573686131914   0.003472656450171129
0.010710918217236487   -0.017063573686131914   0.003472656450171129
0.010710918217236487   -0.017063573686131914   0.003472656450171129
0.010710918217236487   -0.017063573686131914   0.003472656450171129
0.11514001171490287   -0.016244192038966345   0.002732360318913156
0.11514001171490287   -0.016244192038966345   0.002732360318913156
0.11514001171490287   -0.016244192038966345   0.002732360318913156
0.11514001171490287   -0.016244192038966345   0.002732360318913156
0.05991222429130505   -0.016561018244925056   -0.0064033193457498335
0.05991222429130505   -0.016561018244925056   -0.0064033193457498335
0.05991222429130505   -0.016561018244925056   -0.0064033193457498335
0.05991222429130505   -0.016561018244925056   -0.0064033193457498335
0.12045986538300597   0.005674309817567086   0.007413126802896642
0.12045986538300597   0.005674309817567086   0.007413126802896642
0.12045986538300597   0.005674309817567086   0.007413126802896642
0.12045986538300597   0.005674309817567086   0.007413126802896642
0.006801190622030034   -0.03757194946976847   0.004432394257775408
0.006801190622030034   -0.03757194946976847   0.004432394257775408
0.006801190622030034   -0.03757194946976847   0.004432394257775408
0.006801190622030034   -0.03757194946976847   0.004432394257775408
0.013509514728471454   -0.014655518946016168   0.0024165482192533665
0.013509514728471454   -0.014655518946016168   0.0024165482192533665
0.013509514728471454   -0.014655518946016168   0.0024165482192533665
0.013509514728471454   -0.014655518946016168   0.0024165482192533665
0.11756937960541891   -0.014914216548369854   0.003287486147918515
0.11756937960541891   -0.014914216548369854   0.003287486147918515
0.11756937960541891   -0.014914216548369854   0.003287486147918515
0.11756937960541891   -0.014914216548369854   0.003287486147918515
0.062212008128478685   -0.015585410972795206   -0.0032100141926746026
0.062212008128478685   -0.015585410972795206   -0.0032100141926746026
0.062212008128478685   -0.015585410972795206   -0.0032100141926746026
0.062212008128478685   -0.015585410972795206   -0.0032100141926746026
0.12275470055754699   0.00797515287332172   0.006324721486867274
0.12275470055754699   0.00797515287332172   0.006324721486867274
0.12275470055754699   0.00797515287332172   0.006324721486867274
0.12275470055754699   0.00797515287332172   0.006324721486867274
0.009673994443098669   -0.036195087700952464   0.004778515547325736
0.009673994443098669   -0.036195087700952464   0.004778515547325736
0.009673994443098669   -0.036195087700952464   0.004778515547325736
0.009673994443098669   -0.036195087700952464   0.004778515547325736
0.01785669210194293   -0.011028805648916198   0.0015056140230775023
0.01785669210194293   -0.011028805648916198   0.0015056140230775023
0.01785669210194293   -0.011028805648916198   0.0015056140230775023
0.01785669210194293   -0.011028805648916198   0.0015056140230775023
0.12018690235447022   -0.012923679618542017   0.003943402651681293
0.12018690235447022   -0.012923679618542017   0.003943402651681293
0.12018690235447022   -0.012923679618542017   0.003943402651681293
0.12018690235447022   -0.012923679618542017   0.003943402651681293
0.06653278988154115   -0.013313153884772347   0.0005382347757020185
0.06653278988154115   -0.013313153884772347   0.0005382347757020185
0.06653278988154115   -0.013313153884772347   0.0005382347757020185
0.06653278988154115   -0.013313153884772347   0.0005382347757020185
0.010546199211544087   -0.006031220749000912   0.005646183236458848
0.010546199211544087   -0.006031220749000912   0.005646183236458848
0.010546199211544087   -0.006031220749000912   0.005646183236458848
0.010546199211544087   -0.006031220749000912   0.005646183236458848
-0.10495488969561528   -0.06543348501874995   0.00538838733070608
-0.10495488969561528   -0.06543348501874995   0.00538838733070608
-0.10495488969561528   -0.06543348501874995   0.00538838733070608
-0.10495488969561528   -0.06543348501874995   0.00538838733070608
-0.09385632957079514   -0.026605763779511966   3.289896467622644e-05
-0.09385632957079514   -0.026605763779511966   3.289896467622644e-05
-0.09385632957079514   -0.026605763779511966   3.289896467622644e-05
-0.09385632957079514   -0.026605763779511966   3.289896467622644e-05
0.004974050679507935   -0.04480098275508966   0.002525727830486109
0.004974050679507935   -0.04480098275508966   0.002525727830486109
0.004974050679507935   -0.04480098275508966   0.002525727830486109
0.004974050679507935   -0.04480098275508966   0.002525727830486109
-0.04701589246311843   -0.03594735477391474   -0.007661383677689472
-0.04701589246311843   -0.03594735477391474   -0.007661383677689472
-0.04701589246311843   -0.03594735477391474   -0.007661383677689472
-0.04701589246311843   -0.03594735477391474   -0.007661383677689472
0.013478077239496835   -0.004247072196100527   0.004491950071441476
0.013478077239496835   -0.004247072196100527   0.004491950071441476
0.013478077239496835   -0.004247072196100527   0.004491950071441476
0.013478077239496835   -0.004247072196100527   0.004491950071441476
-0.10025558830744549   -0.06505490651516241   0.006485748017075783
-0.10025558830744549   -0.06505490651516241   0.006485748017075783
-0.10025558830744549   -0.06505490651516241   0.006485748017075783
-0.10025558830744549   -0.06505490651516241   0.006485748017075783
-0.08956260234079007   -0.023794971771865767   -0.0004763982469014425
-0.08956260234079007   -0.023794971771865767   -0.0004763982469014425
-0.08956260234079007   -0.023794971771865767   -0.0004763982469014425
-0.08956260234079007   -0.023794971771865767   -0.0004763982469014425
0.007945562074288476   -0.043528660366548726   0.0034699263688710447
0.007945562074288476   -0.043528660366548726   0.0034699263688710447
0.007945562074288476   -0.043528660366548726   0.0034699263688710447
0.007945562074288476   -0.043528660366548726   0.0034699263688710447
-0.04261133268523234   -0.034442998854329415   -0.002691018456185452
-0.04261133268523234   -0.034442998854329415   -0.002691018456185452
-0.04261133268523234   -0.034442998854329415   -0.002691018456185452
-0.04261133268523234   -0.034442998854329415   -0.002691018456185452
0.016161694603733567   -0.0019587058363926676   0.0029806344859404322
0.016161694603733567   -0.0019587058363926676   0.0029806344859404322
0.016161694603733567   -0.0019587058363926676   0.0029806344859404322
0.016161694603733567   -0.0019587058363926676   0.0029806344859404322
-0.09593735451828553   -0.06352354595007323   0.007378415043830222
-0.09593735451828553   -0.06352354595007323   0.007378415043830222
-0.09593735451828553   -0.06352354595007323   0.007378415043830222
-0.09593735451828553   -0.06352354595007323   0.007378415043830222
-0.0824616621646347   -0.02058264442079365   -0.0013743023444641874
-0.0824616621646347   -0.02058264442079365   -0.0013743023444641874
-0.0824616621646347   -0.02058264442079365   -0.0013743023444641874
-0.0824616621646347   -0.02058264442079365   -0.0013743023444641874
0.012567214162787568   -0.040472298627557926   0.004501717305942423
0.012567214162787568   -0.040472298627557926   0.004501717305942423
0.012567214162787568   -0.040472298627557926   0.004501717305942423
0.012567214162787568   -0.040472298627557926   0.004501717305942423
-0.036958507177487936   -0.0314934729615679   0.0023439364574262414
-0.036958507177487936   -0.0314934729615679   0.0023439364574262414
-0.036958507177487936   -0.0314934729615679   0.0023439364574262414
-0.036958507177487936   -0.0314934729615679   0.0023439364574262414
-0.09484918735081033   -0.012226721773829333   0.002710135809809714
-0.09484918735081033   -0.012226721773829333   0.002710135809809714
-0.09484918735081033   -0.012226721773829333   0.002710135809809714
-0.09484918735081033   -0.012226721773829333   0.002710135809809714
-0.22805142580600413   -0.10019569356197276   -0.0035045290115388802
-0.22805142580600413   -0.10019569356197276   -0.0035045290115388802
-0.22805142580600413   -0.10019569356197276   -0.0035045290115388802
-0.22805142580600413   -0.10019569356197276   -0.0035045290115388802
-0.20995872870447468   -0.03460117420590597   -0.006066762017295111
-0.20995872870447468   -0.03460117420590597   -0.006066762017295111
-0.20995872870447468   -0.03460117420590597   -0.006066762017295111
-0.20995872870447468   -0.03460117420590597   -0.006066762017295111
-0.10445583093421212   -0.08178772309888102   0.002217351466960303
-0.10445583093421212   -0.08178772309888102   0.002217351466960303
-0.10445583093421212   -0.08178772309888102   0.002217351466960303
-0.10445583093421212   -0.08178772309888102   0.002217351466960303
-0.1591949941285316   -0.059374633205049036   -0.008174483000450402
-0.1591949941285316   -0.059374633205049036   -0.008174483000450402
-0.1591949941285316   -0.059374633205049036   -0.008174483000450402
-0.1591949941285316   -0.059374633205049036   -0.008174483000450402
-0.08982444053256503   -0.008869706744001728   0.0024562871203164713
-0.08982444053256503   -0.008869706744001728   0.0024562871203164713
-0.08982444053256503   -0.008869706744001728   0.0024562871203164713
-0.08982444053256503   -0.008869706744001728   0.0024562871203164713
-0.22382791694355675   -0.10675698839821995   -0.0032568890203897513
-0.22382791694355675   -0.10675698839821995   -0.0032568890203897513
-0.22382791694355675   -0.10675698839821995   -0.0032568890203897513
-0.22382791694355675   -0.10675698839821995   -0.0032568890203897513
-0.20409681587462336   -0.03127824376319306   -0.006249148168387571
-0.20409681587462336   -0.03127824376319306   -0.006249148168387571
-0.20409681587462336   -0.03127824376319306   -0.006249148168387571
-0.20409681587462336   -0.03127824376319306   -0.006249148168387571
-0.10019218137019009   -0.08077389656110484   0.0033546313953382763
-0.10019218137019009   -0.08077389656110484   0.0033546313953382763
-0.10019218137019009   -0.08077389656110484   0.0033546313953382763
-0.10019218137019009   -0.08077389656110484   0.0033546313953382763
-0.1528168407588634   -0.05732652645263635   -0.005117267083416482
-0.1528168407588634   -0.05732652645263635   -0.005117267083416482
-0.1528168407588634   -0.05732652645263635   -0.005117267083416482
-0.1528168407588634   -0.05732652645263635   -0.005117267083416482
-0.0857799459250323   -0.006197214772994092   0.0008391268330162037
-0.0857799459250323   -0.006197214772994092   0.0008391268330162037
-0.0857799459250323   -0.006197214772994092   0.0008391268330162037
-0.0857799459250323   -0.006197214772994092   0.0008391268330162037
-0.21827718039469327   -0.10562305462621444   -0.0028061599057141486
-0.21827718039469327   -0.10562305462621444   -0.0028061599057141486
-0.21827718039469327   -0.10562305462621444   -0.0028061599057141486
-0.21827718039469327   -0.10562305462621444   -0.0028061599057141486
-0.1948181553419404   -0.027797233216335194   -0.007105572340312412
-0.1948181553419404   -0.027797233216335194   -0.007105572340312412
-0.1948181553419404   -0.027797233216335194   -0.007105572340312412
-0.1948181553419404   -0.027797233216335194   -0.007105572340312412
-0.09094610461927169   -0.07121711104340801   0.006837952004966032
-0.09094610461927169   -0.07121711104340801   0.006837952004966032
-0.09094610461927169   -0.07121711104340801   0.006837952004966032
-0.09094610461927169   -0.07121711104340801   0.006837952004966032
-0.14589666129998113   -0.05115485799503581   -0.002081529834962
-0.14589666129998113   -0.05115485799503581   -0.002081529834962
-0.14589666129998113   -0.05115485799503581   -0.002081529834962
-0.14589666129998113   -0.05115485799503581   -0.002081529834962
-0.20975567139082374   -0.010929612320188388   -0.0012918381774213172
-0.20975567139082374   -0.010929612320188388   -0.0012918381774213172
-0.20975567139082374   -0.010929612320188388   -0.0012918381774213172
-0.20975567139082374   -0.010929612320188388   -0.0012918381774213172
-0.3642130718061713   -0.07208139847972903   0.0038060794075261695
-0.3642130718061713   -0.07208139847972903   0.0038060794075261695
-0.3642130718061713   -0.07208139847972903   0.0038060794075261695
-0.3642130718061713   -0.07208139847972903   0.0038060794075261695
-0.35073443798744375   -0.032971628351923674   -0.007010531500155435
-0.35073443798744375   -0.032971628351923674   -0.007010531500155435
-0.35073443798744375   -0.032971628351923674   -0.007010531500155435
-0.35073443798744375   -0.032971628351923674   -0.007010531500155435
-0.20698768638257817   -0.03880006849938279   0.012987343885664221
-0.20698768638257817   -0.03880006849938279   0.012987343885664221
-0.20698768638257817   -0.03880006849938279   0.012987343885664221
-0.20698768638257817   -0.03880006849938279   0.012987343885664221
-0.2715981375003583   -0.041318158916556574   0.0031098611801504616
-0.2715981375003583   -0.041318158916556574   0.0031098611801504616
-0.2715981375003583   -0.041318158916556574   0.0031098611801504616
-0.2715981375003583   -0.041318158916556574   0.0031098611801504616
-0.2021937045929356   -0.0018582820884112256   1.5466422906347532e-05
-0.2021937045929356   -0.0018582820884112256   1.5466422906347532e-05
-0.2021937045929356   -0.0018582820884112256   1.5466422906347532e-05
-0.2021937045929356   -0.0018582820884112256   1.5466422906347532e-05
-0.356639613030574   -0.07102460801638459   0.0015165729486510682
-0.356639613030574   -0.07102460801638459   0.0015165729486510682
-0.356639613030574   -0.07102460801638459   0.0015165729486510682
-0.356639613030574   -0.07102460801638459   0.0015165729486510682
-0.343832359582926   -0.030287931319966405   -0.008925609525694853
-0.343832359582926   -0.030287931319966405   -0.008925609525694853
-0.343832359582926   -0.030287931319966405   -0.008925609525694853
-0.343832359582926   -0.030287931319966405   -0.008925609525694853
-0.20097368275146238   -0.03714756817787274   0.015235841862098663
-0.20097368275146238   -0.03714756817787274   0.015235841862098663
-0.20097368275146238   -0.03714756817787274   0.015235841862098663
-0.20097368275146238   -0.03714756817787274   0.015235841862098663
-0.2683942063803878   -0.034221352126265675   0.003169860905924766
-0.2683942063803878   -0.034221352126265675   0.003169860905924766
-0.2683942063803878   -0.034221352126265675   0.003169860905924766
-0.2683942063803878   -0.034221352126265675   0.003169860905924766
-0.19685671724448087   0.0005224494139056401   -0.0018493481947721418
-0.19685671724448087   0.0005224494139056401   -0.0018493481947721418
-0.19685671724448087   0.0005224494139056401   -0.0018493481947721418
-0.19685671724448087   0.0005224494139056401   -0.0018493481947721418
-0.3482040521520426   -0.06821267597388157   0.0071406722826347635
-0.3482040521520426   -0.06821267597388157   0.0071406722826347635
-0.3482040521520426   -0.06821267597388157   0.0071406722826347635
-0.3482040521520426   -0.06821267597388157   0.0071406722826347635
-0.3294465036829411   -0.025076915416896994   -0.01020801362091298
-0.3294465036829411   -0.025076915416896994   -0.01020801362091298
-0.3294465036829411   -0.025076915416896994   -0.01020801362091298
-0.3294465036829411   -0.025076915416896994   -0.01020801362091298
-0.19149346939554926   -0.03496214087003993   0.016682765045349608
-0.19149346939554926   -0.03496214087003993   0.016682765045349608
-0.19149346939554926   -0.03496214087003993   0.016682765045349608
-0.19149346939554926   -0.03496214087003993   0.016682765045349608
-0.2536572377101417   -0.02630082881824233   0.0072428505897352636
-0.2536572377101417   -0.02630082881824233   0.0072428505897352636
-0.2536572377101417   -0.02630082881824233   0.0072428505897352636
-0.2536572377101417   -0.02630082881824233   0.0072428505897352636
0.25903887986516727   0.00967614656881121   0.003391279397510806
0.25903887986516727   0.00967614656881121   0.003391279397510806
0.25903887986516727   0.00967614656881121   0.003391279397510806
0.25903887986516727   0.00967614656881121   0.003391279397510806
0.13046829754143585   -0.007614500970554258   0.0020110722907641272
0.13046829754143585   -0.007614500970554258   0.0020110722907641272
0.13046829754143585   -0.007614500970554258   0.0020110722907641272
0.13046829754143585   -0.007614500970554258   0.0020110722907641272
0.12593568703465746   -0.01778073895547042   0.004584185999563258
0.12593568703465746   -0.01778073895547042   0.004584185999563258
0.12593568703465746   -0.01778073895547042   0.004584185999563258
0.12593568703465746   -0.01778073895547042   0.004584185999563258
0.25723109196327665   0.014408648685013611   0.00127878306015935
0.25723109196327665   0.014408648685013611   0.00127878306015935
0.25723109196327665   0.014408648685013611   0.00127878306015935
0.25723109196327665   0.014408648685013611   0.00127878306015935
0.18288493634934092   -0.002286698590220994   -0.0068590854432955435
0.18288493634934092   -0.002286698590220994   -0.0068590854432955435
0.18288493634934092   -0.002286698590220994   -0.0068590854432955435
0.18288493634934092   -0.002286698590220994   -0.0068590854432955435
0.2561695278112369   0.007854261830773084   0.0025253491542013198
0.2561695278112369   0.007854261830773084   0.0025253491542013198
0.2561695278112369   0.007854261830773084   0.0025253491542013198
0.2561695278112369   0.007854261830773084   0.0025253491542013198
0.12665820978701087   -0.011565393500916215   0.0019814543067759992
0.12665820978701087   -0.011565393500916215   0.0019814543067759992
0.12665820978701087   -0.011565393500916215   0.0019814543067759992
0.12665820978701087   -0.011565393500916215   0.0019814543067759992
0.12295178025548795   -0.018076130735972414   0.003731583440411808
0.12295178025548795   -0.018076130735972414   0.003731583440411808
0.12295178025548795   -0.018076130735972414   0.003731583440411808
0.12295178025548795   -0.018076130735972414   0.003731583440411808
0.2545796183819122   0.013920206101649   0.002527704567969833
0.2545796183819122   0.013920206101649   0.002527704567969833
0.2545796183819122   0.013920206101649   0.002527704567969833
0.2545796183819122   0.013920206101649   0.002527704567969833
0.1827648574347529   -0.0031318699769668362   -0.0076624100229976955
0.1827648574347529   -0.0031318699769668362   -0.0076624100229976955
0.1827648574347529   -0.0031318699769668362   -0.0076624100229976955
0.1827648574347529   -0.0031318699769668362   -0.0076624100229976955
0.2528954380821517   0.007309738312867388   0.0007172708579470458
0.2528954380821517   0.007309738312867388   0.0007172708579470458
0.2528954380821517   0.007309738312867388   0.0007172708579470458
0.2528954380821517   0.007309738312867388   0.0007172708579470458
0.12398705226338794   -0.012114571239051616   0.002946383982990998
0.12398705226338794   -0.012114571239051616   0.002946383982990998
0.12398705226338794   -0.012114571239051616   0.002946383982990998
0.12398705226338794   -0.012114571239051616   0.002946383982990998
0.11985847278416753   -0.016164043197261828   0.003229644021876794
0.11985847278416753   -0.016164043197261828   0.003229644021876794
0.11985847278416753   -0.016164043197261828   0.003229644021876794
0.11985847278416753   -0.016164043197261828   0.003229644021876794
0.2505565859346267   0.014458772701700977   0.0038865178699282014
0.2505565859346267   0.014458772701700977   0.0038865178699282014
0.2505565859346267   0.014458772701700977   0.0038865178699282014
0.2505565859346267   0.014458772701700977   0.0038865178699282014
0.1763041347736279   -0.0030065759751776305   -0.010097530680214474
0.1763041347736279   -0.0030065759751776305   -0.010097530680214474
0.1763041347736279   -0.0030065759751776305   -0.010097530680214474
0.1763041347736279   -0.0030065759751776305   -0.010097530680214474
0.13031582862240398   -0.012818446152630107   0.006452672877680624
0.13031582862240398   -0.012818446152630107   0.006452672877680624
0.13031582862240398   -0.012818446152630107   0.006452672877680624
0.13031582862240398   -0.012818446152630107   0.006452672877680624
0.021002571658861838   -0.015434231386430975   0.0008497923832880569
0.021002571658861838   -0.015434231386430975   0.0008497923832880569
0.021002571658861838   -0.015434231386430975   0.0008497923832880569
0.021002571658861838   -0.015434231386430975   0.0008497923832880569
0.013137921610136414   -0.03600764834393367   0.005917168898843004
0.013137921610136414   -0.03600764834393367   0.005917168898843004
0.013137921610136414   -0.03600764834393367   0.005917168898843004
0.013137921610136414   -0.03600764834393367   0.005917168898843004
0.1307845384005419   0.006208736014015653   0.004838967859499318
0.1307845384005419   0.006208736014015653   0.004838967859499318
0.1307845384005419   0.006208736014015653   0.004838967859499318
0.1307845384005419   0.006208736014015653   0.004838967859499318
0.07265536207985243   -0.01458062140208588   -0.00036656725480833756
0.07265536207985243   -0.01458062140208588   -0.00036656725480833756
0.07265536207985243   -0.01458062140208588   -0.00036656725480833756
0.07265536207985243   -0.01458062140208588   -0.00036656725480833756
0.12701049377614843   -0.013317559616825198   0.005495040368373349
0.12701049377614843   -0.013317559616825198   0.005495040368373349
0.12701049377614843   -0.013317559616825198   0.005495040368373349
0.12701049377614843   -0.013317559616825198   0.005495040368373349
0.01594866341285391   -0.017444655534768705   0.001407885103265511
0.01594866341285391   -0.017444655534768705   0.001407885103265511
0.01594866341285391   -0.017444655534768705   0.001407885103265511
0.01594866341285391   -0.017444655534768705   0.001407885103265511
0.00954346855315162   -0.03612275837585035   0.005270688062783349
0.00954346855315162   -0.03612275837585035   0.005270688062783349
0.00954346855315162   -0.03612275837585035   0.005270688062783349
0.00954346855315162   -0.03612275837585035   0.005270688062783349
0.12804134111284454   0.005443414765913621   0.0056598422253087005
0.12804134111284454   0.005443414765913621   0.0056598422253087005
0.12804134111284454   0.005443414765913621   0.0056598422253087005
0.12804134111284454   0.005443414765913621   0.0056598422253087005
0.06770610534017119   -0.015469443279023679   -0.003268128057148642
0.06770610534017119   -0.015469443279023679   -0.003268128057148642
0.06770610534017119   -0.015469443279023679   -0.003268128057148642
0.06770610534017119   -0.015469443279023679   -0.003268128057148642
0.12407997979551669   -0.013341919715848131   0.004638370120429365
0.12407997979551669   -0.013341919715848131   0.004638370120429365
0.12407997979551669   -0.013341919715848131   0.004638370120429365
0.12407997979551669   -0.013341919715848131   0.004638370120429365
0.012449353219807207   -0.01839290054476116   0.002070253564972112
0.012449353219807207   -0.01839290054476116   0.002070253564972112
0.012449353219807207   -0.01839290054476116   0.002070253564972112
0.012449353219807207   -0.01839290054476116   0.002070253564972112
0.005540823670383355   -0.035836870936563556   0.004023524745660454
0.005540823670383355   -0.035836870936563556   0.004023524745660454
0.005540823670383355   -0.035836870936563556   0.004023524745660454
0.005540823670383355   -0.035836870936563556   0.004023524745660454
0.12492732408128579   0.005710420596521874   0.006699436713685073
0.12492732408128579   0.005710420596521874   0.006699436713685073
0.12492732408128579   0.005710420596521874   0.006699436713685073
0.12492732408128579   0.005710420596521874   0.006699436713685073
0.06481858707628106   -0.01512843509481921   -0.005677288044296672
0.06481858707628106   -0.01512843509481921   -0.005677288044296672
0.06481858707628106   -0.01512843509481921   -0.005677288044296672
0.06481858707628106   -0.01512843509481921   -0.005677288044296672
0.016846879871610113   -0.04101949013277208   0.005656592193370063
0.016846879871610113   -0.04101949013277208   0.005656592193370063
0.016846879871610113   -0.04101949013277208   0.005656592193370063
0.016846879871610113   -0.04101949013277208   0.005656592193370063
-0.08454322331014935   -0.02332410106506755   -0.000367025064329682
-0.08454322331014935   -0.02332410106506755   -0.000367025064329682
-0.08454322331014935   -0.02332410106506755   -0.000367025064329682
-0.08454322331014935   -0.02332410106506755   -0.000367025064329682
-0.09876644959334928   -0.0646996603174755   0.0067728402914141676
-0.09876644959334928   -0.0646996603174755   0.0067728402914141676
-0.09876644959334928   -0.0646996603174755   0.0067728402914141676
-0.09876644959334928   -0.0646996603174755   0.0067728402914141676
0.019368451986054944   -0.0021230352429257495   0.003185207677427723
0.019368451986054944   -0.0021230352429257495   0.003185207677427723
0.019368451986054944   -0.0021230352429257495   0.003185207677427723
0.019368451986054944   -0.0021230352429257495   0.003185207677427723
-0.03636659373381673   -0.03231417483145168   0.0013140741140277154
-0.03636659373381673   -0.03231417483145168   0.0013140741140277154
-0.03636659373381673   -0.03231417483145168   0.0013140741140277154
-0.03636659373381673   -0.03231417483145168   0.0013140741140277154
0.011363799324125784   -0.0431836639727434   0.004222573097599569
0.011363799324125784   -0.0431836639727434   0.004222573097599569
0.011363799324125784   -0.0431836639727434   0.004222573097599569
0.011363799324125784   -0.0431836639727434   0.004222573097599569
-0.0921507979352424   -0.02502803259147897   0.00017947085595131649
-0.0921507979352424   -0.02502803259147897   0.00017947085595131649
-0.0921507979352424   -0.02502803259147897   0.00017947085595131649
-0.0921507979352424   -0.02502803259147897   0.00017947085595131649
-0.10370053397701079   -0.06540658001390133   0.005726424183414942
-0.10370053397701079   -0.06540658001390133   0.005726424183414942
-0.10370053397701079   -0.06540658001390133   0.005726424183414942
-0.10370053397701079   -0.06540658001390133   0.005726424183414942
0.015983602860122077   -0.0029626690649063184   0.0043112702866916226
0.015983602860122077   -0.0029626690649063184   0.0043112702866916226
0.015983602860122077   -0.0029626690649063184   0.0043112702866916226
0.015983602860122077   -0.0029626690649063184   0.0043112702866916226
-0.0425704773251719   -0.03408798093415956   -0.00278166563166596
-0.0425704773251719   -0.03408798093415956   -0.00278166563166596
-0.0425704773251719   -0.03408798093415956   -0.00278166563166596
-0.0425704773251719   -0.03408798093415956   -0.00278166563166596
0.00753514072410408   -0.04373622650168532   0.002842517043380151
0.00753514072410408   -0.04373622650168532   0.002842517043380151
0.00753514072410408   -0.04373622650168532   0.002842517043380151
0.00753514072410408   -0.04373622650168532   0.002842517043380151
-0.09696550020001754   -0.026346450936147292   0.00034146399062636194
-0.09696550020001754   -0.026346450936147292   0.00034146399062636194
-0.09696550020001754   -0.026346450936147292   0.00034146399062636194
-0.09696550020001754   -0.026346450936147292   0.00034146399062636194
-0.10913315931708018   -0.06481658763531539   0.004480645747022859
-0.10913315931708018   -0.06481658763531539   0.004480645747022859
-0.10913315931708018   -0.06481658763531539   0.004480645747022859
-0.10913315931708018   -0.06481658763531539   0.004480645747022859
0.012237549427921842   -0.003363491932298357   0.005033774529087694
0.012237549427921842   -0.003363491932298357   0.005033774529087694
0.012237549427921842   -0.003363491932298357   0.005033774529087694
0.012237549427921842   -0.003363491932298357   0.005033774529087694
-0.047668582330570954   -0.034682770619226894   -0.0070044156160041955
-0.047668582330570954   -0.034682770619226894   -0.0070044156160041955
-0.047668582330570954   -0.034682770619226894   -0.0070044156160041955
-0.047668582330570954   -0.034682770619226894   -0.0070044156160041955
-0.09267734240610145   -0.07107692950126324   0.006715207892106084
-0.09267734240610145   -0.07107692950126324   0.006715207892106084
-0.09267734240610145   -0.07107692950126324   0.006715207892106084
-0.09267734240610145   -0.07107692950126324   0.006715207892106084
-0.20233210847495334   -0.028844469735853535   -0.004363754911122692
-0.20233210847495334   -0.028844469735853535   -0.004363754911122692
-0.20233210847495334   -0.028844469735853535   -0.004363754911122692
-0.20233210847495334   -0.028844469735853535   -0.004363754911122692
-0.2273695953407031   -0.1077914074112376   -0.004887305688331643
-0.2273695953407031   -0.1077914074112376   -0.004887305688331643
-0.2273695953407031   -0.1077914074112376   -0.004887305688331643
-0.2273695953407031   -0.1077914074112376   -0.004887305688331643
-0.08757045612675489   -0.004699334398710618   0.0027524817056205973
-0.08757045612675489   -0.004699334398710618   0.0027524817056205973
-0.08757045612675489   -0.004699334398710618   0.0027524817056205973
-0.08757045612675489   -0.004699334398710618   0.0027524817056205973
-0.15091262279829695   -0.05067451421491388   -0.003498463074587647
-0.15091262279829695   -0.05067451421491388   -0.003498463074587647
-0.15091262279829695   -0.05067451421491388   -0.003498463074587647
-0.15091262279829695   -0.05067451421491388   -0.003498463074587647
-0.1029212562712171   -0.08138704095229511   0.002686187536894827
-0.1029212562712171   -0.08138704095229511   0.002686187536894827
-0.1029212562712171   -0.08138704095229511   0.002686187536894827
-0.1029212562712171   -0.08138704095229511   0.002686187536894827
-0.21178501324818563   -0.030869918909598046   -0.0038858837273858184
-0.21178501324818563   -0.030869918909598046   -0.0038858837273858184
-0.21178501324818563   -0.030869918909598046   -0.0038858837273858184
-0.21178501324818563   -0.030869918909598046   -0.0038858837273858184
-0.2333197362641062   -0.1091990675624222   -0.005643668717340098
-0.2333197362641062   -0.1091990675624222   -0.005643668717340098
-0.2333197362641062   -0.1091990675624222   -0.005643668717340098
-0.2333197362641062   -0.1091990675624222   -0.005643668717340098
-0.09221139966275067   -0.0061728677399433985   0.0039383834807567766
-0.09221139966275067   -0.0061728677399433985   0.0039383834807567766
-0.09221139966275067   -0.0061728677399433985   0.0039383834807567766
-0.09221139966275067   -0.0061728677399433985   0.0039383834807567766
-0.15827613932021498   -0.056523181928978185   -0.0057200924152851235
-0.15827613932021498   -0.056523181928978185   -0.0057200924152851235
-0.15827613932021498   -0.056523181928978185   -0.0057200924152851235
-0.15827613932021498   -0.056523181928978185   -0.0057200924152851235
-0.10810938963119054   -0.08281095942720818   0.001086525325822034
-0.10810938963119054   -0.08281095942720818   0.001086525325822034
-0.10810938963119054   -0.08281095942720818   0.001086525325822034
-0.10810938963119054   -0.08281095942720818   0.001086525325822034
-0.21771017097435183   -0.03284940055384458   -0.0039455092771480075
-0.21771017097435183   -0.03284940055384458   -0.0039455092771480075
-0.21771017097435183   -0.03284940055384458   -0.0039455092771480075
-0.21771017097435183   -0.03284940055384458   -0.0039455092771480075
-0.23829500438961929   -0.10332448349412711   -0.006350010478281886
-0.23829500438961929   -0.10332448349412711   -0.006350010478281886
-0.23829500438961929   -0.10332448349412711   -0.006350010478281886
-0.23829500438961929   -0.10332448349412711   -0.006350010478281886
-0.09797520785741387   -0.00829583103028209   0.003749646440320137
-0.09797520785741387   -0.00829583103028209   0.003749646440320137
-0.09797520785741387   -0.00829583103028209   0.003749646440320137
-0.09797520785741387   -0.00829583103028209   0.003749646440320137
-0.1652571619760977   -0.058375475802400635   -0.008005920142780214
-0.1652571619760977   -0.058375475802400635   -0.008005920142780214
-0.1652571619760977   -0.058375475802400635   -0.008005920142780214
-0.1652571619760977   -0.058375475802400635   -0.008005920142780214
-0.20017137758893708   -0.03709599130097253   0.01469142108407439
-0.20017137758893708   -0.03709599130097253   0.01469142108407439
-0.20017137758893708   -0.03709599130097253   0.01469142108407439
-0.20017137758893708   -0.03709599130097253   0.01469142108407439
-0.3440140153099318   -0.02475670260712392   -0.005188245476518831
-0.3440140153099318   -0.02475670260712392   -0.005188245476518831
-0.3440140153099318   -0.02475670260712392   -0.005188245476518831
-0.3440140153099318   -0.02475670260712392   -0.005188245476518831
-0.36371188098632407   -0.07195610077476722   0.003931377112487977
-0.36371188098632407   -0.07195610077476722   0.003931377112487977
-0.36371188098632407   -0.07195610077476722   0.003931377112487977
-0.36371188098632407   -0.07195610077476722   0.003931377112487977
-0.20370010363769667   0.003781004509967989   0.0018877409054928497
-0.20370010363769667   0.003781004509967989   0.0018877409054928497
-0.20370010363769667   0.003781004509967989   0.0018877409054928497
-0.20370010363769667   0.003781004509967989   0.0018877409054928497
-0.2646823374476334   -0.025210915158543533   0.0051172435554138595
-0.2646823374476334   -0.025210915158543533   0.0051172435554138595
-0.2646823374476334   -0.025210915158543533   0.0051172435554138595
-0.2646823374476334   -0.025210915158543533   0.0051172435554138595
-0.21013203300977484   -0.03943715574245088   0.012946254297520443
-0.21013203300977484   -0.03943715574245088   0.012946254297520443
-0.21013203300977484   -0.03943715574245088   0.012946254297520443
-0.21013203300977484   -0.03943715574245088   0.012946254297520443
-0.3565815755969178   -0.028039564505019807   -0.004333632210225018
-0.3565815755969178   -0.028039564505019807   -0.004333632210225018
-0.3565815755969178   -0.028039564505019807   -0.004333632210225018
-0.3565815755969178   -0.028039564505019807   -0.004333632210225018
-0.3715161604593808   -0.07474374487358629   -0.0022025639085506282
-0.3715161604593808   -0.07474374487358629   -0.0022025639085506282
-0.3715161604593808   -0.07474374487358629   -0.0022025639085506282
-0.3715161604593808   -0.07474374487358629   -0.0022025639085506282
-0.20930947980605125   0.0020211160562913708   0.0031874299542189437
-0.20930947980605125   0.0020211160562913708   0.0031874299542189437
-0.20930947980605125   0.0020211160562913708   0.0031874299542189437
-0.20930947980605125   0.0020211160562913708   0.0031874299542189437
-0.27921544083402583   -0.03299085536128974   0.001911711668777719
-0.27921544083402583   -0.03299085536128974   0.001911711668777719
-0.27921544083402583   -0.03299085536128974   0.001911711668777719
-0.27921544083402583   -0.03299085536128974   0.001911711668777719
-0.21650857470392942   -0.041215917197134994   0.010428988718254463
-0.21650857470392942   -0.041215917197134994   0.010428988718254463
-0.21650857470392942   -0.041215917197134994   0.010428988718254463
-0.21650857470392942   -0.041215917197134994   0.010428988718254463
-0.3627376090543961   -0.029927255113052796   -0.0031262966441570426
-0.3627376090543961   -0.029927255113052796   -0.0031262966441570426
-0.3627376090543961   -0.029927255113052796   -0.0031262966441570426
-0.3627376090543961   -0.029927255113052796   -0.0031262966441570426
-0.3777511744485259   -0.0755994565480024   -0.0002461082914860663
-0.3777511744485259   -0.0755994565480024   -0.0002461082914860663
-0.3777511744485259   -0.0755994565480024   -0.0002461082914860663
-0.3777511744485259   -0.0755994565480024   -0.0002461082914860663
-0.21729901456782624   -0.006167622481974812   0.0014730776185310646
-0.21729901456782624   -0.006167622481974812   0.0014730776185310646
-0.21729901456782624   -0.006167622481974812   0.0014730776185310646
-0.21729901456782624   -0.006167622481974812   0.0014730776185310646
-0.28171271937181064   -0.03951985264348354   0.0029494782175751317
-0.28171271937181064   -0.03951985264348354   0.0029494782175751317
-0.28171271937181064   -0.03951985264348354   0.0029494782175751317
-0.28171271937181064   -0.03951985264348354   0.0029494782175751317
0.23182502985673278   0.011372707515335277   -0.004409617595085135
0.23182502985673278   0.011372707515335277   -0.004409617595085135
0.23182502985673278   0.011372707515335277   -0.004409617595085135
0.23182502985673278   0.011372707515335277   -0.004409617595085135
0.11526284658783498   -0.003212411278751815   0.0019118652267884348
0.11526284658783498   -0.003212411278751815   0.0019118652267884348
0.11526284658783498   -0.003212411278751815   0.0019118652267884348
0.11526284658783498   -0.003212411278751815   0.0019118652267884348
0.10866293883979536   -0.01638141500292202   -0.004103382256037525
0.10866293883979536   -0.01638141500292202   -0.004103382256037525
0.10866293883979536   -0.01638141500292202   -0.004103382256037525
0.10866293883979536   -0.01638141500292202   -0.004103382256037525
0.22934390579743383   0.016360997701089806   0.002236708526595285
0.22934390579743383   0.016360997701089806   0.002236708526595285
0.22934390579743383   0.016360997701089806   0.002236708526595285
0.22934390579743383   0.016360997701089806   0.002236708526595285
0.16230275833044389   0.00041573128561712275   -0.006246708595204641
0.16230275833044389   0.00041573128561712275   -0.006246708595204641
0.16230275833044389   0.00041573128561712275   -0.006246708595204641
0.16230275833044389   0.00041573128561712275   -0.006246708595204641
0.22611996432199158   0.007021888595683236   -0.004543889745207445
0.22611996432199158   0.007021888595683236   -0.004543889745207445
0.22611996432199158   0.007021888595683236   -0.004543889745207445
0.22611996432199158   0.007021888595683236   -0.004543889745207445
0.11172894077749793   -0.007200245435254979   0.0020454578648072645
0.11172894077749793   -0.007200245435254979   0.0020454578648072645
0.11172894077749793   -0.007200245435254979   0.0020454578648072645
0.11172894077749793   -0.007200245435254979   0.0020454578648072645
0.10507834748842748   -0.01717695508457643   -0.0034568304696726213
0.10507834748842748   -0.01717695508457643   -0.0034568304696726213
0.10507834748842748   -0.01717695508457643   -0.0034568304696726213
0.10507834748842748   -0.01717695508457643   -0.0034568304696726213
0.2244267737548786   0.015184583685404436   0.0034332317967742196
0.2244267737548786   0.015184583685404436   0.0034332317967742196
0.2244267737548786   0.015184583685404436   0.0034332317967742196
0.2244267737548786   0.015184583685404436   0.0034332317967742196
0.16068518794242145   -0.0013883796309362775   -0.007215336024050804
0.16068518794242145   -0.0013883796309362775   -0.007215336024050804
0.16068518794242145   -0.0013883796309362775   -0.007215336024050804
0.16068518794242145   -0.0013883796309362775   -0.007215336024050804
0.2211652861911408   0.005994895235498891   -0.0036845175720093097
0.2211652861911408   0.005994895235498891   -0.0036845175720093097
0.2211652861911408   0.005994895235498891   -0.0036845175720093097
0.2211652861911408   0.005994895235498891   -0.0036845175720093097
0.10809586290678601   -0.008231238780050179   0.002685030317593722
0.10809586290678601   -0.008231238780050179   0.002685030317593722
0.10809586290678601   -0.008231238780050179   0.002685030317593722
0.10809586290678601   -0.008231238780050179   0.002685030317593722
0.10165485252161859   -0.016581568644163342   -0.002413455446385219
0.10165485252161859   -0.016581568644163342   -0.002413455446385219
0.10165485252161859   -0.016581568644163342   -0.002413455446385219
0.10165485252161859   -0.016581568644163342   -0.002413455446385219
0.21838337099559207   0.014669710279561453   0.004622126873659321
0.21838337099559207   0.014669710279561453   0.004622126873659321
0.21838337099559207   0.014669710279561453   0.004622126873659321
0.21838337099559207   0.014669710279561453   0.004622126873659321
0.15331370639338213   -0.002356057037869931   -0.009322317676928189
0.15331370639338213   -0.002356057037869931   -0.009322317676928189
0.15331370639338213   -0.002356057037869931   -0.009322317676928189
0.15331370639338213   -0.002356057037869931   -0.009322317676928189
0.11659095332628774   0.0038179033320459473   0.001522084308254447
0.11659095332628774   0.0038179033320459473   0.001522084308254447
0.11659095332628774   0.0038179033320459473   0.001522084308254447
0.11659095332628774   0.0038179033320459473   0.001522084308254447
0.008590014891437505   -0.007473958371987751   -0.0005548297383576694
0.008590014891437505   -0.007473958371987751   -0.0005548297383576694
0.008590014891437505   -0.007473958371987751   -0.0005548297383576694
0.008590014891437505   -0.007473958371987751   -0.0005548297383576694
0.002363380666273376   -0.021251592721173544   -0.00404151808217815
0.002363380666273376   -0.021251592721173544   -0.00404151808217815
0.002363380666273376   -0.021251592721173544   -0.00404151808217815
0.002363380666273376   -0.021251592721173544   -0.00404151808217815
0.1165946442191994   0.01362751885770667   0.005546210780353016
0.1165946442191994   0.01362751885770667   0.005546210780353016
0.1165946442191994   0.01362751885770667   0.005546210780353016
0.1165946442191994   0.01362751885770667   0.005546210780353016
0.059919902006521815   -0.002578320852178422   -0.0021724220209735903
0.059919902006521815   -0.002578320852178422   -0.0021724220209735903
0.059919902006521815   -0.002578320852178422   -0.0021724220209735903
0.059919902006521815   -0.002578320852178422   -0.0021724220209735903
0.11363514416053166   0.002238591219215047   0.0021376381255065113
0.11363514416053166   0.002238591219215047   0.0021376381255065113
0.11363514416053166   0.002238591219215047   0.0021376381255065113
0.11363514416053166   0.002238591219215047   0.0021376381255065113
0.005453323607927491   -0.00973222219969545   -0.00011117389538566579
0.005453323607927491   -0.00973222219969545   -0.00011117389538566579
0.005453323607927491   -0.00973222219969545   -0.00011117389538566579
0.005453323607927491   -0.00973222219969545   -0.00011117389538566579
-0.0010944961958455545   -0.02210217112832319   -0.0029322499371852787
-0.0010944961958455545   -0.02210217112832319   -0.0029322499371852787
-0.0010944961958455545   -0.02210217112832319   -0.0029322499371852787
-0.0010944961958455545   -0.02210217112832319   -0.0029322499371852787
0.11280873351750265   0.011930565909389585   0.006087578681737121
0.11280873351750265   0.011930565909389585   0.006087578681737121
0.11280873351750265   0.011930565909389585   0.006087578681737121
0.11280873351750265   0.011930565909389585   0.006087578681737121
0.055850890690144386   -0.004180691166325884   -0.0030719011577029125
0.055850890690144386   -0.004180691166325884   -0.0030719011577029125
0.055850890690144386   -0.004180691166325884   -0.0030719011577029125
0.055850890690144386   -0.004180691166325884   -0.0030719011577029125
0.11002652340930975   0.0012749179918146482   0.002832176058348613
0.11002652340930975   0.0012749179918146482   0.002832176058348613
0.11002652340930975   0.0012749179918146482   0.002832176058348613
0.11002652340930975   0.0012749179918146482   0.002832176058348613
0.0016822777891089243   -0.011451959333986496   0.0003014081932504239
0.0016822777891089243   -0.011451959333986496   0.0003014081932504239
0.0016822777891089243   -0.011451959333986496   0.0003014081932504239
0.0016822777891089243   -0.011451959333986496   0.0003014081932504239
-0.004777874896675111   -0.021989405137168468   -0.0020944929768057182
-0.004777874896675111   -0.021989405137168468   -0.0020944929768057182
-0.004777874896675111   -0.021989405137168468   -0.0020944929768057182
-0.004777874896675111   -0.021989405137168468   -0.0020944929768057182
0.1089849453077432   0.010955287738566756   0.0067001521015085976
0.1089849453077432   0.010955287738566756   0.0067001521015085976
0.1089849453077432   0.010955287738566756   0.0067001521015085976
0.1089849453077432   0.010955287738566756   0.0067001521015085976
0.052829936125361736   -0.004675978550381252   -0.003784934569299304
0.052829936125361736   -0.004675978550381252   -0.003784934569299304
0.052829936125361736   -0.004675978550381252   -0.003784934569299304
0.052829936125361736   -0.004675978550381252   -0.003784934569299304
0.009493656386849349   -0.004287863532881237   0.0007772828995955068
0.009493656386849349   -0.004287863532881237   0.0007772828995955068
0.009493656386849349   -0.004287863532881237   0.0007772828995955068
0.009493656386849349   -0.004287863532881237   0.0007772828995955068
-0.09482491319566555   -0.010783519486031276   -0.002933242912933917
-0.09482491319566555   -0.010783519486031276   -0.002933242912933917
-0.09482491319566555   -0.010783519486031276   -0.002933242912933917
-0.09482491319566555   -0.010783519486031276   -0.002933242912933917
-0.10175051848035624   -0.027929795467461986   -0.004729622978849947
-0.10175051848035624   -0.027929795467461986   -0.004729622978849947
-0.10175051848035624   -0.027929795467461986   -0.004729622978849947
-0.10175051848035624   -0.027929795467461986   -0.004729622978849947
0.010129680933999588   0.010242079492272477   0.003296311043006888
0.010129680933999588   0.010242079492272477   0.003296311043006888
0.010129680933999588   0.010242079492272477   0.003296311043006888
0.010129680933999588   0.010242079492272477   0.003296311043006888
-0.04433375891629252   -0.007807431615519445   -0.002093790783103731
-0.04433375891629252   -0.007807431615519445   -0.002093790783103731
-0.04433375891629252   -0.007807431615519445   -0.002093790783103731
-0.04433375891629252   -0.007807431615519445   -0.002093790783103731
0.006878146572167063   -0.004834995096638014   0.0021157138227542805
0.006878146572167063   -0.004834995096638014   0.0021157138227542805
0.006878146572167063   -0.004834995096638014   0.0021157138227542805
0.006878146572167063   -0.004834995096638014   0.0021157138227542805
-0.09823360900523614   -0.012587345765265302   -0.0024875253054462655
-0.09823360900523614   -0.012587345765265302   -0.0024875253054462655
-0.09823360900523614   -0.012587345765265302   -0.0024875253054462655
-0.09823360900523614   -0.012587345765265302   -0.0024875253054462655
-0.10578388066045848   -0.02884034131304164   -0.00330960743340443
-0.10578388066045848   -0.02884034131304164   -0.00330960743340443
-0.10578388066045848   -0.02884034131304164   -0.00330960743340443
-0.10578388066045848   -0.02884034131304164   -0.00330960743340443
0.006340104786351439   0.008438297554365239   0.0037002862911112615
0.006340104786351439   0.008438297554365239   0.0037002862911112615
0.006340104786351439   0.008438297554365239   0.0037002862911112615
0.006340104786351439   0.008438297554365239   0.0037002862911112615
-0.04769249047605109   -0.00882635331046161   -0.0024916462301257164
-0.04769249047605109   -0.00882635331046161   -0.0024916462301257164
-0.04769249047605109   -0.00882635331046161   -0.0024916462301257164
-0.04769249047605109   -0.00882635331046161   -0.0024916462301257164
0.0033019087235328887   -0.005809784369404776   0.002757387900788524
0.0033019087235328887   -0.005809784369404776   0.002757387900788524
0.0033019087235328887   -0.005809784369404776   0.002757387900788524
0.0033019087235328887   -0.005809784369404776   0.002757387900788524
-0.10267813991697397   -0.014524714708605693   -0.0020965303204179622
-0.10267813991697397   -0.014524714708605693   -0.0020965303204179622
-0.10267813991697397   -0.014524714708605693   -0.0020965303204179622
-0.10267813991697397   -0.014524714708605693   -0.0020965303204179622
-0.11023488531644843   -0.029451414954245858   -0.00293340583627953
-0.11023488531644843   -0.029451414954245858   -0.00293340583627953
-0.11023488531644843   -0.029451414954245858   -0.00293340583627953
-0.11023488531644843   -0.029451414954245858   -0.00293340583627953
0.0022377002980537453   0.006909244414861096   0.004084733444809002
0.0022377002980537453   0.006909244414861096   0.004084733444809002
0.0022377002980537453   0.006909244414861096   0.004084733444809002
0.0022377002980537453   0.006909244414861096   0.004084733444809002
-0.05202820324675471   -0.010043370851941576   -0.0034806118673637062
-0.05202820324675471   -0.010043370851941576   -0.0034806118673637062
-0.05202820324675471   -0.010043370851941576   -0.0034806118673637062
-0.05202820324675471   -0.010043370851941576   -0.0034806118673637062
-0.09295141669761477   -0.005804530316586598   0.0014552504078734238
-0.09295141669761477   -0.005804530316586598   0.0014552504078734238
-0.09295141669761477   -0.005804530316586598   0.0014552504078734238
-0.09295141669761477   -0.005804530316586598   0.0014552504078734238
-0.19662404301955327   -0.012668404481339306   -0.004987520346041922
-0.19662404301955327   -0.012668404481339306   -0.004987520346041922
-0.19662404301955327   -0.012668404481339306   -0.004987520346041922
-0.19662404301955327   -0.012668404481339306   -0.004987520346041922
-0.20442010758758866   -0.029606513738849764   -0.004933763534249004
-0.20442010758758866   -0.029606513738849764   -0.004933763534249004
-0.20442010758758866   -0.029606513738849764   -0.004933763534249004
-0.20442010758758866   -0.029606513738849764   -0.004933763534249004
-0.0933855805128706   0.008044953225236576   0.0011203181658786428
-0.0933855805128706   0.008044953225236576   0.0011203181658786428
-0.0933855805128706   0.008044953225236576   0.0011203181658786428
-0.0933855805128706   0.008044953225236576   0.0011203181658786428
-0.14567653911323572   -0.009554606146322385   -0.001632793430008675
-0.14567653911323572   -0.009554606146322385   -0.001632793430008675
-0.14567653911323572   -0.009554606146322385   -0.001632793430008675
-0.14567653911323572   -0.009554606146322385   -0.001632793430008675
-0.09583195603265655   -0.006262876635481472   0.0031962704276679885
-0.09583195603265655   -0.006262876635481472   0.0031962704276679885
-0.09583195603265655   -0.006262876635481472   0.0031962704276679885
-0.09583195603265655   -0.006262876635481472   0.0031962704276679885
-0.20148244197994383   -0.01480739379027425   -0.005044555444602285
-0.20148244197994383   -0.01480739379027425   -0.005044555444602285
-0.20148244197994383   -0.01480739379027425   -0.005044555444602285
-0.20148244197994383   -0.01480739379027425   -0.005044555444602285
-0.20994166405930992   -0.031224211809319093   -0.003588072469554787
-0.20994166405930992   -0.031224211809319093   -0.003588072469554787
-0.20994166405930992   -0.031224211809319093   -0.003588072469554787
-0.20994166405930992   -0.031224211809319093   -0.003588072469554787
-0.09787876896341643   0.006062248235661115   0.001313361503102962
-0.09787876896341643   0.006062248235661115   0.001313361503102962
-0.09787876896341643   0.006062248235661115   0.001313361503102962
-0.09787876896341643   0.006062248235661115   0.001313361503102962
-0.1490134729208783   -0.010355241155113517   -0.0015759850351490272
-0.1490134729208783   -0.010355241155113517   -0.0015759850351490272
-0.1490134729208783   -0.010355241155113517   -0.0015759850351490272
-0.1490134729208783   -0.010355241155113517   -0.0015759850351490272
-0.10025832609176709   -0.007895304085413389   0.0033731281824232336
-0.10025832609176709   -0.007895304085413389   0.0033731281824232336
-0.10025832609176709   -0.007895304085413389   0.0033731281824232336
-0.10025832609176709   -0.007895304085413389   0.0033731281824232336
-0.2072271012271818   -0.016931653784466257   -0.004307816333768521
-0.2072271012271818   -0.016931653784466257   -0.004307816333768521
-0.2072271012271818   -0.016931653784466257   -0.004307816333768521
-0.2072271012271818   -0.016931653784466257   -0.004307816333768521
-0.21614130959666472   -0.03342849171288141   -0.0037475552334179504
-0.21614130959666472   -0.03342849171288141   -0.0037475552334179504
-0.21614130959666472   -0.03342849171288141   -0.0037475552334179504
-0.21614130959666472   -0.03342849171288141   -0.0037475552334179504
-0.10274520627476487   0.00355714589012205   0.0015064285277694564
-0.10274520627476487   0.00355714589012205   0.0015064285277694564
-0.10274520627476487   0.00355714589012205   0.0015064285277694564
-0.10274520627476487   0.00355714589012205   0.0015064285277694564
-0.15539248503114259   -0.012727670277939002   -0.002723263014969333
-0.15539248503114259   -0.012727670277939002   -0.002723263014969333
-0.15539248503114259   -0.012727670277939002   -0.002723263014969333
-0.15539248503114259   -0.012727670277939002   -0.002723263014969333
-0.19039336720419534   0.008087139132674025   0.005410315116734324
-0.19039336720419534   0.008087139132674025   0.005410315116734324
-0.19039336720419534   0.008087139132674025   0.005410315116734324
-0.19039336720419534   0.008087139132674025   0.005410315116734324
-0.2944430654011879   -0.014597979571150166   -0.0034304699901028246
-0.2944430654011879   -0.014597979571150166   -0.0034304699901028246
-0.2944430654011879   -0.014597979571150166   -0.0034304699901028246
-0.2944430654011879   -0.014597979571150166   -0.0034304699901028246
-0.3007545254283506   -0.014921280651057696   0.005430736891010658
-0.3007545254283506   -0.014921280651057696   0.005430736891010658
-0.3007545254283506   -0.014921280651057696   0.005430736891010658
-0.3007545254283506   -0.014921280651057696   0.005430736891010658
-0.1964074056236767   0.00661145376421475   -0.0010882212177556992
-0.1964074056236767   0.00661145376421475   -0.0010882212177556992
-0.1964074056236767   0.00661145376421475   -0.0010882212177556992
-0.1964074056236767   0.00661145376421475   -0.0010882212177556992
-0.23400660405980017   -4.4819351272762376e-05   0.00605580547837517
-0.23400660405980017   -4.4819351272762376e-05   0.00605580547837517
-0.23400660405980017   -4.4819351272762376e-05   0.00605580547837517
-0.23400660405980017   -4.4819351272762376e-05   0.00605580547837517
-0.19479434132535922   0.006585266332454945   0.007003287705590156
-0.19479434132535922   0.006585266332454945   0.007003287705590156
-0.19479434132535922   0.006585266332454945   0.007003287705590156
-0.19479434132535922   0.006585266332454945   0.007003287705590156
-0.30223371333999643   -0.014761216832627766   -0.0021252664856485325
-0.30223371333999643   -0.014761216832627766   -0.0021252664856485325
-0.30223371333999643   -0.014761216832627766   -0.0021252664856485325
-0.30223371333999643   -0.014761216832627766   -0.0021252664856485325
-0.30861684591014416   -0.01698374773931697   0.007470477080270091
-0.30861684591014416   -0.01698374773931697   0.007470477080270091
-0.30861684591014416   -0.01698374773931697   0.007470477080270091
-0.30861684591014416   -0.01698374773931697   0.007470477080270091
-0.20217668580964854   0.0051954436849332986   -0.0011828367155017165
-0.20217668580964854   0.0051954436849332986   -0.0011828367155017165
-0.20217668580964854   0.0051954436849332986   -0.0011828367155017165
-0.20217668580964854   0.0051954436849332986   -0.0011828367155017165
-0.24462484043342392   -0.002406620530177782   0.003700775463878576
-0.24462484043342392   -0.002406620530177782   0.003700775463878576
-0.24462484043342392   -0.002406620530177782   0.003700775463878576
-0.24462484043342392   -0.002406620530177782   0.003700775463878576
-0.20069580493305286   0.00449147275877438   0.006925538593635578
-0.20069580493305286   0.00449147275877438   0.006925538593635578
-0.20069580493305286   0.00449147275877438   0.006925538593635578
-0.20069580493305286   0.00449147275877438   0.006925538593635578
-0.31037765531253436   -0.016559705338952208   -0.0017576123320434088
-0.31037765531253436   -0.016559705338952208   -0.0017576123320434088
-0.31037765531253436   -0.016559705338952208   -0.0017576123320434088
-0.31037765531253436   -0.016559705338952208   -0.0017576123320434088
-0.3199175421803191   -0.025730531226589408   0.006277061507950996
-0.3199175421803191   -0.025730531226589408   0.006277061507950996
-0.3199175421803191   -0.025730531226589408   0.006277061507950996
-0.3199175421803191   -0.025730531226589408   0.006277061507950996
-0.20883489944197206   0.0004992075391630282   -0.0011432037120007194
-0.20883489944197206   0.0004992075391630282   -0.0011432037120007194
-0.20883489944197206   0.0004992075391630282   -0.0011432037120007194
-0.20883489944197206   0.0004992075391630282   -0.0011432037120007194
-0.24839614805034868   -0.005511547219674361   0.001821657256164927
-0.24839614805034868   -0.005511547219674361   0.001821657256164927
-0.24839614805034868   -0.005511547219674361   0.001821657256164927
-0.24839614805034868   -0.005511547219674361   0.001821657256164927
0.19319989844127516   0.010770591197507954   -0.006110174245352914
0.19319989844127516   0.010770591197507954   -0.006110174245352914
0.19319989844127516   0.010770591197507954   -0.006110174245352914
0.19319989844127516   0.010770591197507954   -0.006110174245352914
0.09457059138509069   -0.0009378019333391198   0.0019952309376289152
0.09457059138509069   -0.0009378019333391198   0.0019952309376289152
0.09457059138509069   -0.0009378019333391198   0.0019952309376289152
0.09457059138509069   -0.0009378019333391198   0.0019952309376289152
0.0872749532122657   -0.01365497995810196   -0.005774227184195405
0.0872749532122657   -0.01365497995810196   -0.005774227184195405
0.0872749532122657   -0.01365497995810196   -0.005774227184195405
0.0872749532122657   -0.01365497995810196   -0.005774227184195405
0.18997681875328898   0.015226295630461836   0.0025302846241270355
0.18997681875328898   0.015226295630461836   0.0025302846241270355
0.18997681875328898   0.015226295630461836   0.0025302846241270355
0.18997681875328898   0.015226295630461836   0.0025302846241270355
0.13395239023314118   0.0011444728548289998   -0.004430514004541541
0.13395239023314118   0.0011444728548289998   -0.004430514004541541
0.13395239023314118   0.0011444728548289998   -0.004430514004541541
0.13395239023314118   0.0011444728548289998   -0.004430514004541541
0.18646051276513476   0.0061433228767290154   -0.005968272562909584
0.18646051276513476   0.0061433228767290154   -0.005968272562909584
0.18646051276513476   0.0061433228767290154   -0.005968272562909584
0.18646051276513476   0.0061433228767290154   -0.005968272562909584
0.09065684684976105   -0.004706419555027996   0.0021866806002057843
0.09065684684976105   -0.004706419555027996   0.0021866806002057843
0.09065684684976105   -0.004706419555027996   0.0021866806002057843
0.09065684684976105   -0.004706419555027996   0.0021866806002057843
0.08363419913921218   -0.014674235283585343   -0.005068288432515956
0.08363419913921218   -0.014674235283585343   -0.005068288432515956
0.08363419913921218   -0.014674235283585343   -0.005068288432515956
0.08363419913921218   -0.014674235283585343   -0.005068288432515956
0.18455731407372858   0.013784854130348669   0.0035783058800910785
0.18455731407372858   0.013784854130348669   0.0035783058800910785
0.18455731407372858   0.013784854130348669   0.0035783058800910785
0.18455731407372858   0.013784854130348669   0.0035783058800910785
0.13140880265617233   -0.0007819315425666058   -0.005566454630600306
0.13140880265617233   -0.0007819315425666058   -0.005566454630600306
0.13140880265617233   -0.0007819315425666058   -0.005566454630600306
0.13140880265617233   -0.0007819315425666058   -0.005566454630600306
0.1811007837445178   0.004874034164047317   -0.004793525799658272
0.1811007837445178   0.004874034164047317   -0.004793525799658272
0.1811007837445178   0.004874034164047317   -0.004793525799658272
0.1811007837445178   0.004874034164047317   -0.004793525799658272
0.08695565536874256   -0.005898489416963974   0.0027632468485138915
0.08695565536874256   -0.005898489416963974   0.0027632468485138915
0.08695565536874256   -0.005898489416963974   0.0027632468485138915
0.08695565536874256   -0.005898489416963974   0.0027632468485138915
0.08034879595341662   -0.014692976215645328   -0.004156730560199136
0.08034879595341662   -0.014692976215645328   -0.004156730560199136
0.08034879595341662   -0.014692976215645328   -0.004156730560199136
0.08034879595341662   -0.014692976215645328   -0.004156730560199136
0.17844870806564095   0.012737135112127377   0.004565314766726066
0.17844870806564095   0.012737135112127377   0.004565314766726066
0.17844870806564095   0.012737135112127377   0.004565314766726066
0.17844870806564095   0.012737135112127377   0.004565314766726066
0.12449480467574014   -0.0020168000378432936   -0.00743936130516592
0.12449480467574014   -0.0020168000378432936   -0.00743936130516592
0.12449480467574014   -0.0020168000378432936   -0.00743936130516592
0.12449480467574014   -0.0020168000378432936   -0.00743936130516592
0.09662700141647194   0.010426917260774904   0.000912561900421173
0.09662700141647194   0.010426917260774904   0.000912561900421173
0.09662700141647194   0.010426917260774904   0.000912561900421173
0.09662700141647194   0.010426917260774904   0.000912561900421173
0.0015376083688922713   -0.0037709715948026474   -0.0006192100013399109
0.0015376083688922713   -0.0037709715948026474   -0.0006192100013399109
0.0015376083688922713   -0.0037709715948026474   -0.0006192100013399109
0.0015376083688922713   -0.0037709715948026474   -0.0006192100013399109
-0.0039720379503810745   -0.012405780686192497   -0.004053604769562335
-0.0039720379503810745   -0.012405780686192497   -0.004053604769562335
-0.0039720379503810745   -0.012405780686192497   -0.004053604769562335
-0.0039720379503810745   -0.012405780686192497   -0.004053604769562335
0.09496235186417805   0.013955535580957128   0.0050522505363056365
0.09496235186417805   0.013955535580957128   0.0050522505363056365
0.09496235186417805   0.013955535580957128   0.0050522505363056365
0.09496235186417805   0.013955535580957128   0.0050522505363056365
0.04654366144676019   0.001999716195036189   -0.0004398466667677684
0.04654366144676019   0.001999716195036189   -0.0004398466667677684
0.04654366144676019   0.001999716195036189   -0.0004398466667677684
0.04654366144676019   0.001999716195036189   -0.0004398466667677684
0.09305062367140457   0.00808275135229689   0.0013663938010989676
0.09305062367140457   0.00808275135229689   0.0013663938010989676
0.09305062367140457   0.00808275135229689   0.0013663938010989676
0.09305062367140457   0.00808275135229689   0.0013663938010989676
-0.00202014381303297   -0.006492830512957474   -0.00020708425605635771
-0.00202014381303297   -0.006492830512957474   -0.00020708425605635771
-0.00202014381303297   -0.006492830512957474   -0.00020708425605635771
-0.00202014381303297   -0.006492830512957474   -0.00020708425605635771
-0.007417741795303927   -0.014041701454935128   -0.003547282827079885
-0.007417741795303927   -0.014041701454935128   -0.003547282827079885
-0.007417741795303927   -0.014041701454935128   -0.003547282827079885
-0.007417741795303927   -0.014041701454935128   -0.003547282827079885
0.09105296720131033   0.011786773344056294   0.0055645432503324994
0.09105296720131033   0.011786773344056294   0.0055645432503324994
0.09105296720131033   0.011786773344056294   0.0055645432503324994
0.09105296720131033   0.011786773344056294   0.0055645432503324994
0.04225252147754671   -0.00016922906386884935   -0.0016595650121567344
0.04225252147754671   -0.00016922906386884935   -0.0016595650121567344
0.04225252147754671   -0.00016922906386884935   -0.0016595650121567344
0.04225252147754671   -0.00016922906386884935   -0.0016595650121567344
0.08922061791431055   0.006361117570234869   0.0018284525891556387
0.08922061791431055   0.006361117570234869   0.0018284525891556387
0.08922061791431055   0.006361117570234869   0.0018284525891556387
0.08922061791431055   0.006361117570234869   0.0018284525891556387
-0.005584303876458266   -0.008614957049267725   0.00019316236148101632
-0.005584303876458266   -0.008614957049267725   0.00019316236148101632
-0.005584303876458266   -0.008614957049267725   0.00019316236148101632
-0.005584303876458266   -0.008614957049267725   0.00019316236148101632
-0.010815868407591061   -0.014923407563186188   -0.0028925106919295116
-0.010815868407591061   -0.014923407563186188   -0.0028925106919295116
-0.010815868407591061   -0.014923407563186188   -0.0028925106919295116
-0.010815868407591061   -0.014923407563186188   -0.0028925106919295116
0.08733156090731276   0.01003832679501187   0.0060257911986231
0.08733156090731276   0.01003832679501187   0.0060257911986231
0.08733156090731276   0.01003832679501187   0.0060257911986231
0.08733156090731276   0.01003832679501187   0.0060257911986231
0.03921104982346025   -0.001443937548758236   -0.0025208415026291187
0.03921104982346025   -0.001443937548758236   -0.0025208415026291187
0.03921104982346025   -0.001443937548758236   -0.0025208415026291187
0.03921104982346025   -0.001443937548758236   -0.0025208415026291187
0.004903513734978925   0.01019723627461879   0.0022421089596719223
0.004903513734978925   0.01019723627461879   0.0022421089596719223
0.004903513734978925   0.01019723627461879   0.0022421089596719223
0.004903513734978925   0.01019723627461879   0.0022421089596719223
-0.08885347607173612   -0.00616935745017295   -0.003001652065591907
-0.08885347607173612   -0.00616935745017295   -0.003001652065591907
-0.08885347607173612   -0.00616935745017295   -0.003001652065591907
-0.08885347607173612   -0.00616935745017295   -0.003001652065591907
-0.09314727104746783   -0.01162580753108494   -0.002766172092305104
-0.09314727104746783   -0.01162580753108494   -0.002766172092305104
-0.09314727104746783   -0.01162580753108494   -0.002766172092305104
-0.09314727104746783   -0.01162580753108494   -0.002766172092305104
0.002122875219689592   0.011469285589015787   0.002545894805583192
0.002122875219689592   0.011469285589015787   0.002545894805583192
0.002122875219689592   0.011469285589015787   0.002545894805583192
0.002122875219689592   0.011469285589015787   0.002545894805583192
-0.04368272227753827   0.001116258817094441   0.0002218833424049902
-0.04368272227753827   0.001116258817094441   0.0002218833424049902
-0.04368272227753827   0.001116258817094441   0.0002218833424049902
-0.04368272227753827   0.001116258817094441   0.0002218833424049902
0.0015502343008103174   0.008414435930893447   0.0027375398693086786
0.0015502343008103174   0.008414435930893447   0.0027375398693086786
0.0015502343008103174   0.008414435930893447   0.0027375398693086786
0.0015502343008103174   0.008414435930893447   0.0027375398693086786
-0.09247667350106736   -0.00847300124544149   -0.0025659906459462325
-0.09247667350106736   -0.00847300124544149   -0.0025659906459462325
-0.09247667350106736   -0.00847300124544149   -0.0025659906459462325
-0.09247667350106736   -0.00847300124544149   -0.0025659906459462325
-0.09683744268329608   -0.013411910182695372   -0.0023732049245442643
-0.09683744268329608   -0.013411910182695372   -0.0023732049245442643
-0.09683744268329608   -0.013411910182695372   -0.0023732049245442643
-0.09683744268329608   -0.013411910182695372   -0.0023732049245442643
-0.0014397638314094965   0.009244456412164382   0.0030564491252927563
-0.0014397638314094965   0.009244456412164382   0.0030564491252927563
-0.0014397638314094965   0.009244456412164382   0.0030564491252927563
-0.0014397638314094965   0.009244456412164382   0.0030564491252927563
-0.04722597533866753   -0.0006799103182219112   -0.0006696791673461819
-0.04722597533866753   -0.0006799103182219112   -0.0006696791673461819
-0.04722597533866753   -0.0006799103182219112   -0.0006696791673461819
-0.04722597533866753   -0.0006799103182219112   -0.0006696791673461819
-0.0019206155318069616   0.006687854699671057   0.003208792335798757
-0.0019206155318069616   0.006687854699671057   0.003208792335798757
-0.0019206155318069616   0.006687854699671057   0.003208792335798757
-0.0019206155318069616   0.006687854699671057   0.003208792335798757
-0.09627857373965304   -0.010777291226956464   -0.002213479162067935
-0.09627857373965304   -0.010777291226956464   -0.002213479162067935
-0.09627857373965304   -0.010777291226956464   -0.002213479162067935
-0.09627857373965304   -0.010777291226956464   -0.002213479162067935
-0.10049141476669587   -0.014796222663312899   -0.0017134868813036836
-0.10049141476669587   -0.014796222663312899   -0.0017134868813036836
-0.10049141476669587   -0.014796222663312899   -0.0017134868813036836
-0.10049141476669587   -0.014796222663312899   -0.0017134868813036836
-0.0051358035431171584   0.007148793524375816   0.0034356125428779936
-0.0051358035431171584   0.007148793524375816   0.0034356125428779936
-0.0051358035431171584   0.007148793524375816   0.0034356125428779936
-0.0051358035431171584   0.007148793524375816   0.0034356125428779936
-0.051042717908179706   -0.00250321868134034   -0.0016572583160302545
-0.051042717908179706   -0.00250321868134034   -0.0016572583160302545
-0.051042717908179706   -0.00250321868134034   -0.0016572583160302545
-0.051042717908179706   -0.00250321868134034   -0.0016572583160302545
-0.08395409579420793   0.0116068895060947   0.0037190023657828033
-0.08395409579420793   0.0116068895060947   0.0037190023657828033
-0.08395409579420793   0.0116068895060947   0.0037190023657828033
-0.08395409579420793   0.0116068895060947   0.0037190023657828033
-0.17704024488357745   -0.008350170187343988   -0.0048201835347780825
-0.17704024488357745   -0.008350170187343988   -0.0048201835347780825
-0.17704024488357745   -0.008350170187343988   -0.0048201835347780825
-0.17704024488357745   -0.008350170187343988   -0.0048201835347780825
-0.18036297668943863   -0.009807203000003081   -0.0011630667837516512
-0.18036297668943863   -0.009807203000003081   -0.0011630667837516512
-0.18036297668943863   -0.009807203000003081   -0.0011630667837516512
-0.18036297668943863   -0.009807203000003081   -0.0011630667837516512
-0.08849295859586243   0.00881271642918333   6.686620545413424e-05
-0.08849295859586243   0.00881271642918333   6.686620545413424e-05
-0.08849295859586243   0.00881271642918333   6.686620545413424e-05
-0.08849295859586243   0.00881271642918333   6.686620545413424e-05
-0.13149560749247383   0.0009064631263441605   0.0010025555413831133
-0.13149560749247383   0.0009064631263441605   0.0010025555413831133
-0.13149560749247383   0.0009064631263441605   0.0010025555413831133
-0.13149560749247383   0.0009064631263441605   0.0010025555413831133
-0.08747245254107519   0.009833281473445553   0.004148831435128099
-0.08747245254107519   0.009833281473445553   0.004148831435128099
-0.08747245254107519   0.009833281473445553   0.004148831435128099
-0.08747245254107519   0.009833281473445553   0.004148831435128099
-0.1812681021296701   -0.010712387429709553   -0.004783509555202616
-0.1812681021296701   -0.010712387429709553   -0.004783509555202616
-0.1812681021296701   -0.010712387429709553   -0.004783509555202616
-0.1812681021296701   -0.010712387429709553   -0.004783509555202616
-0.18489432263489777   -0.011829818086211866   -0.0011314164347805992
-0.18489432263489777   -0.011829818086211866   -0.0011314164347805992
-0.18489432263489777   -0.011829818086211866   -0.0011314164347805992
-0.18489432263489777   -0.011829818086211866   -0.0011314164347805992
-0.09223956083914829   0.006690218314978635   0.0005140757985216534
-0.09223956083914829   0.006690218314978635   0.0005140757985216534
-0.09223956083914829   0.006690218314978635   0.0005140757985216534
-0.09223956083914829   0.006690218314978635   0.0005140757985216534
-0.1345577364440998   -0.000672122095819197   0.00028209781282562216
-0.1345577364440998   -0.000672122095819197   0.00028209781282562216
-0.1345577364440998   -0.000672122095819197   0.00028209781282562216
-0.1345577364440998   -0.000672122095819197   0.00028209781282562216
-0.09111175230971463   0.008101372181594131   0.004741964579073917
-0.09111175230971463   0.008101372181594131   0.004741964579073917
-0.09111175230971463   0.008101372181594131   0.004741964579073917
-0.09111175230971463   0.008101372181594131   0.004741964579073917
-0.18576308351835402   -0.012981924306851304   -0.004323114631422321
-0.18576308351835402   -0.012981924306851304   -0.004323114631422321
-0.18576308351835402   -0.012981924306851304   -0.004323114631422321
-0.18576308351835402   -0.012981924306851304   -0.004323114631422321
-0.1890408212718559   -0.014020946595845876   -8.841890497916522e-05
-0.1890408212718559   -0.014020946595845876   -8.841890497916522e-05
-0.1890408212718559   -0.014020946595845876   -8.841890497916522e-05
-0.1890408212718559   -0.014020946595845876   -8.841890497916522e-05
-0.09621206232334206   0.004109809421305767   0.0007772432508467066
-0.09621206232334206   0.004109809421305767   0.0007772432508467066
-0.09621206232334206   0.004109809421305767   0.0007772432508467066
-0.09621206232334206   0.004109809421305767   0.0007772432508467066
-0.13963872989293538   -0.00303597352308543   -0.0007405853996347968
-0.13963872989293538   -0.00303597352308543   -0.0007405853996347968
-0.13963872989293538   -0.00303597352308543   -0.0007405853996347968
-0.13963872989293538   -0.00303597352308543   -0.0007405853996347968
-0.17104916663760183   0.011769918067615487   0.005015119440139319
-0.17104916663760183   0.011769918067615487   0.005015119440139319
-0.17104916663760183   0.011769918067615487   0.005015119440139319
-0.17104916663760183   0.011769918067615487   0.005015119440139319
-0.2620715949427361   -0.012235360004186686   -0.004117584051970682
-0.2620715949427361   -0.012235360004186686   -0.004117584051970682
-0.2620715949427361   -0.012235360004186686   -0.004117584051970682
-0.2620715949427361   -0.012235360004186686   -0.004117584051970682
-0.2651338420972893   -0.006089578302057558   0.004133054924495342
-0.2651338420972893   -0.006089578302057558   0.004133054924495342
-0.2651338420972893   -0.006089578302057558   0.004133054924495342
-0.2651338420972893   -0.006089578302057558   0.004133054924495342
-0.1774357396427215   0.0057459699158076   -0.0020800544659765764
-0.1774357396427215   0.0057459699158076   -0.0020800544659765764
-0.1774357396427215   0.0057459699158076   -0.0020800544659765764
-0.1774357396427215   0.0057459699158076   -0.0020800544659765764
-0.20915853332031858   0.002230203594797288   0.005019346077272226
-0.20915853332031858   0.002230203594797288   0.005019346077272226
-0.20915853332031858   0.002230203594797288   0.005019346077272226
-0.20915853332031858   0.002230203594797288   0.005019346077272226
-0.17454213891355747   0.012357445974099691   0.005776473121549771
-0.17454213891355747   0.012357445974099691   0.005776473121549771
-0.17454213891355747   0.012357445974099691   0.005776473121549771
-0.17454213891355747   0.012357445974099691   0.005776473121549771
-0.26785911865179873   -0.01253273018569493   -0.0030501759644119223
-0.26785911865179873   -0.01253273018569493   -0.0030501759644119223
-0.26785911865179873   -0.01253273018569493   -0.0030501759644119223
-0.26785911865179873   -0.01253273018569493   -0.0030501759644119223
-0.27078173500160835   -0.00715158781317439   0.005687054985919666
-0.27078173500160835   -0.00715158781317439   0.005687054985919666
-0.27078173500160835   -0.00715158781317439   0.005687054985919666
-0.27078173500160835   -0.00715158781317439   0.005687054985919666
-0.1817626719384024   0.004530804160409713   -0.0018337851989251655
-0.1817626719384024   0.004530804160409713   -0.0018337851989251655
-0.1817626719384024   0.004530804160409713   -0.0018337851989251655
-0.1817626719384024   0.004530804160409713   -0.0018337851989251655
-0.21737339834686328   0.0011444731012846404   0.0034622104876391845
-0.21737339834686328   0.0011444731012846404   0.0034622104876391845
-0.21737339834686328   0.0011444731012846404   0.0034622104876391845
-0.21737339834686328   0.0011444731012846404   0.0034622104876391845
-0.17856028335118643   0.011580903249367065   0.007128058648197315
-0.17856028335118643   0.011580903249367065   0.007128058648197315
-0.17856028335118643   0.011580903249367065   0.007128058648197315
-0.17856028335118643   0.011580903249367065   0.007128058648197315
-0.273811365464156   -0.014028928777461695   -0.0025837563625285068
-0.273811365464156   -0.014028928777461695   -0.0025837563625285068
-0.273811365464156   -0.014028928777461695   -0.0025837563625285068
-0.273811365464156   -0.014028928777461695   -0.0025837563625285068
-0.2784588582454168   -0.012093047759678836   0.005519478597234636
-0.2784588582454168   -0.012093047759678836   0.005519478597234636
-0.2784588582454168   -0.012093047759678836   0.005519478597234636
-0.2784588582454168   -0.012093047759678836   0.005519478597234636
-0.1864526831593891   0.0005799789664732366   -0.0017486539049643857
-0.1864526831593891   0.0005799789664732366   -0.0017486539049643857
-0.1864526831593891   0.0005799789664732366   -0.0017486539049643857
-0.1864526831593891   0.0005799789664732366   -0.0017486539049643857
-0.21916722165178767   -0.0005549611723229264   0.0030745235963360856
-0.21916722165178767   -0.0005549611723229264   0.0030745235963360856
-0.21916722165178767   -0.0005549611723229264   0.0030745235963360856
-0.21916722165178767   -0.0005549611723229264   0.0030745235963360856
0.15153611283825769   0.008766284409139773   -0.006449858803143632
0.15153611283825769   0.008766284409139773   -0.006449858803143632
0.15153611283825769   0.008766284409139773   -0.006449858803143632
0.15153611283825769   0.008766284409139773   -0.006449858803143632
0.07125876649940756   0.0006943257192180089   0.0022838153559655255
0.07125876649940756   0.0006943257192180089   0.0022838153559655255
0.07125876649940756   0.0006943257192180089   0.0022838153559655255
0.07125876649940756   0.0006943257192180089   0.0022838153559655255
0.06417966672207229   -0.011685698356529472   -0.006232533279612835
0.06417966672207229   -0.011685698356529472   -0.006232533279612835
0.06417966672207229   -0.011685698356529472   -0.006232533279612835
0.06417966672207229   -0.011685698356529472   -0.006232533279612835
0.1487031696422601   0.01353193421154783   0.0028499651955040187
0.1487031696422601   0.01353193421154783   0.0028499651955040187
0.1487031696422601   0.01353193421154783   0.0028499651955040187
0.1487031696422601   0.01353193421154783   0.0028499651955040187
0.10329392250090348   0.00136722015271876   -0.0030744311630096083
0.10329392250090348   0.00136722015271876   -0.0030744311630096083
0.10329392250090348   0.00136722015271876   -0.0030744311630096083
0.10329392250090348   0.00136722015271876   -0.0030744311630096083
0.14509497395490323   0.004510044950009392   -0.006169123979741796
0.14509497395490323   0.004510044950009392   -0.006169123979741796
0.14509497395490323   0.004510044950009392   -0.006169123979741796
0.14509497395490323   0.004510044950009392   -0.006169123979741796
0.06772256047309094   -0.0027291110313305868   0.002525348150281069
0.06772256047309094   -0.0027291110313305868   0.002525348150281069
0.06772256047309094   -0.0027291110313305868   0.002525348150281069
0.06772256047309094   -0.0027291110313305868   0.002525348150281069
0.06090744808341795   -0.012734545095982397   -0.005368824261253619
0.06090744808341795   -0.012734545095982397   -0.005368824261253619
0.06090744808341795   -0.012734545095982397   -0.005368824261253619
0.06090744808341795   -0.012734545095982397   -0.005368824261253619
0.143605674618476   0.01200760434600925   0.003846527458947975
0.143605674618476   0.01200760434600925   0.003846527458947975
0.143605674618476   0.01200760434600925   0.003846527458947975
0.143605674618476   0.01200760434600925   0.003846527458947975
0.10060863022922294   -0.0005169655691573023   -0.004105870247129026
0.10060863022922294   -0.0005169655691573023   -0.004105870247129026
0.10060863022922294   -0.0005169655691573023   -0.004105870247129026
0.10060863022922294   -0.0005169655691573023   -0.004105870247129026
0.14006257480574852   0.003164976374165497   -0.005026343632844698
0.14006257480574852   0.003164976374165497   -0.005026343632844698
0.14006257480574852   0.003164976374165497   -0.005026343632844698
0.14006257480574852   0.003164976374165497   -0.005026343632844698
0.06435353579201065   -0.00398892922827338   0.003115998414000184
0.06435353579201065   -0.00398892922827338   0.003115998414000184
0.06435353579201065   -0.00398892922827338   0.003115998414000184
0.06435353579201065   -0.00398892922827338   0.003115998414000184
0.0579921595054847   -0.01316373795978966   -0.004482502032702867
0.0579921595054847   -0.01316373795978966   -0.004482502032702867
0.0579921595054847   -0.01316373795978966   -0.004482502032702867
0.0579921595054847   -0.01316373795978966   -0.004482502032702867
0.13782686233447658   0.010514577242216994   0.004652795511748661
0.13782686233447658   0.010514577242216994   0.004652795511748661
0.13782686233447658   0.010514577242216994   0.004652795511748661
0.13782686233447658   0.010514577242216994   0.004652795511748661
0.09455361288130967   -0.0018644603314597052   -0.005760994456614643
0.09455361288130967   -0.0018644603314597052   -0.005760994456614643
0.09455361288130967   -0.0018644603314597052   -0.005760994456614643
0.09455361288130967   -0.0018644603314597052   -0.005760994456614643
0.07276849303234663   0.010587001738443541   -6.0227998563315956e-05
0.07276849303234663   0.010587001738443541   -6.0227998563315956e-05
0.07276849303234663   0.010587001738443541   -6.0227998563315956e-05
0.07276849303234663   0.010587001738443541   -6.0227998563315956e-05
-0.005547922067414798   -0.001562749359706428   -0.00024699565036154615
-0.005547922067414798   -0.001562749359706428   -0.00024699565036154615
-0.005547922067414798   -0.001562749359706428   -0.00024699565036154615
-0.005547922067414798   -0.001562749359706428   -0.00024699565036154615
-0.010540535172879131   -0.008970438345689767   -0.004074732059871663
-0.010540535172879131   -0.008970438345689767   -0.004074732059871663
-0.010540535172879131   -0.008970438345689767   -0.004074732059871663
-0.010540535172879131   -0.008970438345689767   -0.004074732059871663
0.07116621238428547   0.012406714404854621   0.004607782270068431
0.07116621238428547   0.012406714404854621   0.004607782270068431
0.07116621238428547   0.012406714404854621   0.004607782270068431
0.07116621238428547   0.012406714404854621   0.004607782270068431
0.031458060850788984   0.0029641653203137004   0.00027970656870401596
0.031458060850788984   0.0029641653203137004   0.00027970656870401596
0.031458060850788984   0.0029641653203137004   0.00027970656870401596
0.031458060850788984   0.0029641653203137004   0.00027970656870401596
0.06944512845536721   0.007936213498333726   0.0004728635319994586
0.06944512845536721   0.007936213498333726   0.0004728635319994586
0.06944512845536721   0.007936213498333726   0.0004728635319994586
0.06944512845536721   0.007936213498333726   0.0004728635319994586
-0.008793922077871781   -0.004474408273078264   0.0001623033425535819
-0.008793922077871781   -0.004474408273078264   0.0001623033425535819
-0.008793922077871781   -0.004474408273078264   0.0001623033425535819
-0.008793922077871781   -0.004474408273078264   0.0001623033425535819
-0.013615149993662123   -0.010942981898877945   -0.0034161157693662347
-0.013615149993662123   -0.010942981898877945   -0.0034161157693662347
-0.013615149993662123   -0.010942981898877945   -0.0034161157693662347
-0.013615149993662123   -0.010942981898877945   -0.0034161157693662347
0.06752800463409903   0.00997262850618319   0.005026784889985441
0.06752800463409903   0.00997262850618319   0.005026784889985441
0.06752800463409903   0.00997262850618319   0.005026784889985441
0.06752800463409903   0.00997262850618319   0.005026784889985441
0.027597033536213986   0.0005329556345093781   -0.0009327883324116832
0.027597033536213986   0.0005329556345093781   -0.0009327883324116832
0.027597033536213986   0.0005329556345093781   -0.0009327883324116832
0.027597033536213986   0.0005329556345093781   -0.0009327883324116832
0.06586877020315138   0.005814727952202234   0.0008885132892288467
0.06586877020315138   0.005814727952202234   0.0008885132892288467
0.06586877020315138   0.005814727952202234   0.0008885132892288467
0.06586877020315138   0.005814727952202234   0.0008885132892288467
-0.01198830242848268   -0.006817468210665081   0.0005926083683181174
-0.01198830242848268   -0.006817468210665081   0.0005926083683181174
-0.01198830242848268   -0.006817468210665081   0.0005926083683181174
-0.01198830242848268   -0.006817468210665081   0.0005926083683181174
-0.01663919556989428   -0.012520778805859036   -0.0027989803285244012
-0.01663919556989428   -0.012520778805859036   -0.0027989803285244012
-0.01663919556989428   -0.012520778805859036   -0.0027989803285244012
-0.01663919556989428   -0.012520778805859036   -0.0027989803285244012
0.06416771360790657   0.00779575891398527   0.005435771605631096
0.06416771360790657   0.00779575891398527   0.005435771605631096
0.06416771360790657   0.00779575891398527   0.005435771605631096
0.06416771360790657   0.00779575891398527   0.005435771605631096
0.02474654083398698   -0.0012123035383492927   -0.001910235065811309
0.02474654083398698   -0.0012123035383492927   -0.001910235065811309
0.02474654083398698   -0.0012123035383492927   -0.001910235065811309
0.02474654083398698   -0.0012123035383492927   -0.001910235065811309
-0.0024207670667973267   0.012068933968780967   0.0017570960242388927
-0.0024207670667973267   0.012068933968780967   0.0017570960242388927
-0.0024207670667973267   0.012068933968780967   0.0017570960242388927
-0.0024207670667973267   0.012068933968780967   0.0017570960242388927
-0.08077051220563149   -0.004000236546073267   -0.0026726834253011826
-0.08077051220563149   -0.004000236546073267   -0.0026726834253011826
-0.08077051220563149   -0.004000236546073267   -0.0026726834253011826
-0.08077051220563149   -0.004000236546073267   -0.0026726834253011826
-0.08397895226977052   -0.006686285451068452   -0.0021301329053778884
-0.08397895226977052   -0.006686285451068452   -0.0021301329053778884
-0.08397895226977052   -0.006686285451068452   -0.0021301329053778884
-0.08397895226977052   -0.006686285451068452   -0.0021301329053778884
-0.005516057205853311   0.010004410196396361   0.0020728092331713088
-0.005516057205853311   0.010004410196396361   0.0020728092331713088
-0.005516057205853311   0.010004410196396361   0.0020728092331713088
-0.005516057205853311   0.010004410196396361   0.0020728092331713088
-0.043065877655184034   0.0028432933495208725   0.000834588511922437
-0.043065877655184034   0.0028432933495208725   0.000834588511922437
-0.043065877655184034   0.0028432933495208725   0.000834588511922437
-0.043065877655184034   0.0028432933495208725   0.000834588511922437
-0.0054708228261012275   0.009918371070338834   0.002385020257989252
-0.0054708228261012275   0.009918371070338834   0.002385020257989252
-0.0054708228261012275   0.009918371070338834   0.002385020257989252
-0.0054708228261012275   0.009918371070338834   0.002385020257989252
-0.08396906100187017   -0.00654512067735976   -0.002221841339584779
-0.08396906100187017   -0.00654512067735976   -0.002221841339584779
-0.08396906100187017   -0.00654512067735976   -0.002221841339584779
-0.08396906100187017   -0.00654512067735976   -0.002221841339584779
-0.08713110061129642   -0.008818287429846148   -0.0015659333048729748
-0.08713110061129642   -0.008818287429846148   -0.0015659333048729748
-0.08713110061129642   -0.008818287429846148   -0.0015659333048729748
-0.08713110061129642   -0.008818287429846148   -0.0015659333048729748
-0.00872915307280125   0.007500623448230703   0.002570263487829482
-0.00872915307280125   0.007500623448230703   0.002570263487829482
-0.00872915307280125   0.007500623448230703   0.002570263487829482
-0.00872915307280125   0.007500623448230703   0.002570263487829482
-0.04625091486437744   0.000699923379999419   -0.00013186675804534266
-0.04625091486437744   0.000699923379999419   -0.00013186675804534266
-0.04625091486437744   0.000699923379999419   -0.00013186675804534266
-0.04625091486437744   0.000699923379999419   -0.00013186675804534266
-0.008616441094454894   0.0077706004167138985   0.0028638464110780633
-0.008616441094454894   0.0077706004167138985   0.0028638464110780633
-0.008616441094454894   0.0077706004167138985   0.0028638464110780633
-0.008616441094454894   0.0077706004167138985   0.0028638464110780633
-0.08723503232377877   -0.0090794841324639   -0.001824395164665999
-0.08723503232377877   -0.0090794841324639   -0.001824395164665999
-0.08723503232377877   -0.0090794841324639   -0.001824395164665999
-0.08723503232377877   -0.0090794841324639   -0.001824395164665999
-0.09023380155435629   -0.010758064460803194   -0.00100067937177793
-0.09023380155435629   -0.010758064460803194   -0.00100067937177793
-0.09023380155435629   -0.010758064460803194   -0.00100067937177793
-0.09023380155435629   -0.010758064460803194   -0.00100067937177793
-0.011963979161083334   0.005079463538117314   0.0029768593715544657
-0.011963979161083334   0.005079463538117314   0.0029768593715544657
-0.011963979161083334   0.005079463538117314   0.0029768593715544657
-0.011963979161083334   0.005079463538117314   0.0029768593715544657
-0.049591037897551746   -0.0014560902570936642   -0.0012152896135439865
-0.049591037897551746   -0.0014560902570936642   -0.0012152896135439865
-0.049591037897551746   -0.0014560902570936642   -0.0012152896135439865
-0.049591037897551746   -0.0014560902570936642   -0.0012152896135439865
-0.0760330229750854   0.01351518011465222   0.00349934606670327
-0.0760330229750854   0.01351518011465222   0.00349934606670327
-0.0760330229750854   0.01351518011465222   0.00349934606670327
-0.0760330229750854   0.01351518011465222   0.00349934606670327
-0.15484319425886783   -0.006530303476382282   -0.004704741149024243
-0.15484319425886783   -0.006530303476382282   -0.004704741149024243
-0.15484319425886783   -0.006530303476382282   -0.004704741149024243
-0.15484319425886783   -0.006530303476382282   -0.004704741149024243
-0.1565719370501292   -0.004820573009254977   -2.0602532470635933e-05
-0.1565719370501292   -0.004820573009254977   -2.0602532470635933e-05
-0.1565719370501292   -0.004820573009254977   -2.0602532470635933e-05
-0.1565719370501292   -0.004820573009254977   -2.0602532470635933e-05
-0.0808491573721309   0.007267434400949256   -0.00043487826919656053
-0.0808491573721309   0.007267434400949256   -0.00043487826919656053
-0.0808491573721309   0.007267434400949256   -0.00043487826919656053
-0.0808491573721309   0.007267434400949256   -0.00043487826919656053
-0.11628416840636213   0.0024744684940746914   0.0014031978322050402
-0.11628416840636213   0.0024744684940746914   0.0014031978322050402
-0.11628416840636213   0.0024744684940746914   0.0014031978322050402
-0.11628416840636213   0.0024744684940746914   0.0014031978322050402
-0.07909466532869569   0.01150000425942618   0.004105012089501636
-0.07909466532869569   0.01150000425942618   0.004105012089501636
-0.07909466532869569   0.01150000425942618   0.004105012089501636
-0.07909466532869569   0.01150000425942618   0.004105012089501636
-0.15832457958023313   -0.009051293354401115   -0.0045530948378461784
-0.15832457958023313   -0.009051293354401115   -0.0045530948378461784
-0.15832457958023313   -0.009051293354401115   -0.0045530948378461784
-0.15832457958023313   -0.009051293354401115   -0.0045530948378461784
-0.16025126690437333   -0.00698174069021976   0.000165986837754698
-0.16025126690437333   -0.00698174069021976   0.000165986837754698
-0.16025126690437333   -0.00698174069021976   0.000165986837754698
-0.16025126690437333   -0.00698174069021976   0.000165986837754698
-0.0840534641109925   0.004944716327282248   5.924543951920432e-05
-0.0840534641109925   0.004944716327282248   5.924543951920432e-05
-0.0840534641109925   0.004944716327282248   5.924543951920432e-05
-0.0840534641109925   0.004944716327282248   5.924543951920432e-05
-0.11888033513062574   0.0006172401803404247   0.0005158479486006328
-0.11888033513062574   0.0006172401803404247   0.0005158479486006328
-0.11888033513062574   0.0006172401803404247   0.0005158479486006328
-0.11888033513062574   0.0006172401803404247   0.0005158479486006328
-0.08221778241751466   0.009523527405365884   0.004658842828824255
-0.08221778241751466   0.009523527405365884   0.004658842828824255
-0.08221778241751466   0.009523527405365884   0.004658842828824255
-0.08221778241751466   0.009523527405365884   0.004658842828824255
-0.16199834501268015   -0.01147194818313262   -0.004079196210867474
-0.16199834501268015   -0.01147194818313262   -0.004079196210867474
-0.16199834501268015   -0.01147194818313262   -0.004079196210867474
-0.16199834501268015   -0.01147194818313262   -0.004079196210867474
-0.16356033932283032   -0.009346386265573638   0.0008445418159379516
-0.16356033932283032   -0.009346386265573638   0.0008445418159379516
-0.16356033932283032   -0.009346386265573638   0.0008445418159379516
-0.16356033932283032   -0.009346386265573638   0.0008445418159379516
-0.08735215632685421   0.002234504536432102   0.00041497776849811364
-0.08735215632685421   0.002234504536432102   0.00041497776849811364
-0.08735215632685421   0.002234504536432102   0.00041497776849811364
-0.08735215632685421   0.002234504536432102   0.00041497776849811364
-0.12309108032590631   -0.0018261272019997436   -0.0006554881136162814
-0.12309108032590631   -0.0018261272019997436   -0.0006554881136162814
-0.12309108032590631   -0.0018261272019997436   -0.0006554881136162814
-0.12309108032590631   -0.0018261272019997436   -0.0006554881136162814
-0.14920121279471815   0.012131004812399503   0.0048438578829423685
-0.14920121279471815   0.012131004812399503   0.0048438578829423685
-0.14920121279471815   0.012131004812399503   0.0048438578829423685
-0.14920121279471815   0.012131004812399503   0.0048438578829423685
-0.22642824757889582   -0.010596575448707124   -0.004867038360309904
-0.22642824757889582   -0.010596575448707124   -0.004867038360309904
-0.22642824757889582   -0.010596575448707124   -0.004867038360309904
-0.22642824757889582   -0.010596575448707124   -0.004867038360309904
-0.22856078029816637   -0.003184059527635376   0.00439483897225342
-0.22856078029816637   -0.003184059527635376   0.00439483897225342
-0.22856078029816637   -0.003184059527635376   0.00439483897225342
-0.22856078029816637   -0.003184059527635376   0.00439483897225342
-0.15532194307204059   0.004086020470916475   -0.0026772261221989935
-0.15532194307204059   0.004086020470916475   -0.0026772261221989935
-0.15532194307204059   0.004086020470916475   -0.0026772261221989935
-0.15532194307204059   0.004086020470916475   -0.0026772261221989935
-0.1814015497369644   0.0024978319197118334   0.004609617310840582
-0.1814015497369644   0.0024978319197118334   0.004609617310840582
-0.1814015497369644   0.0024978319197118334   0.004609617310840582
-0.1814015497369644   0.0024978319197118334   0.004609617310840582
-0.15198696963136527   0.012390389268077305   0.005693272284015725
-0.15198696963136527   0.012390389268077305   0.005693272284015725
-0.15198696963136527   0.012390389268077305   0.005693272284015725
-0.15198696963136527   0.012390389268077305   0.005693272284015725
-0.23185384648521104   -0.011446521071165436   -0.003808030419438108
-0.23185384648521104   -0.011446521071165436   -0.003808030419438108
-0.23185384648521104   -0.011446521071165436   -0.003808030419438108
-0.23185384648521104   -0.011446521071165436   -0.003808030419438108
-0.23341180481708715   -0.004336561257926967   0.005478520588083898
-0.23341180481708715   -0.004336561257926967   0.005478520588083898
-0.23341180481708715   -0.004336561257926967   0.005478520588083898
-0.23341180481708715   -0.004336561257926967   0.005478520588083898
-0.15877907859928367   0.002815769703132777   -0.002270582030149463
-0.15877907859928367   0.002815769703132777   -0.002270582030149463
-0.15877907859928367   0.002815769703132777   -0.002270582030149463
-0.15877907859928367   0.002815769703132777   -0.002270582030149463
-0.1885455396663191   0.0012395872292905105   0.0030046034434208103
-0.1885455396663191   0.0012395872292905105   0.0030046034434208103
-0.1885455396663191   0.0012395872292905105   0.0030046034434208103
-0.1885455396663191   0.0012395872292905105   0.0030046034434208103
-0.1552434672261187   0.011538375875344245   0.00668486866346385
-0.1552434672261187   0.011538375875344245   0.00668486866346385
-0.1552434672261187   0.011538375875344245   0.00668486866346385
-0.1552434672261187   0.011538375875344245   0.00668486866346385
-0.23686269726675166   -0.012974448506636545   -0.0031380544115280733
-0.23686269726675166   -0.012974448506636545   -0.0031380544115280733
-0.23686269726675166   -0.012974448506636545   -0.0031380544115280733
-0.23686269726675166   -0.012974448506636545   -0.0031380544115280733
-0.239824155886607   -0.008688219308627856   0.00528182744674807
-0.239824155886607   -0.008688219308627856   0.00528182744674807
-0.239824155886607   -0.008688219308627856   0.00528182744674807
-0.239824155886607   -0.008688219308627856   0.00528182744674807
-0.16246457014263432   -0.0009541224570200832   -0.002068876091635712
-0.16246457014263432   -0.0009541224570200832   -0.002068876091635712
-0.16246457014263432   -0.0009541224570200832   -0.002068876091635712
-0.16246457014263432   -0.0009541224570200832   -0.002068876091635712
-0.1899050921132478   -0.0004158473775875901   0.0025541000949598092
-0.1899050921132478   -0.0004158473775875901   0.0025541000949598092
-0.1899050921132478   -0.0004158473775875901   0.0025541000949598092
-0.1899050921132478   -0.0004158473775875901   0.0025541000949598092
0.10892758372953742   0.006467727425188417   -0.006517993344312323
0.10892758372953742   0.006467727425188417   -0.006517993344312323
0.10892758372953742   0.006467727425188417   -0.006517993344312323
0.10892758372953742   0.006467727425188417   -0.006517993344312323
0.046485449357151036   0.00224187464685148   0.0026498411285029626
0.046485449357151036   0.00224187464685148   0.0026498411285029626
0.046485449357151036   0.00224187464685148   0.0026498411285029626
0.046485449357151036   0.00224187464685148   0.0026498411285029626
0.03987980106359695   -0.010030105331555874   -0.006136863941351371
0.03987980106359695   -0.010030105331555874   -0.006136863941351371
0.03987980106359695   -0.010030105331555874   -0.006136863941351371
0.03987980106359695   -0.010030105331555874   -0.006136863941351371
0.10678393173109128   0.011869649391290133   0.0032371396504797443
0.10678393173109128   0.011869649391290133   0.0032371396504797443
0.10678393173109128   0.011869649391290133   0.0032371396504797443
0.10678393173109128   0.011869649391290133   0.0032371396504797443
0.07153676480600382   0.0015454097668100436   -0.0019406687173995959
0.07153676480600382   0.0015454097668100436   -0.0019406687173995959
0.07153676480600382   0.0015454097668100436   -0.0019406687173995959
0.07153676480600382   0.0015454097668100436   -0.0019406687173995959
0.10305429850027667   0.002603242934657919   -0.006144620046962115
0.10305429850027667   0.002603242934657919   -0.006144620046962115
0.10305429850027667   0.002603242934657919   -0.006144620046962115
0.10305429850027667   0.002603242934657919   -0.006144620046962115
0.04353813926066754   -0.0008349939086677322   0.0029597156211141535
0.04353813926066754   -0.0008349939086677322   0.0029597156211141535
0.04353813926066754   -0.0008349939086677322   0.0029597156211141535
0.04353813926066754   -0.0008349939086677322   0.0029597156211141535
0.037106954601245364   -0.011116495117492072   -0.0052752498413202965
0.037106954601245364   -0.011116495117492072   -0.0052752498413202965
0.037106954601245364   -0.011116495117492072   -0.0052752498413202965
0.037106954601245364   -0.011116495117492072   -0.0052752498413202965
0.10219545241883819   0.010319572370396102   0.004257936917817446
0.10219545241883819   0.010319572370396102   0.004257936917817446
0.10219545241883819   0.010319572370396102   0.004257936917817446
0.10219545241883819   0.010319572370396102   0.004257936917817446
0.06885472680175532   -0.00029346178639529444   -0.0029731816896297223
0.06885472680175532   -0.00029346178639529444   -0.0029731816896297223
0.06885472680175532   -0.00029346178639529444   -0.0029731816896297223
0.06885472680175532   -0.00029346178639529444   -0.0029731816896297223
0.09850596493658764   0.0012036427443603524   -0.00507357086740045
0.09850596493658764   0.0012036427443603524   -0.00507357086740045
0.09850596493658764   0.0012036427443603524   -0.00507357086740045
0.09850596493658764   0.0012036427443603524   -0.00507357086740045
0.04068217645571204   -0.0021148311192402906   0.00359919543276163
0.04068217645571204   -0.0021148311192402906   0.00359919543276163
0.04068217645571204   -0.0021148311192402906   0.00359919543276163
0.04068217645571204   -0.0021148311192402906   0.00359919543276163
0.0346543235784707   -0.011933022133275559   -0.004412662609708244
0.0346543235784707   -0.011933022133275559   -0.004412662609708244
0.0346543235784707   -0.011933022133275559   -0.004412662609708244
0.0346543235784707   -0.011933022133275559   -0.004412662609708244
0.09679294390413186   0.00839933648682712   0.004928387046905977
0.09679294390413186   0.00839933648682712   0.004928387046905977
0.09679294390413186   0.00839933648682712   0.004928387046905977
0.09679294390413186   0.00839933648682712   0.004928387046905977
0.06377593127459193   -0.0017355746901294572   -0.0044830415058204065
0.06377593127459193   -0.0017355746901294572   -0.0044830415058204065
0.06377593127459193   -0.0017355746901294572   -0.0044830415058204065
0.06377593127459193   -0.0017355746901294572   -0.0044830415058204065
0.047088293306780674   0.008829233291587798   -0.0009232977680858913
0.047088293306780674   0.008829233291587798   -0.0009232977680858913
0.047088293306780674   0.008829233291587798   -0.0009232977680858913
0.047088293306780674   0.008829233291587798   -0.0009232977680858913
-0.01354972034974692   0.0003041981427295377   0.00020590822104574517
-0.01354972034974692   0.0003041981427295377   0.00020590822104574517
-0.01354972034974692   0.0003041981427295377   0.00020590822104574517
-0.01354972034974692   0.0003041981427295377   0.00020590822104574517
-0.01806862958884769   -0.007134924896172427   -0.0038655722619413235
-0.01806862958884769   -0.007134924896172427   -0.0038655722619413235
-0.01806862958884769   -0.007134924896172427   -0.0038655722619413235
-0.01806862958884769   -0.007134924896172427   -0.0038655722619413235
0.046061659374054646   0.010521345064057162   0.004220977215324821
0.046061659374054646   0.010521345064057162   0.004220977215324821
0.046061659374054646   0.010521345064057162   0.004220977215324821
0.046061659374054646   0.010521345064057162   0.004220977215324821
0.01505387459334606   0.0029694996881630695   0.0006003507612506846
0.01505387459334606   0.0029694996881630695   0.0006003507612506846
0.01505387459334606   0.0029694996881630695   0.0006003507612506846
0.01505387459334606   0.0029694996881630695   0.0006003507612506846
0.044230931502396625   0.0060131986322357975   -0.0004245157111445189
0.044230931502396625   0.0060131986322357975   -0.0004245157111445189
0.044230931502396625   0.0060131986322357975   -0.0004245157111445189
0.044230931502396625   0.0060131986322357975   -0.0004245157111445189
-0.016272700203860305   -0.0026615769510225195   0.0006407267178451981
-0.016272700203860305   -0.0026615769510225195   0.0006407267178451981
-0.016272700203860305   -0.0026615769510225195   0.0006407267178451981
-0.016272700203860305   -0.0026615769510225195   0.0006407267178451981
-0.020638266279016937   -0.009300332732341161   -0.003171750389528028
-0.020638266279016937   -0.009300332732341161   -0.003171750389528028
-0.020638266279016937   -0.009300332732341161   -0.003171750389528028
-0.020638266279016937   -0.009300332732341161   -0.003171750389528028
0.04289648339468337   0.007964596482272587   0.0045913025261053834
0.04289648339468337   0.007964596482272587   0.0045913025261053834
0.04289648339468337   0.007964596482272587   0.0045913025261053834
0.04289648339468337   0.007964596482272587   0.0045913025261053834
0.011829137440965209   0.0004416747563556296   -0.0006127989315941614
0.011829137440965209   0.0004416747563556296   -0.0006127989315941614
0.011829137440965209   0.0004416747563556296   -0.0006127989315941614
0.011829137440965209   0.0004416747563556296   -0.0006127989315941614
0.04112387835406965   0.003687517527701632   5.3562776070308765e-06
0.04112387835406965   0.003687517527701632   5.3562776070308765e-06
0.04112387835406965   0.003687517527701632   5.3562776070308765e-06
0.04112387835406965   0.003687517527701632   5.3562776070308765e-06
-0.018944643534915456   -0.005102236074283763   0.0010982666729224514
-0.018944643534915456   -0.005102236074283763   0.0010982666729224514
-0.018944643534915456   -0.005102236074283763   0.0010982666729224514
-0.018944643534915456   -0.005102236074283763   0.0010982666729224514
-0.023166166526394024   -0.011264651662320099   -0.002532401141595155
-0.023166166526394024   -0.011264651662320099   -0.002532401141595155
-0.023166166526394024   -0.011264651662320099   -0.002532401141595155
-0.023166166526394024   -0.011264651662320099   -0.002532401141595155
0.04004086097708133   0.0055775864076554275   0.0050094158424146325
0.04004086097708133   0.0055775864076554275   0.0050094158424146325
0.04004086097708133   0.0055775864076554275   0.0050094158424146325
0.04004086097708133   0.0055775864076554275   0.0050094158424146325
0.009325745547781124   -0.001569759248777855   -0.0016579322449790325
0.009325745547781124   -0.001569759248777855   -0.0016579322449790325
0.009325745547781124   -0.001569759248777855   -0.0016579322449790325
0.009325745547781124   -0.001569759248777855   -0.0016579322449790325
-0.011317618131897335   0.01063250203694998   0.001038115416073228
-0.011317618131897335   0.01063250203694998   0.001038115416073228
-0.011317618131897335   0.01063250203694998   0.001038115416073228
-0.011317618131897335   0.01063250203694998   0.001038115416073228
-0.07261054626999076   -0.0023013788825654528   -0.0022582850127954514
-0.07261054626999076   -0.0023013788825654528   -0.0022582850127954514
-0.07261054626999076   -0.0023013788825654528   -0.0022582850127954514
-0.07261054626999076   -0.0023013788825654528   -0.0022582850127954514
-0.07517916651694523   -0.004680882195964719   -0.001690543417542174
-0.07517916651694523   -0.004680882195964719   -0.001690543417542174
-0.07517916651694523   -0.004680882195964719   -0.001690543417542174
-0.07517916651694523   -0.004680882195964719   -0.001690543417542174
-0.01393474519939202   0.008000717638828139   0.0016682071503364452
-0.01393474519939202   0.008000717638828139   0.0016682071503364452
-0.01393474519939202   0.008000717638828139   0.0016682071503364452
-0.01393474519939202   0.008000717638828139   0.0016682071503364452
-0.04314813336958538   0.0028464344593127685   0.0008931531141795229
-0.04314813336958538   0.0028464344593127685   0.0008931531141795229
-0.04314813336958538   0.0028464344593127685   0.0008931531141795229
-0.04314813336958538   0.0028464344593127685   0.0008931531141795229
-0.013879192062562482   0.008255466227567655   0.0016912242457446263
-0.013879192062562482   0.008255466227567655   0.0016912242457446263
-0.013879192062562482   0.008255466227567655   0.0016912242457446263
-0.013879192062562482   0.008255466227567655   0.0016912242457446263
-0.07525127983268921   -0.004952190963619969   -0.0017798012286068857
-0.07525127983268921   -0.004952190963619969   -0.0017798012286068857
-0.07525127983268921   -0.004952190963619969   -0.0017798012286068857
-0.07525127983268921   -0.004952190963619969   -0.0017798012286068857
-0.07778120257033573   -0.007040508596253416   -0.0010833472370566227
-0.07778120257033573   -0.007040508596253416   -0.0010833472370566227
-0.07778120257033573   -0.007040508596253416   -0.0010833472370566227
-0.07778120257033573   -0.007040508596253416   -0.0010833472370566227
-0.016634662333513097   0.005371072436275716   0.002174864169374287
-0.016634662333513097   0.005371072436275716   0.002174864169374287
-0.016634662333513097   0.005371072436275716   0.002174864169374287
-0.016634662333513097   0.005371072436275716   0.002174864169374287
-0.045820315659714   0.0005219478825294922   -0.00013598898124815052
-0.045820315659714   0.0005219478825294922   -0.00013598898124815052
-0.045820315659714   0.0005219478825294922   -0.00013598898124815052
-0.045820315659714   0.0005219478825294922   -0.00013598898124815052
-0.016524787432555567   0.00587208841733464   0.002223222693103484
-0.016524787432555567   0.00587208841733464   0.002223222693103484
-0.016524787432555567   0.00587208841733464   0.002223222693103484
-0.016524787432555567   0.00587208841733464   0.002223222693103484
-0.07794582022041911   -0.007596267326438115   -0.0013506767572888504
-0.07794582022041911   -0.007596267326438115   -0.0013506767572888504
-0.07794582022041911   -0.007596267326438115   -0.0013506767572888504
-0.07794582022041911   -0.007596267326438115   -0.0013506767572888504
-0.08032794921296925   -0.009285540301846902   -0.0004841897763806966
-0.08032794921296925   -0.009285540301846902   -0.0004841897763806966
-0.08032794921296925   -0.009285540301846902   -0.0004841897763806966
-0.08032794921296925   -0.009285540301846902   -0.0004841897763806966
-0.019321369247692854   0.0028196373703057312   0.002607296219284871
-0.019321369247692854   0.0028196373703057312   0.002607296219284871
-0.019321369247692854   0.0028196373703057312   0.002607296219284871
-0.019321369247692854   0.0028196373703057312   0.002607296219284871
-0.048612653105710085   -0.0018009927537990366   -0.001257581546139426
-0.048612653105710085   -0.0018009927537990366   -0.001257581546139426
-0.048612653105710085   -0.0018009927537990366   -0.001257581546139426
-0.048612653105710085   -0.0018009927537990366   -0.001257581546139426
-0.06864825112039956   0.012249996459696037   0.0030018153928990654
-0.06864825112039956   0.012249996459696037   0.0030018153928990654
-0.06864825112039956   0.012249996459696037   0.0030018153928990654
-0.06864825112039956   0.012249996459696037   0.0030018153928990654
-0.13105500886566265   -0.004947323294475638   -0.004456872625020239
-0.13105500886566265   -0.004947323294475638   -0.004456872625020239
-0.13105500886566265   -0.004947323294475638   -0.004456872625020239
-0.13105500886566265   -0.004947323294475638   -0.004456872625020239
-0.13198899487897048   -0.002749089127221875   0.0006223415967873576
-0.13198899487897048   -0.002749089127221875   0.0006223415967873576
-0.13198899487897048   -0.002749089127221875   0.0006223415967873576
-0.13198899487897048   -0.002749089127221875   0.0006223415967873576
-0.0730180457147433   0.00526140626894523   -0.0008272278714438709
-0.0730180457147433   0.00526140626894523   -0.0008272278714438709
-0.0730180457147433   0.00526140626894523   -0.0008272278714438709
-0.0730180457147433   0.00526140626894523   -0.0008272278714438709
-0.10053828207273288   0.0024654540614402476   0.0012676562618211262
-0.10053828207273288   0.0024654540614402476   0.0012676562618211262
-0.10053828207273288   0.0024654540614402476   0.0012676562618211262
-0.10053828207273288   0.0024654540614402476   0.0012676562618211262
-0.07117063584763872   0.010020299921910114   0.003650927811115534
-0.07117063584763872   0.010020299921910114   0.003650927811115534
-0.07117063584763872   0.010020299921910114   0.003650927811115534
-0.07117063584763872   0.010020299921910114   0.003650927811115534
-0.1339315707451974   -0.007603148779308396   -0.00423647808226174
-0.1339315707451974   -0.007603148779308396   -0.00423647808226174
-0.1339315707451974   -0.007603148779308396   -0.00423647808226174
-0.1339315707451974   -0.007603148779308396   -0.00423647808226174
-0.13507259727847842   -0.005093174307751847   0.0008889254318346597
-0.13507259727847842   -0.005093174307751847   0.0008889254318346597
-0.13507259727847842   -0.005093174307751847   0.0008889254318346597
-0.13507259727847842   -0.005093174307751847   0.0008889254318346597
-0.07565150273263276   0.002828375809229556   -0.00030373245402573815
-0.07565150273263276   0.002828375809229556   -0.00030373245402573815
-0.07565150273263276   0.002828375809229556   -0.00030373245402573815
-0.07565150273263276   0.002828375809229556   -0.00030373245402573815
-0.10271733368086701   0.0003977627306281824   0.00024700887561141666
-0.10271733368086701   0.0003977627306281824   0.00024700887561141666
-0.10271733368086701   0.0003977627306281824   0.00024700887561141666
-0.10271733368086701   0.0003977627306281824   0.00024700887561141666
-0.07373434928514862   0.007848976935893485   0.004261433656731507
-0.07373434928514862   0.007848976935893485   0.004261433656731507
-0.07373434928514862   0.007848976935893485   0.004261433656731507
-0.07373434928514862   0.007848976935893485   0.004261433656731507
-0.13700574170585583   -0.010129766414309942   -0.0037402045984963163
-0.13700574170585583   -0.010129766414309942   -0.0037402045984963163
-0.13700574170585583   -0.010129766414309942   -0.0037402045984963163
-0.13700574170585583   -0.010129766414309942   -0.0037402045984963163
-0.13779011107255554   -0.00762991033713643   0.0015308581463567778
-0.13779011107255554   -0.00762991033713643   0.0015308581463567778
-0.13779011107255554   -0.00762991033713643   0.0015308581463567778
-0.13779011107255554   -0.00762991033713643   0.0015308581463567778
-0.07833651928831875   8.081887550394004e-05   0.00010660066951958484
-0.07833651928831875   8.081887550394004e-05   0.00010660066951958484
-0.07833651928831875   8.081887550394004e-05   0.00010660066951958484
-0.07833651928831875   8.081887550394004e-05   0.00010660066951958484
-0.10618659451598864   -0.0020938323948332324   -0.0009739460803132906
-0.10618659451598864   -0.0020938323948332324   -0.0009739460803132906
-0.10618659451598864   -0.0020938323948332324   -0.0009739460803132906
-0.10618659451598864   -0.0020938323948332324   -0.0009739460803132906
-0.1259622884971928   0.01140158768688845   0.004657818235964912
-0.1259622884971928   0.01140158768688845   0.004657818235964912
-0.1259622884971928   0.01140158768688845   0.004657818235964912
-0.1259622884971928   0.01140158768688845   0.004657818235964912
-0.1871219574296399   -0.008798547566554578   -0.00547513559244809
-0.1871219574296399   -0.008798547566554578   -0.00547513559244809
-0.1871219574296399   -0.008798547566554578   -0.00547513559244809
-0.1871219574296399   -0.008798547566554578   -0.00547513559244809
-0.18866019188185904   -0.001130215096707958   0.004579844849497283
-0.18866019188185904   -0.001130215096707958   0.004579844849497283
-0.18866019188185904   -0.001130215096707958   0.004579844849497283
-0.18866019188185904   -0.001130215096707958   0.004579844849497283
-0.13176565953022484   0.002166222760273614   -0.003176293546982829
-0.13176565953022484   0.002166222760273614   -0.003176293546982829
-0.13176565953022484   0.002166222760273614   -0.003176293546982829
-0.13176565953022484   0.002166222760273614   -0.003176293546982829
-0.15133596296626478   0.0024174115965156645   0.0039806233757964035
-0.15133596296626478   0.0024174115965156645   0.0039806233757964035
-0.15133596296626478   0.0024174115965156645   0.0039806233757964035
-0.15133596296626478   0.0024174115965156645   0.0039806233757964035
-0.12823517984241364   0.011139403226459642   0.005502924425889911
-0.12823517984241364   0.011139403226459642   0.005502924425889911
-0.12823517984241364   0.011139403226459642   0.005502924425889911
-0.12823517984241364   0.011139403226459642   0.005502924425889911
-0.1922766060388414   -0.010189330032064348   -0.004443111000056085
-0.1922766060388414   -0.010189330032064348   -0.004443111000056085
-0.1922766060388414   -0.010189330032064348   -0.004443111000056085
-0.1922766060388414   -0.010189330032064348   -0.004443111000056085
-0.1930640268679292   -0.0024367250009543553   0.005751892718060422
-0.1930640268679292   -0.0024367250009543553   0.005751892718060422
-0.1930640268679292   -0.0024367250009543553   0.005751892718060422
-0.1930640268679292   -0.0024367250009543553   0.005751892718060422
-0.1346012549633907   0.0008352065579643811   -0.0026827438584458956
-0.1346012549633907   0.0008352065579643811   -0.0026827438584458956
-0.1346012549633907   0.0008352065579643811   -0.0026827438584458956
-0.1346012549633907   0.0008352065579643811   -0.0026827438584458956
-0.15754817195580156   0.0009417880578150364   0.0022883748256427427
-0.15754817195580156   0.0009417880578150364   0.0022883748256427427
-0.15754817195580156   0.0009417880578150364   0.0022883748256427427
-0.15754817195580156   0.0009417880578150364   0.0022883748256427427
-0.1309128960432955   0.01013497840029947   0.006459278899695869
-0.1309128960432955   0.01013497840029947   0.006459278899695869
-0.1309128960432955   0.01013497840029947   0.006459278899695869
-0.1309128960432955   0.01013497840029947   0.006459278899695869
-0.19681231795275578   -0.011796429008019534   -0.0036298586990042656
-0.19681231795275578   -0.011796429008019534   -0.0036298586990042656
-0.19681231795275578   -0.011796429008019534   -0.0036298586990042656
-0.19681231795275578   -0.011796429008019534   -0.0036298586990042656
-0.19895378368637767   -0.006698402444027932   0.0056989375170683945
-0.19895378368637767   -0.006698402444027932   0.0056989375170683945
-0.19895378368637767   -0.006698402444027932   0.0056989375170683945
-0.19895378368637767   -0.006698402444027932   0.0056989375170683945
-0.13759163376414202   -0.0027293632678527524   -0.0023773023808621122
-0.13759163376414202   -0.0027293632678527524   -0.0023773023808621122
-0.13759163376414202   -0.0027293632678527524   -0.0023773023808621122
-0.13759163376414202   -0.0027293632678527524   -0.0023773023808621122
-0.15892707833958397   -0.0008119656120577773   0.0015539649183963083
-0.15892707833958397   -0.0008119656120577773   0.0015539649183963083
-0.15892707833958397   -0.0008119656120577773   0.0015539649183963083
-0.15892707833958397   -0.0008119656120577773   0.0015539649183963083
0.065214803782544   0.004132973065345763   -0.006624021204418586
0.065214803782544   0.004132973065345763   -0.006624021204418586
0.065214803782544   0.004132973065345763   -0.006624021204418586
0.065214803782544   0.004132973065345763   -0.006624021204418586
0.02056081245347738   0.003727384753221924   0.003037515269562534
0.02056081245347738   0.003727384753221924   0.003037515269562534
0.02056081245347738   0.003727384753221924   0.003037515269562534
0.02056081245347738   0.003727384753221924   0.003037515269562534
0.014473500723388296   -0.008416718172781659   -0.005884267162176238
0.014473500723388296   -0.008416718172781659   -0.005884267162176238
0.014473500723388296   -0.008416718172781659   -0.005884267162176238
0.014473500723388296   -0.008416718172781659   -0.005884267162176238
0.06378224643776156   0.01015912622451066   0.003648621451923719
0.06378224643776156   0.01015912622451066   0.003648621451923719
0.06378224643776156   0.01015912622451066   0.003648621451923719
0.06378224643776156   0.01015912622451066   0.003648621451923719
0.0386811347793692   0.0017283372505987379   -0.0008443240241634681
0.0386811347793692   0.0017283372505987379   -0.0008443240241634681
0.0386811347793692   0.0017283372505987379   -0.0008443240241634681
0.0386811347793692   0.0017283372505987379   -0.0008443240241634681
0.05991754296801274   0.0006214914784303128   -0.006137261150740826
0.05991754296801274   0.0006214914784303128   -0.006137261150740826
0.05991754296801274   0.0006214914784303128   -0.006137261150740826
0.05991754296801274   0.0006214914784303128   -0.006137261150740826
0.018218514074902697   0.0010012264550641379   0.00342285496754998
0.018218514074902697   0.0010012264550641379   0.00342285496754998
0.018218514074902697   0.0010012264550641379   0.00342285496754998
0.018218514074902697   0.0010012264550641379   0.00342285496754998
0.012194051523266271   -0.00954241231375943   -0.005050585607384464
0.012194051523266271   -0.00954241231375943   -0.005050585607384464
0.012194051523266271   -0.00954241231375943   -0.005050585607384464
0.012194051523266271   -0.00954241231375943   -0.005050585607384464
0.05968023057711457   0.00861305933285655   0.004761806103806466
0.05968023057711457   0.00861305933285655   0.004761806103806466
0.05968023057711457   0.00861305933285655   0.004761806103806466
0.05968023057711457   0.00861305933285655   0.004761806103806466
0.03597418415529207   -6.0866019091773e-05   -0.001958997015739252
0.03597418415529207   -6.0866019091773e-05   -0.001958997015739252
0.03597418415529207   -6.0866019091773e-05   -0.001958997015739252
0.03597418415529207   -6.0866019091773e-05   -0.001958997015739252
0.055816626508585175   -0.0008303426470130434   -0.005112812258971439
0.055816626508585175   -0.0008303426470130434   -0.005112812258971439
0.055816626508585175   -0.0008303426470130434   -0.005112812258971439
0.055816626508585175   -0.0008303426470130434   -0.005112812258971439
0.01589121012573961   -0.0002654557999459406   0.004158250891168971
0.01589121012573961   -0.0002654557999459406   0.004158250891168971
0.01589121012573961   -0.0002654557999459406   0.004158250891168971
0.01589121012573961   -0.0002654557999459406   0.004158250891168971
0.010171420783182021   -0.010756920252420116   -0.004231373528380363
0.010171420783182021   -0.010756920252420116   -0.004231373528380363
0.010171420783182021   -0.010756920252420116   -0.004231373528380363
0.010171420783182021   -0.010756920252420116   -0.004231373528380363
0.05455915248496579   0.006236868314440987   0.00534795909298978
0.05455915248496579   0.006236868314440987   0.00534795909298978
0.05455915248496579   0.006236868314440987   0.00534795909298978
0.05455915248496579   0.006236868314440987   0.00534795909298978
0.03185406983070644   -0.0015929670803880563   -0.003389041931816658
0.03185406983070644   -0.0015929670803880563   -0.003389041931816658
0.03185406983070644   -0.0015929670803880563   -0.003389041931816658
0.03185406983070644   -0.0015929670803880563   -0.003389041931816658
0.02019685185884843   0.006667791958472794   -0.0017226949088333199
0.02019685185884843   0.006667791958472794   -0.0017226949088333199
0.02019685185884843   0.006667791958472794   -0.0017226949088333199
0.02019685185884843   0.006667791958472794   -0.0017226949088333199
-0.022346132994775652   0.0017346490028624971   0.0006305011787521577
-0.022346132994775652   0.0017346490028624971   0.0006305011787521577
-0.022346132994775652   0.0017346490028624971   0.0006305011787521577
-0.022346132994775652   0.0017346490028624971   0.0006305011787521577
-0.02628418013374711   -0.005492065576488501   -0.0035002364795979008
-0.02628418013374711   -0.005492065576488501   -0.0035002364795979008
-0.02628418013374711   -0.005492065576488501   -0.0035002364795979008
-0.02628418013374711   -0.005492065576488501   -0.0035002364795979008
0.019731058190563436   0.008217262112152051   0.003769539888765771
0.019731058190563436   0.008217262112152051   0.003769539888765771
0.019731058190563436   0.008217262112152051   0.003769539888765771
0.019731058190563436   0.008217262112152051   0.003769539888765771
-0.0023432512904030074   0.002656094752363763   0.0007764777015185873
-0.0023432512904030074   0.002656094752363763   0.0007764777015185873
-0.0023432512904030074   0.002656094752363763   0.0007764777015185873
-0.0023432512904030074   0.002656094752363763   0.0007764777015185873
0.017838526516226378   0.003781126479394206   -0.001256982850161691
0.017838526516226378   0.003781126479394206   -0.001256982850161691
0.017838526516226378   0.003781126479394206   -0.001256982850161691
0.017838526516226378   0.003781126479394206   -0.001256982850161691
-0.02450040750637014   -0.0011646889906901051   0.0010912500714885657
-0.02450040750637014   -0.0011646889906901051   0.0010912500714885657
-0.02450040750637014   -0.0011646889906901051   0.0010912500714885657
-0.02450040750637014   -0.0011646889906901051   0.0010912500714885657
-0.02831751036839774   -0.007753798708891944   -0.002786679666636174
-0.02831751036839774   -0.007753798708891944   -0.002786679666636174
-0.02831751036839774   -0.007753798708891944   -0.002786679666636174
-0.02831751036839774   -0.007753798708891944   -0.002786679666636174
0.01706501763860143   0.005641601888546035   0.0041202307669861065
0.01706501763860143   0.005641601888546035   0.0041202307669861065
0.01706501763860143   0.005641601888546035   0.0041202307669861065
0.01706501763860143   0.005641601888546035   0.0041202307669861065
-0.004887091914932847   0.00015685879199812155   -0.000427903899989077
-0.004887091914932847   0.00015685879199812155   -0.000427903899989077
-0.004887091914932847   0.00015685879199812155   -0.000427903899989077
-0.004887091914932847   0.00015685879199812155   -0.000427903899989077
0.01522315835932286   0.0013518151848393497   -0.0007992789257003021
0.01522315835932286   0.0013518151848393497   -0.0007992789257003021
0.01522315835932286   0.0013518151848393497   -0.0007992789257003021
0.01522315835932286   0.0013518151848393497   -0.0007992789257003021
-0.026617385068410358   -0.0036057459844764887   0.0015658941088852786
-0.026617385068410358   -0.0036057459844764887   0.0015658941088852786
-0.026617385068410358   -0.0036057459844764887   0.0015658941088852786
-0.026617385068410358   -0.0036057459844764887   0.0015658941088852786
-0.030331418966486712   -0.009927584363800122   -0.002144158071295072
-0.030331418966486712   -0.009927584363800122   -0.002144158071295072
-0.030331418966486712   -0.009927584363800122   -0.002144158071295072
-0.030331418966486712   -0.009927584363800122   -0.002144158071295072
0.014729296968662778   0.0031851064390506223   0.004615980707552917
0.014729296968662778   0.0031851064390506223   0.004615980707552917
0.014729296968662778   0.0031851064390506223   0.004615980707552917
0.014729296968662778   0.0031851064390506223   0.004615980707552917
-0.007028942290733792   -0.0019985734825551543   -0.0015424815927841452
-0.007028942290733792   -0.0019985734825551543   -0.0015424815927841452
-0.007028942290733792   -0.0019985734825551543   -0.0015424815927841452
-0.007028942290733792   -0.0019985734825551543   -0.0015424815927841452
-0.021041458913320366   0.008534833090921611   0.00035368749796947044
-0.021041458913320366   0.008534833090921611   0.00035368749796947044
-0.021041458913320366   0.008534833090921611   0.00035368749796947044
-0.021041458913320366   0.008534833090921611   0.00035368749796947044
-0.06451095179060039   -0.0011463379485268585   -0.0018660862045606786
-0.06451095179060039   -0.0011463379485268585   -0.0018660862045606786
-0.06451095179060039   -0.0011463379485268585   -0.0018660862045606786
-0.06451095179060039   -0.0011463379485268585   -0.0018660862045606786
-0.0663677650986244   -0.0030514774702986216   -0.0011597484960688131
-0.0663677650986244   -0.0030514774702986216   -0.0011597484960688131
-0.0663677650986244   -0.0030514774702986216   -0.0011597484960688131
-0.0663677650986244   -0.0030514774702986216   -0.0011597484960688131
-0.023156377855790368   0.005437655773100097   0.0012090535605967347
-0.023156377855790368   0.005437655773100097   0.0012090535605967347
-0.023156377855790368   0.005437655773100097   0.0012090535605967347
-0.023156377855790368   0.005437655773100097   0.0012090535605967347
-0.04365495195994781   0.0023723209113170017   0.0007770219311280585
-0.04365495195994781   0.0023723209113170017   0.0007770219311280585
-0.04365495195994781   0.0023723209113170017   0.0007770219311280585
-0.04365495195994781   0.0023723209113170017   0.0007770219311280585
-0.023072575414627094   0.006043878728014448   0.0010218428114992335
-0.023072575414627094   0.006043878728014448   0.0010218428114992335
-0.023072575414627094   0.006043878728014448   0.0010218428114992335
-0.023072575414627094   0.006043878728014448   0.0010218428114992335
-0.06654933325555372   -0.003755466140979588   -0.0013636006100344973
-0.06654933325555372   -0.003755466140979588   -0.0013636006100344973
-0.06654933325555372   -0.003755466140979588   -0.0013636006100344973
-0.06654933325555372   -0.003755466140979588   -0.0013636006100344973
-0.06839738821823406   -0.005521002622022613   -0.0005227852373963838
-0.06839738821823406   -0.005521002622022613   -0.0005227852373963838
-0.06839738821823406   -0.005521002622022613   -0.0005227852373963838
-0.06839738821823406   -0.005521002622022613   -0.0005227852373963838
-0.02529852755087963   0.0028248932094477475   0.00172954250261419
-0.02529852755087963   0.0028248932094477475   0.00172954250261419
-0.02529852755087963   0.0028248932094477475   0.00172954250261419
-0.02529852755087963   0.0028248932094477475   0.00172954250261419
-0.04576654826548306   1.2153310866314451e-05   -0.00029330913844741787
-0.04576654826548306   1.2153310866314451e-05   -0.00029330913844741787
-0.04576654826548306   1.2153310866314451e-05   -0.00029330913844741787
-0.04576654826548306   1.2153310866314451e-05   -0.00029330913844741787
-0.02518527336369518   0.003541765604967817   0.0015789410430168704
-0.02518527336369518   0.003541765604967817   0.0015789410430168704
-0.02518527336369518   0.003541765604967817   0.0015789410430168704
-0.02518527336369518   0.003541765604967817   0.0015789410430168704
-0.06864858410811563   -0.006375816720240422   -0.0009239505885868327
-0.06864858410811563   -0.006375816720240422   -0.0009239505885868327
-0.06864858410811563   -0.006375816720240422   -0.0009239505885868327
-0.06864858410811563   -0.006375816720240422   -0.0009239505885868327
-0.07037885946187802   -0.007892631400465498   0.00010344257961389098
-0.07037885946187802   -0.007892631400465498   0.00010344257961389098
-0.07037885946187802   -0.007892631400465498   0.00010344257961389098
-0.07037885946187802   -0.007892631400465498   0.00010344257961389098
-0.02741526584438775   0.00031796335401169506   0.0021910598213874368
-0.02741526584438775   0.00031796335401169506   0.0021910598213874368
-0.02741526584438775   0.00031796335401169506   0.0021910598213874368
-0.02741526584438775   0.00031796335401169506   0.0021910598213874368
-0.04799621896007886   -0.0023485933442501973   -0.0014596876732443156
-0.04799621896007886   -0.0023485933442501973   -0.0014596876732443156
-0.04799621896007886   -0.0023485933442501973   -0.0014596876732443156
-0.04799621896007886   -0.0023485933442501973   -0.0014596876732443156
-0.06132075411626522   0.010398845853437961   0.0025397183651503386
-0.06132075411626522   0.010398845853437961   0.0025397183651503386
-0.06132075411626522   0.010398845853437961   0.0025397183651503386
-0.06132075411626522   0.010398845853437961   0.0025397183651503386
-0.10611536587607626   -0.003622954082245479   -0.004111145685210555
-0.10611536587607626   -0.003622954082245479   -0.004111145685210555
-0.10611536587607626   -0.003622954082245479   -0.004111145685210555
-0.10611536587607626   -0.003622954082245479   -0.004111145685210555
-0.10628606190391567   -0.0009682032389120888   0.0012927407784419148
-0.10628606190391567   -0.0009682032389120888   0.0012927407784419148
-0.10628606190391567   -0.0009682032389120888   0.0012927407784419148
-0.10628606190391567   -0.0009682032389120888   0.0012927407784419148
-0.06519692452145426   0.00284749173375733   -0.0012045148142745907
-0.06519692452145426   0.00284749173375733   -0.0012045148142745907
-0.06519692452145426   0.00284749173375733   -0.0012045148142745907
-0.06519692452145426   0.00284749173375733   -0.0012045148142745907
-0.08425231597385004   0.0021417444887123945   0.0009721595684567454
-0.08425231597385004   0.0021417444887123945   0.0009721595684567454
-0.08425231597385004   0.0021417444887123945   0.0009721595684567454
-0.08425231597385004   0.0021417444887123945   0.0009721595684567454
-0.06328075714015723   0.008015893602787413   0.0032079202231809897
-0.06328075714015723   0.008015893602787413   0.0032079202231809897
-0.06328075714015723   0.008015893602787413   0.0032079202231809897
-0.06328075714015723   0.008015893602787413   0.0032079202231809897
-0.108385275826119   -0.006319651648848387   -0.0038518804226384453
-0.108385275826119   -0.006319651648848387   -0.0038518804226384453
-0.108385275826119   -0.006319651648848387   -0.0038518804226384453
-0.108385275826119   -0.006319651648848387   -0.0038518804226384453
-0.10879507866354753   -0.0034138571543356824   0.0016286786590628266
-0.10879507866354753   -0.0034138571543356824   0.0016286786590628266
-0.10879507866354753   -0.0034138571543356824   0.0016286786590628266
-0.10879507866354753   -0.0034138571543356824   0.0016286786590628266
-0.06723719812422263   0.0004227024718413651   -0.0006655398612041112
-0.06723719812422263   0.0004227024718413651   -0.0006655398612041112
-0.06723719812422263   0.0004227024718413651   -0.0006655398612041112
-0.06723719812422263   0.0004227024718413651   -0.0006655398612041112
-0.08600317503738732   -3.322918960078913e-05   -0.00014249075354445025
-0.08600317503738732   -3.322918960078913e-05   -0.00014249075354445025
-0.08600317503738732   -3.322918960078913e-05   -0.00014249075354445025
-0.08600317503738732   -3.322918960078913e-05   -0.00014249075354445025
-0.06527148860743245   0.005735222636660403   0.003850487557928186
-0.06527148860743245   0.005735222636660403   0.003850487557928186
-0.06527148860743245   0.005735222636660403   0.003850487557928186
-0.06527148860743245   0.005735222636660403   0.003850487557928186
-0.11087635755141752   -0.008841946690234623   -0.003349626244389156
-0.11087635755141752   -0.008841946690234623   -0.003349626244389156
-0.11087635755141752   -0.008841946690234623   -0.003349626244389156
-0.11087635755141752   -0.008841946690234623   -0.003349626244389156
-0.11093948056431777   -0.006001347219859492   0.002298731468701438
-0.11093948056431777   -0.006001347219859492   0.002298731468701438
-0.11093948056431777   -0.006001347219859492   0.002298731468701438
-0.11093948056431777   -0.006001347219859492   0.002298731468701438
-0.06930857799201959   -0.0022141628752015315   -0.00022361859635987476
-0.06930857799201959   -0.0022141628752015315   -0.00022361859635987476
-0.06930857799201959   -0.0022141628752015315   -0.00022361859635987476
-0.06930857799201959   -0.0022141628752015315   -0.00022361859635987476
-0.08873644395838205   -0.0024765905998346757   -0.0013858416877340777
-0.08873644395838205   -0.0024765905998346757   -0.0013858416877340777
-0.08873644395838205   -0.0024765905998346757   -0.0013858416877340777
-0.08873644395838205   -0.0024765905998346757   -0.0013858416877340777
-0.10161381079040868   0.010294036676631698   0.00447963898425207
-0.10161381079040868   0.010294036676631698   0.00447963898425207
-0.10161381079040868   0.010294036676631698   0.00447963898425207
-0.10161381079040868   0.010294036676631698   0.00447963898425207
-0.14503009010876355   -0.006896100594820674   -0.005926303868727905
-0.14503009010876355   -0.006896100594820674   -0.005926303868727905
-0.14503009010876355   -0.006896100594820674   -0.005926303868727905
-0.14503009010876355   -0.006896100594820674   -0.005926303868727905
-0.14596935280488105   0.0008997518582310945   0.004695045217460768
-0.14596935280488105   0.0008997518582310945   0.004695045217460768
-0.14596935280488105   0.0008997518582310945   0.004695045217460768
-0.14596935280488105   0.0008997518582310945   0.004695045217460768
-0.10705137965963205   5.975532201639433e-05   -0.0035618065610693635
-0.10705137965963205   5.975532201639433e-05   -0.0035618065610693635
-0.10705137965963205   5.975532201639433e-05   -0.0035618065610693635
-0.10705137965963205   5.975532201639433e-05   -0.0035618065610693635
-0.11946725372634115   0.0022423870323023225   0.003064174069332716
-0.11946725372634115   0.0022423870323023225   0.003064174069332716
-0.11946725372634115   0.0022423870323023225   0.003064174069332716
-0.11946725372634115   0.0022423870323023225   0.003064174069332716
-0.10338299956914754   0.009538319420466283   0.005301529792903216
-0.10338299956914754   0.009538319420466283   0.005301529792903216
-0.10338299956914754   0.009538319420466283   0.005301529792903216
-0.10338299956914754   0.009538319420466283   0.005301529792903216
-0.14983641881438658   -0.008777498159239037   -0.004963034812595802
-0.14983641881438658   -0.008777498159239037   -0.004963034812595802
-0.14983641881438658   -0.008777498159239037   -0.004963034812595802
-0.14983641881438658   -0.008777498159239037   -0.004963034812595802
-0.14992053675999958   -0.0004988617262941808   0.005966196516866312
-0.14992053675999958   -0.0004988617262941808   0.005966196516866312
-0.14992053675999958   -0.0004988617262941808   0.005966196516866312
-0.14992053675999958   -0.0004988617262941808   0.005966196516866312
-0.10930248544184093   -0.0012923503089405097   -0.003029862077801283
-0.10930248544184093   -0.0012923503089405097   -0.003029862077801283
-0.10930248544184093   -0.0012923503089405097   -0.003029862077801283
-0.10930248544184093   -0.0012923503089405097   -0.003029862077801283
-0.12469579220397546   0.0006145640125338366   0.001335267115614257
-0.12469579220397546   0.0006145640125338366   0.001335267115614257
-0.12469579220397546   0.0006145640125338366   0.001335267115614257
-0.12469579220397546   0.0006145640125338366   0.001335267115614257
-0.10549257458613959   0.008449133152880803   0.006278208738885082
-0.10549257458613959   0.008449133152880803   0.006278208738885082
-0.10549257458613959   0.008449133152880803   0.006278208738885082
-0.10549257458613959   0.008449133152880803   0.006278208738885082
-0.15391095336894717   -0.010420850941361425   -0.004063897312803468
-0.15391095336894717   -0.010420850941361425   -0.004063897312803468
-0.15391095336894717   -0.010420850941361425   -0.004063897312803468
-0.15391095336894717   -0.010420850941361425   -0.004063897312803468
-0.1553477201849011   -0.004584011192288826   0.00610554441771276
-0.1553477201849011   -0.004584011192288826   0.00610554441771276
-0.1553477201849011   -0.004584011192288826   0.00610554441771276
-0.1553477201849011   -0.004584011192288826   0.00610554441771276
-0.11163830891762921   -0.004552608615110584   -0.002644148902606688
-0.11163830891762921   -0.004552608615110584   -0.002644148902606688
-0.11163830891762921   -0.004552608615110584   -0.002644148902606688
-0.11163830891762921   -0.004552608615110584   -0.002644148902606688
-0.12613331751996584   -0.0011728030148465858   0.0003653782910975562
-0.12613331751996584   -0.0011728030148465858   0.0003653782910975562
-0.12613331751996584   -0.0011728030148465858   0.0003653782910975562
-0.12613331751996584   -0.0011728030148465858   0.0003653782910975562
0.019862566998756413   0.0016112548668847215   -0.006844888707402512
0.019862566998756413   0.0016112548668847215   -0.006844888707402512
0.019862566998756413   0.0016112548668847215   -0.006844888707402512
0.019862566998756413   0.0016112548668847215   -0.006844888707402512
-0.006355740041818358   0.004936059559143067   0.00338202857351281
-0.006355740041818358   0.004936059559143067   0.00338202857351281
-0.006355740041818358   0.004936059559143067   0.00338202857351281
-0.006355740041818358   0.004936059559143067   0.00338202857351281
-0.011946517919508515   -0.006831496342149104   -0.005575727024108851
-0.011946517919508515   -0.006831496342149104   -0.005575727024108851
-0.011946517919508515   -0.006831496342149104   -0.005575727024108851
-0.011946517919508515   -0.006831496342149104   -0.005575727024108851
0.019016951713183062   0.007965383878317153   0.0040865692756038635
0.019016951713183062   0.007965383878317153   0.0040865692756038635
0.019016951713183062   0.007965383878317153   0.0040865692756038635
0.019016951713183062   0.007965383878317153   0.0040865692756038635
0.004573834355381592   0.0017603340070717478   0.0005479491764063011
0.004573834355381592   0.0017603340070717478   0.0005479491764063011
0.004573834355381592   0.0017603340070717478   0.0005479491764063011
0.004573834355381592   0.0017603340070717478   0.0005479491764063011
0.015056206971661688   -0.0015551333915253887   -0.0061966371621604765
0.015056206971661688   -0.0015551333915253887   -0.0061966371621604765
0.015056206971661688   -0.0015551333915253887   -0.0061966371621604765
0.015056206971661688   -0.0015551333915253887   -0.0061966371621604765
-0.008203204358575073   0.002471589747105505   0.0038377546913037587
-0.008203204358575073   0.002471589747105505   0.0038377546913037587
-0.008203204358575073   0.002471589747105505   0.0038377546913037587
-0.008203204358575073   0.002471589747105505   0.0038377546913037587
-0.013827741504942186   -0.007998150616877565   -0.004786271562807361
-0.013827741504942186   -0.007998150616877565   -0.004786271562807361
-0.013827741504942186   -0.007998150616877565   -0.004786271562807361
-0.013827741504942186   -0.007998150616877565   -0.004786271562807361
0.015238274212858123   0.0064075859520019065   0.0056789480284593
0.015238274212858123   0.0064075859520019065   0.0056789480284593
0.015238274212858123   0.0064075859520019065   0.0056789480284593
0.015238274212858123   0.0064075859520019065   0.0056789480284593
0.0017240656428730333   2.600052135439773e-06   -0.0007649274821409602
0.0017240656428730333   2.600052135439773e-06   -0.0007649274821409602
0.0017240656428730333   2.600052135439773e-06   -0.0007649274821409602
0.0017240656428730333   2.600052135439773e-06   -0.0007649274821409602
0.011165910165790075   -0.0030810193509545397   -0.005194266903924491
0.011165910165790075   -0.0030810193509545397   -0.005194266903924491
0.011165910165790075   -0.0030810193509545397   -0.005194266903924491
0.011165910165790075   -0.0030810193509545397   -0.005194266903924491
-0.010064791456278803   0.0011810406876741962   0.004849287375957671
-0.010064791456278803   0.0011810406876741962   0.004849287375957671
-0.010064791456278803   0.0011810406876741962   0.004849287375957671
-0.010064791456278803   0.0011810406876741962   0.004849287375957671
-0.01554613945303901   -0.009655216109038998   -0.0040071710864053416
-0.01554613945303901   -0.009655216109038998   -0.0040071710864053416
-0.01554613945303901   -0.009655216109038998   -0.0040071710864053416
-0.01554613945303901   -0.009655216109038998   -0.0040071710864053416
0.009986169602441267   0.0032336598009438194   0.006543480115964336
0.009986169602441267   0.0032336598009438194   0.006543480115964336
0.009986169602441267   0.0032336598009438194   0.006543480115964336
0.009986169602441267   0.0032336598009438194   0.006543480115964336
-0.0016322924259101904   -0.0017094368511976043   -0.002335551673692664
-0.0016322924259101904   -0.0017094368511976043   -0.002335551673692664
-0.0016322924259101904   -0.0017094368511976043   -0.002335551673692664
-0.0016322924259101904   -0.0017094368511976043   -0.002335551673692664
-0.007727716521974729   0.0040198943400385715   -0.002561688608164558
-0.007727716521974729   0.0040198943400385715   -0.002561688608164558
-0.007727716521974729   0.0040198943400385715   -0.002561688608164558
-0.007727716521974729   0.0040198943400385715   -0.002561688608164558
-0.031633584968236754   0.0013595638639064865   0.0008177667647135908
-0.031633584968236754   0.0013595638639064865   0.0008177667647135908
-0.031633584968236754   0.0013595638639064865   0.0008177667647135908
-0.031633584968236754   0.0013595638639064865   0.0008177667647135908
-0.0345928419488823   -0.003994354141686024   -0.002964641240978875
-0.0345928419488823   -0.003994354141686024   -0.002964641240978875
-0.0345928419488823   -0.003994354141686024   -0.002964641240978875
-0.0345928419488823   -0.003994354141686024   -0.002964641240978875
-0.008074510150572145   0.004084794032075386   0.0028680214463485164
-0.008074510150572145   0.004084794032075386   0.0028680214463485164
-0.008074510150572145   0.004084794032075386   0.0028680214463485164
-0.008074510150572145   0.004084794032075386   0.0028680214463485164
-0.02049332885169401   0.001284393691379046   0.0007351292059984073
-0.02049332885169401   0.001284393691379046   0.0007351292059984073
-0.02049332885169401   0.001284393691379046   0.0007351292059984073
-0.02049332885169401   0.001284393691379046   0.0007351292059984073
-0.009656734340884687   0.0011617787779012573   -0.002120084251040073
-0.009656734340884687   0.0011617787779012573   -0.002120084251040073
-0.009656734340884687   0.0011617787779012573   -0.002120084251040073
-0.009656734340884687   0.0011617787779012573   -0.002120084251040073
-0.0332007230663102   -0.0012614441952524336   0.0012630432254474775
-0.0332007230663102   -0.0012614441952524336   0.0012630432254474775
-0.0332007230663102   -0.0012614441952524336   0.0012630432254474775
-0.0332007230663102   -0.0012614441952524336   0.0012630432254474775
-0.03607489272141025   -0.006258925178676887   -0.0022424942091168135
-0.03607489272141025   -0.006258925178676887   -0.0022424942091168135
-0.03607489272141025   -0.006258925178676887   -0.0022424942091168135
-0.03607489272141025   -0.006258925178676887   -0.0022424942091168135
-0.010308615799943601   0.0015740432430824374   0.0032371631022254394
-0.010308615799943601   0.0015740432430824374   0.0032371631022254394
-0.010308615799943601   0.0015740432430824374   0.0032371631022254394
-0.010308615799943601   0.0015740432430824374   0.0032371631022254394
-0.022361440866257694   -0.001032245573173226   -0.000444010603757816
-0.022361440866257694   -0.001032245573173226   -0.000444010603757816
-0.022361440866257694   -0.001032245573173226   -0.000444010603757816
-0.022361440866257694   -0.001032245573173226   -0.000444010603757816
-0.0118460489007172   -0.0012832078370224468   -0.0015927513215376694
-0.0118460489007172   -0.0012832078370224468   -0.0015927513215376694
-0.0118460489007172   -0.0012832078370224468   -0.0015927513215376694
-0.0118460489007172   -0.0012832078370224468   -0.0015927513215376694
-0.034744056035258694   -0.003608270513194121   0.0017610345561577404
-0.034744056035258694   -0.003608270513194121   0.0017610345561577404
-0.034744056035258694   -0.003608270513194121   0.0017610345561577404
-0.034744056035258694   -0.003608270513194121   0.0017610345561577404
-0.03756660983020284   -0.008518574366196529   -0.0016065165198172265
-0.03756660983020284   -0.008518574366196529   -0.0016065165198172265
-0.03756660983020284   -0.008518574366196529   -0.0016065165198172265
-0.03756660983020284   -0.008518574366196529   -0.0016065165198172265
-0.012188084876749028   -0.0008837790569362145   0.004011664742941544
-0.012188084876749028   -0.0008837790569362145   0.004011664742941544
-0.012188084876749028   -0.0008837790569362145   0.004011664742941544
-0.012188084876749028   -0.0008837790569362145   0.004011664742941544
-0.024178314526363997   -0.003237352138239909   -0.0016202801951122469
-0.024178314526363997   -0.003237352138239909   -0.0016202801951122469
-0.024178314526363997   -0.003237352138239909   -0.0016202801951122469
-0.024178314526363997   -0.003237352138239909   -0.0016202801951122469
-0.03094287131894505   0.005888895968110697   -0.00025799709303208143
-0.03094287131894505   0.005888895968110697   -0.00025799709303208143
-0.03094287131894505   0.005888895968110697   -0.00025799709303208143
-0.03094287131894505   0.005888895968110697   -0.00025799709303208143
-0.05637915993405822   -0.00210088713047921   -0.0016957689698236921
-0.05637915993405822   -0.00210088713047921   -0.0016957689698236921
-0.05637915993405822   -0.00210088713047921   -0.0016957689698236921
-0.05637915993405822   -0.00210088713047921   -0.0016957689698236921
-0.057035883132692033   -0.0016754343448482367   -0.00047689175224326
-0.057035883132692033   -0.0016754343448482367   -0.00047689175224326
-0.057035883132692033   -0.0016754343448482367   -0.00047689175224326
-0.057035883132692033   -0.0016754343448482367   -0.00047689175224326
-0.0329387111175615   0.0008556916765593602   0.00045596709737921693
-0.0329387111175615   0.0008556916765593602   0.00045596709737921693
-0.0329387111175615   0.0008556916765593602   0.00045596709737921693
-0.0329387111175615   0.0008556916765593602   0.00045596709737921693
-0.04422026566111562   0.0006811638192343109   0.0003423163291771483
-0.04422026566111562   0.0006811638192343109   0.0003423163291771483
-0.04422026566111562   0.0006811638192343109   0.0003423163291771483
-0.04422026566111562   0.0006811638192343109   0.0003423163291771483
-0.03243132819065506   0.0034254747297510005   0.0004230986787197794
-0.03243132819065506   0.0034254747297510005   0.0004230986787197794
-0.03243132819065506   0.0034254747297510005   0.0004230986787197794
-0.03243132819065506   0.0034254747297510005   0.0004230986787197794
-0.05773024520178915   -0.004432196540231182   -0.0011919399023458447
-0.05773024520178915   -0.004432196540231182   -0.0011919399023458447
-0.05773024520178915   -0.004432196540231182   -0.0011919399023458447
-0.05773024520178915   -0.004432196540231182   -0.0011919399023458447
-0.058435401264134657   -0.0041107648233727236   0.00018812605177068956
-0.058435401264134657   -0.0041107648233727236   0.00018812605177068956
-0.058435401264134657   -0.0041107648233727236   0.00018812605177068956
-0.058435401264134657   -0.0041107648233727236   0.00018812605177068956
-0.03449493101183561   -0.0015484177627615317   0.0009468069228405769
-0.03449493101183561   -0.0015484177627615317   0.0009468069228405769
-0.03449493101183561   -0.0015484177627615317   0.0009468069228405769
-0.03449493101183561   -0.0015484177627615317   0.0009468069228405769
-0.04572332531973732   -0.0015345798480953313   -0.0007380067919559568
-0.04572332531973732   -0.0015345798480953313   -0.0007380067919559568
-0.04572332531973732   -0.0015345798480953313   -0.0007380067919559568
-0.04572332531973732   -0.0015345798480953313   -0.0007380067919559568
-0.03398589578801193   0.0009418534311143138   0.0010017118480831503
-0.03398589578801193   0.0009418534311143138   0.0010017118480831503
-0.03398589578801193   0.0009418534311143138   0.0010017118480831503
-0.03398589578801193   0.0009418534311143138   0.0010017118480831503
-0.059171301649419784   -0.006827901178710014   -0.0007742395193176589
-0.059171301649419784   -0.006827901178710014   -0.0007742395193176589
-0.059171301649419784   -0.006827901178710014   -0.0007742395193176589
-0.059171301649419784   -0.006827901178710014   -0.0007742395193176589
-0.059793855283193725   -0.006428682077018601   0.0008364221050419316
-0.059793855283193725   -0.006428682077018601   0.0008364221050419316
-0.059793855283193725   -0.006428682077018601   0.0008364221050419316
-0.059793855283193725   -0.006428682077018601   0.0008364221050419316
-0.03600591052100135   -0.0037932600847119394   0.001471665744705646
-0.03600591052100135   -0.0037932600847119394   0.001471665744705646
-0.03600591052100135   -0.0037932600847119394   0.001471665744705646
-0.03600591052100135   -0.0037932600847119394   0.001471665744705646
-0.047340372800372614   -0.0037545125773238075   -0.0019137601245593292
-0.047340372800372614   -0.0037545125773238075   -0.0019137601245593292
-0.047340372800372614   -0.0037545125773238075   -0.0019137601245593292
-0.047340372800372614   -0.0037545125773238075   -0.0019137601245593292
-0.05355322080075406   0.008148593319254034   0.002184446246964813
-0.05355322080075406   0.008148593319254034   0.002184446246964813
-0.05355322080075406   0.008148593319254034   0.002184446246964813
-0.05355322080075406   0.008148593319254034   0.002184446246964813
-0.08045859157657173   -0.0036573351283324014   -0.003736661905821806
-0.08045859157657173   -0.0036573351283324014   -0.003736661905821806
-0.08045859157657173   -0.0036573351283324014   -0.003736661905821806
-0.08045859157657173   -0.0036573351283324014   -0.003736661905821806
-0.07953451744611599   0.0006320823699229455   0.002056031291215227
-0.07953451744611599   0.0006320823699229455   0.002056031291215227
-0.07953451744611599   0.0006320823699229455   0.002056031291215227
-0.07953451744611599   0.0006320823699229455   0.002056031291215227
-0.057085272529579296   -0.0008187158489131197   -0.0015805572326146665
-0.057085272529579296   -0.0008187158489131197   -0.0015805572326146665
-0.057085272529579296   -0.0008187158489131197   -0.0015805572326146665
-0.057085272529579296   -0.0008187158489131197   -0.0015805572326146665
-0.06737406639440063   0.0010664265461478445   0.0004334830692816691
-0.06737406639440063   0.0010664265461478445   0.0004334830692816691
-0.06737406639440063   0.0010664265461478445   0.0004334830692816691
-0.06737406639440063   0.0010664265461478445   0.0004334830692816691
-0.054887925773033246   0.00572307215544746   0.002864388545755034
-0.054887925773033246   0.00572307215544746   0.002864388545755034
-0.054887925773033246   0.00572307215544746   0.002864388545755034
-0.054887925773033246   0.00572307215544746   0.002864388545755034
-0.08200635972792676   -0.006184201159702656   -0.0034868965882148893
-0.08200635972792676   -0.006184201159702656   -0.0034868965882148893
-0.08200635972792676   -0.006184201159702656   -0.0034868965882148893
-0.08200635972792676   -0.006184201159702656   -0.0034868965882148893
-0.08139130402173589   -0.00178421029356054   0.002454002209295794
-0.08139130402173589   -0.00178421029356054   0.002454002209295794
-0.08139130402173589   -0.00178421029356054   0.002454002209295794
-0.08139130402173589   -0.00178421029356054   0.002454002209295794
-0.058470896121193966   -0.0030387352322649823   -0.001061377824633592
-0.058470896121193966   -0.0030387352322649823   -0.001061377824633592
-0.058470896121193966   -0.0030387352322649823   -0.001061377824633592
-0.058470896121193966   -0.0030387352322649823   -0.001061377824633592
-0.06862316522729213   -0.0010618802422523912   -0.0007360900004538692
-0.06862316522729213   -0.0010618802422523912   -0.0007360900004538692
-0.06862316522729213   -0.0010618802422523912   -0.0007360900004538692
-0.06862316522729213   -0.0010618802422523912   -0.0007360900004538692
-0.05625536510923476   0.0034564045397158863   0.003521137463180623
-0.05625536510923476   0.0034564045397158863   0.003521137463180623
-0.05625536510923476   0.0034564045397158863   0.003521137463180623
-0.05625536510923476   0.0034564045397158863   0.003521137463180623
-0.08382365475572165   -0.008496169787568288   -0.0029957919666262676
-0.08382365475572165   -0.008496169787568288   -0.0029957919666262676
-0.08382365475572165   -0.008496169787568288   -0.0029957919666262676
-0.08382365475572165   -0.008496169787568288   -0.0029957919666262676
-0.08289498172414476   -0.004253866927637625   0.0031642648735848208
-0.08289498172414476   -0.004253866927637625   0.0031642648735848208
-0.08289498172414476   -0.004253866927637625   0.0031642648735848208
-0.08289498172414476   -0.004253866927637625   0.0031642648735848208
-0.05986806496116684   -0.005346080346597635   -0.0006172280152446075
-0.05986806496116684   -0.005346080346597635   -0.0006172280152446075
-0.05986806496116684   -0.005346080346597635   -0.0006172280152446075
-0.05986806496116684   -0.005346080346597635   -0.0006172280152446075
-0.07054764010331088   -0.003289460985822572   -0.0019567766240202113
-0.07054764010331088   -0.003289460985822572   -0.0019567766240202113
-0.07054764010331088   -0.003289460985822572   -0.0019567766240202113
-0.07054764010331088   -0.003289460985822572   -0.0019567766240202113
-0.07632985338106427   0.008899288594285116   0.00435040534909796
-0.07632985338106427   0.008899288594285116   0.00435040534909796
-0.07632985338106427   0.008899288594285116   0.00435040534909796
-0.07632985338106427   0.008899288594285116   0.00435040534909796
-0.10103450103242353   -0.005272828056817353   -0.005972112918857427
-0.10103450103242353   -0.005272828056817353   -0.005972112918857427
-0.10103450103242353   -0.005272828056817353   -0.005972112918857427
-0.10103450103242353   -0.005272828056817353   -0.005972112918857427
-0.10120195736450313   0.002901780888618439   0.004798898976811959
-0.10120195736450313   0.002901780888618439   0.004798898976811959
-0.10120195736450313   0.002901780888618439   0.004798898976811959
-0.10120195736450313   0.002901780888618439   0.004798898976811959
-0.08127052461295647   -0.0023536172380273918   -0.0036383049350377774
-0.08127052461295647   -0.0023536172380273918   -0.0036383049350377774
-0.08127052461295647   -0.0023536172380273918   -0.0036383049350377774
-0.08127052461295647   -0.0023536172380273918   -0.0036383049350377774
-0.08622682275480505   0.0018920759528344606   0.0018799072051180832
-0.08622682275480505   0.0018920759528344606   0.0018799072051180832
-0.08622682275480505   0.0018920759528344606   0.0018799072051180832
-0.08622682275480505   0.0018920759528344606   0.0018799072051180832
-0.07750473974301682   0.007707370877400428   0.005129631299231756
-0.07750473974301682   0.007707370877400428   0.005129631299231756
-0.07750473974301682   0.007707370877400428   0.005129631299231756
-0.07750473974301682   0.007707370877400428   0.005129631299231756
-0.10526111419345352   -0.007452579185819635   -0.005142525093501952
-0.10526111419345352   -0.007452579185819635   -0.005142525093501952
-0.10526111419345352   -0.007452579185819635   -0.005142525093501952
-0.10526111419345352   -0.007452579185819635   -0.005142525093501952
-0.10456984885355078   0.0014888595693358132   0.006143550725286328
-0.10456984885355078   0.0014888595693358132   0.006143550725286328
-0.10456984885355078   0.0014888595693358132   0.006143550725286328
-0.10456984885355078   0.0014888595693358132   0.006143550725286328
-0.08288315397554932   -0.0036367022062783697   -0.003152755647054571
-0.08288315397554932   -0.0036367022062783697   -0.003152755647054571
-0.08288315397554932   -0.0036367022062783697   -0.003152755647054571
-0.08288315397554932   -0.0036367022062783697   -0.003152755647054571
-0.09032803378679738   0.00020061058155958905   0.00019330239824455302
-0.09032803378679738   0.00020061058155958905   0.00019330239824455302
-0.09032803378679738   0.00020061058155958905   0.00019330239824455302
-0.09032803378679738   0.00020061058155958905   0.00019330239824455302
-0.07898135995016693   0.006601458049725929   0.006118054223853072
-0.07898135995016693   0.006601458049725929   0.006118054223853072
-0.07898135995016693   0.006601458049725929   0.006118054223853072
-0.07898135995016693   0.006601458049725929   0.006118054223853072
-0.10875984990445835   -0.009037507712193664   -0.00428008724772202
-0.10875984990445835   -0.009037507712193664   -0.00428008724772202
-0.10875984990445835   -0.009037507712193664   -0.00428008724772202
-0.10875984990445835   -0.009037507712193664   -0.00428008724772202
-0.10944063678875751   -0.002293101219284964   0.006455715947649701
-0.10944063678875751   -0.002293101219284964   0.006455715947649701
-0.10944063678875751   -0.002293101219284964   0.006455715947649701
-0.10944063678875751   -0.002293101219284964   0.006455715947649701
-0.08450909986793004   -0.0064387881178548725   -0.0027214046551252476
-0.08450909986793004   -0.0064387881178548725   -0.0027214046551252476
-0.08450909986793004   -0.0064387881178548725   -0.0027214046551252476
-0.08450909986793004   -0.0064387881178548725   -0.0027214046551252476
-0.0917600271030318   -0.0015211075783633926   -0.0009562125429322318
-0.0917600271030318   -0.0015211075783633926   -0.0009562125429322318
-0.0917600271030318   -0.0015211075783633926   -0.0009562125429322318
-0.0917600271030318   -0.0015211075783633926   -0.0009562125429322318
-0.029064547870057703   -0.0017777804214051118   -0.007478363500988742
-0.029064547870057703   -0.0017777804214051118   -0.007478363500988742
-0.029064547870057703   -0.0017777804214051118   -0.007478363500988742
-0.029064547870057703   -0.0017777804214051118   -0.007478363500988742
-0.03379809019958996   0.005394210798832823   0.0032824243925618926
-0.03379809019958996   0.005394210798832823   0.0032824243925618926
-0.03379809019958996   0.005394210798832823   0.0032824243925618926
-0.03379809019958996   0.005394210798832823   0.0032824243925618926
-0.03887215321335088   -0.0054702543298279895   -0.005202516838587905
-0.03887215321335088   -0.0054702543298279895   -0.005202516838587905
-0.03887215321335088   -0.0054702543298279895   -0.005202516838587905
-0.03887215321335088   -0.0054702543298279895   -0.005202516838587905
-0.030025773271779303   0.0037098701296746353   0.004710358338514157
-0.030025773271779303   0.0037098701296746353   0.004710358338514157
-0.030025773271779303   0.0037098701296746353   0.004710358338514157
-0.030025773271779303   0.0037098701296746353   0.004710358338514157
-0.031261877086076126   0.0011208348987998109   0.0033541947756295072
-0.031261877086076126   0.0011208348987998109   0.0033541947756295072
-0.031261877086076126   0.0011208348987998109   0.0033541947756295072
-0.031261877086076126   0.0011208348987998109   0.0033541947756295072
-0.03392911671822817   -0.00471703451324743   -0.006379454250807826
-0.03392911671822817   -0.00471703451324743   -0.006379454250807826
-0.03392911671822817   -0.00471703451324743   -0.006379454250807826
-0.03392911671822817   -0.00471703451324743   -0.006379454250807826
-0.0353992247981031   0.002526235281893035   0.004165635625929955
-0.0353992247981031   0.002526235281893035   0.004165635625929955
-0.0353992247981031   0.002526235281893035   0.004165635625929955
-0.0353992247981031   0.002526235281893035   0.004165635625929955
-0.04054143918079422   -0.006780196225971518   -0.004480249467755475
-0.04054143918079422   -0.006780196225971518   -0.004480249467755475
-0.04054143918079422   -0.006780196225971518   -0.004480249467755475
-0.04054143918079422   -0.006780196225971518   -0.004480249467755475
-0.03395332675916941   0.0019820536766027522   0.009001935692696025
-0.03395332675916941   0.0019820536766027522   0.009001935692696025
-0.03395332675916941   0.0019820536766027522   0.009001935692696025
-0.03395332675916941   0.0019820536766027522   0.009001935692696025
-0.03473454261553316   -0.0011070486757628348   0.001439337898663742
-0.03473454261553316   -0.0011070486757628348   0.001439337898663742
-0.03473454261553316   -0.0011070486757628348   0.001439337898663742
-0.03473454261553316   -0.0011070486757628348   0.001439337898663742
-0.03846578966474732   -0.006487234550773645   -0.005091090607816864
-0.03846578966474732   -0.006487234550773645   -0.005091090607816864
-0.03846578966474732   -0.006487234550773645   -0.005091090607816864
-0.03846578966474732   -0.006487234550773645   -0.005091090607816864
-0.03712633598588166   0.000591732290740222   0.0052233379900956224
-0.03712633598588166   0.000591732290740222   0.0052233379900956224
-0.03712633598588166   0.000591732290740222   0.0052233379900956224
-0.03712633598588166   0.000591732290740222   0.0052233379900956224
-0.04193763842864589   -0.009179266520495654   -0.003597343460149705
-0.04193763842864589   -0.009179266520495654   -0.003597343460149705
-0.04193763842864589   -0.009179266520495654   -0.003597343460149705
-0.04193763842864589   -0.009179266520495654   -0.003597343460149705
-0.039990003381805105   -0.0037320675054346394   0.008383094523611174
-0.039990003381805105   -0.0037320675054346394   0.008383094523611174
-0.039990003381805105   -0.0037320675054346394   0.008383094523611174
-0.039990003381805105   -0.0037320675054346394   0.008383094523611174
-0.03805586377703873   -0.0037110559698744043   -0.0017209752716576036
-0.03805586377703873   -0.0037110559698744043   -0.0017209752716576036
-0.03805586377703873   -0.0037110559698744043   -0.0017209752716576036
-0.03805586377703873   -0.0037110559698744043   -0.0017209752716576036
-0.03637360466022684   -0.0004934840414934898   -0.0037074530702961984
-0.03637360466022684   -0.0004934840414934898   -0.0037074530702961984
-0.03637360466022684   -0.0004934840414934898   -0.0037074530702961984
-0.03637360466022684   -0.0004934840414934898   -0.0037074530702961984
-0.040626852009063026   -0.005143858488704219   -0.00023980834092823626
-0.040626852009063026   -0.005143858488704219   -0.00023980834092823626
-0.040626852009063026   -0.005143858488704219   -0.00023980834092823626
-0.040626852009063026   -0.005143858488704219   -0.00023980834092823626
-0.041198548352085536   -0.00352817253590051   -0.002072773192017565
-0.041198548352085536   -0.00352817253590051   -0.002072773192017565
-0.041198548352085536   -0.00352817253590051   -0.002072773192017565
-0.041198548352085536   -0.00352817253590051   -0.002072773192017565
-0.03797069815228151   -0.00627879708777173   0.0001133012247026727
-0.03797069815228151   -0.00627879708777173   0.0001133012247026727
-0.03797069815228151   -0.00627879708777173   0.0001133012247026727
-0.03797069815228151   -0.00627879708777173   0.0001133012247026727
-0.03872405946163786   -0.004036456190876882   9.645629891827964e-05
-0.03872405946163786   -0.004036456190876882   9.645629891827964e-05
-0.03872405946163786   -0.004036456190876882   9.645629891827964e-05
-0.03872405946163786   -0.004036456190876882   9.645629891827964e-05
-0.03801117403670922   -0.003124765076219339   -0.003243110208988028
-0.03801117403670922   -0.003124765076219339   -0.003243110208988028
-0.03801117403670922   -0.003124765076219339   -0.003243110208988028
-0.03801117403670922   -0.003124765076219339   -0.003243110208988028
-0.041420042431886565   -0.00694417451168159   0.0002357583847584203
-0.041420042431886565   -0.00694417451168159   0.0002357583847584203
-0.041420042431886565   -0.00694417451168159   0.0002357583847584203
-0.041420042431886565   -0.00694417451168159   0.0002357583847584203
-0.042129446707539424   -0.005720456345449362   -0.0014145039328377395
-0.042129446707539424   -0.005720456345449362   -0.0014145039328377395
-0.042129446707539424   -0.005720456345449362   -0.0014145039328377395
-0.042129446707539424   -0.005720456345449362   -0.0014145039328377395
-0.03972036544914069   -0.008292697895669297   0.0011376208602099707
-0.03972036544914069   -0.008292697895669297   0.0011376208602099707
-0.03972036544914069   -0.008292697895669297   0.0011376208602099707
-0.03972036544914069   -0.008292697895669297   0.0011376208602099707
-0.039915454459714075   -0.005849885433826417   -0.0009760544848985106
-0.039915454459714075   -0.005849885433826417   -0.0009760544848985106
-0.039915454459714075   -0.005849885433826417   -0.0009760544848985106
-0.039915454459714075   -0.005849885433826417   -0.0009760544848985106
-0.03987306357108052   -0.005474993717184134   -0.0024435739279743385
-0.03987306357108052   -0.005474993717184134   -0.0024435739279743385
-0.03987306357108052   -0.005474993717184134   -0.0024435739279743385
-0.03987306357108052   -0.005474993717184134   -0.0024435739279743385
-0.042308209733975664   -0.008869621672310035   0.0008408462618412537
-0.042308209733975664   -0.008869621672310035   0.0008408462618412537
-0.042308209733975664   -0.008869621672310035   0.0008408462618412537
-0.042308209733975664   -0.008869621672310035   0.0008408462618412537
-0.04299918849455075   -0.008002083641351283   -0.0007687545613320769
-0.04299918849455075   -0.008002083641351283   -0.0007687545613320769
-0.04299918849455075   -0.008002083641351283   -0.0007687545613320769
-0.04299918849455075   -0.008002083641351283   -0.0007687545613320769
-0.0410949109317554   -0.010728540865805084   0.002165568369611812
-0.0410949109317554   -0.010728540865805084   0.002165568369611812
-0.0410949109317554   -0.010728540865805084   0.002165568369611812
-0.0410949109317554   -0.010728540865805084   0.002165568369611812
-0.0414227381132375   -0.00792527998012577   -0.002289220191940548
-0.0414227381132375   -0.00792527998012577   -0.002289220191940548
-0.0414227381132375   -0.00792527998012577   -0.002289220191940548
-0.0414227381132375   -0.00792527998012577   -0.002289220191940548
-0.03939272359351936   0.001494124151008809   -0.0007071489029224533
-0.03939272359351936   0.001494124151008809   -0.0007071489029224533
-0.03939272359351936   0.001494124151008809   -0.0007071489029224533
-0.03939272359351936   0.001494124151008809   -0.0007071489029224533
-0.04773693171577558   -0.009102706562936578   -0.002372142095168455
-0.04773693171577558   -0.009102706562936578   -0.002372142095168455
-0.04773693171577558   -0.009102706562936578   -0.002372142095168455
-0.04773693171577558   -0.009102706562936578   -0.002372142095168455
-0.04603991428467789   -0.0017680113115730329   0.00043865532383363355
-0.04603991428467789   -0.0017680113115730329   0.00043865532383363355
-0.04603991428467789   -0.0017680113115730329   0.00043865532383363355
-0.04603991428467789   -0.0017680113115730329   0.00043865532383363355
-0.04218256407267312   -0.009165704395788826   -0.001355319935067158
-0.04218256407267312   -0.009165704395788826   -0.001355319935067158
-0.04218256407267312   -0.009165704395788826   -0.001355319935067158
-0.04218256407267312   -0.009165704395788826   -0.001355319935067158
-0.04380522938278914   -0.004792001003333725   -0.0008511120968241433
-0.04380522938278914   -0.004792001003333725   -0.0008511120968241433
-0.04380522938278914   -0.004792001003333725   -0.0008511120968241433
-0.04380522938278914   -0.004792001003333725   -0.0008511120968241433
-0.04022381101879219   -0.0006983112795440668   -2.8947781907232625e-05
-0.04022381101879219   -0.0006983112795440668   -2.8947781907232625e-05
-0.04022381101879219   -0.0006983112795440668   -2.8947781907232625e-05
-0.04022381101879219   -0.0006983112795440668   -2.8947781907232625e-05
-0.048241827442451896   -0.010478564531710867   -0.0018603572448985944
-0.048241827442451896   -0.010478564531710867   -0.0018603572448985944
-0.048241827442451896   -0.010478564531710867   -0.0018603572448985944
-0.048241827442451896   -0.010478564531710867   -0.0018603572448985944
-0.046776647312695145   -0.003976123552914288   0.0010899942729363343
-0.046776647312695145   -0.003976123552914288   0.0010899942729363343
-0.046776647312695145   -0.003976123552914288   0.0010899942729363343
-0.046776647312695145   -0.003976123552914288   0.0010899942729363343
-0.04305604324904879   -0.010887780091247242   -0.000880162894587156
-0.04305604324904879   -0.010887780091247242   -0.000880162894587156
-0.04305604324904879   -0.010887780091247242   -0.000880162894587156
-0.04305604324904879   -0.010887780091247242   -0.000880162894587156
-0.044562870794922015   -0.006453334070993512   -0.0017725951797901956
-0.044562870794922015   -0.006453334070993512   -0.0017725951797901956
-0.044562870794922015   -0.006453334070993512   -0.0017725951797901956
-0.044562870794922015   -0.006453334070993512   -0.0017725951797901956
-0.04117141991295628   -0.002951701823857431   0.0006068755184855867
-0.04117141991295628   -0.002951701823857431   0.0006068755184855867
-0.04117141991295628   -0.002951701823857431   0.0006068755184855867
-0.04117141991295628   -0.002951701823857431   0.0006068755184855867
-0.048933215119558324   -0.012184146291075408   -0.001484822023218453
-0.048933215119558324   -0.012184146291075408   -0.001484822023218453
-0.048933215119558324   -0.012184146291075408   -0.001484822023218453
-0.048933215119558324   -0.012184146291075408   -0.001484822023218453
-0.047417703185311584   -0.006022437171526995   0.0017375729749406082
-0.047417703185311584   -0.006022437171526995   0.0017375729749406082
-0.047417703185311584   -0.006022437171526995   0.0017375729749406082
-0.047417703185311584   -0.006022437171526995   0.0017375729749406082
-0.043776969328421046   -0.012483967541207926   -0.00017577483082740044
-0.043776969328421046   -0.012483967541207926   -0.00017577483082740044
-0.043776969328421046   -0.012483967541207926   -0.00017577483082740044
-0.043776969328421046   -0.012483967541207926   -0.00017577483082740044
-0.0454343997517562   -0.008179894722334694   -0.002781713148812115
-0.0454343997517562   -0.008179894722334694   -0.002781713148812115
-0.0454343997517562   -0.008179894722334694   -0.002781713148812115
-0.0454343997517562   -0.008179894722334694   -0.002781713148812115
-0.04405163664594116   0.004801427980976238   0.0021501987100908332
-0.04405163664594116   0.004801427980976238   0.0021501987100908332
-0.04405163664594116   0.004801427980976238   0.0021501987100908332
-0.04405163664594116   0.004801427980976238   0.0021501987100908332
-0.0548246011402992   -0.007168017772042171   -0.003428965646444633
-0.0548246011402992   -0.007168017772042171   -0.003428965646444633
-0.0548246011402992   -0.007168017772042171   -0.003428965646444633
-0.0548246011402992   -0.007168017772042171   -0.003428965646444633
-0.05224825137406307   0.0010335150633141391   0.002843576173009235
-0.05224825137406307   0.0010335150633141391   0.002843576173009235
-0.05224825137406307   0.0010335150633141391   0.002843576173009235
-0.05224825137406307   0.0010335150633141391   0.002843576173009235
-0.0476285679165403   -0.007285580103597828   -0.0019870440434536733
-0.0476285679165403   -0.007285580103597828   -0.0019870440434536733
-0.0476285679165403   -0.007285580103597828   -0.0019870440434536733
-0.0476285679165403   -0.007285580103597828   -0.0019870440434536733
-0.04963830215440388   -0.002115401354688679   -0.0005048140237293624
-0.04963830215440388   -0.002115401354688679   -0.0005048140237293624
-0.04963830215440388   -0.002115401354688679   -0.0005048140237293624
-0.04963830215440388   -0.002115401354688679   -0.0005048140237293624
-0.044705881610815595   0.002534529381397468   0.0028062780001745715
-0.044705881610815595   0.002534529381397468   0.0028062780001745715
-0.044705881610815595   0.002534529381397468   0.0028062780001745715
-0.044705881610815595   0.002534529381397468   0.0028062780001745715
-0.05550081020232208   -0.009116466944214984   -0.0032692359607576753
-0.05550081020232208   -0.009116466944214984   -0.0032692359607576753
-0.05550081020232208   -0.009116466944214984   -0.0032692359607576753
-0.05550081020232208   -0.009116466944214984   -0.0032692359607576753
-0.053368918788347326   -0.0011568519108756566   0.003246061449466397
-0.053368918788347326   -0.0011568519108756566   0.003246061449466397
-0.053368918788347326   -0.0011568519108756566   0.003246061449466397
-0.053368918788347326   -0.0011568519108756566   0.003246061449466397
-0.04829821338967323   -0.008931698447389766   -0.0015622612174786353
-0.04829821338967323   -0.008931698447389766   -0.0015622612174786353
-0.04829821338967323   -0.008931698447389766   -0.0015622612174786353
-0.04829821338967323   -0.008931698447389766   -0.0015622612174786353
-0.05028835169033817   -0.003936594266502402   -0.0015928330538414726
-0.05028835169033817   -0.003936594266502402   -0.0015928330538414726
-0.05028835169033817   -0.003936594266502402   -0.0015928330538414726
-0.05028835169033817   -0.003936594266502402   -0.0015928330538414726
-0.04541787922877505   0.000471404949225181   0.0034363061903983144
-0.04541787922877505   0.000471404949225181   0.0034363061903983144
-0.04541787922877505   0.000471404949225181   0.0034363061903983144
-0.04541787922877505   0.000471404949225181   0.0034363061903983144
-0.056533644782035535   -0.010844347140280475   -0.0028900732895698724
-0.056533644782035535   -0.010844347140280475   -0.0028900732895698724
-0.056533644782035535   -0.010844347140280475   -0.0028900732895698724
-0.056533644782035535   -0.010844347140280475   -0.0028900732895698724
-0.054167021539773236   -0.0032869503463076434   0.003977378564815582
-0.054167021539773236   -0.0032869503463076434   0.003977378564815582
-0.054167021539773236   -0.0032869503463076434   0.003977378564815582
-0.054167021539773236   -0.0032869503463076434   0.003977378564815582
-0.04891254307540738   -0.010596004409077583   -0.0011630592379887222
-0.04891254307540738   -0.010596004409077583   -0.0011630592379887222
-0.04891254307540738   -0.010596004409077583   -0.0011630592379887222
-0.04891254307540738   -0.010596004409077583   -0.0011630592379887222
-0.05132245131134313   -0.005696997383339411   -0.002663638900431518
-0.05132245131134313   -0.005696997383339411   -0.002663638900431518
-0.05132245131134313   -0.005696997383339411   -0.002663638900431518
-0.05132245131134313   -0.005696997383339411   -0.002663638900431518
-0.050446055460502646   0.00691536053119793   0.004380384449298078
-0.050446055460502646   0.00691536053119793   0.004380384449298078
-0.050446055460502646   0.00691536053119793   0.004380384449298078
-0.050446055460502646   0.00691536053119793   0.004380384449298078
-0.05723068416282534   -0.004641871238345332   -0.0048619170684892025
-0.05723068416282534   -0.004641871238345332   -0.0048619170684892025
-0.05723068416282534   -0.004641871238345332   -0.0048619170684892025
-0.05723068416282534   -0.004641871238345332   -0.0048619170684892025
-0.05634660711076211   0.004336284942485344   0.004887288465335375
-0.05634660711076211   0.004336284942485344   0.004887288465335375
-0.05634660711076211   0.004336284942485344   0.004887288465335375
-0.05634660711076211   0.004336284942485344   0.004887288465335375
-0.05463985074844359   -0.005102078018262611   -0.002978827617317598
-0.05463985074844359   -0.005102078018262611   -0.002978827617317598
-0.05463985074844359   -0.005102078018262611   -0.002978827617317598
-0.05463985074844359   -0.005102078018262611   -0.002978827617317598
-0.05269874926914729   0.0010432350922940994   0.0004662985771864774
-0.05269874926914729   0.0010432350922940994   0.0004662985771864774
-0.05269874926914729   0.0010432350922940994   0.0004662985771864774
-0.05269874926914729   0.0010432350922940994   0.0004662985771864774
-0.05092092061789681   0.005455594626185056   0.005058150390968643
-0.05092092061789681   0.005455594626185056   0.005058150390968643
-0.05092092061789681   0.005455594626185056   0.005058150390968643
-0.05092092061789681   0.005455594626185056   0.005058150390968643
-0.060350500259961706   -0.006506350720615462   -0.004289541617563742
-0.060350500259961706   -0.006506350720615462   -0.004289541617563742
-0.060350500259961706   -0.006506350720615462   -0.004289541617563742
-0.060350500259961706   -0.006506350720615462   -0.004289541617563742
-0.05881807621677568   0.0030564418152987313   0.00624788670205729
-0.05881807621677568   0.0030564418152987313   0.00624788670205729
-0.05881807621677568   0.0030564418152987313   0.00624788670205729
-0.05881807621677568   0.0030564418152987313   0.00624788670205729
-0.055540218045499405   -0.006094552172183701   -0.0026727345749868827
-0.055540218045499405   -0.006094552172183701   -0.0026727345749868827
-0.055540218045499405   -0.006094552172183701   -0.0026727345749868827
-0.055540218045499405   -0.006094552172183701   -0.0026727345749868827
-0.05539950107745309   -0.0004832097826739743   -0.000892074193044171
-0.05539950107745309   -0.0004832097826739743   -0.000892074193044171
-0.05539950107745309   -0.0004832097826739743   -0.000892074193044171
-0.05539950107745309   -0.0004832097826739743   -0.000892074193044171
-0.05169677503444061   0.004434258644149772   0.006015669663973589
-0.05169677503444061   0.004434258644149772   0.006015669663973589
-0.05169677503444061   0.004434258644149772   0.006015669663973589
-0.05169677503444061   0.004434258644149772   0.006015669663973589
-0.06301317209862785   -0.007824021871827172   -0.0038471290200757795
-0.06301317209862785   -0.007824021871827172   -0.0038471290200757795
-0.06301317209862785   -0.007824021871827172   -0.0038471290200757795
-0.06301317209862785   -0.007824021871827172   -0.0038471290200757795
-0.06289937478490873   -0.00024235448593775896   0.006651038421439015
-0.06289937478490873   -0.00024235448593775896   0.006651038421439015
-0.06289937478490873   -0.00024235448593775896   0.006651038421439015
-0.06289937478490873   -0.00024235448593775896   0.006651038421439015
-0.056385400789366324   -0.008091594138731287   -0.0023098738907262172
-0.056385400789366324   -0.008091594138731287   -0.0023098738907262172
-0.056385400789366324   -0.008091594138731287   -0.0023098738907262172
-0.056385400789366324   -0.008091594138731287   -0.0023098738907262172
-0.056661726675735664   -0.001932304462966031   -0.002067313416186833
-0.056661726675735664   -0.001932304462966031   -0.002067313416186833
-0.056661726675735664   -0.001932304462966031   -0.002067313416186833
-0.056661726675735664   -0.001932304462966031   -0.002067313416186833
-0.08992473038820196   -0.008426962020357306   -0.009696799514776765
-0.08992473038820196   -0.008426962020357306   -0.009696799514776765
-0.08992473038820196   -0.008426962020357306   -0.009696799514776765
-0.08992473038820196   -0.008426962020357306   -0.009696799514776765
-0.05967849361171965   0.004096686200679451   0.0022030973234941032
-0.05967849361171965   0.004096686200679451   0.0022030973234941032
-0.05967849361171965   0.004096686200679451   0.0022030973234941032
-0.05967849361171965   0.004096686200679451   0.0022030973234941032
-0.06295699312061824   -0.004733422060497967   -0.004574882763509914
-0.06295699312061824   -0.004733422060497967   -0.004574882763509914
-0.06295699312061824   -0.004733422060497967   -0.004574882763509914
-0.06295699312061824   -0.004733422060497967   -0.004574882763509914
-0.09697193980203664   -0.012354083616514425   0.010269222818495096
-0.09697193980203664   -0.012354083616514425   0.010269222818495096
-0.09697193980203664   -0.012354083616514425   0.010269222818495096
-0.09697193980203664   -0.012354083616514425   0.010269222818495096
-0.0708150849087256   -0.003178751537922797   0.010267927183369732
-0.0708150849087256   -0.003178751537922797   0.010267927183369732
-0.0708150849087256   -0.003178751537922797   0.010267927183369732
-0.0708150849087256   -0.003178751537922797   0.010267927183369732
-0.10056964642894296   -0.01279637912997581   -0.007277014802574394
-0.10056964642894296   -0.01279637912997581   -0.007277014802574394
-0.10056964642894296   -0.01279637912997581   -0.007277014802574394
-0.10056964642894296   -0.01279637912997581   -0.007277014802574394
-0.06192807912024268   -0.0068599191735673115   0.002696184351436707
-0.06192807912024268   -0.0068599191735673115   0.002696184351436707
-0.06192807912024268   -0.0068599191735673115   0.002696184351436707
-0.06192807912024268   -0.0068599191735673115   0.002696184351436707
-0.06441416982991673   -0.006603148086925197   -0.003463230054196408
-0.06441416982991673   -0.006603148086925197   -0.003463230054196408
-0.06441416982991673   -0.006603148086925197   -0.003463230054196408
-0.06441416982991673   -0.006603148086925197   -0.003463230054196408
-0.10076295721614266   -0.017072120875656606   -0.0001281255019840613
-0.10076295721614266   -0.017072120875656606   -0.0001281255019840613
-0.10076295721614266   -0.017072120875656606   -0.0001281255019840613
-0.10076295721614266   -0.017072120875656606   -0.0001281255019840613
-0.07939093400798596   -0.01028666925344927   0.0025073470926570618
-0.07939093400798596   -0.01028666925344927   0.0025073470926570618
-0.07939093400798596   -0.01028666925344927   0.0025073470926570618
-0.07939093400798596   -0.01028666925344927   0.0025073470926570618
-0.10144216421430624   -0.014529464355546081   -0.006066817012911323
-0.10144216421430624   -0.014529464355546081   -0.006066817012911323
-0.10144216421430624   -0.014529464355546081   -0.006066817012911323
-0.10144216421430624   -0.014529464355546081   -0.006066817012911323
-0.06446449473382271   -0.009875336509105182   -0.00044266615154688353
-0.06446449473382271   -0.009875336509105182   -0.00044266615154688353
-0.06446449473382271   -0.009875336509105182   -0.00044266615154688353
-0.06446449473382271   -0.009875336509105182   -0.00044266615154688353
-0.06491116141058358   -0.010920117423449092   -0.0026359970376826137
-0.06491116141058358   -0.010920117423449092   -0.0026359970376826137
-0.06491116141058358   -0.010920117423449092   -0.0026359970376826137
-0.06491116141058358   -0.010920117423449092   -0.0026359970376826137
-0.10403754172019498   -0.025749817919811742   0.0011352858889906847
-0.10403754172019498   -0.025749817919811742   0.0011352858889906847
-0.10403754172019498   -0.025749817919811742   0.0011352858889906847
-0.10403754172019498   -0.025749817919811742   0.0011352858889906847
-0.07986034372351056   -0.014024044559751096   0.00035283266456680087
-0.07986034372351056   -0.014024044559751096   0.00035283266456680087
-0.07986034372351056   -0.014024044559751096   0.00035283266456680087
-0.07986034372351056   -0.014024044559751096   0.00035283266456680087
-0.06437809094783627   -0.011071487699629168   -0.006126715456779749
-0.06437809094783627   -0.011071487699629168   -0.006126715456779749
-0.06437809094783627   -0.011071487699629168   -0.006126715456779749
-0.06437809094783627   -0.011071487699629168   -0.006126715456779749
-0.04633513341215054   -0.032339937478564826   -0.005948511965077193
-0.04633513341215054   -0.032339937478564826   -0.005948511965077193
-0.04633513341215054   -0.032339937478564826   -0.005948511965077193
-0.04633513341215054   -0.032339937478564826   -0.005948511965077193
-0.04056247031770127   -0.00693692065289502   -0.0005855444354940198
-0.04056247031770127   -0.00693692065289502   -0.0005855444354940198
-0.04056247031770127   -0.00693692065289502   -0.0005855444354940198
-0.04056247031770127   -0.00693692065289502   -0.0005855444354940198
-0.06927874789525543   -0.033650656603204515   -0.007266422093989844
-0.06927874789525543   -0.033650656603204515   -0.007266422093989844
-0.06927874789525543   -0.033650656603204515   -0.007266422093989844
-0.06927874789525543   -0.033650656603204515   -0.007266422093989844
-0.05455077666222599   -0.022148559422288654   -0.0016532514881769339
-0.05455077666222599   -0.022148559422288654   -0.0016532514881769339
-0.05455077666222599   -0.022148559422288654   -0.0016532514881769339
-0.05455077666222599   -0.022148559422288654   -0.0016532514881769339
-0.064541225776764   -0.012551213732130128   -0.004678254372606836
-0.064541225776764   -0.012551213732130128   -0.004678254372606836
-0.064541225776764   -0.012551213732130128   -0.004678254372606836
-0.064541225776764   -0.012551213732130128   -0.004678254372606836
-0.04555026131120545   -0.0282866323989822   -0.004174787656928241
-0.04555026131120545   -0.0282866323989822   -0.004174787656928241
-0.04555026131120545   -0.0282866323989822   -0.004174787656928241
-0.04555026131120545   -0.0282866323989822   -0.004174787656928241
-0.04145423190623432   -0.008899421125713519   -0.00016212883291750942
-0.04145423190623432   -0.008899421125713519   -0.00016212883291750942
-0.04145423190623432   -0.008899421125713519   -0.00016212883291750942
-0.04145423190623432   -0.008899421125713519   -0.00016212883291750942
-0.06993485363947086   -0.03344717539266443   -0.004222621796228353
-0.06993485363947086   -0.03344717539266443   -0.004222621796228353
-0.06993485363947086   -0.03344717539266443   -0.004222621796228353
-0.06993485363947086   -0.03344717539266443   -0.004222621796228353
-0.054237464028622326   -0.020750637214007932   -0.0017614884948231194
-0.054237464028622326   -0.020750637214007932   -0.0017614884948231194
-0.054237464028622326   -0.020750637214007932   -0.0017614884948231194
-0.054237464028622326   -0.020750637214007932   -0.0017614884948231194
-0.06601374084875801   -0.014493119828916969   -0.0035711134064110644
-0.06601374084875801   -0.014493119828916969   -0.0035711134064110644
-0.06601374084875801   -0.014493119828916969   -0.0035711134064110644
-0.06601374084875801   -0.014493119828916969   -0.0035711134064110644
-0.04593371447575454   -0.028411846468268265   -0.003047116337963854
-0.04593371447575454   -0.028411846468268265   -0.003047116337963854
-0.04593371447575454   -0.028411846468268265   -0.003047116337963854
-0.04593371447575454   -0.028411846468268265   -0.003047116337963854
-0.041931148829180594   -0.011240484962250028   0.0004420857848122803
-0.041931148829180594   -0.011240484962250028   0.0004420857848122803
-0.041931148829180594   -0.011240484962250028   0.0004420857848122803
-0.041931148829180594   -0.011240484962250028   0.0004420857848122803
-0.07021176634140015   -0.03370173828664508   -0.006357400828570351
-0.07021176634140015   -0.03370173828664508   -0.006357400828570351
-0.07021176634140015   -0.03370173828664508   -0.006357400828570351
-0.07021176634140015   -0.03370173828664508   -0.006357400828570351
-0.05553215128214908   -0.02222268469548129   -0.003319901043676214
-0.05553215128214908   -0.02222268469548129   -0.003319901043676214
-0.05553215128214908   -0.02222268469548129   -0.003319901043676214
-0.05553215128214908   -0.02222268469548129   -0.003319901043676214
-0.040243425593280854   -0.0072462991577188825   -0.0005836111915747031
-0.040243425593280854   -0.0072462991577188825   -0.0005836111915747031
-0.040243425593280854   -0.0072462991577188825   -0.0005836111915747031
-0.040243425593280854   -0.0072462991577188825   -0.0005836111915747031
-0.03589541256810039   -0.025189169312157006   -0.004342813485334087
-0.03589541256810039   -0.025189169312157006   -0.004342813485334087
-0.03589541256810039   -0.025189169312157006   -0.004342813485334087
-0.03589541256810039   -0.025189169312157006   -0.004342813485334087
-0.03103489116329707   -0.0063618170430388265   0.0015164439193067845
-0.03103489116329707   -0.0063618170430388265   0.0015164439193067845
-0.03103489116329707   -0.0063618170430388265   0.0015164439193067845
-0.03103489116329707   -0.0063618170430388265   0.0015164439193067845
-0.04535620762960323   -0.026838676945870478   -0.004652474702028886
-0.04535620762960323   -0.026838676945870478   -0.004652474702028886
-0.04535620762960323   -0.026838676945870478   -0.004652474702028886
-0.04535620762960323   -0.026838676945870478   -0.004652474702028886
-0.03799354890665314   -0.016562991141028924   -0.0019643724001577652
-0.03799354890665314   -0.016562991141028924   -0.0019643724001577652
-0.03799354890665314   -0.016562991141028924   -0.0019643724001577652
-0.03799354890665314   -0.016562991141028924   -0.0019643724001577652
-0.04077262083912837   -0.008606079417642885   3.286172211780175e-05
-0.04077262083912837   -0.008606079417642885   3.286172211780175e-05
-0.04077262083912837   -0.008606079417642885   3.286172211780175e-05
-0.04077262083912837   -0.008606079417642885   3.286172211780175e-05
-0.03585639946533433   -0.024832336082828824   -0.00412057855108951
-0.03585639946533433   -0.024832336082828824   -0.00412057855108951
-0.03585639946533433   -0.024832336082828824   -0.00412057855108951
-0.03585639946533433   -0.024832336082828824   -0.00412057855108951
-0.03144675565655577   -0.007990641656361088   0.0019962416873505876
-0.03144675565655577   -0.007990641656361088   0.0019962416873505876
-0.03144675565655577   -0.007990641656361088   0.0019962416873505876
-0.03144675565655577   -0.007990641656361088   0.0019962416873505876
-0.04590117355725947   -0.02725717882284515   -0.004039079390911647
-0.04590117355725947   -0.02725717882284515   -0.004039079390911647
-0.04590117355725947   -0.02725717882284515   -0.004039079390911647
-0.04590117355725947   -0.02725717882284515   -0.004039079390911647
-0.03826843393595847   -0.017121122498273175   -0.002559234398280006
-0.03826843393595847   -0.017121122498273175   -0.002559234398280006
-0.03826843393595847   -0.017121122498273175   -0.002559234398280006
-0.03826843393595847   -0.017121122498273175   -0.002559234398280006
-0.041553281660403917   -0.010268795783747203   0.0007119970542681709
-0.041553281660403917   -0.010268795783747203   0.0007119970542681709
-0.041553281660403917   -0.010268795783747203   0.0007119970542681709
-0.041553281660403917   -0.010268795783747203   0.0007119970542681709
-0.03593156274709566   -0.025115939889143377   -0.0033024955325665984
-0.03593156274709566   -0.025115939889143377   -0.0033024955325665984
-0.03593156274709566   -0.025115939889143377   -0.0033024955325665984
-0.03593156274709566   -0.025115939889143377   -0.0033024955325665984
-0.031530532152363004   -0.009492725389732625   0.002533998750489144
-0.031530532152363004   -0.009492725389732625   0.002533998750489144
-0.031530532152363004   -0.009492725389732625   0.002533998750489144
-0.031530532152363004   -0.009492725389732625   0.002533998750489144
-0.045836486701727006   -0.027483155875554263   -0.0028419326646155598
-0.045836486701727006   -0.027483155875554263   -0.0028419326646155598
-0.045836486701727006   -0.027483155875554263   -0.0028419326646155598
-0.045836486701727006   -0.027483155875554263   -0.0028419326646155598
-0.03860158871112758   -0.017923998662449994   -0.003032887934781012
-0.03860158871112758   -0.017923998662449994   -0.003032887934781012
-0.03860158871112758   -0.017923998662449994   -0.003032887934781012
-0.03860158871112758   -0.017923998662449994   -0.003032887934781012
-0.029577106357924474   -0.0008506800296671684   0.0029102282830556474
-0.029577106357924474   -0.0008506800296671684   0.0029102282830556474
-0.029577106357924474   -0.0008506800296671684   0.0029102282830556474
-0.029577106357924474   -0.0008506800296671684   0.0029102282830556474
-0.030121361955857212   -0.013772379442166135   -0.0027977170471705846
-0.030121361955857212   -0.013772379442166135   -0.0027977170471705846
-0.030121361955857212   -0.013772379442166135   -0.0027977170471705846
-0.030121361955857212   -0.013772379442166135   -0.0027977170471705846
-0.02636292913988992   -0.0019746344562165466   0.0033020454168023496
-0.02636292913988992   -0.0019746344562165466   0.0033020454168023496
-0.02636292913988992   -0.0019746344562165466   0.0033020454168023496
-0.02636292913988992   -0.0019746344562165466   0.0033020454168023496
-0.033516429372904825   -0.01535323432325602   -0.001899829848514794
-0.033516429372904825   -0.01535323432325602   -0.001899829848514794
-0.033516429372904825   -0.01535323432325602   -0.001899829848514794
-0.033516429372904825   -0.01535323432325602   -0.001899829848514794
-0.02997688299921301   -0.007878445917117161   -0.0010892241931530161
-0.02997688299921301   -0.007878445917117161   -0.0010892241931530161
-0.02997688299921301   -0.007878445917117161   -0.0010892241931530161
-0.02997688299921301   -0.007878445917117161   -0.0010892241931530161
-0.029928334087741038   -0.0026755350652813426   0.003362947319329483
-0.029928334087741038   -0.0026755350652813426   0.003362947319329483
-0.029928334087741038   -0.0026755350652813426   0.003362947319329483
-0.029928334087741038   -0.0026755350652813426   0.003362947319329483
-0.030227221635113977   -0.01492853092425133   -0.003065520591283166
-0.030227221635113977   -0.01492853092425133   -0.003065520591283166
-0.030227221635113977   -0.01492853092425133   -0.003065520591283166
-0.030227221635113977   -0.01492853092425133   -0.003065520591283166
-0.02678270928947298   -0.0036006352726280803   0.003577550556129538
-0.02678270928947298   -0.0036006352726280803   0.003577550556129538
-0.02678270928947298   -0.0036006352726280803   0.003577550556129538
-0.02678270928947298   -0.0036006352726280803   0.003577550556129538
-0.033917094356519295   -0.0163165359633895   -0.002029557505438643
-0.033917094356519295   -0.0163165359633895   -0.002029557505438643
-0.033917094356519295   -0.0163165359633895   -0.002029557505438643
-0.033917094356519295   -0.0163165359633895   -0.002029557505438643
-0.03019958186615533   -0.009148586601217073   -0.001884947081470054
-0.03019958186615533   -0.009148586601217073   -0.001884947081470054
-0.03019958186615533   -0.009148586601217073   -0.001884947081470054
-0.03019958186615533   -0.009148586601217073   -0.001884947081470054
-0.030336793310573613   -0.004263233196578542   0.003818644957477863
-0.030336793310573613   -0.004263233196578542   0.003818644957477863
-0.030336793310573613   -0.004263233196578542   0.003818644957477863
-0.030336793310573613   -0.004263233196578542   0.003818644957477863
-0.030532093703441607   -0.015823021407462144   -0.00294698537887954
-0.030532093703441607   -0.015823021407462144   -0.00294698537887954
-0.030532093703441607   -0.015823021407462144   -0.00294698537887954
-0.030532093703441607   -0.015823021407462144   -0.00294698537887954
-0.026969184128307344   -0.005142065748139426   0.004163275119603952
-0.026969184128307344   -0.005142065748139426   0.004163275119603952
-0.026969184128307344   -0.005142065748139426   0.004163275119603952
-0.026969184128307344   -0.005142065748139426   0.004163275119603952
-0.03385090127554452   -0.01724783082893612   -0.001312741426214928
-0.03385090127554452   -0.01724783082893612   -0.001312741426214928
-0.03385090127554452   -0.01724783082893612   -0.001312741426214928
-0.03385090127554452   -0.01724783082893612   -0.001312741426214928
-0.0305477121346215   -0.010311006637137823   -0.002491407204789136
-0.0305477121346215   -0.010311006637137823   -0.002491407204789136
-0.0305477121346215   -0.010311006637137823   -0.002491407204789136
-0.0305477121346215   -0.010311006637137823   -0.002491407204789136
-0.025134212080004964   0.0036857809749174294   0.0046798719150061355
-0.025134212080004964   0.0036857809749174294   0.0046798719150061355
-0.025134212080004964   0.0036857809749174294   0.0046798719150061355
-0.025134212080004964   0.0036857809749174294   0.0046798719150061355
-0.019639849143843924   -0.0048545782742134315   -0.0018653213439442649
-0.019639849143843924   -0.0048545782742134315   -0.0018653213439442649
-0.019639849143843924   -0.0048545782742134315   -0.0018653213439442649
-0.019639849143843924   -0.0048545782742134315   -0.0018653213439442649
-0.017958993497334118   0.0037646021019566924   0.004673715732669448
-0.017958993497334118   0.0037646021019566924   0.004673715732669448
-0.017958993497334118   0.0037646021019566924   0.004673715732669448
-0.017958993497334118   0.0037646021019566924   0.004673715732669448
-0.02816928631899278   -0.006709624086303361   -0.0009947508486251567
-0.02816928631899278   -0.006709624086303361   -0.0009947508486251567
-0.02816928631899278   -0.006709624086303361   -0.0009947508486251567
-0.02816928631899278   -0.006709624086303361   -0.0009947508486251567
-0.022292929344934133   -0.0005337125297009112   -0.0006766451810946571
-0.022292929344934133   -0.0005337125297009112   -0.0006766451810946571
-0.022292929344934133   -0.0005337125297009112   -0.0006766451810946571
-0.022292929344934133   -0.0005337125297009112   -0.0006766451810946571
-0.025121602279052267   0.002420121876694825   0.005113923388078261
-0.025121602279052267   0.002420121876694825   0.005113923388078261
-0.025121602279052267   0.002420121876694825   0.005113923388078261
-0.025121602279052267   0.002420121876694825   0.005113923388078261
-0.02106366093642947   -0.005422127260196651   -0.0016628921006539624
-0.02106366093642947   -0.005422127260196651   -0.0016628921006539624
-0.02106366093642947   -0.005422127260196651   -0.0016628921006539624
-0.02106366093642947   -0.005422127260196651   -0.0016628921006539624
-0.01905463273831352   0.0029075960525298435   0.005852421241394956
-0.01905463273831352   0.0029075960525298435   0.005852421241394956
-0.01905463273831352   0.0029075960525298435   0.005852421241394956
-0.01905463273831352   0.0029075960525298435   0.005852421241394956
-0.028451747463143967   -0.007202963344012135   -0.0011653122408413425
-0.028451747463143967   -0.007202963344012135   -0.0011653122408413425
-0.028451747463143967   -0.007202963344012135   -0.0011653122408413425
-0.028451747463143967   -0.007202963344012135   -0.0011653122408413425
-0.02338095244963982   -0.0014583756835751557   -0.001181752551289647
-0.02338095244963982   -0.0014583756835751557   -0.001181752551289647
-0.02338095244963982   -0.0014583756835751557   -0.001181752551289647
-0.02338095244963982   -0.0014583756835751557   -0.001181752551289647
-0.02527189053830172   0.0016665517101039674   0.0058644573292537805
-0.02527189053830172   0.0016665517101039674   0.0058644573292537805
-0.02527189053830172   0.0016665517101039674   0.0058644573292537805
-0.02527189053830172   0.0016665517101039674   0.0058644573292537805
-0.022452661333849155   -0.006180090672279653   -0.002050035011473739
-0.022452661333849155   -0.006180090672279653   -0.002050035011473739
-0.022452661333849155   -0.006180090672279653   -0.002050035011473739
-0.022452661333849155   -0.006180090672279653   -0.002050035011473739
-0.02165426572877588   0.0005359364345667236   0.006096643915173395
-0.02165426572877588   0.0005359364345667236   0.006096643915173395
-0.02165426572877588   0.0005359364345667236   0.006096643915173395
-0.02165426572877588   0.0005359364345667236   0.006096643915173395
-0.02851564064575233   -0.0077766522749259425   -0.000934420940834456
-0.02851564064575233   -0.0077766522749259425   -0.000934420940834456
-0.02851564064575233   -0.0077766522749259425   -0.000934420940834456
-0.02851564064575233   -0.0077766522749259425   -0.000934420940834456
-0.02406163811590836   -0.0022026574350018143   -0.0018594550420768035
-0.02406163811590836   -0.0022026574350018143   -0.0018594550420768035
-0.02406163811590836   -0.0022026574350018143   -0.0018594550420768035
-0.02406163811590836   -0.0022026574350018143   -0.0018594550420768035
-0.2279298868016318   -0.03404637695169373   -0.020260825248459683
-0.2279298868016318   -0.03404637695169373   -0.020260825248459683
-0.2279298868016318   -0.03404637695169373   -0.020260825248459683
-0.2279298868016318   -0.03404637695169373   -0.020260825248459683
-0.08149638124191633   -0.1469075880569258   -0.015493846318405599
-0.08149638124191633   -0.1469075880569258   -0.015493846318405599
-0.08149638124191633   -0.1469075880569258   -0.015493846318405599
-0.08149638124191633   -0.1469075880569258   -0.015493846318405599
-0.060371174644547755   -0.007123677472247031   -0.00017951161765680638
-0.060371174644547755   -0.007123677472247031   -0.00017951161765680638
-0.060371174644547755   -0.007123677472247031   -0.00017951161765680638
-0.060371174644547755   -0.007123677472247031   -0.00017951161765680638
-0.24841446296878528   -0.16871275803318714   -0.0834254442003945
-0.24841446296878528   -0.16871275803318714   -0.0834254442003945
-0.24841446296878528   -0.16871275803318714   -0.0834254442003945
-0.24841446296878528   -0.16871275803318714   -0.0834254442003945
-0.15059400977772322   -0.08337136130700576   -0.012220174319584588
-0.15059400977772322   -0.08337136130700576   -0.012220174319584588
-0.15059400977772322   -0.08337136130700576   -0.012220174319584588
-0.15059400977772322   -0.08337136130700576   -0.012220174319584588
-0.2120894278310291   -0.04294502591247702   -0.027568000632325403
-0.2120894278310291   -0.04294502591247702   -0.027568000632325403
-0.2120894278310291   -0.04294502591247702   -0.027568000632325403
-0.2120894278310291   -0.04294502591247702   -0.027568000632325403
-0.08877407721405023   -0.12496927702470365   -0.024348424912712024
-0.08877407721405023   -0.12496927702470365   -0.024348424912712024
-0.08877407721405023   -0.12496927702470365   -0.024348424912712024
-0.08877407721405023   -0.12496927702470365   -0.024348424912712024
-0.062268355499592275   -0.0089037008853059   0.0022193727332190873
-0.062268355499592275   -0.0089037008853059   0.0022193727332190873
-0.062268355499592275   -0.0089037008853059   0.0022193727332190873
-0.062268355499592275   -0.0089037008853059   0.0022193727332190873
-0.23291182894821283   -0.15265603030892028   -0.07711357185142662
-0.23291182894821283   -0.15265603030892028   -0.07711357185142662
-0.23291182894821283   -0.15265603030892028   -0.07711357185142662
-0.23291182894821283   -0.15265603030892028   -0.07711357185142662
-0.14221856952189998   -0.07588028634097463   0.005212967347642469
-0.14221856952189998   -0.07588028634097463   0.005212967347642469
-0.14221856952189998   -0.07588028634097463   0.005212967347642469
-0.14221856952189998   -0.07588028634097463   0.005212967347642469
-0.19934243904989213   -0.04095576889646558   -0.020966883772279465
-0.19934243904989213   -0.04095576889646558   -0.020966883772279465
-0.19934243904989213   -0.04095576889646558   -0.020966883772279465
-0.19934243904989213   -0.04095576889646558   -0.020966883772279465
-0.0869638019209305   -0.11173001882077835   -0.01843154143799932
-0.0869638019209305   -0.11173001882077835   -0.01843154143799932
-0.0869638019209305   -0.11173001882077835   -0.01843154143799932
-0.0869638019209305   -0.11173001882077835   -0.01843154143799932
-0.0731504373643042   -0.020667095522495987   -0.004338206480321334
-0.0731504373643042   -0.020667095522495987   -0.004338206480321334
-0.0731504373643042   -0.020667095522495987   -0.004338206480321334
-0.0731504373643042   -0.020667095522495987   -0.004338206480321334
-0.2125569111810297   -0.13110235886771163   -0.06873185400974827
-0.2125569111810297   -0.13110235886771163   -0.06873185400974827
-0.2125569111810297   -0.13110235886771163   -0.06873185400974827
-0.2125569111810297   -0.13110235886771163   -0.06873185400974827
-0.13216265036692243   -0.06631388492270268   0.025110529720860256
-0.13216265036692243   -0.06631388492270268   0.025110529720860256
-0.13216265036692243   -0.06631388492270268   0.025110529720860256
-0.13216265036692243   -0.06631388492270268   0.025110529720860256
-0.05684114640689362   -0.03423040810378471   -0.004894852096433515
-0.05684114640689362   -0.03423040810378471   -0.004894852096433515
-0.05684114640689362   -0.03423040810378471   -0.004894852096433515
-0.05684114640689362   -0.03423040810378471   -0.004894852096433515
-0.028421672244421735   -0.052559051070756445   -0.007124095292716997
-0.028421672244421735   -0.052559051070756445   -0.007124095292716997
-0.028421672244421735   -0.052559051070756445   -0.007124095292716997
-0.028421672244421735   -0.052559051070756445   -0.007124095292716997
-0.023738323339748152   -0.02300158308779379   0.0004385209275574757
-0.023738323339748152   -0.02300158308779379   0.0004385209275574757
-0.023738323339748152   -0.02300158308779379   0.0004385209275574757
-0.023738323339748152   -0.02300158308779379   0.0004385209275574757
-0.07312196981658114   -0.07218309877343076   0.001125933823360445
-0.07312196981658114   -0.07218309877343076   0.001125933823360445
-0.07312196981658114   -0.07218309877343076   0.001125933823360445
-0.07312196981658114   -0.07218309877343076   0.001125933823360445
-0.0383056437321925   -0.03443531357917133   0.013031741307153342
-0.0383056437321925   -0.03443531357917133   0.013031741307153342
-0.0383056437321925   -0.03443531357917133   0.013031741307153342
-0.0383056437321925   -0.03443531357917133   0.013031741307153342
-0.06598055163928464   -0.03217312312160857   -0.0031769509419799172
-0.06598055163928464   -0.03217312312160857   -0.0031769509419799172
-0.06598055163928464   -0.03217312312160857   -0.0031769509419799172
-0.06598055163928464   -0.03217312312160857   -0.0031769509419799172
-0.03317998482721041   -0.06531180204978186   -0.004459567547765747
-0.03317998482721041   -0.06531180204978186   -0.004459567547765747
-0.03317998482721041   -0.06531180204978186   -0.004459567547765747
-0.03317998482721041   -0.06531180204978186   -0.004459567547765747
-0.026268634346753944   -0.023751702428878828   0.0005885237299827501
-0.026268634346753944   -0.023751702428878828   0.0005885237299827501
-0.026268634346753944   -0.023751702428878828   0.0005885237299827501
-0.026268634346753944   -0.023751702428878828   0.0005885237299827501
-0.07765144529859583   -0.07205811168535331   -0.011541665461751081
-0.07765144529859583   -0.07205811168535331   -0.011541665461751081
-0.07765144529859583   -0.07205811168535331   -0.011541665461751081
-0.07765144529859583   -0.07205811168535331   -0.011541665461751081
-0.04689343614158338   -0.04344469502240228   0.005371868578330377
-0.04689343614158338   -0.04344469502240228   0.005371868578330377
-0.04689343614158338   -0.04344469502240228   0.005371868578330377
-0.04689343614158338   -0.04344469502240228   0.005371868578330377
-0.06886564991255159   -0.03360247527617627   -0.006068324940706842
-0.06886564991255159   -0.03360247527617627   -0.006068324940706842
-0.06886564991255159   -0.03360247527617627   -0.006068324940706842
-0.06886564991255159   -0.03360247527617627   -0.006068324940706842
-0.03487240049268832   -0.06202530959794598   -0.0041566998306219755
-0.03487240049268832   -0.06202530959794598   -0.0041566998306219755
-0.03487240049268832   -0.06202530959794598   -0.0041566998306219755
-0.03487240049268832   -0.06202530959794598   -0.0041566998306219755
-0.030370842797649355   -0.02428386245199862   0.0008910548009111348
-0.030370842797649355   -0.02428386245199862   0.0008910548009111348
-0.030370842797649355   -0.02428386245199862   0.0008910548009111348
-0.030370842797649355   -0.02428386245199862   0.0008910548009111348
-0.08419888379213972   -0.07059581674492416   -0.009651717397070325
-0.08419888379213972   -0.07059581674492416   -0.009651717397070325
-0.08419888379213972   -0.07059581674492416   -0.009651717397070325
-0.08419888379213972   -0.07059581674492416   -0.009651717397070325
-0.04991811145831658   -0.04108427917691976   0.005566669316278023
-0.04991811145831658   -0.04108427917691976   0.005566669316278023
-0.04991811145831658   -0.04108427917691976   0.005566669316278023
-0.04991811145831658   -0.04108427917691976   0.005566669316278023
-0.020359776048697893   -0.020906843656817112   0.0015331782719628798
-0.020359776048697893   -0.020906843656817112   0.0015331782719628798
-0.020359776048697893   -0.020906843656817112   0.0015331782719628798
-0.020359776048697893   -0.020906843656817112   0.0015331782719628798
-0.014213668761730198   -0.01961773307674598   -0.0036405547361837657
-0.014213668761730198   -0.01961773307674598   -0.0036405547361837657
-0.014213668761730198   -0.01961773307674598   -0.0036405547361837657
-0.014213668761730198   -0.01961773307674598   -0.0036405547361837657
-0.013169465364966432   -0.01919040790520074   0.001402128236683958
-0.013169465364966432   -0.01919040790520074   0.001402128236683958
-0.013169465364966432   -0.01919040790520074   0.001402128236683958
-0.013169465364966432   -0.01919040790520074   0.001402128236683958
-0.024371017445980154   -0.0249369821437658   -0.0007895505476305277
-0.024371017445980154   -0.0249369821437658   -0.0007895505476305277
-0.024371017445980154   -0.0249369821437658   -0.0007895505476305277
-0.024371017445980154   -0.0249369821437658   -0.0007895505476305277
-0.015012653388362902   -0.017675123044596376   0.006676884830772179
-0.015012653388362902   -0.017675123044596376   0.006676884830772179
-0.015012653388362902   -0.017675123044596376   0.006676884830772179
-0.015012653388362902   -0.017675123044596376   0.006676884830772179
-0.023096442507010644   -0.021105800483546617   0.001752142486997836
-0.023096442507010644   -0.021105800483546617   0.001752142486997836
-0.023096442507010644   -0.021105800483546617   0.001752142486997836
-0.023096442507010644   -0.021105800483546617   0.001752142486997836
-0.014782778321481439   -0.023360327582965263   -0.002494516868126562
-0.014782778321481439   -0.023360327582965263   -0.002494516868126562
-0.014782778321481439   -0.023360327582965263   -0.002494516868126562
-0.014782778321481439   -0.023360327582965263   -0.002494516868126562
-0.013747969730134932   -0.019755424225765494   0.0013164897673630495
-0.013747969730134932   -0.019755424225765494   0.0013164897673630495
-0.013747969730134932   -0.019755424225765494   0.0013164897673630495
-0.013747969730134932   -0.019755424225765494   0.0013164897673630495
-0.02653886360035285   -0.028704451728710632   0.0041901267618200165
-0.02653886360035285   -0.028704451728710632   0.0041901267618200165
-0.02653886360035285   -0.028704451728710632   0.0041901267618200165
-0.02653886360035285   -0.028704451728710632   0.0041901267618200165
-0.017043740865797834   -0.019839555688026336   0.005228052375017225
-0.017043740865797834   -0.019839555688026336   0.005228052375017225
-0.017043740865797834   -0.019839555688026336   0.005228052375017225
-0.017043740865797834   -0.019839555688026336   0.005228052375017225
-0.025553090780630307   -0.02191403213582714   0.0023285712675492403
-0.025553090780630307   -0.02191403213582714   0.0023285712675492403
-0.025553090780630307   -0.02191403213582714   0.0023285712675492403
-0.025553090780630307   -0.02191403213582714   0.0023285712675492403
-0.016021688703841356   -0.027833789972632708   -0.001973739354301854
-0.016021688703841356   -0.027833789972632708   -0.001973739354301854
-0.016021688703841356   -0.027833789972632708   -0.001973739354301854
-0.016021688703841356   -0.027833789972632708   -0.001973739354301854
-0.014670489608086323   -0.020298946363844182   0.0019131178002951216
-0.014670489608086323   -0.020298946363844182   0.0019131178002951216
-0.014670489608086323   -0.020298946363844182   0.0019131178002951216
-0.014670489608086323   -0.020298946363844182   0.0019131178002951216
-0.032175215702911805   -0.03433539268693521   0.0019207205095355014
-0.032175215702911805   -0.03433539268693521   0.0019207205095355014
-0.032175215702911805   -0.03433539268693521   0.0019207205095355014
-0.032175215702911805   -0.03433539268693521   0.0019207205095355014
-0.019794860318389763   -0.022271447136428636   0.0018731471176473063
-0.019794860318389763   -0.022271447136428636   0.0018731471176473063
-0.019794860318389763   -0.022271447136428636   0.0018731471176473063
-0.019794860318389763   -0.022271447136428636   0.0018731471176473063
-0.010434029318727882   -0.00845615635407498   0.0040960657561568145
-0.010434029318727882   -0.00845615635407498   0.0040960657561568145
-0.010434029318727882   -0.00845615635407498   0.0040960657561568145
-0.010434029318727882   -0.00845615635407498   0.0040960657561568145
-0.00870007447779464   -0.002984038185968703   -0.0009060227493042636
-0.00870007447779464   -0.002984038185968703   -0.0009060227493042636
-0.00870007447779464   -0.002984038185968703   -0.0009060227493042636
-0.00870007447779464   -0.002984038185968703   -0.0009060227493042636
-0.008157684591162267   -0.009407938056629199   0.002467906702875791
-0.008157684591162267   -0.009407938056629199   0.002467906702875791
-0.008157684591162267   -0.009407938056629199   0.002467906702875791
-0.008157684591162267   -0.009407938056629199   0.002467906702875791
-0.010573631961644476   -0.004850093242574644   4.098059066764319e-05
-0.010573631961644476   -0.004850093242574644   4.098059066764319e-05
-0.010573631961644476   -0.004850093242574644   4.098059066764319e-05
-0.010573631961644476   -0.004850093242574644   4.098059066764319e-05
-0.008680414302478677   -0.005863334361668613   0.002024333542607882
-0.008680414302478677   -0.005863334361668613   0.002024333542607882
-0.008680414302478677   -0.005863334361668613   0.002024333542607882
-0.008680414302478677   -0.005863334361668613   0.002024333542607882
-0.010750014345966966   -0.009631825219057654   0.003940800645538205
-0.010750014345966966   -0.009631825219057654   0.003940800645538205
-0.010750014345966966   -0.009631825219057654   0.003940800645538205
-0.010750014345966966   -0.009631825219057654   0.003940800645538205
-0.007863848446016546   -0.0045087523193229565   -0.0009620983087018438
-0.007863848446016546   -0.0045087523193229565   -0.0009620983087018438
-0.007863848446016546   -0.0045087523193229565   -0.0009620983087018438
-0.007863848446016546   -0.0045087523193229565   -0.0009620983087018438
-0.007868988805384747   -0.010231913458512789   0.0023454494678103754
-0.007868988805384747   -0.010231913458512789   0.0023454494678103754
-0.007868988805384747   -0.010231913458512789   0.0023454494678103754
-0.007868988805384747   -0.010231913458512789   0.0023454494678103754
-0.011157393124090765   -0.00699056426343853   0.001504512835256924
-0.011157393124090765   -0.00699056426343853   0.001504512835256924
-0.011157393124090765   -0.00699056426343853   0.001504512835256924
-0.011157393124090765   -0.00699056426343853   0.001504512835256924
-0.008454400640030649   -0.006827667799675209   0.002088086356977991
-0.008454400640030649   -0.006827667799675209   0.002088086356977991
-0.008454400640030649   -0.006827667799675209   0.002088086356977991
-0.008454400640030649   -0.006827667799675209   0.002088086356977991
-0.011239147763926243   -0.010461666724379134   0.004566842097020142
-0.011239147763926243   -0.010461666724379134   0.004566842097020142
-0.011239147763926243   -0.010461666724379134   0.004566842097020142
-0.011239147763926243   -0.010461666724379134   0.004566842097020142
-0.00795371412447973   -0.006927290956502644   -0.0013827996296746823
-0.00795371412447973   -0.006927290956502644   -0.0013827996296746823
-0.00795371412447973   -0.006927290956502644   -0.0013827996296746823
-0.00795371412447973   -0.006927290956502644   -0.0013827996296746823
-0.007281735855149913   -0.011143657672041632   0.0026389589378629013
-0.007281735855149913   -0.011143657672041632   0.0026389589378629013
-0.007281735855149913   -0.011143657672041632   0.0026389589378629013
-0.007281735855149913   -0.011143657672041632   0.0026389589378629013
-0.012932737240371668   -0.011589896381578663   0.0018928296566028857
-0.012932737240371668   -0.011589896381578663   0.0018928296566028857
-0.012932737240371668   -0.011589896381578663   0.0018928296566028857
-0.012932737240371668   -0.011589896381578663   0.0018928296566028857
-0.008750793733557903   -0.00841854147378302   0.001410969077376156
-0.008750793733557903   -0.00841854147378302   0.001410969077376156
-0.008750793733557903   -0.00841854147378302   0.001410969077376156
-0.008750793733557903   -0.00841854147378302   0.001410969077376156
-0.00729465614088386   -0.0011542243791469835   0.004291255128427916
-0.00729465614088386   -0.0011542243791469835   0.004291255128427916
-0.00729465614088386   -0.0011542243791469835   0.004291255128427916
-0.00729465614088386   -0.0011542243791469835   0.004291255128427916
-0.0022976061752264017   0.00030820375903040955   -8.757781423988109e-05
-0.0022976061752264017   0.00030820375903040955   -8.757781423988109e-05
-0.0022976061752264017   0.00030820375903040955   -8.757781423988109e-05
-0.0022976061752264017   0.00030820375903040955   -8.757781423988109e-05
-0.0007810072035466823   -0.00047660995176846863   0.0027820407086041636
-0.0007810072035466823   -0.00047660995176846863   0.0027820407086041636
-0.0007810072035466823   -0.00047660995176846863   0.0027820407086041636
-0.0007810072035466823   -0.00047660995176846863   0.0027820407086041636
-0.006785379981622642   -0.00012686007764929272   4.835177159401825e-05
-0.006785379981622642   -0.00012686007764929272   4.835177159401825e-05
-0.006785379981622642   -0.00012686007764929272   4.835177159401825e-05
-0.006785379981622642   -0.00012686007764929272   4.835177159401825e-05
-0.004302378133881638   -0.0004368960977080365   -0.00022101782423951448
-0.004302378133881638   -0.0004368960977080365   -0.00022101782423951448
-0.004302378133881638   -0.0004368960977080365   -0.00022101782423951448
-0.004302378133881638   -0.0004368960977080365   -0.00022101782423951448
-0.006108305559399004   -0.0011975875030393194   0.004504451308102231
-0.006108305559399004   -0.0011975875030393194   0.004504451308102231
-0.006108305559399004   -0.0011975875030393194   0.004504451308102231
-0.006108305559399004   -0.0011975875030393194   0.004504451308102231
-0.0012652051520974754   0.000786993947294722   -0.0009025529332110739
-0.0012652051520974754   0.000786993947294722   -0.0009025529332110739
-0.0012652051520974754   0.000786993947294722   -0.0009025529332110739
-0.0012652051520974754   0.000786993947294722   -0.0009025529332110739
-0.0002655827309469418   -0.0006421230738625909   0.0034527243777093554
-0.0002655827309469418   -0.0006421230738625909   0.0034527243777093554
-0.0002655827309469418   -0.0006421230738625909   0.0034527243777093554
-0.0002655827309469418   -0.0006421230738625909   0.0034527243777093554
-0.006386300707149955   -0.0005901543353870967   0.00011713083585864937
-0.006386300707149955   -0.0005901543353870967   0.00011713083585864937
-0.006386300707149955   -0.0005901543353870967   0.00011713083585864937
-0.006386300707149955   -0.0005901543353870967   0.00011713083585864937
-0.0034468181971385684   -0.0003521068778183517   0.0003142296596989141
-0.0034468181971385684   -0.0003521068778183517   0.0003142296596989141
-0.0034468181971385684   -0.0003521068778183517   0.0003142296596989141
-0.0034468181971385684   -0.0003521068778183517   0.0003142296596989141
-0.005589527163580812   -0.0014127399935564859   0.004923584211873751
-0.005589527163580812   -0.0014127399935564859   0.004923584211873751
-0.005589527163580812   -0.0014127399935564859   0.004923584211873751
-0.005589527163580812   -0.0014127399935564859   0.004923584211873751
-0.0009341510114100458   0.0003086678474131562   -0.0008409079458799941
-0.0009341510114100458   0.0003086678474131562   -0.0008409079458799941
-0.0009341510114100458   0.0003086678474131562   -0.0008409079458799941
-0.0009341510114100458   0.0003086678474131562   -0.0008409079458799941
3.208034283721378e-05   -0.0011912891639344375   0.0034446736255325664
3.208034283721378e-05   -0.0011912891639344375   0.0034446736255325664
3.208034283721378e-05   -0.0011912891639344375   0.0034446736255325664
3.208034283721378e-05   -0.0011912891639344375   0.0034446736255325664
-0.005802849348844587   -0.001285914766170812   0.0001756485635187128
-0.005802849348844587   -0.001285914766170812   0.0001756485635187128
-0.005802849348844587   -0.001285914766170812   0.0001756485635187128
-0.005802849348844587   -0.001285914766170812   0.0001756485635187128
-0.0027737731525900797   -0.00045603440473359323   0.0006588226368172013
-0.0027737731525900797   -0.00045603440473359323   0.0006588226368172013
-0.0027737731525900797   -0.00045603440473359323   0.0006588226368172013
-0.0027737731525900797   -0.00045603440473359323   0.0006588226368172013
              </DataArray>   
             <DataArray type="Float64" NumberOfComponents="3" Name="Displacements" format="ascii">   
0.0   0.0   0.0
-0.0006505784405860531   -0.00043827003165217837   -0.00021864750125261473
0.0   0.0   0.0
0.0   0.0   0.0
-0.0006505784405860531   -0.00043827003165217837   -0.00021864750125261473
-0.0004128584478370145   -0.0003959262407094367   -0.0001607744405508047
0.0   0.0   0.0
-0.0004039217027422092   -0.0004151279392576059   -0.00013494004195114723
0.0   0.0   0.0
0.0   0.0   0.0
-0.0004039217027422092   -0.0004151279392576059   -0.00013494004195114723
0.0   0.0   0.0
0.0   0.0   0.0
-0.0004039217027422092   -0.0004151279392576059   -0.00013494004195114723
-0.0006799067892529477   -0.00046637165786518885   -0.00017591281543437765
-0.0006505784405860531   -0.00043827003165217837   -0.00021864750125261473
0.0   0.0   0.0
-0.0004039217027422092   -0.0004151279392576059   -0.00013494004195114723
-0.0006505784405860531   -0.00043827003165217837   -0.00021864750125261473
0.0   0.0   0.0
0.0   0.0   0.0
-0.0006799067892529477   -0.00046637165786518885   -0.00017591281543437765
0.0   0.0   0.0
0.0   0.0   0.0
-0.0006799067892529477   -0.00046637165786518885   -0.00017591281543437765
-0.0004039217027422092   -0.0004151279392576059   -0.00013494004195114723
0.0   0.0   0.0
-0.00040422632806023576   -0.0004250641958429033   -0.0001092379993253187
0.0   0.0   0.0
0.0   0.0   0.0
-0.00040422632806023576   -0.0004250641958429033   -0.0001092379993253187
0.0   0.0   0.0
0.0   0.0   0.0
-0.00040422632806023576   -0.0004250641958429033   -0.0001092379993253187
-0.0007001206963250649   -0.0004800809704596375   -0.0001351469198273019
-0.0006799067892529477   -0.00046637165786518885   -0.00017591281543437765
0.0   0.0   0.0
-0.00040422632806023576   -0.0004250641958429033   -0.0001092379993253187
-0.0006799067892529477   -0.00046637165786518885   -0.00017591281543437765
0.0   0.0   0.0
0.0   0.0   0.0
-0.0007001206963250649   -0.0004800809704596375   -0.0001351469198273019
0.0   0.0   0.0
0.0   0.0   0.0
-0.0007001206963250649   -0.0004800809704596375   -0.0001351469198273019
-0.00040422632806023576   -0.0004250641958429033   -0.0001092379993253187
0.0   0.0   0.0
-0.00040307313715880986   -0.00042774901024524915   -8.27803841979862e-05
0.0   0.0   0.0
0.0   0.0   0.0
-0.00040307313715880986   -0.00042774901024524915   -8.27803841979862e-05
0.0   0.0   0.0
0.0   0.0   0.0
-0.00040307313715880986   -0.00042774901024524915   -8.27803841979862e-05
-0.0007444951763411244   -0.0004907892909848076   -8.797017033371942e-05
-0.0007001206963250649   -0.0004800809704596375   -0.0001351469198273019
0.0   0.0   0.0
-0.00040307313715880986   -0.00042774901024524915   -8.27803841979862e-05
-0.0007001206963250649   -0.0004800809704596375   -0.0001351469198273019
0.0   0.0   0.0
0.0   0.0   0.0
-0.0004128584478370145   -0.0003959262407094367   -0.0001607744405508047
0.0   0.0   0.0
0.0   0.0   0.0
-0.0004128584478370145   -0.0003959262407094367   -0.0001607744405508047
-0.00018898301432332566   -0.0003805696935182531   -0.00012264629479308918
0.0   0.0   0.0
-0.000180947848665685   -0.00039296875982790507   -0.00011034963190173201
0.0   0.0   0.0
0.0   0.0   0.0
-0.000180947848665685   -0.00039296875982790507   -0.00011034963190173201
0.0   0.0   0.0
0.0   0.0   0.0
-0.000180947848665685   -0.00039296875982790507   -0.00011034963190173201
-0.0004039217027422092   -0.0004151279392576059   -0.00013494004195114723
-0.0004128584478370145   -0.0003959262407094367   -0.0001607744405508047
0.0   0.0   0.0
-0.000180947848665685   -0.00039296875982790507   -0.00011034963190173201
-0.0004128584478370145   -0.0003959262407094367   -0.0001607744405508047
0.0   0.0   0.0
0.0   0.0   0.0
-0.0004039217027422092   -0.0004151279392576059   -0.00013494004195114723
0.0   0.0   0.0
0.0   0.0   0.0
-0.0004039217027422092   -0.0004151279392576059   -0.00013494004195114723
-0.000180947848665685   -0.00039296875982790507   -0.00011034963190173201
0.0   0.0   0.0
-0.000176093927429321   -0.0003977290009323486   -9.846781357173353e-05
0.0   0.0   0.0
0.0   0.0   0.0
-0.000176093927429321   -0.0003977290009323486   -9.846781357173353e-05
0.0   0.0   0.0
0.0   0.0   0.0
-0.000176093927429321   -0.0003977290009323486   -9.846781357173353e-05
-0.00040422632806023576   -0.0004250641958429033   -0.0001092379993253187
-0.0004039217027422092   -0.0004151279392576059   -0.00013494004195114723
0.0   0.0   0.0
-0.000176093927429321   -0.0003977290009323486   -9.846781357173353e-05
-0.0004039217027422092   -0.0004151279392576059   -0.00013494004195114723
0.0   0.0   0.0
0.0   0.0   0.0
-0.00040422632806023576   -0.0004250641958429033   -0.0001092379993253187
0.0   0.0   0.0
0.0   0.0   0.0
-0.00040422632806023576   -0.0004250641958429033   -0.0001092379993253187
-0.000176093927429321   -0.0003977290009323486   -9.846781357173353e-05
0.0   0.0   0.0
-0.00017153619635213555   -0.0003958225544698361   -8.628192250432718e-05
0.0   0.0   0.0
0.0   0.0   0.0
-0.00017153619635213555   -0.0003958225544698361   -8.628192250432718e-05
0.0   0.0   0.0
0.0   0.0   0.0
-0.00017153619635213555   -0.0003958225544698361   -8.628192250432718e-05
-0.00040307313715880986   -0.00042774901024524915   -8.27803841979862e-05
-0.00040422632806023576   -0.0004250641958429033   -0.0001092379993253187
0.0   0.0   0.0
-0.00017153619635213555   -0.0003958225544698361   -8.628192250432718e-05
-0.00040422632806023576   -0.0004250641958429033   -0.0001092379993253187
0.0   0.0   0.0
0.0   0.0   0.0
-0.00018898301432332566   -0.0003805696935182531   -0.00012264629479308918
0.0   0.0   0.0
0.0   0.0   0.0
-0.00018898301432332566   -0.0003805696935182531   -0.00012264629479308918
2.18240180731276e-05   -0.0003826676703242807   -9.859201623556226e-05
0.0   0.0   0.0
2.733969096629482e-05   -0.00038898293712804363   -0.00010005276819628314
0.0   0.0   0.0
0.0   0.0   0.0
2.733969096629482e-05   -0.00038898293712804363   -0.00010005276819628314
0.0   0.0   0.0
0.0   0.0   0.0
2.733969096629482e-05   -0.00038898293712804363   -0.00010005276819628314
-0.000180947848665685   -0.00039296875982790507   -0.00011034963190173201
-0.00018898301432332566   -0.0003805696935182531   -0.00012264629479308918
0.0   0.0   0.0
2.733969096629482e-05   -0.00038898293712804363   -0.00010005276819628314
-0.00018898301432332566   -0.0003805696935182531   -0.00012264629479308918
0.0   0.0   0.0
0.0   0.0   0.0
-0.000180947848665685   -0.00039296875982790507   -0.00011034963190173201
0.0   0.0   0.0
0.0   0.0   0.0
-0.000180947848665685   -0.00039296875982790507   -0.00011034963190173201
2.733969096629482e-05   -0.00038898293712804363   -0.00010005276819628314
0.0   0.0   0.0
3.1803309850107e-05   -0.00038836235393692123   -0.00010145307376439132
0.0   0.0   0.0
0.0   0.0   0.0
3.1803309850107e-05   -0.00038836235393692123   -0.00010145307376439132
0.0   0.0   0.0
0.0   0.0   0.0
3.1803309850107e-05   -0.00038836235393692123   -0.00010145307376439132
-0.000176093927429321   -0.0003977290009323486   -9.846781357173353e-05
-0.000180947848665685   -0.00039296875982790507   -0.00011034963190173201
0.0   0.0   0.0
3.1803309850107e-05   -0.00038836235393692123   -0.00010145307376439132
-0.000180947848665685   -0.00039296875982790507   -0.00011034963190173201
0.0   0.0   0.0
0.0   0.0   0.0
-0.000176093927429321   -0.0003977290009323486   -9.846781357173353e-05
0.0   0.0   0.0
0.0   0.0   0.0
-0.000176093927429321   -0.0003977290009323486   -9.846781357173353e-05
3.1803309850107e-05   -0.00038836235393692123   -0.00010145307376439132
0.0   0.0   0.0
3.753211123497389e-05   -0.0003802533116028717   -0.00010298998801015332
0.0   0.0   0.0
0.0   0.0   0.0
3.753211123497389e-05   -0.0003802533116028717   -0.00010298998801015332
0.0   0.0   0.0
0.0   0.0   0.0
3.753211123497389e-05   -0.0003802533116028717   -0.00010298998801015332
-0.00017153619635213555   -0.0003958225544698361   -8.628192250432718e-05
-0.000176093927429321   -0.0003977290009323486   -9.846781357173353e-05
0.0   0.0   0.0
3.753211123497389e-05   -0.0003802533116028717   -0.00010298998801015332
-0.000176093927429321   -0.0003977290009323486   -9.846781357173353e-05
0.0   0.0   0.0
0.0   0.0   0.0
2.18240180731276e-05   -0.0003826676703242807   -9.859201623556226e-05
0.0   0.0   0.0
0.0   0.0   0.0
2.18240180731276e-05   -0.0003826676703242807   -9.859201623556226e-05
0.00025136183855540846   -0.00040035961426583723   -8.701329867909256e-05
0.0   0.0   0.0
0.0002528532587596063   -0.00040217918793764024   -0.00010295752805500587
0.0   0.0   0.0
0.0   0.0   0.0
0.0002528532587596063   -0.00040217918793764024   -0.00010295752805500587
0.0   0.0   0.0
0.0   0.0   0.0
0.0002528532587596063   -0.00040217918793764024   -0.00010295752805500587
2.733969096629482e-05   -0.00038898293712804363   -0.00010005276819628314
2.18240180731276e-05   -0.0003826676703242807   -9.859201623556226e-05
0.0   0.0   0.0
0.0002528532587596063   -0.00040217918793764024   -0.00010295752805500587
2.18240180731276e-05   -0.0003826676703242807   -9.859201623556226e-05
0.0   0.0   0.0
0.0   0.0   0.0
2.733969096629482e-05   -0.00038898293712804363   -0.00010005276819628314
0.0   0.0   0.0
0.0   0.0   0.0
2.733969096629482e-05   -0.00038898293712804363   -0.00010005276819628314
0.0002528532587596063   -0.00040217918793764024   -0.00010295752805500587
0.0   0.0   0.0
0.0002526704177482018   -0.000396443703613989   -0.0001183694829247479
0.0   0.0   0.0
0.0   0.0   0.0
0.0002526704177482018   -0.000396443703613989   -0.0001183694829247479
0.0   0.0   0.0
0.0   0.0   0.0
0.0002526704177482018   -0.000396443703613989   -0.0001183694829247479
3.1803309850107e-05   -0.00038836235393692123   -0.00010145307376439132
2.733969096629482e-05   -0.00038898293712804363   -0.00010005276819628314
0.0   0.0   0.0
0.0002526704177482018   -0.000396443703613989   -0.0001183694829247479
2.733969096629482e-05   -0.00038898293712804363   -0.00010005276819628314
0.0   0.0   0.0
0.0   0.0   0.0
3.1803309850107e-05   -0.00038836235393692123   -0.00010145307376439132
0.0   0.0   0.0
0.0   0.0   0.0
3.1803309850107e-05   -0.00038836235393692123   -0.00010145307376439132
0.0002526704177482018   -0.000396443703613989   -0.0001183694829247479
0.0   0.0   0.0
0.0002584287531294466   -0.0003814942863597145   -0.0001335801070408331
0.0   0.0   0.0
0.0   0.0   0.0
0.0002584287531294466   -0.0003814942863597145   -0.0001335801070408331
0.0   0.0   0.0
0.0   0.0   0.0
0.0002584287531294466   -0.0003814942863597145   -0.0001335801070408331
3.753211123497389e-05   -0.0003802533116028717   -0.00010298998801015332
3.1803309850107e-05   -0.00038836235393692123   -0.00010145307376439132
0.0   0.0   0.0
0.0002584287531294466   -0.0003814942863597145   -0.0001335801070408331
3.1803309850107e-05   -0.00038836235393692123   -0.00010145307376439132
0.0   0.0   0.0
0.0   0.0   0.0
0.00025136183855540846   -0.00040035961426583723   -8.701329867909256e-05
0.0   0.0   0.0
0.0   0.0   0.0
0.00025136183855540846   -0.00040035961426583723   -8.701329867909256e-05
0.0005730076917639299   -0.0004456301980900489   -8.290178415812382e-05
0.0   0.0   0.0
0.0005395033669335454   -0.00044036625814541106   -0.00011937947274550947
0.0   0.0   0.0
0.0   0.0   0.0
0.0005395033669335454   -0.00044036625814541106   -0.00011937947274550947
0.0   0.0   0.0
0.0   0.0   0.0
0.0005395033669335454   -0.00044036625814541106   -0.00011937947274550947
0.0002528532587596063   -0.00040217918793764024   -0.00010295752805500587
0.00025136183855540846   -0.00040035961426583723   -8.701329867909256e-05
0.0   0.0   0.0
0.0005395033669335454   -0.00044036625814541106   -0.00011937947274550947
0.00025136183855540846   -0.00040035961426583723   -8.701329867909256e-05
0.0   0.0   0.0
0.0   0.0   0.0
0.0002528532587596063   -0.00040217918793764024   -0.00010295752805500587
0.0   0.0   0.0
0.0   0.0   0.0
0.0002528532587596063   -0.00040217918793764024   -0.00010295752805500587
0.0005395033669335454   -0.00044036625814541106   -0.00011937947274550947
0.0   0.0   0.0
0.000524459745931058   -0.00043122066946545715   -0.00015031811641735864
0.0   0.0   0.0
0.0   0.0   0.0
0.000524459745931058   -0.00043122066946545715   -0.00015031811641735864
0.0   0.0   0.0
0.0   0.0   0.0
0.000524459745931058   -0.00043122066946545715   -0.00015031811641735864
0.0002526704177482018   -0.000396443703613989   -0.0001183694829247479
0.0002528532587596063   -0.00040217918793764024   -0.00010295752805500587
0.0   0.0   0.0
0.000524459745931058   -0.00043122066946545715   -0.00015031811641735864
0.0002528532587596063   -0.00040217918793764024   -0.00010295752805500587
0.0   0.0   0.0
0.0   0.0   0.0
0.0002526704177482018   -0.000396443703613989   -0.0001183694829247479
0.0   0.0   0.0
0.0   0.0   0.0
0.0002526704177482018   -0.000396443703613989   -0.0001183694829247479
0.000524459745931058   -0.00043122066946545715   -0.00015031811641735864
0.0   0.0   0.0
0.0005014349116758531   -0.0004081347335500576   -0.00018326135714775743
0.0   0.0   0.0
0.0   0.0   0.0
0.0005014349116758531   -0.0004081347335500576   -0.00018326135714775743
0.0   0.0   0.0
0.0   0.0   0.0
0.0005014349116758531   -0.0004081347335500576   -0.00018326135714775743
0.0002584287531294466   -0.0003814942863597145   -0.0001335801070408331
0.0002526704177482018   -0.000396443703613989   -0.0001183694829247479
0.0   0.0   0.0
0.0005014349116758531   -0.0004081347335500576   -0.00018326135714775743
0.0002526704177482018   -0.000396443703613989   -0.0001183694829247479
0.0   0.0   0.0
-0.0006505784405860531   -0.00043827003165217837   -0.00021864750125261473
-0.0012066865029285293   -0.0012068599124682735   -0.00029498769609365404
-0.0004128584478370145   -0.0003959262407094367   -0.0001607744405508047
-0.0006799067892529477   -0.00046637165786518885   -0.00017591281543437765
-0.0012066865029285293   -0.0012068599124682735   -0.00029498769609365404
-0.0007697929521460163   -0.0011690846021330747   -0.0002436776949006374
-0.0004128584478370145   -0.0003959262407094367   -0.0001607744405508047
-0.0007693872005737712   -0.0011885636530048255   -0.0002200077615808176
-0.0006799067892529477   -0.00046637165786518885   -0.00017591281543437765
-0.0004039217027422092   -0.0004151279392576059   -0.00013494004195114723
-0.0007693872005737712   -0.0011885636530048255   -0.0002200077615808176
-0.0004128584478370145   -0.0003959262407094367   -0.0001607744405508047
-0.0006799067892529477   -0.00046637165786518885   -0.00017591281543437765
-0.0007693872005737712   -0.0011885636530048255   -0.0002200077615808176
-0.0012410931240958065   -0.0012341789918793975   -0.0002567493655135216
-0.0012066865029285293   -0.0012068599124682735   -0.00029498769609365404
-0.0006799067892529477   -0.00046637165786518885   -0.00017591281543437765
-0.0007693872005737712   -0.0011885636530048255   -0.0002200077615808176
-0.0012066865029285293   -0.0012068599124682735   -0.00029498769609365404
-0.0004128584478370145   -0.0003959262407094367   -0.0001607744405508047
-0.0006799067892529477   -0.00046637165786518885   -0.00017591281543437765
-0.0012410931240958065   -0.0012341789918793975   -0.0002567493655135216
-0.0004039217027422092   -0.0004151279392576059   -0.00013494004195114723
-0.0007001206963250649   -0.0004800809704596375   -0.0001351469198273019
-0.0012410931240958065   -0.0012341789918793975   -0.0002567493655135216
-0.0007693872005737712   -0.0011885636530048255   -0.0002200077615808176
-0.0004039217027422092   -0.0004151279392576059   -0.00013494004195114723
-0.0007710039291110433   -0.0012005589429056297   -0.00019734757887589606
-0.0007001206963250649   -0.0004800809704596375   -0.0001351469198273019
-0.00040422632806023576   -0.0004250641958429033   -0.0001092379993253187
-0.0007710039291110433   -0.0012005589429056297   -0.00019734757887589606
-0.0004039217027422092   -0.0004151279392576059   -0.00013494004195114723
-0.0007001206963250649   -0.0004800809704596375   -0.0001351469198273019
-0.0007710039291110433   -0.0012005589429056297   -0.00019734757887589606
-0.001264443605952129   -0.0012497233934084622   -0.00021942581485012664
-0.0012410931240958065   -0.0012341789918793975   -0.0002567493655135216
-0.0007001206963250649   -0.0004800809704596375   -0.0001351469198273019
-0.0007710039291110433   -0.0012005589429056297   -0.00019734757887589606
-0.0012410931240958065   -0.0012341789918793975   -0.0002567493655135216
-0.0004039217027422092   -0.0004151279392576059   -0.00013494004195114723
-0.0007001206963250649   -0.0004800809704596375   -0.0001351469198273019
-0.001264443605952129   -0.0012497233934084622   -0.00021942581485012664
-0.00040422632806023576   -0.0004250641958429033   -0.0001092379993253187
-0.0007444951763411244   -0.0004907892909848076   -8.797017033371942e-05
-0.001264443605952129   -0.0012497233934084622   -0.00021942581485012664
-0.0007710039291110433   -0.0012005589429056297   -0.00019734757887589606
-0.00040422632806023576   -0.0004250641958429033   -0.0001092379993253187
-0.0007672406963524933   -0.0012069842381974918   -0.00017622241641229592
-0.0007444951763411244   -0.0004907892909848076   -8.797017033371942e-05
-0.00040307313715880986   -0.00042774901024524915   -8.27803841979862e-05
-0.0007672406963524933   -0.0012069842381974918   -0.00017622241641229592
-0.00040422632806023576   -0.0004250641958429033   -0.0001092379993253187
-0.0007444951763411244   -0.0004907892909848076   -8.797017033371942e-05
-0.0007672406963524933   -0.0012069842381974918   -0.00017622241641229592
-0.0012919826839464831   -0.0012591191590969704   -0.00018565829386999044
-0.001264443605952129   -0.0012497233934084622   -0.00021942581485012664
-0.0007444951763411244   -0.0004907892909848076   -8.797017033371942e-05
-0.0007672406963524933   -0.0012069842381974918   -0.00017622241641229592
-0.001264443605952129   -0.0012497233934084622   -0.00021942581485012664
-0.00040422632806023576   -0.0004250641958429033   -0.0001092379993253187
-0.0004128584478370145   -0.0003959262407094367   -0.0001607744405508047
-0.0007697929521460163   -0.0011690846021330747   -0.0002436776949006374
-0.00018898301432332566   -0.0003805696935182531   -0.00012264629479308918
-0.0004039217027422092   -0.0004151279392576059   -0.00013494004195114723
-0.0007697929521460163   -0.0011690846021330747   -0.0002436776949006374
-0.0003594605174330073   -0.0011514976366023698   -0.00020877640713817773
-0.00018898301432332566   -0.0003805696935182531   -0.00012264629479308918
-0.000355019432870724   -0.0011637737736922085   -0.00019652320540899463
-0.0004039217027422092   -0.0004151279392576059   -0.00013494004195114723
-0.000180947848665685   -0.00039296875982790507   -0.00011034963190173201
-0.000355019432870724   -0.0011637737736922085   -0.00019652320540899463
-0.00018898301432332566   -0.0003805696935182531   -0.00012264629479308918
-0.0004039217027422092   -0.0004151279392576059   -0.00013494004195114723
-0.000355019432870724   -0.0011637737736922085   -0.00019652320540899463
-0.0007693872005737712   -0.0011885636530048255   -0.0002200077615808176
-0.0007697929521460163   -0.0011690846021330747   -0.0002436776949006374
-0.0004039217027422092   -0.0004151279392576059   -0.00013494004195114723
-0.000355019432870724   -0.0011637737736922085   -0.00019652320540899463
-0.0007697929521460163   -0.0011690846021330747   -0.0002436776949006374
-0.00018898301432332566   -0.0003805696935182531   -0.00012264629479308918
-0.0004039217027422092   -0.0004151279392576059   -0.00013494004195114723
-0.0007693872005737712   -0.0011885636530048255   -0.0002200077615808176
-0.000180947848665685   -0.00039296875982790507   -0.00011034963190173201
-0.00040422632806023576   -0.0004250641958429033   -0.0001092379993253187
-0.0007693872005737712   -0.0011885636530048255   -0.0002200077615808176
-0.000355019432870724   -0.0011637737736922085   -0.00019652320540899463
-0.000180947848665685   -0.00039296875982790507   -0.00011034963190173201
-0.00035093298919849545   -0.0011697732136111512   -0.00018547273339887513
-0.00040422632806023576   -0.0004250641958429033   -0.0001092379993253187
-0.000176093927429321   -0.0003977290009323486   -9.846781357173353e-05
-0.00035093298919849545   -0.0011697732136111512   -0.00018547273339887513
-0.000180947848665685   -0.00039296875982790507   -0.00011034963190173201
-0.00040422632806023576   -0.0004250641958429033   -0.0001092379993253187
-0.00035093298919849545   -0.0011697732136111512   -0.00018547273339887513
-0.0007710039291110433   -0.0012005589429056297   -0.00019734757887589606
-0.0007693872005737712   -0.0011885636530048255   -0.0002200077615808176
-0.00040422632806023576   -0.0004250641958429033   -0.0001092379993253187
-0.00035093298919849545   -0.0011697732136111512   -0.00018547273339887513
-0.0007693872005737712   -0.0011885636530048255   -0.0002200077615808176
-0.000180947848665685   -0.00039296875982790507   -0.00011034963190173201
-0.00040422632806023576   -0.0004250641958429033   -0.0001092379993253187
-0.0007710039291110433   -0.0012005589429056297   -0.00019734757887589606
-0.000176093927429321   -0.0003977290009323486   -9.846781357173353e-05
-0.00040307313715880986   -0.00042774901024524915   -8.27803841979862e-05
-0.0007710039291110433   -0.0012005589429056297   -0.00019734757887589606
-0.00035093298919849545   -0.0011697732136111512   -0.00018547273339887513
-0.000176093927429321   -0.0003977290009323486   -9.846781357173353e-05
-0.0003454598781165977   -0.0011697187032781641   -0.00017591990065292235
-0.00040307313715880986   -0.00042774901024524915   -8.27803841979862e-05
-0.00017153619635213555   -0.0003958225544698361   -8.628192250432718e-05
-0.0003454598781165977   -0.0011697187032781641   -0.00017591990065292235
-0.000176093927429321   -0.0003977290009323486   -9.846781357173353e-05
-0.00040307313715880986   -0.00042774901024524915   -8.27803841979862e-05
-0.0003454598781165977   -0.0011697187032781641   -0.00017591990065292235
-0.0007672406963524933   -0.0012069842381974918   -0.00017622241641229592
-0.0007710039291110433   -0.0012005589429056297   -0.00019734757887589606
-0.00040307313715880986   -0.00042774901024524915   -8.27803841979862e-05
-0.0003454598781165977   -0.0011697187032781641   -0.00017591990065292235
-0.0007710039291110433   -0.0012005589429056297   -0.00019734757887589606
-0.000176093927429321   -0.0003977290009323486   -9.846781357173353e-05
-0.00018898301432332566   -0.0003805696935182531   -0.00012264629479308918
-0.0003594605174330073   -0.0011514976366023698   -0.00020877640713817773
2.18240180731276e-05   -0.0003826676703242807   -9.859201623556226e-05
-0.000180947848665685   -0.00039296875982790507   -0.00011034963190173201
-0.0003594605174330073   -0.0011514976366023698   -0.00020877640713817773
3.5369437390934174e-05   -0.0011521016480994378   -0.00018700925598595438
2.18240180731276e-05   -0.0003826676703242807   -9.859201623556226e-05
4.059512984486267e-05   -0.0011577258834684653   -0.0001859500595950933
-0.000180947848665685   -0.00039296875982790507   -0.00011034963190173201
2.733969096629482e-05   -0.00038898293712804363   -0.00010005276819628314
4.059512984486267e-05   -0.0011577258834684653   -0.0001859500595950933
2.18240180731276e-05   -0.0003826676703242807   -9.859201623556226e-05
-0.000180947848665685   -0.00039296875982790507   -0.00011034963190173201
4.059512984486267e-05   -0.0011577258834684653   -0.0001859500595950933
-0.000355019432870724   -0.0011637737736922085   -0.00019652320540899463
-0.0003594605174330073   -0.0011514976366023698   -0.00020877640713817773
-0.000180947848665685   -0.00039296875982790507   -0.00011034963190173201
4.059512984486267e-05   -0.0011577258834684653   -0.0001859500595950933
-0.0003594605174330073   -0.0011514976366023698   -0.00020877640713817773
2.18240180731276e-05   -0.0003826676703242807   -9.859201623556226e-05
-0.000180947848665685   -0.00039296875982790507   -0.00011034963190173201
-0.000355019432870724   -0.0011637737736922085   -0.00019652320540899463
2.733969096629482e-05   -0.00038898293712804363   -0.00010005276819628314
-0.000176093927429321   -0.0003977290009323486   -9.846781357173353e-05
-0.000355019432870724   -0.0011637737736922085   -0.00019652320540899463
4.059512984486267e-05   -0.0011577258834684653   -0.0001859500595950933
2.733969096629482e-05   -0.00038898293712804363   -0.00010005276819628314
4.453669562576098e-05   -0.0011572159031369245   -0.0001862508397049862
-0.000176093927429321   -0.0003977290009323486   -9.846781357173353e-05
3.1803309850107e-05   -0.00038836235393692123   -0.00010145307376439132
4.453669562576098e-05   -0.0011572159031369245   -0.0001862508397049862
2.733969096629482e-05   -0.00038898293712804363   -0.00010005276819628314
-0.000176093927429321   -0.0003977290009323486   -9.846781357173353e-05
4.453669562576098e-05   -0.0011572159031369245   -0.0001862508397049862
-0.00035093298919849545   -0.0011697732136111512   -0.00018547273339887513
-0.000355019432870724   -0.0011637737736922085   -0.00019652320540899463
-0.000176093927429321   -0.0003977290009323486   -9.846781357173353e-05
4.453669562576098e-05   -0.0011572159031369245   -0.0001862508397049862
-0.000355019432870724   -0.0011637737736922085   -0.00019652320540899463
2.733969096629482e-05   -0.00038898293712804363   -0.00010005276819628314
-0.000176093927429321   -0.0003977290009323486   -9.846781357173353e-05
-0.00035093298919849545   -0.0011697732136111512   -0.00018547273339887513
3.1803309850107e-05   -0.00038836235393692123   -0.00010145307376439132
-0.00017153619635213555   -0.0003958225544698361   -8.628192250432718e-05
-0.00035093298919849545   -0.0011697732136111512   -0.00018547273339887513
4.453669562576098e-05   -0.0011572159031369245   -0.0001862508397049862
3.1803309850107e-05   -0.00038836235393692123   -0.00010145307376439132
4.8665559404600966e-05   -0.0011503910577842027   -0.0001879314119509259
-0.00017153619635213555   -0.0003958225544698361   -8.628192250432718e-05
3.753211123497389e-05   -0.0003802533116028717   -0.00010298998801015332
4.8665559404600966e-05   -0.0011503910577842027   -0.0001879314119509259
3.1803309850107e-05   -0.00038836235393692123   -0.00010145307376439132
-0.00017153619635213555   -0.0003958225544698361   -8.628192250432718e-05
4.8665559404600966e-05   -0.0011503910577842027   -0.0001879314119509259
-0.0003454598781165977   -0.0011697187032781641   -0.00017591990065292235
-0.00035093298919849545   -0.0011697732136111512   -0.00018547273339887513
-0.00017153619635213555   -0.0003958225544698361   -8.628192250432718e-05
4.8665559404600966e-05   -0.0011503910577842027   -0.0001879314119509259
-0.00035093298919849545   -0.0011697732136111512   -0.00018547273339887513
3.1803309850107e-05   -0.00038836235393692123   -0.00010145307376439132
2.18240180731276e-05   -0.0003826676703242807   -9.859201623556226e-05
3.5369437390934174e-05   -0.0011521016480994378   -0.00018700925598595438
0.00025136183855540846   -0.00040035961426583723   -8.701329867909256e-05
2.733969096629482e-05   -0.00038898293712804363   -0.00010005276819628314
3.5369437390934174e-05   -0.0011521016480994378   -0.00018700925598595438
0.0004545227873184671   -0.0011702661866492608   -0.0001773290785482506
0.00025136183855540846   -0.00040035961426583723   -8.701329867909256e-05
0.00045824400556968166   -0.0011697907165725257   -0.00018781756616817978
2.733969096629482e-05   -0.00038898293712804363   -0.00010005276819628314
0.0002528532587596063   -0.00040217918793764024   -0.00010295752805500587
0.00045824400556968166   -0.0011697907165725257   -0.00018781756616817978
0.00025136183855540846   -0.00040035961426583723   -8.701329867909256e-05
2.733969096629482e-05   -0.00038898293712804363   -0.00010005276819628314
0.00045824400556968166   -0.0011697907165725257   -0.00018781756616817978
4.059512984486267e-05   -0.0011577258834684653   -0.0001859500595950933
3.5369437390934174e-05   -0.0011521016480994378   -0.00018700925598595438
2.733969096629482e-05   -0.00038898293712804363   -0.00010005276819628314
0.00045824400556968166   -0.0011697907165725257   -0.00018781756616817978
3.5369437390934174e-05   -0.0011521016480994378   -0.00018700925598595438
0.00025136183855540846   -0.00040035961426583723   -8.701329867909256e-05
2.733969096629482e-05   -0.00038898293712804363   -0.00010005276819628314
4.059512984486267e-05   -0.0011577258834684653   -0.0001859500595950933
0.0002528532587596063   -0.00040217918793764024   -0.00010295752805500587
3.1803309850107e-05   -0.00038836235393692123   -0.00010145307376439132
4.059512984486267e-05   -0.0011577258834684653   -0.0001859500595950933
0.00045824400556968166   -0.0011697907165725257   -0.00018781756616817978
0.0002528532587596063   -0.00040217918793764024   -0.00010295752805500587
0.000457638547222205   -0.0011633406560238252   -0.00019984358475795362
3.1803309850107e-05   -0.00038836235393692123   -0.00010145307376439132
0.0002526704177482018   -0.000396443703613989   -0.0001183694829247479
0.000457638547222205   -0.0011633406560238252   -0.00019984358475795362
0.0002528532587596063   -0.00040217918793764024   -0.00010295752805500587
3.1803309850107e-05   -0.00038836235393692123   -0.00010145307376439132
0.000457638547222205   -0.0011633406560238252   -0.00019984358475795362
4.453669562576098e-05   -0.0011572159031369245   -0.0001862508397049862
4.059512984486267e-05   -0.0011577258834684653   -0.0001859500595950933
3.1803309850107e-05   -0.00038836235393692123   -0.00010145307376439132
0.000457638547222205   -0.0011633406560238252   -0.00019984358475795362
4.059512984486267e-05   -0.0011577258834684653   -0.0001859500595950933
0.0002528532587596063   -0.00040217918793764024   -0.00010295752805500587
3.1803309850107e-05   -0.00038836235393692123   -0.00010145307376439132
4.453669562576098e-05   -0.0011572159031369245   -0.0001862508397049862
0.0002526704177482018   -0.000396443703613989   -0.0001183694829247479
3.753211123497389e-05   -0.0003802533116028717   -0.00010298998801015332
4.453669562576098e-05   -0.0011572159031369245   -0.0001862508397049862
0.000457638547222205   -0.0011633406560238252   -0.00019984358475795362
0.0002526704177482018   -0.000396443703613989   -0.0001183694829247479
0.00045784003713341103   -0.0011492122198847451   -0.00021295701741511964
3.753211123497389e-05   -0.0003802533116028717   -0.00010298998801015332
0.0002584287531294466   -0.0003814942863597145   -0.0001335801070408331
0.00045784003713341103   -0.0011492122198847451   -0.00021295701741511964
0.0002526704177482018   -0.000396443703613989   -0.0001183694829247479
3.753211123497389e-05   -0.0003802533116028717   -0.00010298998801015332
0.00045784003713341103   -0.0011492122198847451   -0.00021295701741511964
4.8665559404600966e-05   -0.0011503910577842027   -0.0001879314119509259
4.453669562576098e-05   -0.0011572159031369245   -0.0001862508397049862
3.753211123497389e-05   -0.0003802533116028717   -0.00010298998801015332
0.00045784003713341103   -0.0011492122198847451   -0.00021295701741511964
4.453669562576098e-05   -0.0011572159031369245   -0.0001862508397049862
0.0002526704177482018   -0.000396443703613989   -0.0001183694829247479
0.00025136183855540846   -0.00040035961426583723   -8.701329867909256e-05
0.0004545227873184671   -0.0011702661866492608   -0.0001773290785482506
0.0005730076917639299   -0.0004456301980900489   -8.290178415812382e-05
0.0002528532587596063   -0.00040217918793764024   -0.00010295752805500587
0.0004545227873184671   -0.0011702661866492608   -0.0001773290785482506
0.0009622831993388478   -0.0012037620523181213   -0.0001756729812460295
0.0005730076917639299   -0.0004456301980900489   -8.290178415812382e-05
0.0009449391664144106   -0.0011999137787122465   -0.00019947307982616348
0.0002528532587596063   -0.00040217918793764024   -0.00010295752805500587
0.0005395033669335454   -0.00044036625814541106   -0.00011937947274550947
0.0009449391664144106   -0.0011999137787122465   -0.00019947307982616348
0.0005730076917639299   -0.0004456301980900489   -8.290178415812382e-05
0.0002528532587596063   -0.00040217918793764024   -0.00010295752805500587
0.0009449391664144106   -0.0011999137787122465   -0.00019947307982616348
0.00045824400556968166   -0.0011697907165725257   -0.00018781756616817978
0.0004545227873184671   -0.0011702661866492608   -0.0001773290785482506
0.0002528532587596063   -0.00040217918793764024   -0.00010295752805500587
0.0009449391664144106   -0.0011999137787122465   -0.00019947307982616348
0.0004545227873184671   -0.0011702661866492608   -0.0001773290785482506
0.0005730076917639299   -0.0004456301980900489   -8.290178415812382e-05
0.0002528532587596063   -0.00040217918793764024   -0.00010295752805500587
0.00045824400556968166   -0.0011697907165725257   -0.00018781756616817978
0.0005395033669335454   -0.00044036625814541106   -0.00011937947274550947
0.0002526704177482018   -0.000396443703613989   -0.0001183694829247479
0.00045824400556968166   -0.0011697907165725257   -0.00018781756616817978
0.0009449391664144106   -0.0011999137787122465   -0.00019947307982616348
0.0005395033669335454   -0.00044036625814541106   -0.00011937947274550947
0.0009292485300165733   -0.0011900526022230243   -0.00022649029992350615
0.0002526704177482018   -0.000396443703613989   -0.0001183694829247479
0.000524459745931058   -0.00043122066946545715   -0.00015031811641735864
0.0009292485300165733   -0.0011900526022230243   -0.00022649029992350615
0.0005395033669335454   -0.00044036625814541106   -0.00011937947274550947
0.0002526704177482018   -0.000396443703613989   -0.0001183694829247479
0.0009292485300165733   -0.0011900526022230243   -0.00022649029992350615
0.000457638547222205   -0.0011633406560238252   -0.00019984358475795362
0.00045824400556968166   -0.0011697907165725257   -0.00018781756616817978
0.0002526704177482018   -0.000396443703613989   -0.0001183694829247479
0.0009292485300165733   -0.0011900526022230243   -0.00022649029992350615
0.00045824400556968166   -0.0011697907165725257   -0.00018781756616817978
0.0005395033669335454   -0.00044036625814541106   -0.00011937947274550947
0.0002526704177482018   -0.000396443703613989   -0.0001183694829247479
0.000457638547222205   -0.0011633406560238252   -0.00019984358475795362
0.000524459745931058   -0.00043122066946545715   -0.00015031811641735864
0.0002584287531294466   -0.0003814942863597145   -0.0001335801070408331
0.000457638547222205   -0.0011633406560238252   -0.00019984358475795362
0.0009292485300165733   -0.0011900526022230243   -0.00022649029992350615
0.000524459745931058   -0.00043122066946545715   -0.00015031811641735864
0.0009047866013431459   -0.0011686076388861802   -0.00025476185293978303
0.0002584287531294466   -0.0003814942863597145   -0.0001335801070408331
0.0005014349116758531   -0.0004081347335500576   -0.00018326135714775743
0.0009047866013431459   -0.0011686076388861802   -0.00025476185293978303
0.000524459745931058   -0.00043122066946545715   -0.00015031811641735864
0.0002584287531294466   -0.0003814942863597145   -0.0001335801070408331
0.0009047866013431459   -0.0011686076388861802   -0.00025476185293978303
0.00045784003713341103   -0.0011492122198847451   -0.00021295701741511964
0.000457638547222205   -0.0011633406560238252   -0.00019984358475795362
0.0002584287531294466   -0.0003814942863597145   -0.0001335801070408331
0.0009047866013431459   -0.0011686076388861802   -0.00025476185293978303
0.000457638547222205   -0.0011633406560238252   -0.00019984358475795362
0.000524459745931058   -0.00043122066946545715   -0.00015031811641735864
-0.0012066865029285293   -0.0012068599124682735   -0.00029498769609365404
-0.0016427991971861475   -0.002241184924617218   -0.00033723075186318276
-0.0007697929521460163   -0.0011690846021330747   -0.0002436776949006374
-0.0012410931240958065   -0.0012341789918793975   -0.0002567493655135216
-0.0016427991971861475   -0.002241184924617218   -0.00033723075186318276
-0.0010573656630542552   -0.0022126787479841447   -0.00029626565773135493
-0.0007697929521460163   -0.0011690846021330747   -0.0002436776949006374
-0.001058081059028419   -0.002229261549609365   -0.0002781186486536603
-0.0012410931240958065   -0.0012341789918793975   -0.0002567493655135216
-0.0007693872005737712   -0.0011885636530048255   -0.0002200077615808176
-0.001058081059028419   -0.002229261549609365   -0.0002781186486536603
-0.0007697929521460163   -0.0011690846021330747   -0.0002436776949006374
-0.0012410931240958065   -0.0012341789918793975   -0.0002567493655135216
-0.001058081059028419   -0.002229261549609365   -0.0002781186486536603
-0.0016698099623518319   -0.002263939726110838   -0.0003092064158827719
-0.0016427991971861475   -0.002241184924617218   -0.00033723075186318276
-0.0012410931240958065   -0.0012341789918793975   -0.0002567493655135216
-0.001058081059028419   -0.002229261549609365   -0.0002781186486536603
-0.0016427991971861475   -0.002241184924617218   -0.00033723075186318276
-0.0007697929521460163   -0.0011690846021330747   -0.0002436776949006374
-0.0012410931240958065   -0.0012341789918793975   -0.0002567493655135216
-0.0016698099623518319   -0.002263939726110838   -0.0003092064158827719
-0.0007693872005737712   -0.0011885636530048255   -0.0002200077615808176
-0.001264443605952129   -0.0012497233934084622   -0.00021942581485012664
-0.0016698099623518319   -0.002263939726110838   -0.0003092064158827719
-0.001058081059028419   -0.002229261549609365   -0.0002781186486536603
-0.0007693872005737712   -0.0011885636530048255   -0.0002200077615808176
-0.0010591189906561241   -0.0022409317676880046   -0.00026134312527061206
-0.001264443605952129   -0.0012497233934084622   -0.00021942581485012664
-0.0007710039291110433   -0.0012005589429056297   -0.00019734757887589606
-0.0010591189906561241   -0.0022409317676880046   -0.00026134312527061206
-0.0007693872005737712   -0.0011885636530048255   -0.0002200077615808176
-0.001264443605952129   -0.0012497233934084622   -0.00021942581485012664
-0.0010591189906561241   -0.0022409317676880046   -0.00026134312527061206
-0.0016861024146990209   -0.002278355438975894   -0.000283186824423664
-0.0016698099623518319   -0.002263939726110838   -0.0003092064158827719
-0.001264443605952129   -0.0012497233934084622   -0.00021942581485012664
-0.0010591189906561241   -0.0022409317676880046   -0.00026134312527061206
-0.0016698099623518319   -0.002263939726110838   -0.0003092064158827719
-0.0007693872005737712   -0.0011885636530048255   -0.0002200077615808176
-0.001264443605952129   -0.0012497233934084622   -0.00021942581485012664
-0.0016861024146990209   -0.002278355438975894   -0.000283186824423664
-0.0007710039291110433   -0.0012005589429056297   -0.00019734757887589606
-0.0012919826839464831   -0.0012591191590969704   -0.00018565829386999044
-0.0016861024146990209   -0.002278355438975894   -0.000283186824423664
-0.0010591189906561241   -0.0022409317676880046   -0.00026134312527061206
-0.0007710039291110433   -0.0012005589429056297   -0.00019734757887589606
-0.001055438095899089   -0.0022488090108986397   -0.0002456429501609358
-0.0012919826839464831   -0.0012591191590969704   -0.00018565829386999044
-0.0007672406963524933   -0.0012069842381974918   -0.00017622241641229592
-0.001055438095899089   -0.0022488090108986397   -0.0002456429501609358
-0.0007710039291110433   -0.0012005589429056297   -0.00019734757887589606
-0.0012919826839464831   -0.0012591191590969704   -0.00018565829386999044
-0.001055438095899089   -0.0022488090108986397   -0.0002456429501609358
-0.0017046386485466993   -0.002289046093228836   -0.0002593608963833991
-0.0016861024146990209   -0.002278355438975894   -0.000283186824423664
-0.0012919826839464831   -0.0012591191590969704   -0.00018565829386999044
-0.001055438095899089   -0.0022488090108986397   -0.0002456429501609358
-0.0016861024146990209   -0.002278355438975894   -0.000283186824423664
-0.0007710039291110433   -0.0012005589429056297   -0.00019734757887589606
-0.0007697929521460163   -0.0011690846021330747   -0.0002436776949006374
-0.0010573656630542552   -0.0022126787479841447   -0.00029626565773135493
-0.0003594605174330073   -0.0011514976366023698   -0.00020877640713817773
-0.0007693872005737712   -0.0011885636530048255   -0.0002200077615808176
-0.0010573656630542552   -0.0022126787479841447   -0.00029626565773135493
-0.0005076300092328707   -0.002198329359667872   -0.00026787530065731447
-0.0003594605174330073   -0.0011514976366023698   -0.00020877640713817773
-0.0005047668163480301   -0.0022088132145274965   -0.00025746431875275433
-0.0007693872005737712   -0.0011885636530048255   -0.0002200077615808176
-0.000355019432870724   -0.0011637737736922085   -0.00019652320540899463
-0.0005047668163480301   -0.0022088132145274965   -0.00025746431875275433
-0.0003594605174330073   -0.0011514976366023698   -0.00020877640713817773
-0.0007693872005737712   -0.0011885636530048255   -0.0002200077615808176
-0.0005047668163480301   -0.0022088132145274965   -0.00025746431875275433
-0.001058081059028419   -0.002229261549609365   -0.0002781186486536603
-0.0010573656630542552   -0.0022126787479841447   -0.00029626565773135493
-0.0007693872005737712   -0.0011885636530048255   -0.0002200077615808176
-0.0005047668163480301   -0.0022088132145274965   -0.00025746431875275433
-0.0010573656630542552   -0.0022126787479841447   -0.00029626565773135493
-0.0003594605174330073   -0.0011514976366023698   -0.00020877640713817773
-0.0007693872005737712   -0.0011885636530048255   -0.0002200077615808176
-0.001058081059028419   -0.002229261549609365   -0.0002781186486536603
-0.000355019432870724   -0.0011637737736922085   -0.00019652320540899463
-0.0007710039291110433   -0.0012005589429056297   -0.00019734757887589606
-0.001058081059028419   -0.002229261549609365   -0.0002781186486536603
-0.0005047668163480301   -0.0022088132145274965   -0.00025746431875275433
-0.000355019432870724   -0.0011637737736922085   -0.00019652320540899463
-0.0005016271318942847   -0.0022150222335286917   -0.00024834940708609143
-0.0007710039291110433   -0.0012005589429056297   -0.00019734757887589606
-0.00035093298919849545   -0.0011697732136111512   -0.00018547273339887513
-0.0005016271318942847   -0.0022150222335286917   -0.00024834940708609143
-0.000355019432870724   -0.0011637737736922085   -0.00019652320540899463
-0.0007710039291110433   -0.0012005589429056297   -0.00019734757887589606
-0.0005016271318942847   -0.0022150222335286917   -0.00024834940708609143
-0.0010591189906561241   -0.0022409317676880046   -0.00026134312527061206
-0.001058081059028419   -0.002229261549609365   -0.0002781186486536603
-0.0007710039291110433   -0.0012005589429056297   -0.00019734757887589606
-0.0005016271318942847   -0.0022150222335286917   -0.00024834940708609143
-0.001058081059028419   -0.002229261549609365   -0.0002781186486536603
-0.000355019432870724   -0.0011637737736922085   -0.00019652320540899463
-0.0007710039291110433   -0.0012005589429056297   -0.00019734757887589606
-0.0010591189906561241   -0.0022409317676880046   -0.00026134312527061206
-0.00035093298919849545   -0.0011697732136111512   -0.00018547273339887513
-0.0007672406963524933   -0.0012069842381974918   -0.00017622241641229592
-0.0010591189906561241   -0.0022409317676880046   -0.00026134312527061206
-0.0005016271318942847   -0.0022150222335286917   -0.00024834940708609143
-0.00035093298919849545   -0.0011697732136111512   -0.00018547273339887513
-0.0004974613787798666   -0.0022170448396090898   -0.00024053131582070752
-0.0007672406963524933   -0.0012069842381974918   -0.00017622241641229592
-0.0003454598781165977   -0.0011697187032781641   -0.00017591990065292235
-0.0004974613787798666   -0.0022170448396090898   -0.00024053131582070752
-0.00035093298919849545   -0.0011697732136111512   -0.00018547273339887513
-0.0007672406963524933   -0.0012069842381974918   -0.00017622241641229592
-0.0004974613787798666   -0.0022170448396090898   -0.00024053131582070752
-0.001055438095899089   -0.0022488090108986397   -0.0002456429501609358
-0.0010591189906561241   -0.0022409317676880046   -0.00026134312527061206
-0.0007672406963524933   -0.0012069842381974918   -0.00017622241641229592
-0.0004974613787798666   -0.0022170448396090898   -0.00024053131582070752
-0.0010591189906561241   -0.0022409317676880046   -0.00026134312527061206
-0.00035093298919849545   -0.0011697732136111512   -0.00018547273339887513
-0.0003594605174330073   -0.0011514976366023698   -0.00020877640713817773
-0.0005076300092328707   -0.002198329359667872   -0.00026787530065731447
3.5369437390934174e-05   -0.0011521016480994378   -0.00018700925598595438
-0.000355019432870724   -0.0011637737736922085   -0.00019652320540899463
-0.0005076300092328707   -0.002198329359667872   -0.00026787530065731447
2.5281350929657608e-05   -0.0021975388521813855   -0.0002505904926392212
3.5369437390934174e-05   -0.0011521016480994378   -0.00018700925598595438
2.9269017714286923e-05   -0.0022019799602140118   -0.00024788433426390684
-0.000355019432870724   -0.0011637737736922085   -0.00019652320540899463
4.059512984486267e-05   -0.0011577258834684653   -0.0001859500595950933
2.9269017714286923e-05   -0.0022019799602140118   -0.00024788433426390684
3.5369437390934174e-05   -0.0011521016480994378   -0.00018700925598595438
-0.000355019432870724   -0.0011637737736922085   -0.00019652320540899463
2.9269017714286923e-05   -0.0022019799602140118   -0.00024788433426390684
-0.0005047668163480301   -0.0022088132145274965   -0.00025746431875275433
-0.0005076300092328707   -0.002198329359667872   -0.00026787530065731447
-0.000355019432870724   -0.0011637737736922085   -0.00019652320540899463
2.9269017714286923e-05   -0.0022019799602140118   -0.00024788433426390684
-0.0005076300092328707   -0.002198329359667872   -0.00026787530065731447
3.5369437390934174e-05   -0.0011521016480994378   -0.00018700925598595438
-0.000355019432870724   -0.0011637737736922085   -0.00019652320540899463
-0.0005047668163480301   -0.0022088132145274965   -0.00025746431875275433
4.059512984486267e-05   -0.0011577258834684653   -0.0001859500595950933
-0.00035093298919849545   -0.0011697732136111512   -0.00018547273339887513
-0.0005047668163480301   -0.0022088132145274965   -0.00025746431875275433
2.9269017714286923e-05   -0.0022019799602140118   -0.00024788433426390684
4.059512984486267e-05   -0.0011577258834684653   -0.0001859500595950933
3.2393162068399736e-05   -0.0022021602202882892   -0.0002464457881874248
-0.00035093298919849545   -0.0011697732136111512   -0.00018547273339887513
4.453669562576098e-05   -0.0011572159031369245   -0.0001862508397049862
3.2393162068399736e-05   -0.0022021602202882892   -0.0002464457881874248
4.059512984486267e-05   -0.0011577258834684653   -0.0001859500595950933
-0.00035093298919849545   -0.0011697732136111512   -0.00018547273339887513
3.2393162068399736e-05   -0.0022021602202882892   -0.0002464457881874248
-0.0005016271318942847   -0.0022150222335286917   -0.00024834940708609143
-0.0005047668163480301   -0.0022088132145274965   -0.00025746431875275433
-0.00035093298919849545   -0.0011697732136111512   -0.00018547273339887513
3.2393162068399736e-05   -0.0022021602202882892   -0.0002464457881874248
-0.0005047668163480301   -0.0022088132145274965   -0.00025746431875275433
4.059512984486267e-05   -0.0011577258834684653   -0.0001859500595950933
-0.00035093298919849545   -0.0011697732136111512   -0.00018547273339887513
-0.0005016271318942847   -0.0022150222335286917   -0.00024834940708609143
4.453669562576098e-05   -0.0011572159031369245   -0.0001862508397049862
-0.0003454598781165977   -0.0011697187032781641   -0.00017591990065292235
-0.0005016271318942847   -0.0022150222335286917   -0.00024834940708609143
3.2393162068399736e-05   -0.0022021602202882892   -0.0002464457881874248
4.453669562576098e-05   -0.0011572159031369245   -0.0001862508397049862
3.511131888681957e-05   -0.002198018260674896   -0.00024634584295318173
-0.0003454598781165977   -0.0011697187032781641   -0.00017591990065292235
4.8665559404600966e-05   -0.0011503910577842027   -0.0001879314119509259
3.511131888681957e-05   -0.002198018260674896   -0.00024634584295318173
4.453669562576098e-05   -0.0011572159031369245   -0.0001862508397049862
-0.0003454598781165977   -0.0011697187032781641   -0.00017591990065292235
3.511131888681957e-05   -0.002198018260674896   -0.00024634584295318173
-0.0004974613787798666   -0.0022170448396090898   -0.00024053131582070752
-0.0005016271318942847   -0.0022150222335286917   -0.00024834940708609143
-0.0003454598781165977   -0.0011697187032781641   -0.00017591990065292235
3.511131888681957e-05   -0.002198018260674896   -0.00024634584295318173
-0.0005016271318942847   -0.0022150222335286917   -0.00024834940708609143
4.453669562576098e-05   -0.0011572159031369245   -0.0001862508397049862
3.5369437390934174e-05   -0.0011521016480994378   -0.00018700925598595438
2.5281350929657608e-05   -0.0021975388521813855   -0.0002505904926392212
0.0004545227873184671   -0.0011702661866492608   -0.0001773290785482506
4.059512984486267e-05   -0.0011577258834684653   -0.0001859500595950933
2.5281350929657608e-05   -0.0021975388521813855   -0.0002505904926392212
0.0005813876489098385   -0.0022094869484812134   -0.0002441624327096175
0.0004545227873184671   -0.0011702661866492608   -0.0001773290785482506
0.0005852320421639484   -0.0022083334343530095   -0.0002493082194618154
4.059512984486267e-05   -0.0011577258834684653   -0.0001859500595950933
0.00045824400556968166   -0.0011697907165725257   -0.00018781756616817978
0.0005852320421639484   -0.0022083334343530095   -0.0002493082194618154
0.0004545227873184671   -0.0011702661866492608   -0.0001773290785482506
4.059512984486267e-05   -0.0011577258834684653   -0.0001859500595950933
0.0005852320421639484   -0.0022083334343530095   -0.0002493082194618154
2.9269017714286923e-05   -0.0022019799602140118   -0.00024788433426390684
2.5281350929657608e-05   -0.0021975388521813855   -0.0002505904926392212
4.059512984486267e-05   -0.0011577258834684653   -0.0001859500595950933
0.0005852320421639484   -0.0022083334343530095   -0.0002493082194618154
2.5281350929657608e-05   -0.0021975388521813855   -0.0002505904926392212
0.0004545227873184671   -0.0011702661866492608   -0.0001773290785482506
4.059512984486267e-05   -0.0011577258834684653   -0.0001859500595950933
2.9269017714286923e-05   -0.0022019799602140118   -0.00024788433426390684
0.00045824400556968166   -0.0011697907165725257   -0.00018781756616817978
4.453669562576098e-05   -0.0011572159031369245   -0.0001862508397049862
2.9269017714286923e-05   -0.0022019799602140118   -0.00024788433426390684
0.0005852320421639484   -0.0022083334343530095   -0.0002493082194618154
0.00045824400556968166   -0.0011697907165725257   -0.00018781756616817978
0.0005855559033274603   -0.002203063852317981   -0.0002556284983076794
4.453669562576098e-05   -0.0011572159031369245   -0.0001862508397049862
0.000457638547222205   -0.0011633406560238252   -0.00019984358475795362
0.0005855559033274603   -0.002203063852317981   -0.0002556284983076794
0.00045824400556968166   -0.0011697907165725257   -0.00018781756616817978
4.453669562576098e-05   -0.0011572159031369245   -0.0001862508397049862
0.0005855559033274603   -0.002203063852317981   -0.0002556284983076794
3.2393162068399736e-05   -0.0022021602202882892   -0.0002464457881874248
2.9269017714286923e-05   -0.0022019799602140118   -0.00024788433426390684
4.453669562576098e-05   -0.0011572159031369245   -0.0001862508397049862
0.0005855559033274603   -0.002203063852317981   -0.0002556284983076794
2.9269017714286923e-05   -0.0022019799602140118   -0.00024788433426390684
0.00045824400556968166   -0.0011697907165725257   -0.00018781756616817978
4.453669562576098e-05   -0.0011572159031369245   -0.0001862508397049862
3.2393162068399736e-05   -0.0022021602202882892   -0.0002464457881874248
0.000457638547222205   -0.0011633406560238252   -0.00019984358475795362
4.8665559404600966e-05   -0.0011503910577842027   -0.0001879314119509259
3.2393162068399736e-05   -0.0022021602202882892   -0.0002464457881874248
0.0005855559033274603   -0.002203063852317981   -0.0002556284983076794
0.000457638547222205   -0.0011633406560238252   -0.00019984358475795362
0.0005850276001172998   -0.0021925996596729364   -0.00026326727841079884
4.8665559404600966e-05   -0.0011503910577842027   -0.0001879314119509259
0.00045784003713341103   -0.0011492122198847451   -0.00021295701741511964
0.0005850276001172998   -0.0021925996596729364   -0.00026326727841079884
0.000457638547222205   -0.0011633406560238252   -0.00019984358475795362
4.8665559404600966e-05   -0.0011503910577842027   -0.0001879314119509259
0.0005850276001172998   -0.0021925996596729364   -0.00026326727841079884
3.511131888681957e-05   -0.002198018260674896   -0.00024634584295318173
3.2393162068399736e-05   -0.0022021602202882892   -0.0002464457881874248
4.8665559404600966e-05   -0.0011503910577842027   -0.0001879314119509259
0.0005850276001172998   -0.0021925996596729364   -0.00026326727841079884
3.2393162068399736e-05   -0.0022021602202882892   -0.0002464457881874248
0.000457638547222205   -0.0011633406560238252   -0.00019984358475795362
0.0004545227873184671   -0.0011702661866492608   -0.0001773290785482506
0.0005813876489098385   -0.0022094869484812134   -0.0002441624327096175
0.0009622831993388478   -0.0012037620523181213   -0.0001756729812460295
0.00045824400556968166   -0.0011697907165725257   -0.00018781756616817978
0.0005813876489098385   -0.0022094869484812134   -0.0002441624327096175
0.0012156464002790169   -0.002230801859728518   -0.000245571000405324
0.0009622831993388478   -0.0012037620523181213   -0.0001756729812460295
0.001207709044488777   -0.002226336714031431   -0.00025940521702793625
0.00045824400556968166   -0.0011697907165725257   -0.00018781756616817978
0.0009449391664144106   -0.0011999137787122465   -0.00019947307982616348
0.001207709044488777   -0.002226336714031431   -0.00025940521702793625
0.0009622831993388478   -0.0012037620523181213   -0.0001756729812460295
0.00045824400556968166   -0.0011697907165725257   -0.00018781756616817978
0.001207709044488777   -0.002226336714031431   -0.00025940521702793625
0.0005852320421639484   -0.0022083334343530095   -0.0002493082194618154
0.0005813876489098385   -0.0022094869484812134   -0.0002441624327096175
0.00045824400556968166   -0.0011697907165725257   -0.00018781756616817978
0.001207709044488777   -0.002226336714031431   -0.00025940521702793625
0.0005813876489098385   -0.0022094869484812134   -0.0002441624327096175
0.0009622831993388478   -0.0012037620523181213   -0.0001756729812460295
0.00045824400556968166   -0.0011697907165725257   -0.00018781756616817978
0.0005852320421639484   -0.0022083334343530095   -0.0002493082194618154
0.0009449391664144106   -0.0011999137787122465   -0.00019947307982616348
0.000457638547222205   -0.0011633406560238252   -0.00019984358475795362
0.0005852320421639484   -0.0022083334343530095   -0.0002493082194618154
0.001207709044488777   -0.002226336714031431   -0.00025940521702793625
0.0009449391664144106   -0.0011999137787122465   -0.00019947307982616348
0.0011994150675913254   -0.0022183276501902094   -0.0002753587160667818
0.000457638547222205   -0.0011633406560238252   -0.00019984358475795362
0.0009292485300165733   -0.0011900526022230243   -0.00022649029992350615
0.0011994150675913254   -0.0022183276501902094   -0.0002753587160667818
0.0009449391664144106   -0.0011999137787122465   -0.00019947307982616348
0.000457638547222205   -0.0011633406560238252   -0.00019984358475795362
0.0011994150675913254   -0.0022183276501902094   -0.0002753587160667818
0.0005855559033274603   -0.002203063852317981   -0.0002556284983076794
0.0005852320421639484   -0.0022083334343530095   -0.0002493082194618154
0.000457638547222205   -0.0011633406560238252   -0.00019984358475795362
0.0011994150675913254   -0.0022183276501902094   -0.0002753587160667818
0.0005852320421639484   -0.0022083334343530095   -0.0002493082194618154
0.0009449391664144106   -0.0011999137787122465   -0.00019947307982616348
0.000457638547222205   -0.0011633406560238252   -0.00019984358475795362
0.0005855559033274603   -0.002203063852317981   -0.0002556284983076794
0.0009292485300165733   -0.0011900526022230243   -0.00022649029992350615
0.00045784003713341103   -0.0011492122198847451   -0.00021295701741511964
0.0005855559033274603   -0.002203063852317981   -0.0002556284983076794
0.0011994150675913254   -0.0022183276501902094   -0.0002753587160667818
0.0009292485300165733   -0.0011900526022230243   -0.00022649029992350615
0.0011829771749186408   -0.002202092819939276   -0.0002934343894982323
0.00045784003713341103   -0.0011492122198847451   -0.00021295701741511964
0.0009047866013431459   -0.0011686076388861802   -0.00025476185293978303
0.0011829771749186408   -0.002202092819939276   -0.0002934343894982323
0.0009292485300165733   -0.0011900526022230243   -0.00022649029992350615
0.00045784003713341103   -0.0011492122198847451   -0.00021295701741511964
0.0011829771749186408   -0.002202092819939276   -0.0002934343894982323
0.0005850276001172998   -0.0021925996596729364   -0.00026326727841079884
0.0005855559033274603   -0.002203063852317981   -0.0002556284983076794
0.00045784003713341103   -0.0011492122198847451   -0.00021295701741511964
0.0011829771749186408   -0.002202092819939276   -0.0002934343894982323
0.0005855559033274603   -0.002203063852317981   -0.0002556284983076794
0.0009292485300165733   -0.0011900526022230243   -0.00022649029992350615
-0.0016427991971861475   -0.002241184924617218   -0.00033723075186318276
-0.0019503327825907578   -0.003454684575074032   -0.0003613548842753145
-0.0010573656630542552   -0.0022126787479841447   -0.00029626565773135493
-0.0016698099623518319   -0.002263939726110838   -0.0003092064158827719
-0.0019503327825907578   -0.003454684575074032   -0.0003613548842753145
-0.0012690458524409528   -0.0034368871241055856   -0.0003285359877432987
-0.0010573656630542552   -0.0022126787479841447   -0.00029626565773135493
-0.0012689458048880905   -0.003450921337070493   -0.0003157175797511182
-0.0016698099623518319   -0.002263939726110838   -0.0003092064158827719
-0.001058081059028419   -0.002229261549609365   -0.0002781186486536603
-0.0012689458048880905   -0.003450921337070493   -0.0003157175797511182
-0.0010573656630542552   -0.0022126787479841447   -0.00029626565773135493
-0.0016698099623518319   -0.002263939726110838   -0.0003092064158827719
-0.0012689458048880905   -0.003450921337070493   -0.0003157175797511182
-0.0019676006638386645   -0.003473751287254206   -0.0003431576961676871
-0.0019503327825907578   -0.003454684575074032   -0.0003613548842753145
-0.0016698099623518319   -0.002263939726110838   -0.0003092064158827719
-0.0012689458048880905   -0.003450921337070493   -0.0003157175797511182
-0.0019503327825907578   -0.003454684575074032   -0.0003613548842753145
-0.0010573656630542552   -0.0022126787479841447   -0.00029626565773135493
-0.0016698099623518319   -0.002263939726110838   -0.0003092064158827719
-0.0019676006638386645   -0.003473751287254206   -0.0003431576961676871
-0.001058081059028419   -0.002229261549609365   -0.0002781186486536603
-0.0016861024146990209   -0.002278355438975894   -0.000283186824423664
-0.0019676006638386645   -0.003473751287254206   -0.0003431576961676871
-0.0012689458048880905   -0.003450921337070493   -0.0003157175797511182
-0.001058081059028419   -0.002229261549609365   -0.0002781186486536603
-0.0012683542474465207   -0.0034621853580656123   -0.00030420508188504003
-0.0016861024146990209   -0.002278355438975894   -0.000283186824423664
-0.0010591189906561241   -0.0022409317676880046   -0.00026134312527061206
-0.0012683542474465207   -0.0034621853580656123   -0.00030420508188504003
-0.001058081059028419   -0.002229261549609365   -0.0002781186486536603
-0.0016861024146990209   -0.002278355438975894   -0.000283186824423664
-0.0012683542474465207   -0.0034621853580656123   -0.00030420508188504003
-0.001976706009207776   -0.003487407237477357   -0.00032677605065942417
-0.0019676006638386645   -0.003473751287254206   -0.0003431576961676871
-0.0016861024146990209   -0.002278355438975894   -0.000283186824423664
-0.0012683542474465207   -0.0034621853580656123   -0.00030420508188504003
-0.0019676006638386645   -0.003473751287254206   -0.0003431576961676871
-0.001058081059028419   -0.002229261549609365   -0.0002781186486536603
-0.0016861024146990209   -0.002278355438975894   -0.000283186824423664
-0.001976706009207776   -0.003487407237477357   -0.00032677605065942417
-0.0010591189906561241   -0.0022409317676880046   -0.00026134312527061206
-0.0017046386485466993   -0.002289046093228836   -0.0002593608963833991
-0.001976706009207776   -0.003487407237477357   -0.00032677605065942417
-0.0012683542474465207   -0.0034621853580656123   -0.00030420508188504003
-0.0010591189906561241   -0.0022409317676880046   -0.00026134312527061206
-0.0012640837285494916   -0.0034716283789300046   -0.00029381464292987805
-0.0017046386485466993   -0.002289046093228836   -0.0002593608963833991
-0.001055438095899089   -0.0022488090108986397   -0.0002456429501609358
-0.0012640837285494916   -0.0034716283789300046   -0.00029381464292987805
-0.0010591189906561241   -0.0022409317676880046   -0.00026134312527061206
-0.0017046386485466993   -0.002289046093228836   -0.0002593608963833991
-0.0012640837285494916   -0.0034716283789300046   -0.00029381464292987805
-0.001985950052148656   -0.003499930538942083   -0.00031243517719221187
-0.001976706009207776   -0.003487407237477357   -0.00032677605065942417
-0.0017046386485466993   -0.002289046093228836   -0.0002593608963833991
-0.0012640837285494916   -0.0034716283789300046   -0.00029381464292987805
-0.001976706009207776   -0.003487407237477357   -0.00032677605065942417
-0.0010591189906561241   -0.0022409317676880046   -0.00026134312527061206
-0.0010573656630542552   -0.0022126787479841447   -0.00029626565773135493
-0.0012690458524409528   -0.0034368871241055856   -0.0003285359877432987
-0.0005076300092328707   -0.002198329359667872   -0.00026787530065731447
-0.001058081059028419   -0.002229261549609365   -0.0002781186486536603
-0.0012690458524409528   -0.0034368871241055856   -0.0003285359877432987
-0.0006317182461199985   -0.0034274611339443943   -0.0003058618190938228
-0.0005076300092328707   -0.002198329359667872   -0.00026787530065731447
-0.0006289373519733939   -0.003436150009080695   -0.00029721273991540915
-0.001058081059028419   -0.002229261549609365   -0.0002781186486536603
-0.0005047668163480301   -0.0022088132145274965   -0.00025746431875275433
-0.0006289373519733939   -0.003436150009080695   -0.00029721273991540915
-0.0005076300092328707   -0.002198329359667872   -0.00026787530065731447
-0.001058081059028419   -0.002229261549609365   -0.0002781186486536603
-0.0006289373519733939   -0.003436150009080695   -0.00029721273991540915
-0.0012689458048880905   -0.003450921337070493   -0.0003157175797511182
-0.0012690458524409528   -0.0034368871241055856   -0.0003285359877432987
-0.001058081059028419   -0.002229261549609365   -0.0002781186486536603
-0.0006289373519733939   -0.003436150009080695   -0.00029721273991540915
-0.0012690458524409528   -0.0034368871241055856   -0.0003285359877432987
-0.0005076300092328707   -0.002198329359667872   -0.00026787530065731447
-0.001058081059028419   -0.002229261549609365   -0.0002781186486536603
-0.0012689458048880905   -0.003450921337070493   -0.0003157175797511182
-0.0005047668163480301   -0.0022088132145274965   -0.00025746431875275433
-0.0010591189906561241   -0.0022409317676880046   -0.00026134312527061206
-0.0012689458048880905   -0.003450921337070493   -0.0003157175797511182
-0.0006289373519733939   -0.003436150009080695   -0.00029721273991540915
-0.0005047668163480301   -0.0022088132145274965   -0.00025746431875275433
-0.000625738419501854   -0.0034425030052031664   -0.00028984175235326947
-0.0010591189906561241   -0.0022409317676880046   -0.00026134312527061206
-0.0005016271318942847   -0.0022150222335286917   -0.00024834940708609143
-0.000625738419501854   -0.0034425030052031664   -0.00028984175235326947
-0.0005047668163480301   -0.0022088132145274965   -0.00025746431875275433
-0.0010591189906561241   -0.0022409317676880046   -0.00026134312527061206
-0.000625738419501854   -0.0034425030052031664   -0.00028984175235326947
-0.0012683542474465207   -0.0034621853580656123   -0.00030420508188504003
-0.0012689458048880905   -0.003450921337070493   -0.0003157175797511182
-0.0010591189906561241   -0.0022409317676880046   -0.00026134312527061206
-0.000625738419501854   -0.0034425030052031664   -0.00028984175235326947
-0.0012689458048880905   -0.003450921337070493   -0.0003157175797511182
-0.0005047668163480301   -0.0022088132145274965   -0.00025746431875275433
-0.0010591189906561241   -0.0022409317676880046   -0.00026134312527061206
-0.0012683542474465207   -0.0034621853580656123   -0.00030420508188504003
-0.0005016271318942847   -0.0022150222335286917   -0.00024834940708609143
-0.001055438095899089   -0.0022488090108986397   -0.0002456429501609358
-0.0012683542474465207   -0.0034621853580656123   -0.00030420508188504003
-0.000625738419501854   -0.0034425030052031664   -0.00028984175235326947
-0.0005016271318942847   -0.0022150222335286917   -0.00024834940708609143
-0.0006217201723777995   -0.0034465634855332947   -0.000283775975998207
-0.001055438095899089   -0.0022488090108986397   -0.0002456429501609358
-0.0004974613787798666   -0.0022170448396090898   -0.00024053131582070752
-0.0006217201723777995   -0.0034465634855332947   -0.000283775975998207
-0.0005016271318942847   -0.0022150222335286917   -0.00024834940708609143
-0.001055438095899089   -0.0022488090108986397   -0.0002456429501609358
-0.0006217201723777995   -0.0034465634855332947   -0.000283775975998207
-0.0012640837285494916   -0.0034716283789300046   -0.00029381464292987805
-0.0012683542474465207   -0.0034621853580656123   -0.00030420508188504003
-0.001055438095899089   -0.0022488090108986397   -0.0002456429501609358
-0.0006217201723777995   -0.0034465634855332947   -0.000283775975998207
-0.0012683542474465207   -0.0034621853580656123   -0.00030420508188504003
-0.0005016271318942847   -0.0022150222335286917   -0.00024834940708609143
-0.0005076300092328707   -0.002198329359667872   -0.00026787530065731447
-0.0006317182461199985   -0.0034274611339443943   -0.0003058618190938228
2.5281350929657608e-05   -0.0021975388521813855   -0.0002505904926392212
-0.0005047668163480301   -0.0022088132145274965   -0.00025746431875275433
-0.0006317182461199985   -0.0034274611339443943   -0.0003058618190938228
-1.2087653511668176e-05   -0.0034256983084142278   -0.00029299313733429126
2.5281350929657608e-05   -0.0021975388521813855   -0.0002505904926392212
-8.208105604838664e-06   -0.003428963568712753   -0.00028856517388815503
-0.0005047668163480301   -0.0022088132145274965   -0.00025746431875275433
2.9269017714286923e-05   -0.0022019799602140118   -0.00024788433426390684
-8.208105604838664e-06   -0.003428963568712753   -0.00028856517388815503
2.5281350929657608e-05   -0.0021975388521813855   -0.0002505904926392212
-0.0005047668163480301   -0.0022088132145274965   -0.00025746431875275433
-8.208105604838664e-06   -0.003428963568712753   -0.00028856517388815503
-0.0006289373519733939   -0.003436150009080695   -0.00029721273991540915
-0.0006317182461199985   -0.0034274611339443943   -0.0003058618190938228
-0.0005047668163480301   -0.0022088132145274965   -0.00025746431875275433
-8.208105604838664e-06   -0.003428963568712753   -0.00028856517388815503
-0.0006317182461199985   -0.0034274611339443943   -0.0003058618190938228
2.5281350929657608e-05   -0.0021975388521813855   -0.0002505904926392212
-0.0005047668163480301   -0.0022088132145274965   -0.00025746431875275433
-0.0006289373519733939   -0.003436150009080695   -0.00029721273991540915
2.9269017714286923e-05   -0.0022019799602140118   -0.00024788433426390684
-0.0005016271318942847   -0.0022150222335286917   -0.00024834940708609143
-0.0006289373519733939   -0.003436150009080695   -0.00029721273991540915
-8.208105604838664e-06   -0.003428963568712753   -0.00028856517388815503
2.9269017714286923e-05   -0.0022019799602140118   -0.00024788433426390684
-4.993599732856867e-06   -0.003429874835680485   -0.0002854048050028668
-0.0005016271318942847   -0.0022150222335286917   -0.00024834940708609143
3.2393162068399736e-05   -0.0022021602202882892   -0.0002464457881874248
-4.993599732856867e-06   -0.003429874835680485   -0.0002854048050028668
2.9269017714286923e-05   -0.0022019799602140118   -0.00024788433426390684
-0.0005016271318942847   -0.0022150222335286917   -0.00024834940708609143
-4.993599732856867e-06   -0.003429874835680485   -0.0002854048050028668
-0.000625738419501854   -0.0034425030052031664   -0.00028984175235326947
-0.0006289373519733939   -0.003436150009080695   -0.00029721273991540915
-0.0005016271318942847   -0.0022150222335286917   -0.00024834940708609143
-4.993599732856867e-06   -0.003429874835680485   -0.0002854048050028668
-0.0006289373519733939   -0.003436150009080695   -0.00029721273991540915
2.9269017714286923e-05   -0.0022019799602140118   -0.00024788433426390684
-0.0005016271318942847   -0.0022150222335286917   -0.00024834940708609143
-0.000625738419501854   -0.0034425030052031664   -0.00028984175235326947
3.2393162068399736e-05   -0.0022021602202882892   -0.0002464457881874248
-0.0004974613787798666   -0.0022170448396090898   -0.00024053131582070752
-0.000625738419501854   -0.0034425030052031664   -0.00028984175235326947
-4.993599732856867e-06   -0.003429874835680485   -0.0002854048050028668
3.2393162068399736e-05   -0.0022021602202882892   -0.0002464457881874248
-2.3469479595327405e-06   -0.003428398471659344   -0.0002835633086841141
-0.0004974613787798666   -0.0022170448396090898   -0.00024053131582070752
3.511131888681957e-05   -0.002198018260674896   -0.00024634584295318173
-2.3469479595327405e-06   -0.003428398471659344   -0.0002835633086841141
3.2393162068399736e-05   -0.0022021602202882892   -0.0002464457881874248
-0.0004974613787798666   -0.0022170448396090898   -0.00024053131582070752
-2.3469479595327405e-06   -0.003428398471659344   -0.0002835633086841141
-0.0006217201723777995   -0.0034465634855332947   -0.000283775975998207
-0.000625738419501854   -0.0034425030052031664   -0.00028984175235326947
-0.0004974613787798666   -0.0022170448396090898   -0.00024053131582070752
-2.3469479595327405e-06   -0.003428398471659344   -0.0002835633086841141
-0.000625738419501854   -0.0034425030052031664   -0.00028984175235326947
3.2393162068399736e-05   -0.0022021602202882892   -0.0002464457881874248
2.5281350929657608e-05   -0.0021975388521813855   -0.0002505904926392212
-1.2087653511668176e-05   -0.0034256983084142278   -0.00029299313733429126
0.0005813876489098385   -0.0022094869484812134   -0.0002441624327096175
2.9269017714286923e-05   -0.0022019799602140118   -0.00024788433426390684
-1.2087653511668176e-05   -0.0034256983084142278   -0.00029299313733429126
0.0006289433106861816   -0.0034309045125076334   -0.0002899375069297223
0.0005813876489098385   -0.0022094869484812134   -0.0002441624327096175
0.0006334619904869822   -0.0034290114694871866   -0.00028980700329157117
2.9269017714286923e-05   -0.0022019799602140118   -0.00024788433426390684
0.0005852320421639484   -0.0022083334343530095   -0.0002493082194618154
0.0006334619904869822   -0.0034290114694871866   -0.00028980700329157117
0.0005813876489098385   -0.0022094869484812134   -0.0002441624327096175
2.9269017714286923e-05   -0.0022019799602140118   -0.00024788433426390684
0.0006334619904869822   -0.0034290114694871866   -0.00028980700329157117
-8.208105604838664e-06   -0.003428963568712753   -0.00028856517388815503
-1.2087653511668176e-05   -0.0034256983084142278   -0.00029299313733429126
2.9269017714286923e-05   -0.0022019799602140118   -0.00024788433426390684
0.0006334619904869822   -0.0034290114694871866   -0.00028980700329157117
-1.2087653511668176e-05   -0.0034256983084142278   -0.00029299313733429126
0.0005813876489098385   -0.0022094869484812134   -0.0002441624327096175
2.9269017714286923e-05   -0.0022019799602140118   -0.00024788433426390684
-8.208105604838664e-06   -0.003428963568712753   -0.00028856517388815503
0.0005852320421639484   -0.0022083334343530095   -0.0002493082194618154
3.2393162068399736e-05   -0.0022021602202882892   -0.0002464457881874248
-8.208105604838664e-06   -0.003428963568712753   -0.00028856517388815503
0.0006334619904869822   -0.0034290114694871866   -0.00028980700329157117
0.0005852320421639484   -0.0022083334343530095   -0.0002493082194618154
0.00063550895624158   -0.0034250063531563067   -0.00029087159584279194
3.2393162068399736e-05   -0.0022021602202882892   -0.0002464457881874248
0.0005855559033274603   -0.002203063852317981   -0.0002556284983076794
0.00063550895624158   -0.0034250063531563067   -0.00029087159584279194
0.0005852320421639484   -0.0022083334343530095   -0.0002493082194618154
3.2393162068399736e-05   -0.0022021602202882892   -0.0002464457881874248
0.00063550895624158   -0.0034250063531563067   -0.00029087159584279194
-4.993599732856867e-06   -0.003429874835680485   -0.0002854048050028668
-8.208105604838664e-06   -0.003428963568712753   -0.00028856517388815503
3.2393162068399736e-05   -0.0022021602202882892   -0.0002464457881874248
0.00063550895624158   -0.0034250063531563067   -0.00029087159584279194
-8.208105604838664e-06   -0.003428963568712753   -0.00028856517388815503
0.0005852320421639484   -0.0022083334343530095   -0.0002493082194618154
3.2393162068399736e-05   -0.0022021602202882892   -0.0002464457881874248
-4.993599732856867e-06   -0.003429874835680485   -0.0002854048050028668
0.0005855559033274603   -0.002203063852317981   -0.0002556284983076794
3.511131888681957e-05   -0.002198018260674896   -0.00024634584295318173
-4.993599732856867e-06   -0.003429874835680485   -0.0002854048050028668
0.00063550895624158   -0.0034250063531563067   -0.00029087159584279194
0.0005855559033274603   -0.002203063852317981   -0.0002556284983076794
0.0006358580417995261   -0.003417946690615192   -0.00029318243152824604
3.511131888681957e-05   -0.002198018260674896   -0.00024634584295318173
0.0005850276001172998   -0.0021925996596729364   -0.00026326727841079884
0.0006358580417995261   -0.003417946690615192   -0.00029318243152824604
0.0005855559033274603   -0.002203063852317981   -0.0002556284983076794
3.511131888681957e-05   -0.002198018260674896   -0.00024634584295318173
0.0006358580417995261   -0.003417946690615192   -0.00029318243152824604
-2.3469479595327405e-06   -0.003428398471659344   -0.0002835633086841141
-4.993599732856867e-06   -0.003429874835680485   -0.0002854048050028668
3.511131888681957e-05   -0.002198018260674896   -0.00024634584295318173
0.0006358580417995261   -0.003417946690615192   -0.00029318243152824604
-4.993599732856867e-06   -0.003429874835680485   -0.0002854048050028668
0.0005855559033274603   -0.002203063852317981   -0.0002556284983076794
0.0005813876489098385   -0.0022094869484812134   -0.0002441624327096175
0.0006289433106861816   -0.0034309045125076334   -0.0002899375069297223
0.0012156464002790169   -0.002230801859728518   -0.000245571000405324
0.0005852320421639484   -0.0022083334343530095   -0.0002493082194618154
0.0006289433106861816   -0.0034309045125076334   -0.0002899375069297223
0.001336631174285355   -0.003440186335965494   -0.0002948423068199433
0.0012156464002790169   -0.002230801859728518   -0.000245571000405324
0.0013381266004980344   -0.0034347350468587486   -0.00029916242114106745
0.0005852320421639484   -0.0022083334343530095   -0.0002493082194618154
0.001207709044488777   -0.002226336714031431   -0.00025940521702793625
0.0013381266004980344   -0.0034347350468587486   -0.00029916242114106745
0.0012156464002790169   -0.002230801859728518   -0.000245571000405324
0.0005852320421639484   -0.0022083334343530095   -0.0002493082194618154
0.0013381266004980344   -0.0034347350468587486   -0.00029916242114106745
0.0006334619904869822   -0.0034290114694871866   -0.00028980700329157117
0.0006289433106861816   -0.0034309045125076334   -0.0002899375069297223
0.0005852320421639484   -0.0022083334343530095   -0.0002493082194618154
0.0013381266004980344   -0.0034347350468587486   -0.00029916242114106745
0.0006289433106861816   -0.0034309045125076334   -0.0002899375069297223
0.0012156464002790169   -0.002230801859728518   -0.000245571000405324
0.0005852320421639484   -0.0022083334343530095   -0.0002493082194618154
0.0006334619904869822   -0.0034290114694871866   -0.00028980700329157117
0.001207709044488777   -0.002226336714031431   -0.00025940521702793625
0.0005855559033274603   -0.002203063852317981   -0.0002556284983076794
0.0006334619904869822   -0.0034290114694871866   -0.00028980700329157117
0.0013381266004980344   -0.0034347350468587486   -0.00029916242114106745
0.001207709044488777   -0.002226336714031431   -0.00025940521702793625
0.0013371796557651483   -0.0034283308394766386   -0.00030543304458099507
0.0005855559033274603   -0.002203063852317981   -0.0002556284983076794
0.0011994150675913254   -0.0022183276501902094   -0.0002753587160667818
0.0013371796557651483   -0.0034283308394766386   -0.00030543304458099507
0.001207709044488777   -0.002226336714031431   -0.00025940521702793625
0.0005855559033274603   -0.002203063852317981   -0.0002556284983076794
0.0013371796557651483   -0.0034283308394766386   -0.00030543304458099507
0.00063550895624158   -0.0034250063531563067   -0.00029087159584279194
0.0006334619904869822   -0.0034290114694871866   -0.00028980700329157117
0.0005855559033274603   -0.002203063852317981   -0.0002556284983076794
0.0013371796557651483   -0.0034283308394766386   -0.00030543304458099507
0.0006334619904869822   -0.0034290114694871866   -0.00028980700329157117
0.001207709044488777   -0.002226336714031431   -0.00025940521702793625
0.0005855559033274603   -0.002203063852317981   -0.0002556284983076794
0.00063550895624158   -0.0034250063531563067   -0.00029087159584279194
0.0011994150675913254   -0.0022183276501902094   -0.0002753587160667818
0.0005850276001172998   -0.0021925996596729364   -0.00026326727841079884
0.00063550895624158   -0.0034250063531563067   -0.00029087159584279194
0.0013371796557651483   -0.0034283308394766386   -0.00030543304458099507
0.0011994150675913254   -0.0022183276501902094   -0.0002753587160667818
0.0013306280922446702   -0.0034166637059433644   -0.00031363978786265505
0.0005850276001172998   -0.0021925996596729364   -0.00026326727841079884
0.0011829771749186408   -0.002202092819939276   -0.0002934343894982323
0.0013306280922446702   -0.0034166637059433644   -0.00031363978786265505
0.0011994150675913254   -0.0022183276501902094   -0.0002753587160667818
0.0005850276001172998   -0.0021925996596729364   -0.00026326727841079884
0.0013306280922446702   -0.0034166637059433644   -0.00031363978786265505
0.0006358580417995261   -0.003417946690615192   -0.00029318243152824604
0.00063550895624158   -0.0034250063531563067   -0.00029087159584279194
0.0005850276001172998   -0.0021925996596729364   -0.00026326727841079884
0.0013306280922446702   -0.0034166637059433644   -0.00031363978786265505
0.00063550895624158   -0.0034250063531563067   -0.00029087159584279194
0.0011994150675913254   -0.0022183276501902094   -0.0002753587160667818
-0.0019503327825907578   -0.003454684575074032   -0.0003613548842753145
-0.002131308749020839   -0.0047632243323058   -0.00036984947846824484
-0.0012690458524409528   -0.0034368871241055856   -0.0003285359877432987
-0.0019676006638386645   -0.003473751287254206   -0.0003431576961676871
-0.002131308749020839   -0.0047632243323058   -0.00036984947846824484
-0.0014057159958374595   -0.0047562779571158125   -0.00034422147771246135
-0.0012690458524409528   -0.0034368871241055856   -0.0003285359877432987
-0.0014037745596639482   -0.004768037282711181   -0.000336478206259899
-0.0019676006638386645   -0.003473751287254206   -0.0003431576961676871
-0.0012689458048880905   -0.003450921337070493   -0.0003157175797511182
-0.0014037745596639482   -0.004768037282711181   -0.000336478206259899
-0.0012690458524409528   -0.0034368871241055856   -0.0003285359877432987
-0.0019676006638386645   -0.003473751287254206   -0.0003431576961676871
-0.0014037745596639482   -0.004768037282711181   -0.000336478206259899
-0.002138367713561131   -0.004779105939755818   -0.00036083901528915867
-0.002131308749020839   -0.0047632243323058   -0.00036984947846824484
-0.0019676006638386645   -0.003473751287254206   -0.0003431576961676871
-0.0014037745596639482   -0.004768037282711181   -0.000336478206259899
-0.002131308749020839   -0.0047632243323058   -0.00036984947846824484
-0.0012690458524409528   -0.0034368871241055856   -0.0003285359877432987
-0.0019676006638386645   -0.003473751287254206   -0.0003431576961676871
-0.002138367713561131   -0.004779105939755818   -0.00036083901528915867
-0.0012689458048880905   -0.003450921337070493   -0.0003157175797511182
-0.001976706009207776   -0.003487407237477357   -0.00032677605065942417
-0.002138367713561131   -0.004779105939755818   -0.00036083901528915867
-0.0014037745596639482   -0.004768037282711181   -0.000336478206259899
-0.0012689458048880905   -0.003450921337070493   -0.0003157175797511182
-0.0014005030655547292   -0.004779045395868936   -0.00033002572646689913
-0.001976706009207776   -0.003487407237477357   -0.00032677605065942417
-0.0012683542474465207   -0.0034621853580656123   -0.00030420508188504003
-0.0014005030655547292   -0.004779045395868936   -0.00033002572646689913
-0.0012689458048880905   -0.003450921337070493   -0.0003157175797511182
-0.001976706009207776   -0.003487407237477357   -0.00032677605065942417
-0.0014005030655547292   -0.004779045395868936   -0.00033002572646689913
-0.0021394810534817598   -0.004792253805317173   -0.00035368157690014864
-0.002138367713561131   -0.004779105939755818   -0.00036083901528915867
-0.001976706009207776   -0.003487407237477357   -0.00032677605065942417
-0.0014005030655547292   -0.004779045395868936   -0.00033002572646689913
-0.002138367713561131   -0.004779105939755818   -0.00036083901528915867
-0.0012689458048880905   -0.003450921337070493   -0.0003157175797511182
-0.001976706009207776   -0.003487407237477357   -0.00032677605065942417
-0.0021394810534817598   -0.004792253805317173   -0.00035368157690014864
-0.0012683542474465207   -0.0034621853580656123   -0.00030420508188504003
-0.001985950052148656   -0.003499930538942083   -0.00031243517719221187
-0.0021394810534817598   -0.004792253805317173   -0.00035368157690014864
-0.0014005030655547292   -0.004779045395868936   -0.00033002572646689913
-0.0012683542474465207   -0.0034621853580656123   -0.00030420508188504003
-0.001394542663085014   -0.004790156454540599   -0.00032475990513289624
-0.001985950052148656   -0.003499930538942083   -0.00031243517719221187
-0.0012640837285494916   -0.0034716283789300046   -0.00029381464292987805
-0.001394542663085014   -0.004790156454540599   -0.00032475990513289624
-0.0012683542474465207   -0.0034621853580656123   -0.00030420508188504003
-0.001985950052148656   -0.003499930538942083   -0.00031243517719221187
-0.001394542663085014   -0.004790156454540599   -0.00032475990513289624
-0.0021385853413596265   -0.004806782346861512   -0.0003485516770280151
-0.0021394810534817598   -0.004792253805317173   -0.00035368157690014864
-0.001985950052148656   -0.003499930538942083   -0.00031243517719221187
-0.001394542663085014   -0.004790156454540599   -0.00032475990513289624
-0.0021394810534817598   -0.004792253805317173   -0.00035368157690014864
-0.0012683542474465207   -0.0034621853580656123   -0.00030420508188504003
-0.0012690458524409528   -0.0034368871241055856   -0.0003285359877432987
-0.0014057159958374595   -0.0047562779571158125   -0.00034422147771246135
-0.0006317182461199985   -0.0034274611339443943   -0.0003058618190938228
-0.0012689458048880905   -0.003450921337070493   -0.0003157175797511182
-0.0014057159958374595   -0.0047562779571158125   -0.00034422147771246135
-0.0007320165109878973   -0.004751982552556497   -0.0003268219837883624
-0.0006317182461199985   -0.0034274611339443943   -0.0003058618190938228
-0.0007281461912278859   -0.00475898391491563   -0.00031984810006895894
-0.0012689458048880905   -0.003450921337070493   -0.0003157175797511182
-0.0006289373519733939   -0.003436150009080695   -0.00029721273991540915
-0.0007281461912278859   -0.00475898391491563   -0.00031984810006895894
-0.0006317182461199985   -0.0034274611339443943   -0.0003058618190938228
-0.0012689458048880905   -0.003450921337070493   -0.0003157175797511182
-0.0007281461912278859   -0.00475898391491563   -0.00031984810006895894
-0.0014037745596639482   -0.004768037282711181   -0.000336478206259899
-0.0014057159958374595   -0.0047562779571158125   -0.00034422147771246135
-0.0012689458048880905   -0.003450921337070493   -0.0003157175797511182
-0.0007281461912278859   -0.00475898391491563   -0.00031984810006895894
-0.0014057159958374595   -0.0047562779571158125   -0.00034422147771246135
-0.0006317182461199985   -0.0034274611339443943   -0.0003058618190938228
-0.0012689458048880905   -0.003450921337070493   -0.0003157175797511182
-0.0014037745596639482   -0.004768037282711181   -0.000336478206259899
-0.0006289373519733939   -0.003436150009080695   -0.00029721273991540915
-0.0012683542474465207   -0.0034621853580656123   -0.00030420508188504003
-0.0014037745596639482   -0.004768037282711181   -0.000336478206259899
-0.0007281461912278859   -0.00475898391491563   -0.00031984810006895894
-0.0006289373519733939   -0.003436150009080695   -0.00029721273991540915
-0.0007237281947898472   -0.004765520024244107   -0.0003141587562079479
-0.0012683542474465207   -0.0034621853580656123   -0.00030420508188504003
-0.000625738419501854   -0.0034425030052031664   -0.00028984175235326947
-0.0007237281947898472   -0.004765520024244107   -0.0003141587562079479
-0.0006289373519733939   -0.003436150009080695   -0.00029721273991540915
-0.0012683542474465207   -0.0034621853580656123   -0.00030420508188504003
-0.0007237281947898472   -0.004765520024244107   -0.0003141587562079479
-0.0014005030655547292   -0.004779045395868936   -0.00033002572646689913
-0.0014037745596639482   -0.004768037282711181   -0.000336478206259899
-0.0012683542474465207   -0.0034621853580656123   -0.00030420508188504003
-0.0007237281947898472   -0.004765520024244107   -0.0003141587562079479
-0.0014037745596639482   -0.004768037282711181   -0.000336478206259899
-0.0006289373519733939   -0.003436150009080695   -0.00029721273991540915
-0.0012683542474465207   -0.0034621853580656123   -0.00030420508188504003
-0.0014005030655547292   -0.004779045395868936   -0.00033002572646689913
-0.000625738419501854   -0.0034425030052031664   -0.00028984175235326947
-0.0012640837285494916   -0.0034716283789300046   -0.00029381464292987805
-0.0014005030655547292   -0.004779045395868936   -0.00033002572646689913
-0.0007237281947898472   -0.004765520024244107   -0.0003141587562079479
-0.000625738419501854   -0.0034425030052031664   -0.00028984175235326947
-0.0007186711070261105   -0.0047716150852090316   -0.0003097918320607874
-0.0012640837285494916   -0.0034716283789300046   -0.00029381464292987805
-0.0006217201723777995   -0.0034465634855332947   -0.000283775975998207
-0.0007186711070261105   -0.0047716150852090316   -0.0003097918320607874
-0.000625738419501854   -0.0034425030052031664   -0.00028984175235326947
-0.0012640837285494916   -0.0034716283789300046   -0.00029381464292987805
-0.0007186711070261105   -0.0047716150852090316   -0.0003097918320607874
-0.001394542663085014   -0.004790156454540599   -0.00032475990513289624
-0.0014005030655547292   -0.004779045395868936   -0.00033002572646689913
-0.0012640837285494916   -0.0034716283789300046   -0.00029381464292987805
-0.0007186711070261105   -0.0047716150852090316   -0.0003097918320607874
-0.0014005030655547292   -0.004779045395868936   -0.00033002572646689913
-0.000625738419501854   -0.0034425030052031664   -0.00028984175235326947
-0.0006317182461199985   -0.0034274611339443943   -0.0003058618190938228
-0.0007320165109878973   -0.004751982552556497   -0.0003268219837883624
-1.2087653511668176e-05   -0.0034256983084142278   -0.00029299313733429126
-0.0006289373519733939   -0.003436150009080695   -0.00029721273991540915
-0.0007320165109878973   -0.004751982552556497   -0.0003268219837883624
-7.662615502498209e-05   -0.00474931697433292   -0.00031819017004622535
-1.2087653511668176e-05   -0.0034256983084142278   -0.00029299313733429126
-7.171269476450521e-05   -0.004751418560487821   -0.0003120718395584786
-0.0006289373519733939   -0.003436150009080695   -0.00029721273991540915
-8.208105604838664e-06   -0.003428963568712753   -0.00028856517388815503
-7.171269476450521e-05   -0.004751418560487821   -0.0003120718395584786
-1.2087653511668176e-05   -0.0034256983084142278   -0.00029299313733429126
-0.0006289373519733939   -0.003436150009080695   -0.00029721273991540915
-7.171269476450521e-05   -0.004751418560487821   -0.0003120718395584786
-0.0007281461912278859   -0.00475898391491563   -0.00031984810006895894
-0.0007320165109878973   -0.004751982552556497   -0.0003268219837883624
-0.0006289373519733939   -0.003436150009080695   -0.00029721273991540915
-7.171269476450521e-05   -0.004751418560487821   -0.0003120718395584786
-0.0007320165109878973   -0.004751982552556497   -0.0003268219837883624
-1.2087653511668176e-05   -0.0034256983084142278   -0.00029299313733429126
-0.0006289373519733939   -0.003436150009080695   -0.00029721273991540915
-0.0007281461912278859   -0.00475898391491563   -0.00031984810006895894
-8.208105604838664e-06   -0.003428963568712753   -0.00028856517388815503
-0.000625738419501854   -0.0034425030052031664   -0.00028984175235326947
-0.0007281461912278859   -0.00475898391491563   -0.00031984810006895894
-7.171269476450521e-05   -0.004751418560487821   -0.0003120718395584786
-8.208105604838664e-06   -0.003428963568712753   -0.00028856517388815503
-6.728449322018182e-05   -0.004753014427324009   -0.0003072329700055226
-0.000625738419501854   -0.0034425030052031664   -0.00028984175235326947
-4.993599732856867e-06   -0.003429874835680485   -0.0002854048050028668
-6.728449322018182e-05   -0.004753014427324009   -0.0003072329700055226
-8.208105604838664e-06   -0.003428963568712753   -0.00028856517388815503
-0.000625738419501854   -0.0034425030052031664   -0.00028984175235326947
-6.728449322018182e-05   -0.004753014427324009   -0.0003072329700055226
-0.0007237281947898472   -0.004765520024244107   -0.0003141587562079479
-0.0007281461912278859   -0.00475898391491563   -0.00031984810006895894
-0.000625738419501854   -0.0034425030052031664   -0.00028984175235326947
-6.728449322018182e-05   -0.004753014427324009   -0.0003072329700055226
-0.0007281461912278859   -0.00475898391491563   -0.00031984810006895894
-8.208105604838664e-06   -0.003428963568712753   -0.00028856517388815503
-0.000625738419501854   -0.0034425030052031664   -0.00028984175235326947
-0.0007237281947898472   -0.004765520024244107   -0.0003141587562079479
-4.993599732856867e-06   -0.003429874835680485   -0.0002854048050028668
-0.0006217201723777995   -0.0034465634855332947   -0.000283775975998207
-0.0007237281947898472   -0.004765520024244107   -0.0003141587562079479
-6.728449322018182e-05   -0.004753014427324009   -0.0003072329700055226
-4.993599732856867e-06   -0.003429874835680485   -0.0002854048050028668
-6.356197461821045e-05   -0.0047540918388440535   -0.00030371639712080775
-0.0006217201723777995   -0.0034465634855332947   -0.000283775975998207
-2.3469479595327405e-06   -0.003428398471659344   -0.0002835633086841141
-6.356197461821045e-05   -0.0047540918388440535   -0.00030371639712080775
-4.993599732856867e-06   -0.003429874835680485   -0.0002854048050028668
-0.0006217201723777995   -0.0034465634855332947   -0.000283775975998207
-6.356197461821045e-05   -0.0047540918388440535   -0.00030371639712080775
-0.0007186711070261105   -0.0047716150852090316   -0.0003097918320607874
-0.0007237281947898472   -0.004765520024244107   -0.0003141587562079479
-0.0006217201723777995   -0.0034465634855332947   -0.000283775975998207
-6.356197461821045e-05   -0.0047540918388440535   -0.00030371639712080775
-0.0007237281947898472   -0.004765520024244107   -0.0003141587562079479
-4.993599732856867e-06   -0.003429874835680485   -0.0002854048050028668
-1.2087653511668176e-05   -0.0034256983084142278   -0.00029299313733429126
-7.662615502498209e-05   -0.00474931697433292   -0.00031819017004622535
0.0006289433106861816   -0.0034309045125076334   -0.0002899375069297223
-8.208105604838664e-06   -0.003428963568712753   -0.00028856517388815503
-7.662615502498209e-05   -0.00474931697433292   -0.00031819017004622535
0.0005984665273769453   -0.004747811174051585   -0.00031846241788323804
0.0006289433106861816   -0.0034309045125076334   -0.0002899375069297223
0.0006046510366880694   -0.004745125000481707   -0.0003132355189522784
-8.208105604838664e-06   -0.003428963568712753   -0.00028856517388815503
0.0006334619904869822   -0.0034290114694871866   -0.00028980700329157117
0.0006046510366880694   -0.004745125000481707   -0.0003132355189522784
0.0006289433106861816   -0.0034309045125076334   -0.0002899375069297223
-8.208105604838664e-06   -0.003428963568712753   -0.00028856517388815503
0.0006046510366880694   -0.004745125000481707   -0.0003132355189522784
-7.171269476450521e-05   -0.004751418560487821   -0.0003120718395584786
-7.662615502498209e-05   -0.00474931697433292   -0.00031819017004622535
-8.208105604838664e-06   -0.003428963568712753   -0.00028856517388815503
0.0006046510366880694   -0.004745125000481707   -0.0003132355189522784
-7.662615502498209e-05   -0.00474931697433292   -0.00031819017004622535
0.0006289433106861816   -0.0034309045125076334   -0.0002899375069297223
-8.208105604838664e-06   -0.003428963568712753   -0.00028856517388815503
-7.171269476450521e-05   -0.004751418560487821   -0.0003120718395584786
0.0006334619904869822   -0.0034290114694871866   -0.00028980700329157117
-4.993599732856867e-06   -0.003429874835680485   -0.0002854048050028668
-7.171269476450521e-05   -0.004751418560487821   -0.0003120718395584786
0.0006046510366880694   -0.004745125000481707   -0.0003132355189522784
0.0006334619904869822   -0.0034290114694871866   -0.00028980700329157117
0.0006093677898149039   -0.004742250272843825   -0.0003092466909415034
-4.993599732856867e-06   -0.003429874835680485   -0.0002854048050028668
0.00063550895624158   -0.0034250063531563067   -0.00029087159584279194
0.0006093677898149039   -0.004742250272843825   -0.0003092466909415034
0.0006334619904869822   -0.0034290114694871866   -0.00028980700329157117
-4.993599732856867e-06   -0.003429874835680485   -0.0002854048050028668
0.0006093677898149039   -0.004742250272843825   -0.0003092466909415034
-6.728449322018182e-05   -0.004753014427324009   -0.0003072329700055226
-7.171269476450521e-05   -0.004751418560487821   -0.0003120718395584786
-4.993599732856867e-06   -0.003429874835680485   -0.0002854048050028668
0.0006093677898149039   -0.004742250272843825   -0.0003092466909415034
-7.171269476450521e-05   -0.004751418560487821   -0.0003120718395584786
0.0006334619904869822   -0.0034290114694871866   -0.00028980700329157117
-4.993599732856867e-06   -0.003429874835680485   -0.0002854048050028668
-6.728449322018182e-05   -0.004753014427324009   -0.0003072329700055226
0.00063550895624158   -0.0034250063531563067   -0.00029087159584279194
-2.3469479595327405e-06   -0.003428398471659344   -0.0002835633086841141
-6.728449322018182e-05   -0.004753014427324009   -0.0003072329700055226
0.0006093677898149039   -0.004742250272843825   -0.0003092466909415034
0.00063550895624158   -0.0034250063531563067   -0.00029087159584279194
0.0006115475624285724   -0.00473832506195118   -0.00030647404666608315
-2.3469479595327405e-06   -0.003428398471659344   -0.0002835633086841141
0.0006358580417995261   -0.003417946690615192   -0.00029318243152824604
0.0006115475624285724   -0.00473832506195118   -0.00030647404666608315
0.00063550895624158   -0.0034250063531563067   -0.00029087159584279194
-2.3469479595327405e-06   -0.003428398471659344   -0.0002835633086841141
0.0006115475624285724   -0.00473832506195118   -0.00030647404666608315
-6.356197461821045e-05   -0.0047540918388440535   -0.00030371639712080775
-6.728449322018182e-05   -0.004753014427324009   -0.0003072329700055226
-2.3469479595327405e-06   -0.003428398471659344   -0.0002835633086841141
0.0006115475624285724   -0.00473832506195118   -0.00030647404666608315
-6.728449322018182e-05   -0.004753014427324009   -0.0003072329700055226
0.00063550895624158   -0.0034250063531563067   -0.00029087159584279194
0.0006289433106861816   -0.0034309045125076334   -0.0002899375069297223
0.0005984665273769453   -0.004747811174051585   -0.00031846241788323804
0.001336631174285355   -0.003440186335965494   -0.0002948423068199433
0.0006334619904869822   -0.0034290114694871866   -0.00028980700329157117
0.0005984665273769453   -0.004747811174051585   -0.00031846241788323804
0.0013288334841642707   -0.004745313704638597   -0.00032698429943668264
0.001336631174285355   -0.003440186335965494   -0.0002948423068199433
0.0013403931106055257   -0.004738791566411018   -0.00032215888580583885
0.0006334619904869822   -0.0034290114694871866   -0.00028980700329157117
0.0013381266004980344   -0.0034347350468587486   -0.00029916242114106745
0.0013403931106055257   -0.004738791566411018   -0.00032215888580583885
0.001336631174285355   -0.003440186335965494   -0.0002948423068199433
0.0006334619904869822   -0.0034290114694871866   -0.00028980700329157117
0.0013403931106055257   -0.004738791566411018   -0.00032215888580583885
0.0006046510366880694   -0.004745125000481707   -0.0003132355189522784
0.0005984665273769453   -0.004747811174051585   -0.00031846241788323804
0.0006334619904869822   -0.0034290114694871866   -0.00028980700329157117
0.0013403931106055257   -0.004738791566411018   -0.00032215888580583885
0.0005984665273769453   -0.004747811174051585   -0.00031846241788323804
0.001336631174285355   -0.003440186335965494   -0.0002948423068199433
0.0006334619904869822   -0.0034290114694871866   -0.00028980700329157117
0.0006046510366880694   -0.004745125000481707   -0.0003132355189522784
0.0013381266004980344   -0.0034347350468587486   -0.00029916242114106745
0.00063550895624158   -0.0034250063531563067   -0.00029087159584279194
0.0006046510366880694   -0.004745125000481707   -0.0003132355189522784
0.0013403931106055257   -0.004738791566411018   -0.00032215888580583885
0.0013381266004980344   -0.0034347350468587486   -0.00029916242114106745
0.0013474223101787905   -0.004733786312619138   -0.0003192312794399805
0.00063550895624158   -0.0034250063531563067   -0.00029087159584279194
0.0013371796557651483   -0.0034283308394766386   -0.00030543304458099507
0.0013474223101787905   -0.004733786312619138   -0.0003192312794399805
0.0013381266004980344   -0.0034347350468587486   -0.00029916242114106745
0.00063550895624158   -0.0034250063531563067   -0.00029087159584279194
0.0013474223101787905   -0.004733786312619138   -0.0003192312794399805
0.0006093677898149039   -0.004742250272843825   -0.0003092466909415034
0.0006046510366880694   -0.004745125000481707   -0.0003132355189522784
0.00063550895624158   -0.0034250063531563067   -0.00029087159584279194
0.0013474223101787905   -0.004733786312619138   -0.0003192312794399805
0.0006046510366880694   -0.004745125000481707   -0.0003132355189522784
0.0013381266004980344   -0.0034347350468587486   -0.00029916242114106745
0.00063550895624158   -0.0034250063531563067   -0.00029087159584279194
0.0006093677898149039   -0.004742250272843825   -0.0003092466909415034
0.0013371796557651483   -0.0034283308394766386   -0.00030543304458099507
0.0006358580417995261   -0.003417946690615192   -0.00029318243152824604
0.0006093677898149039   -0.004742250272843825   -0.0003092466909415034
0.0013474223101787905   -0.004733786312619138   -0.0003192312794399805
0.0013371796557651483   -0.0034283308394766386   -0.00030543304458099507
0.0013511151519023342   -0.00472620806700187   -0.0003182345538842594
0.0006358580417995261   -0.003417946690615192   -0.00029318243152824604
0.0013306280922446702   -0.0034166637059433644   -0.00031363978786265505
0.0013511151519023342   -0.00472620806700187   -0.0003182345538842594
0.0013371796557651483   -0.0034283308394766386   -0.00030543304458099507
0.0006358580417995261   -0.003417946690615192   -0.00029318243152824604
0.0013511151519023342   -0.00472620806700187   -0.0003182345538842594
0.0006115475624285724   -0.00473832506195118   -0.00030647404666608315
0.0006093677898149039   -0.004742250272843825   -0.0003092466909415034
0.0006358580417995261   -0.003417946690615192   -0.00029318243152824604
0.0013511151519023342   -0.00472620806700187   -0.0003182345538842594
0.0006093677898149039   -0.004742250272843825   -0.0003092466909415034
0.0013371796557651483   -0.0034283308394766386   -0.00030543304458099507
-0.002131308749020839   -0.0047632243323058   -0.00036984947846824484
-0.002188838439099978   -0.006083678627627472   -0.0003653915280133027
-0.0014057159958374595   -0.0047562779571158125   -0.00034422147771246135
-0.002138367713561131   -0.004779105939755818   -0.00036083901528915867
-0.002188838439099978   -0.006083678627627472   -0.0003653915280133027
-0.0014693349030220342   -0.006087394767693905   -0.00034688139135151494
-0.0014057159958374595   -0.0047562779571158125   -0.00034422147771246135
-0.0014645163421347254   -0.006096907468570432   -0.00034402182316482164
-0.002138367713561131   -0.004779105939755818   -0.00036083901528915867
-0.0014037745596639482   -0.004768037282711181   -0.000336478206259899
-0.0014645163421347254   -0.006096907468570432   -0.00034402182316482164
-0.0014057159958374595   -0.0047562779571158125   -0.00034422147771246135
-0.002138367713561131   -0.004779105939755818   -0.00036083901528915867
-0.0014645163421347254   -0.006096907468570432   -0.00034402182316482164
-0.0021849113813429437   -0.0060964633799893645   -0.00036530705408016785
-0.002188838439099978   -0.006083678627627472   -0.0003653915280133027
-0.002138367713561131   -0.004779105939755818   -0.00036083901528915867
-0.0014645163421347254   -0.006096907468570432   -0.00034402182316482164
-0.002188838439099978   -0.006083678627627472   -0.0003653915280133027
-0.0014057159958374595   -0.0047562779571158125   -0.00034422147771246135
-0.002138367713561131   -0.004779105939755818   -0.00036083901528915867
-0.0021849113813429437   -0.0060964633799893645   -0.00036530705408016785
-0.0014037745596639482   -0.004768037282711181   -0.000336478206259899
-0.0021394810534817598   -0.004792253805317173   -0.00035368157690014864
-0.0021849113813429437   -0.0060964633799893645   -0.00036530705408016785
-0.0014645163421347254   -0.006096907468570432   -0.00034402182316482164
-0.0014037745596639482   -0.004768037282711181   -0.000336478206259899
-0.0014575513050148043   -0.006107648235538249   -0.0003424510617646507
-0.0021394810534817598   -0.004792253805317173   -0.00035368157690014864
-0.0014005030655547292   -0.004779045395868936   -0.00033002572646689913
-0.0014575513050148043   -0.006107648235538249   -0.0003424510617646507
-0.0014037745596639482   -0.004768037282711181   -0.000336478206259899
-0.0021394810534817598   -0.004792253805317173   -0.00035368157690014864
-0.0014575513050148043   -0.006107648235538249   -0.0003424510617646507
-0.002177119788158585   -0.006109120772761952   -0.00036714364605988783
-0.0021849113813429437   -0.0060964633799893645   -0.00036530705408016785
-0.0021394810534817598   -0.004792253805317173   -0.00035368157690014864
-0.0014575513050148043   -0.006107648235538249   -0.0003424510617646507
-0.0021849113813429437   -0.0060964633799893645   -0.00036530705408016785
-0.0014037745596639482   -0.004768037282711181   -0.000336478206259899
-0.0021394810534817598   -0.004792253805317173   -0.00035368157690014864
-0.002177119788158585   -0.006109120772761952   -0.00036714364605988783
-0.0014005030655547292   -0.004779045395868936   -0.00033002572646689913
-0.0021385853413596265   -0.004806782346861512   -0.0003485516770280151
-0.002177119788158585   -0.006109120772761952   -0.00036714364605988783
-0.0014575513050148043   -0.006107648235538249   -0.0003424510617646507
-0.0014005030655547292   -0.004779045395868936   -0.00033002572646689913
-0.0014488591518253475   -0.006120370778829718   -0.00034213360593023996
-0.0021385853413596265   -0.004806782346861512   -0.0003485516770280151
-0.001394542663085014   -0.004790156454540599   -0.00032475990513289624
-0.0014488591518253475   -0.006120370778829718   -0.00034213360593023996
-0.0014005030655547292   -0.004779045395868936   -0.00033002572646689913
-0.0021385853413596265   -0.004806782346861512   -0.0003485516770280151
-0.0014488591518253475   -0.006120370778829718   -0.00034213360593023996
-0.002165229101560703   -0.006125643126939887   -0.0003710168854259412
-0.002177119788158585   -0.006109120772761952   -0.00036714364605988783
-0.0021385853413596265   -0.004806782346861512   -0.0003485516770280151
-0.0014488591518253475   -0.006120370778829718   -0.00034213360593023996
-0.002177119788158585   -0.006109120772761952   -0.00036714364605988783
-0.0014005030655547292   -0.004779045395868936   -0.00033002572646689913
-0.0014057159958374595   -0.0047562779571158125   -0.00034422147771246135
-0.0014693349030220342   -0.006087394767693905   -0.00034688139135151494
-0.0007320165109878973   -0.004751982552556497   -0.0003268219837883624
-0.0014037745596639482   -0.004768037282711181   -0.000336478206259899
-0.0014693349030220342   -0.006087394767693905   -0.00034688139135151494
-0.0008094358850486224   -0.006087985319102935   -0.0003346339155753636
-0.0007320165109878973   -0.004751982552556497   -0.0003268219837883624
-0.0008033595332319788   -0.006093326769414034   -0.0003292530798026715
-0.0014037745596639482   -0.004768037282711181   -0.000336478206259899
-0.0007281461912278859   -0.00475898391491563   -0.00031984810006895894
-0.0008033595332319788   -0.006093326769414034   -0.0003292530798026715
-0.0007320165109878973   -0.004751982552556497   -0.0003268219837883624
-0.0014037745596639482   -0.004768037282711181   -0.000336478206259899
-0.0008033595332319788   -0.006093326769414034   -0.0003292530798026715
-0.0014645163421347254   -0.006096907468570432   -0.00034402182316482164
-0.0014693349030220342   -0.006087394767693905   -0.00034688139135151494
-0.0014037745596639482   -0.004768037282711181   -0.000336478206259899
-0.0008033595332319788   -0.006093326769414034   -0.0003292530798026715
-0.0014693349030220342   -0.006087394767693905   -0.00034688139135151494
-0.0007320165109878973   -0.004751982552556497   -0.0003268219837883624
-0.0014037745596639482   -0.004768037282711181   -0.000336478206259899
-0.0014645163421347254   -0.006096907468570432   -0.00034402182316482164
-0.0007281461912278859   -0.00475898391491563   -0.00031984810006895894
-0.0014005030655547292   -0.004779045395868936   -0.00033002572646689913
-0.0014645163421347254   -0.006096907468570432   -0.00034402182316482164
-0.0008033595332319788   -0.006093326769414034   -0.0003292530798026715
-0.0007281461912278859   -0.00475898391491563   -0.00031984810006895894
-0.0007966366957779962   -0.006100008243486607   -0.00032516035850146903
-0.0014005030655547292   -0.004779045395868936   -0.00033002572646689913
-0.0007237281947898472   -0.004765520024244107   -0.0003141587562079479
-0.0007966366957779962   -0.006100008243486607   -0.00032516035850146903
-0.0007281461912278859   -0.00475898391491563   -0.00031984810006895894
-0.0014005030655547292   -0.004779045395868936   -0.00033002572646689913
-0.0007966366957779962   -0.006100008243486607   -0.00032516035850146903
-0.0014575513050148043   -0.006107648235538249   -0.0003424510617646507
-0.0014645163421347254   -0.006096907468570432   -0.00034402182316482164
-0.0014005030655547292   -0.004779045395868936   -0.00033002572646689913
-0.0007966366957779962   -0.006100008243486607   -0.00032516035850146903
-0.0014645163421347254   -0.006096907468570432   -0.00034402182316482164
-0.0007281461912278859   -0.00475898391491563   -0.00031984810006895894
-0.0014005030655547292   -0.004779045395868936   -0.00033002572646689913
-0.0014575513050148043   -0.006107648235538249   -0.0003424510617646507
-0.0007237281947898472   -0.004765520024244107   -0.0003141587562079479
-0.001394542663085014   -0.004790156454540599   -0.00032475990513289624
-0.0014575513050148043   -0.006107648235538249   -0.0003424510617646507
-0.0007966366957779962   -0.006100008243486607   -0.00032516035850146903
-0.0007237281947898472   -0.004765520024244107   -0.0003141587562079479
-0.0007894503167181374   -0.006108051000351795   -0.0003224051853844017
-0.001394542663085014   -0.004790156454540599   -0.00032475990513289624
-0.0007186711070261105   -0.0047716150852090316   -0.0003097918320607874
-0.0007894503167181374   -0.006108051000351795   -0.0003224051853844017
-0.0007237281947898472   -0.004765520024244107   -0.0003141587562079479
-0.001394542663085014   -0.004790156454540599   -0.00032475990513289624
-0.0007894503167181374   -0.006108051000351795   -0.0003224051853844017
-0.0014488591518253475   -0.006120370778829718   -0.00034213360593023996
-0.0014575513050148043   -0.006107648235538249   -0.0003424510617646507
-0.001394542663085014   -0.004790156454540599   -0.00032475990513289624
-0.0007894503167181374   -0.006108051000351795   -0.0003224051853844017
-0.0014575513050148043   -0.006107648235538249   -0.0003424510617646507
-0.0007237281947898472   -0.004765520024244107   -0.0003141587562079479
-0.0007320165109878973   -0.004751982552556497   -0.0003268219837883624
-0.0008094358850486224   -0.006087985319102935   -0.0003346339155753636
-7.662615502498209e-05   -0.00474931697433292   -0.00031819017004622535
-0.0007281461912278859   -0.00475898391491563   -0.00031984810006895894
-0.0008094358850486224   -0.006087985319102935   -0.0003346339155753636
-0.0001680164356108487   -0.006084228294241313   -0.0003300549664198974
-7.662615502498209e-05   -0.00474931697433292   -0.00031819017004622535
-0.0001609629893382261   -0.006085202521707347   -0.00032228106017095654
-0.0007281461912278859   -0.00475898391491563   -0.00031984810006895894
-7.171269476450521e-05   -0.004751418560487821   -0.0003120718395584786
-0.0001609629893382261   -0.006085202521707347   -0.00032228106017095654
-7.662615502498209e-05   -0.00474931697433292   -0.00031819017004622535
-0.0007281461912278859   -0.00475898391491563   -0.00031984810006895894
-0.0001609629893382261   -0.006085202521707347   -0.00032228106017095654
-0.0008033595332319788   -0.006093326769414034   -0.0003292530798026715
-0.0008094358850486224   -0.006087985319102935   -0.0003346339155753636
-0.0007281461912278859   -0.00475898391491563   -0.00031984810006895894
-0.0001609629893382261   -0.006085202521707347   -0.00032228106017095654
-0.0008094358850486224   -0.006087985319102935   -0.0003346339155753636
-7.662615502498209e-05   -0.00474931697433292   -0.00031819017004622535
-0.0007281461912278859   -0.00475898391491563   -0.00031984810006895894
-0.0008033595332319788   -0.006093326769414034   -0.0003292530798026715
-7.171269476450521e-05   -0.004751418560487821   -0.0003120718395584786
-0.0007237281947898472   -0.004765520024244107   -0.0003141587562079479
-0.0008033595332319788   -0.006093326769414034   -0.0003292530798026715
-0.0001609629893382261   -0.006085202521707347   -0.00032228106017095654
-7.171269476450521e-05   -0.004751418560487821   -0.0003120718395584786
-0.00015424170820880955   -0.006087429629289195   -0.00031579247240503064
-0.0007237281947898472   -0.004765520024244107   -0.0003141587562079479
-6.728449322018182e-05   -0.004753014427324009   -0.0003072329700055226
-0.00015424170820880955   -0.006087429629289195   -0.00031579247240503064
-7.171269476450521e-05   -0.004751418560487821   -0.0003120718395584786
-0.0007237281947898472   -0.004765520024244107   -0.0003141587562079479
-0.00015424170820880955   -0.006087429629289195   -0.00031579247240503064
-0.0007966366957779962   -0.006100008243486607   -0.00032516035850146903
-0.0008033595332319788   -0.006093326769414034   -0.0003292530798026715
-0.0007237281947898472   -0.004765520024244107   -0.0003141587562079479
-0.00015424170820880955   -0.006087429629289195   -0.00031579247240503064
-0.0008033595332319788   -0.006093326769414034   -0.0003292530798026715
-7.171269476450521e-05   -0.004751418560487821   -0.0003120718395584786
-0.0007237281947898472   -0.004765520024244107   -0.0003141587562079479
-0.0007966366957779962   -0.006100008243486607   -0.00032516035850146903
-6.728449322018182e-05   -0.004753014427324009   -0.0003072329700055226
-0.0007186711070261105   -0.0047716150852090316   -0.0003097918320607874
-0.0007966366957779962   -0.006100008243486607   -0.00032516035850146903
-0.00015424170820880955   -0.006087429629289195   -0.00031579247240503064
-6.728449322018182e-05   -0.004753014427324009   -0.0003072329700055226
-0.00014836754430784258   -0.0060909520747919384   -0.00031063066186205166
-0.0007186711070261105   -0.0047716150852090316   -0.0003097918320607874
-6.356197461821045e-05   -0.0047540918388440535   -0.00030371639712080775
-0.00014836754430784258   -0.0060909520747919384   -0.00031063066186205166
-6.728449322018182e-05   -0.004753014427324009   -0.0003072329700055226
-0.0007186711070261105   -0.0047716150852090316   -0.0003097918320607874
-0.00014836754430784258   -0.0060909520747919384   -0.00031063066186205166
-0.0007894503167181374   -0.006108051000351795   -0.0003224051853844017
-0.0007966366957779962   -0.006100008243486607   -0.00032516035850146903
-0.0007186711070261105   -0.0047716150852090316   -0.0003097918320607874
-0.00014836754430784258   -0.0060909520747919384   -0.00031063066186205166
-0.0007966366957779962   -0.006100008243486607   -0.00032516035850146903
-6.728449322018182e-05   -0.004753014427324009   -0.0003072329700055226
-7.662615502498209e-05   -0.00474931697433292   -0.00031819017004622535
-0.0001680164356108487   -0.006084228294241313   -0.0003300549664198974
0.0005984665273769453   -0.004747811174051585   -0.00031846241788323804
-7.171269476450521e-05   -0.004751418560487821   -0.0003120718395584786
-0.0001680164356108487   -0.006084228294241313   -0.0003300549664198974
0.0004919279681365223   -0.0060759973312609515   -0.0003334299174079961
0.0005984665273769453   -0.004747811174051585   -0.00031846241788323804
0.0005007846601916709   -0.006072560032513547   -0.00032328027992697874
-7.171269476450521e-05   -0.004751418560487821   -0.0003120718395584786
0.0006046510366880694   -0.004745125000481707   -0.0003132355189522784
0.0005007846601916709   -0.006072560032513547   -0.00032328027992697874
0.0005984665273769453   -0.004747811174051585   -0.00031846241788323804
-7.171269476450521e-05   -0.004751418560487821   -0.0003120718395584786
0.0005007846601916709   -0.006072560032513547   -0.00032328027992697874
-0.0001609629893382261   -0.006085202521707347   -0.00032228106017095654
-0.0001680164356108487   -0.006084228294241313   -0.0003300549664198974
-7.171269476450521e-05   -0.004751418560487821   -0.0003120718395584786
0.0005007846601916709   -0.006072560032513547   -0.00032328027992697874
-0.0001680164356108487   -0.006084228294241313   -0.0003300549664198974
0.0005984665273769453   -0.004747811174051585   -0.00031846241788323804
-7.171269476450521e-05   -0.004751418560487821   -0.0003120718395584786
-0.0001609629893382261   -0.006085202521707347   -0.00032228106017095654
0.0006046510366880694   -0.004745125000481707   -0.0003132355189522784
-6.728449322018182e-05   -0.004753014427324009   -0.0003072329700055226
-0.0001609629893382261   -0.006085202521707347   -0.00032228106017095654
0.0005007846601916709   -0.006072560032513547   -0.00032328027992697874
0.0006046510366880694   -0.004745125000481707   -0.0003132355189522784
0.0005091449365356615   -0.006070753257220527   -0.0003144080969883435
-6.728449322018182e-05   -0.004753014427324009   -0.0003072329700055226
0.0006093677898149039   -0.004742250272843825   -0.0003092466909415034
0.0005091449365356615   -0.006070753257220527   -0.0003144080969883435
0.0006046510366880694   -0.004745125000481707   -0.0003132355189522784
-6.728449322018182e-05   -0.004753014427324009   -0.0003072329700055226
0.0005091449365356615   -0.006070753257220527   -0.0003144080969883435
-0.00015424170820880955   -0.006087429629289195   -0.00031579247240503064
-0.0001609629893382261   -0.006085202521707347   -0.00032228106017095654
-6.728449322018182e-05   -0.004753014427324009   -0.0003072329700055226
0.0005091449365356615   -0.006070753257220527   -0.0003144080969883435
-0.0001609629893382261   -0.006085202521707347   -0.00032228106017095654
0.0006046510366880694   -0.004745125000481707   -0.0003132355189522784
-6.728449322018182e-05   -0.004753014427324009   -0.0003072329700055226
-0.00015424170820880955   -0.006087429629289195   -0.00031579247240503064
0.0006093677898149039   -0.004742250272843825   -0.0003092466909415034
-6.356197461821045e-05   -0.0047540918388440535   -0.00030371639712080775
-0.00015424170820880955   -0.006087429629289195   -0.00031579247240503064
0.0005091449365356615   -0.006070753257220527   -0.0003144080969883435
0.0006093677898149039   -0.004742250272843825   -0.0003092466909415034
0.0005141388225534219   -0.0060698112900095975   -0.00030672988624104376
-6.356197461821045e-05   -0.0047540918388440535   -0.00030371639712080775
0.0006115475624285724   -0.00473832506195118   -0.00030647404666608315
0.0005141388225534219   -0.0060698112900095975   -0.00030672988624104376
0.0006093677898149039   -0.004742250272843825   -0.0003092466909415034
-6.356197461821045e-05   -0.0047540918388440535   -0.00030371639712080775
0.0005141388225534219   -0.0060698112900095975   -0.00030672988624104376
-0.00014836754430784258   -0.0060909520747919384   -0.00031063066186205166
-0.00015424170820880955   -0.006087429629289195   -0.00031579247240503064
-6.356197461821045e-05   -0.0047540918388440535   -0.00030371639712080775
0.0005141388225534219   -0.0060698112900095975   -0.00030672988624104376
-0.00015424170820880955   -0.006087429629289195   -0.00031579247240503064
0.0006093677898149039   -0.004742250272843825   -0.0003092466909415034
0.0005984665273769453   -0.004747811174051585   -0.00031846241788323804
0.0004919279681365223   -0.0060759973312609515   -0.0003334299174079961
0.0013288334841642707   -0.004745313704638597   -0.00032698429943668264
0.0006046510366880694   -0.004745125000481707   -0.0003132355189522784
0.0004919279681365223   -0.0060759973312609515   -0.0003334299174079961
0.0011962564004160433   -0.006061944860972358   -0.0003453440712058189
0.0013288334841642707   -0.004745313704638597   -0.00032698429943668264
0.0012185292185830892   -0.006054458516224126   -0.00033177243554957696
0.0006046510366880694   -0.004745125000481707   -0.0003132355189522784
0.0013403931106055257   -0.004738791566411018   -0.00032215888580583885
0.0012185292185830892   -0.006054458516224126   -0.00033177243554957696
0.0013288334841642707   -0.004745313704638597   -0.00032698429943668264
0.0006046510366880694   -0.004745125000481707   -0.0003132355189522784
0.0012185292185830892   -0.006054458516224126   -0.00033177243554957696
0.0005007846601916709   -0.006072560032513547   -0.00032328027992697874
0.0004919279681365223   -0.0060759973312609515   -0.0003334299174079961
0.0006046510366880694   -0.004745125000481707   -0.0003132355189522784
0.0012185292185830892   -0.006054458516224126   -0.00033177243554957696
0.0004919279681365223   -0.0060759973312609515   -0.0003334299174079961
0.0013288334841642707   -0.004745313704638597   -0.00032698429943668264
0.0006046510366880694   -0.004745125000481707   -0.0003132355189522784
0.0005007846601916709   -0.006072560032513547   -0.00032328027992697874
0.0013403931106055257   -0.004738791566411018   -0.00032215888580583885
0.0006093677898149039   -0.004742250272843825   -0.0003092466909415034
0.0005007846601916709   -0.006072560032513547   -0.00032328027992697874
0.0012185292185830892   -0.006054458516224126   -0.00033177243554957696
0.0013403931106055257   -0.004738791566411018   -0.00032215888580583885
0.0012342719678478569   -0.006050802321751395   -0.0003200382070513785
0.0006093677898149039   -0.004742250272843825   -0.0003092466909415034
0.0013474223101787905   -0.004733786312619138   -0.0003192312794399805
0.0012342719678478569   -0.006050802321751395   -0.0003200382070513785
0.0013403931106055257   -0.004738791566411018   -0.00032215888580583885
0.0006093677898149039   -0.004742250272843825   -0.0003092466909415034
0.0012342719678478569   -0.006050802321751395   -0.0003200382070513785
0.0005091449365356615   -0.006070753257220527   -0.0003144080969883435
0.0005007846601916709   -0.006072560032513547   -0.00032328027992697874
0.0006093677898149039   -0.004742250272843825   -0.0003092466909415034
0.0012342719678478569   -0.006050802321751395   -0.0003200382070513785
0.0005007846601916709   -0.006072560032513547   -0.00032328027992697874
0.0013403931106055257   -0.004738791566411018   -0.00032215888580583885
0.0006093677898149039   -0.004742250272843825   -0.0003092466909415034
0.0005091449365356615   -0.006070753257220527   -0.0003144080969883435
0.0013474223101787905   -0.004733786312619138   -0.0003192312794399805
0.0006115475624285724   -0.00473832506195118   -0.00030647404666608315
0.0005091449365356615   -0.006070753257220527   -0.0003144080969883435
0.0012342719678478569   -0.006050802321751395   -0.0003200382070513785
0.0013474223101787905   -0.004733786312619138   -0.0003192312794399805
0.0012488280796066277   -0.0060471322354011285   -0.0003102221477808001
0.0006115475624285724   -0.00473832506195118   -0.00030647404666608315
0.0013511151519023342   -0.00472620806700187   -0.0003182345538842594
0.0012488280796066277   -0.0060471322354011285   -0.0003102221477808001
0.0013474223101787905   -0.004733786312619138   -0.0003192312794399805
0.0006115475624285724   -0.00473832506195118   -0.00030647404666608315
0.0012488280796066277   -0.0060471322354011285   -0.0003102221477808001
0.0005141388225534219   -0.0060698112900095975   -0.00030672988624104376
0.0005091449365356615   -0.006070753257220527   -0.0003144080969883435
0.0006115475624285724   -0.00473832506195118   -0.00030647404666608315
0.0012488280796066277   -0.0060471322354011285   -0.0003102221477808001
0.0005091449365356615   -0.006070753257220527   -0.0003144080969883435
0.0013474223101787905   -0.004733786312619138   -0.0003192312794399805
-0.002188838439099978   -0.006083678627627472   -0.0003653915280133027
-0.0021251109548917242   -0.007334171010898347   -0.0003508357887547463
-0.0014693349030220342   -0.006087394767693905   -0.00034688139135151494
-0.0021849113813429437   -0.0060964633799893645   -0.00036530705408016785
-0.0021251109548917242   -0.007334171010898347   -0.0003508357887547463
-0.0014618161755557853   -0.00734844516514409   -0.00034002358391605695
-0.0014693349030220342   -0.006087394767693905   -0.00034688139135151494
-0.0014531268513811304   -0.007355428635383345   -0.00034181316208221305
-0.0021849113813429437   -0.0060964633799893645   -0.00036530705408016785
-0.0014645163421347254   -0.006096907468570432   -0.00034402182316482164
-0.0014531268513811304   -0.007355428635383345   -0.00034181316208221305
-0.0014693349030220342   -0.006087394767693905   -0.00034688139135151494
-0.0021849113813429437   -0.0060964633799893645   -0.00036530705408016785
-0.0014531268513811304   -0.007355428635383345   -0.00034181316208221305
-0.0021093585866461028   -0.007343619747417992   -0.0003594693535849072
-0.0021251109548917242   -0.007334171010898347   -0.0003508357887547463
-0.0021849113813429437   -0.0060964633799893645   -0.00036530705408016785
-0.0014531268513811304   -0.007355428635383345   -0.00034181316208221305
-0.0021251109548917242   -0.007334171010898347   -0.0003508357887547463
-0.0014693349030220342   -0.006087394767693905   -0.00034688139135151494
-0.0021849113813429437   -0.0060964633799893645   -0.00036530705408016785
-0.0021093585866461028   -0.007343619747417992   -0.0003594693535849072
-0.0014645163421347254   -0.006096907468570432   -0.00034402182316482164
-0.002177119788158585   -0.006109120772761952   -0.00036714364605988783
-0.0021093585866461028   -0.007343619747417992   -0.0003594693535849072
-0.0014531268513811304   -0.007355428635383345   -0.00034181316208221305
-0.0014645163421347254   -0.006096907468570432   -0.00034402182316482164
-0.0014415419871012269   -0.007365623496429589   -0.00034488569084317673
-0.002177119788158585   -0.006109120772761952   -0.00036714364605988783
-0.0014575513050148043   -0.006107648235538249   -0.0003424510617646507
-0.0014415419871012269   -0.007365623496429589   -0.00034488569084317673
-0.0014645163421347254   -0.006096907468570432   -0.00034402182316482164
-0.002177119788158585   -0.006109120772761952   -0.00036714364605988783
-0.0014415419871012269   -0.007365623496429589   -0.00034488569084317673
-0.0020917610385602437   -0.007355534415459649   -0.0003701138971571886
-0.0021093585866461028   -0.007343619747417992   -0.0003594693535849072
-0.002177119788158585   -0.006109120772761952   -0.00036714364605988783
-0.0014415419871012269   -0.007365623496429589   -0.00034488569084317673
-0.0021093585866461028   -0.007343619747417992   -0.0003594693535849072
-0.0014645163421347254   -0.006096907468570432   -0.00034402182316482164
-0.002177119788158585   -0.006109120772761952   -0.00036714364605988783
-0.0020917610385602437   -0.007355534415459649   -0.0003701138971571886
-0.0014575513050148043   -0.006107648235538249   -0.0003424510617646507
-0.002165229101560703   -0.006125643126939887   -0.0003710168854259412
-0.0020917610385602437   -0.007355534415459649   -0.0003701138971571886
-0.0014415419871012269   -0.007365623496429589   -0.00034488569084317673
-0.0014575513050148043   -0.006107648235538249   -0.0003424510617646507
-0.0014291928305698966   -0.007379663915189042   -0.00034926639295620836
-0.002165229101560703   -0.006125643126939887   -0.0003710168854259412
-0.0014488591518253475   -0.006120370778829718   -0.00034213360593023996
-0.0014291928305698966   -0.007379663915189042   -0.00034926639295620836
-0.0014575513050148043   -0.006107648235538249   -0.0003424510617646507
-0.002165229101560703   -0.006125643126939887   -0.0003710168854259412
-0.0014291928305698966   -0.007379663915189042   -0.00034926639295620836
-0.0020680745524050467   -0.007373833885313389   -0.00038282596187682216
-0.0020917610385602437   -0.007355534415459649   -0.0003701138971571886
-0.002165229101560703   -0.006125643126939887   -0.0003710168854259412
-0.0014291928305698966   -0.007379663915189042   -0.00034926639295620836
-0.0020917610385602437   -0.007355534415459649   -0.0003701138971571886
-0.0014575513050148043   -0.006107648235538249   -0.0003424510617646507
-0.0014693349030220342   -0.006087394767693905   -0.00034688139135151494
-0.0014618161755557853   -0.00734844516514409   -0.00034002358391605695
-0.0008094358850486224   -0.006087985319102935   -0.0003346339155753636
-0.0014645163421347254   -0.006096907468570432   -0.00034402182316482164
-0.0014618161755557853   -0.00734844516514409   -0.00034002358391605695
-0.0008651583346923311   -0.0073537777168714985   -0.00033318127810069335
-0.0008094358850486224   -0.006087985319102935   -0.0003346339155753636
-0.0008557963379094241   -0.007357298039826145   -0.00032924824497037046
-0.0014645163421347254   -0.006096907468570432   -0.00034402182316482164
-0.0008033595332319788   -0.006093326769414034   -0.0003292530798026715
-0.0008557963379094241   -0.007357298039826145   -0.00032924824497037046
-0.0008094358850486224   -0.006087985319102935   -0.0003346339155753636
-0.0014645163421347254   -0.006096907468570432   -0.00034402182316482164
-0.0008557963379094241   -0.007357298039826145   -0.00032924824497037046
-0.0014531268513811304   -0.007355428635383345   -0.00034181316208221305
-0.0014618161755557853   -0.00734844516514409   -0.00034002358391605695
-0.0014645163421347254   -0.006096907468570432   -0.00034402182316482164
-0.0008557963379094241   -0.007357298039826145   -0.00032924824497037046
-0.0014618161755557853   -0.00734844516514409   -0.00034002358391605695
-0.0008094358850486224   -0.006087985319102935   -0.0003346339155753636
-0.0014645163421347254   -0.006096907468570432   -0.00034402182316482164
-0.0014531268513811304   -0.007355428635383345   -0.00034181316208221305
-0.0008033595332319788   -0.006093326769414034   -0.0003292530798026715
-0.0014575513050148043   -0.006107648235538249   -0.0003424510617646507
-0.0014531268513811304   -0.007355428635383345   -0.00034181316208221305
-0.0008557963379094241   -0.007357298039826145   -0.00032924824497037046
-0.0008033595332319788   -0.006093326769414034   -0.0003292530798026715
-0.0008457645045136284   -0.007363885130595293   -0.00032658015007521347
-0.0014575513050148043   -0.006107648235538249   -0.0003424510617646507
-0.0007966366957779962   -0.006100008243486607   -0.00032516035850146903
-0.0008457645045136284   -0.007363885130595293   -0.00032658015007521347
-0.0008033595332319788   -0.006093326769414034   -0.0003292530798026715
-0.0014575513050148043   -0.006107648235538249   -0.0003424510617646507
-0.0008457645045136284   -0.007363885130595293   -0.00032658015007521347
-0.0014415419871012269   -0.007365623496429589   -0.00034488569084317673
-0.0014531268513811304   -0.007355428635383345   -0.00034181316208221305
-0.0014575513050148043   -0.006107648235538249   -0.0003424510617646507
-0.0008457645045136284   -0.007363885130595293   -0.00032658015007521347
-0.0014531268513811304   -0.007355428635383345   -0.00034181316208221305
-0.0008033595332319788   -0.006093326769414034   -0.0003292530798026715
-0.0014575513050148043   -0.006107648235538249   -0.0003424510617646507
-0.0014415419871012269   -0.007365623496429589   -0.00034488569084317673
-0.0007966366957779962   -0.006100008243486607   -0.00032516035850146903
-0.0014488591518253475   -0.006120370778829718   -0.00034213360593023996
-0.0014415419871012269   -0.007365623496429589   -0.00034488569084317673
-0.0008457645045136284   -0.007363885130595293   -0.00032658015007521347
-0.0007966366957779962   -0.006100008243486607   -0.00032516035850146903
-0.0008354550299946237   -0.007373611830950635   -0.00032524687194745565
-0.0014488591518253475   -0.006120370778829718   -0.00034213360593023996
-0.0007894503167181374   -0.006108051000351795   -0.0003224051853844017
-0.0008354550299946237   -0.007373611830950635   -0.00032524687194745565
-0.0007966366957779962   -0.006100008243486607   -0.00032516035850146903
-0.0014488591518253475   -0.006120370778829718   -0.00034213360593023996
-0.0008354550299946237   -0.007373611830950635   -0.00032524687194745565
-0.0014291928305698966   -0.007379663915189042   -0.00034926639295620836
-0.0014415419871012269   -0.007365623496429589   -0.00034488569084317673
-0.0014488591518253475   -0.006120370778829718   -0.00034213360593023996
-0.0008354550299946237   -0.007373611830950635   -0.00032524687194745565
-0.0014415419871012269   -0.007365623496429589   -0.00034488569084317673
-0.0007966366957779962   -0.006100008243486607   -0.00032516035850146903
-0.0008094358850486224   -0.006087985319102935   -0.0003346339155753636
-0.0008651583346923311   -0.0073537777168714985   -0.00033318127810069335
-0.0001680164356108487   -0.006084228294241313   -0.0003300549664198974
-0.0008033595332319788   -0.006093326769414034   -0.0003292530798026715
-0.0008651583346923311   -0.0073537777168714985   -0.00033318127810069335
-0.0002862287129624493   -0.007349060939169949   -0.00033259579122802254
-0.0001680164356108487   -0.006084228294241313   -0.0003300549664198974
-0.00027589089765213377   -0.007348863589462264   -0.00032313639800372803
-0.0008033595332319788   -0.006093326769414034   -0.0003292530798026715
-0.0001609629893382261   -0.006085202521707347   -0.00032228106017095654
-0.00027589089765213377   -0.007348863589462264   -0.00032313639800372803
-0.0001680164356108487   -0.006084228294241313   -0.0003300549664198974
-0.0008033595332319788   -0.006093326769414034   -0.0003292530798026715
-0.00027589089765213377   -0.007348863589462264   -0.00032313639800372803
-0.0008557963379094241   -0.007357298039826145   -0.00032924824497037046
-0.0008651583346923311   -0.0073537777168714985   -0.00033318127810069335
-0.0008033595332319788   -0.006093326769414034   -0.0003292530798026715
-0.00027589089765213377   -0.007348863589462264   -0.00032313639800372803
-0.0008651583346923311   -0.0073537777168714985   -0.00033318127810069335
-0.0001680164356108487   -0.006084228294241313   -0.0003300549664198974
-0.0008033595332319788   -0.006093326769414034   -0.0003292530798026715
-0.0008557963379094241   -0.007357298039826145   -0.00032924824497037046
-0.0001609629893382261   -0.006085202521707347   -0.00032228106017095654
-0.0007966366957779962   -0.006100008243486607   -0.00032516035850146903
-0.0008557963379094241   -0.007357298039826145   -0.00032924824497037046
-0.00027589089765213377   -0.007348863589462264   -0.00032313639800372803
-0.0001609629893382261   -0.006085202521707347   -0.00032228106017095654
-0.00026579747905167237   -0.0073515391139825975   -0.0003149504851886778
-0.0007966366957779962   -0.006100008243486607   -0.00032516035850146903
-0.00015424170820880955   -0.006087429629289195   -0.00031579247240503064
-0.00026579747905167237   -0.0073515391139825975   -0.0003149504851886778
-0.0001609629893382261   -0.006085202521707347   -0.00032228106017095654
-0.0007966366957779962   -0.006100008243486607   -0.00032516035850146903
-0.00026579747905167237   -0.0073515391139825975   -0.0003149504851886778
-0.0008457645045136284   -0.007363885130595293   -0.00032658015007521347
-0.0008557963379094241   -0.007357298039826145   -0.00032924824497037046
-0.0007966366957779962   -0.006100008243486607   -0.00032516035850146903
-0.00026579747905167237   -0.0073515391139825975   -0.0003149504851886778
-0.0008557963379094241   -0.007357298039826145   -0.00032924824497037046
-0.0001609629893382261   -0.006085202521707347   -0.00032228106017095654
-0.0007966366957779962   -0.006100008243486607   -0.00032516035850146903
-0.0008457645045136284   -0.007363885130595293   -0.00032658015007521347
-0.00015424170820880955   -0.006087429629289195   -0.00031579247240503064
-0.0007894503167181374   -0.006108051000351795   -0.0003224051853844017
-0.0008457645045136284   -0.007363885130595293   -0.00032658015007521347
-0.00026579747905167237   -0.0073515391139825975   -0.0003149504851886778
-0.00015424170820880955   -0.006087429629289195   -0.00031579247240503064
-0.00025671444999278935   -0.007357283899938656   -0.0003080798693825484
-0.0007894503167181374   -0.006108051000351795   -0.0003224051853844017
-0.00014836754430784258   -0.0060909520747919384   -0.00031063066186205166
-0.00025671444999278935   -0.007357283899938656   -0.0003080798693825484
-0.00015424170820880955   -0.006087429629289195   -0.00031579247240503064
-0.0007894503167181374   -0.006108051000351795   -0.0003224051853844017
-0.00025671444999278935   -0.007357283899938656   -0.0003080798693825484
-0.0008354550299946237   -0.007373611830950635   -0.00032524687194745565
-0.0008457645045136284   -0.007363885130595293   -0.00032658015007521347
-0.0007894503167181374   -0.006108051000351795   -0.0003224051853844017
-0.00025671444999278935   -0.007357283899938656   -0.0003080798693825484
-0.0008457645045136284   -0.007363885130595293   -0.00032658015007521347
-0.00015424170820880955   -0.006087429629289195   -0.00031579247240503064
-0.0001680164356108487   -0.006084228294241313   -0.0003300549664198974
-0.0002862287129624493   -0.007349060939169949   -0.00033259579122802254
0.0004919279681365223   -0.0060759973312609515   -0.0003334299174079961
-0.0001609629893382261   -0.006085202521707347   -0.00032228106017095654
-0.0002862287129624493   -0.007349060939169949   -0.00033259579122802254
0.00031118692865953623   -0.00733445432778628   -0.0003387479483874191
0.0004919279681365223   -0.0060759973312609515   -0.0003334299174079961
0.00032385783640748633   -0.007330284444131983   -0.0003237860828776711
-0.0001609629893382261   -0.006085202521707347   -0.00032228106017095654
0.0005007846601916709   -0.006072560032513547   -0.00032328027992697874
0.00032385783640748633   -0.007330284444131983   -0.0003237860828776711
0.0004919279681365223   -0.0060759973312609515   -0.0003334299174079961
-0.0001609629893382261   -0.006085202521707347   -0.00032228106017095654
0.00032385783640748633   -0.007330284444131983   -0.0003237860828776711
-0.00027589089765213377   -0.007348863589462264   -0.00032313639800372803
-0.0002862287129624493   -0.007349060939169949   -0.00033259579122802254
-0.0001609629893382261   -0.006085202521707347   -0.00032228106017095654
0.00032385783640748633   -0.007330284444131983   -0.0003237860828776711
-0.0002862287129624493   -0.007349060939169949   -0.00033259579122802254
0.0004919279681365223   -0.0060759973312609515   -0.0003334299174079961
-0.0001609629893382261   -0.006085202521707347   -0.00032228106017095654
-0.00027589089765213377   -0.007348863589462264   -0.00032313639800372803
0.0005007846601916709   -0.006072560032513547   -0.00032328027992697874
-0.00015424170820880955   -0.006087429629289195   -0.00031579247240503064
-0.00027589089765213377   -0.007348863589462264   -0.00032313639800372803
0.00032385783640748633   -0.007330284444131983   -0.0003237860828776711
0.0005007846601916709   -0.006072560032513547   -0.00032328027992697874
0.00033695717349674657   -0.007329410515533507   -0.00031017178235762024
-0.00015424170820880955   -0.006087429629289195   -0.00031579247240503064
0.0005091449365356615   -0.006070753257220527   -0.0003144080969883435
0.00033695717349674657   -0.007329410515533507   -0.00031017178235762024
0.0005007846601916709   -0.006072560032513547   -0.00032328027992697874
-0.00015424170820880955   -0.006087429629289195   -0.00031579247240503064
0.00033695717349674657   -0.007329410515533507   -0.00031017178235762024
-0.00026579747905167237   -0.0073515391139825975   -0.0003149504851886778
-0.00027589089765213377   -0.007348863589462264   -0.00032313639800372803
-0.00015424170820880955   -0.006087429629289195   -0.00031579247240503064
0.00033695717349674657   -0.007329410515533507   -0.00031017178235762024
-0.00027589089765213377   -0.007348863589462264   -0.00032313639800372803
0.0005007846601916709   -0.006072560032513547   -0.00032328027992697874
-0.00015424170820880955   -0.006087429629289195   -0.00031579247240503064
-0.00026579747905167237   -0.0073515391139825975   -0.0003149504851886778
0.0005091449365356615   -0.006070753257220527   -0.0003144080969883435
-0.00014836754430784258   -0.0060909520747919384   -0.00031063066186205166
-0.00026579747905167237   -0.0073515391139825975   -0.0003149504851886778
0.00033695717349674657   -0.007329410515533507   -0.00031017178235762024
0.0005091449365356615   -0.006070753257220527   -0.0003144080969883435
0.00034585495918847023   -0.007331246814785171   -0.00029772498627796834
-0.00014836754430784258   -0.0060909520747919384   -0.00031063066186205166
0.0005141388225534219   -0.0060698112900095975   -0.00030672988624104376
0.00034585495918847023   -0.007331246814785171   -0.00029772498627796834
0.0005091449365356615   -0.006070753257220527   -0.0003144080969883435
-0.00014836754430784258   -0.0060909520747919384   -0.00031063066186205166
0.00034585495918847023   -0.007331246814785171   -0.00029772498627796834
-0.00025671444999278935   -0.007357283899938656   -0.0003080798693825484
-0.00026579747905167237   -0.0073515391139825975   -0.0003149504851886778
-0.00014836754430784258   -0.0060909520747919384   -0.00031063066186205166
0.00034585495918847023   -0.007331246814785171   -0.00029772498627796834
-0.00026579747905167237   -0.0073515391139825975   -0.0003149504851886778
0.0005091449365356615   -0.006070753257220527   -0.0003144080969883435
0.0004919279681365223   -0.0060759973312609515   -0.0003334299174079961
0.00031118692865953623   -0.00733445432778628   -0.0003387479483874191
0.0011962564004160433   -0.006061944860972358   -0.0003453440712058189
0.0005007846601916709   -0.006072560032513547   -0.00032328027992697874
0.00031118692865953623   -0.00733445432778628   -0.0003387479483874191
0.0009433981307185961   -0.007309252452583678   -0.0003536298268413994
0.0011962564004160433   -0.006061944860972358   -0.0003453440712058189
0.0009772287370866414   -0.007300907033273173   -0.00033169731509031565
0.0005007846601916709   -0.006072560032513547   -0.00032328027992697874
0.0012185292185830892   -0.006054458516224126   -0.00033177243554957696
0.0009772287370866414   -0.007300907033273173   -0.00033169731509031565
0.0011962564004160433   -0.006061944860972358   -0.0003453440712058189
0.0005007846601916709   -0.006072560032513547   -0.00032328027992697874
0.0009772287370866414   -0.007300907033273173   -0.00033169731509031565
0.00032385783640748633   -0.007330284444131983   -0.0003237860828776711
0.00031118692865953623   -0.00733445432778628   -0.0003387479483874191
0.0005007846601916709   -0.006072560032513547   -0.00032328027992697874
0.0009772287370866414   -0.007300907033273173   -0.00033169731509031565
0.00031118692865953623   -0.00733445432778628   -0.0003387479483874191
0.0011962564004160433   -0.006061944860972358   -0.0003453440712058189
0.0005007846601916709   -0.006072560032513547   -0.00032328027992697874
0.00032385783640748633   -0.007330284444131983   -0.0003237860828776711
0.0012185292185830892   -0.006054458516224126   -0.00033177243554957696
0.0005091449365356615   -0.006070753257220527   -0.0003144080969883435
0.00032385783640748633   -0.007330284444131983   -0.0003237860828776711
0.0009772287370866414   -0.007300907033273173   -0.00033169731509031565
0.0012185292185830892   -0.006054458516224126   -0.00033177243554957696
0.0010025169782284583   -0.00729852013140139   -0.000311572922012171
0.0005091449365356615   -0.006070753257220527   -0.0003144080969883435
0.0012342719678478569   -0.006050802321751395   -0.0003200382070513785
0.0010025169782284583   -0.00729852013140139   -0.000311572922012171
0.0012185292185830892   -0.006054458516224126   -0.00033177243554957696
0.0005091449365356615   -0.006070753257220527   -0.0003144080969883435
0.0010025169782284583   -0.00729852013140139   -0.000311572922012171
0.00033695717349674657   -0.007329410515533507   -0.00031017178235762024
0.00032385783640748633   -0.007330284444131983   -0.0003237860828776711
0.0005091449365356615   -0.006070753257220527   -0.0003144080969883435
0.0010025169782284583   -0.00729852013140139   -0.000311572922012171
0.00032385783640748633   -0.007330284444131983   -0.0003237860828776711
0.0012185292185830892   -0.006054458516224126   -0.00033177243554957696
0.0005091449365356615   -0.006070753257220527   -0.0003144080969883435
0.00033695717349674657   -0.007329410515533507   -0.00031017178235762024
0.0012342719678478569   -0.006050802321751395   -0.0003200382070513785
0.0005141388225534219   -0.0060698112900095975   -0.00030672988624104376
0.00033695717349674657   -0.007329410515533507   -0.00031017178235762024
0.0010025169782284583   -0.00729852013140139   -0.000311572922012171
0.0012342719678478569   -0.006050802321751395   -0.0003200382070513785
0.001028585208072789   -0.007298586603102219   -0.0002933508192017208
0.0005141388225534219   -0.0060698112900095975   -0.00030672988624104376
0.0012488280796066277   -0.0060471322354011285   -0.0003102221477808001
0.001028585208072789   -0.007298586603102219   -0.0002933508192017208
0.0012342719678478569   -0.006050802321751395   -0.0003200382070513785
0.0005141388225534219   -0.0060698112900095975   -0.00030672988624104376
0.001028585208072789   -0.007298586603102219   -0.0002933508192017208
0.00034585495918847023   -0.007331246814785171   -0.00029772498627796834
0.00033695717349674657   -0.007329410515533507   -0.00031017178235762024
0.0005141388225534219   -0.0060698112900095975   -0.00030672988624104376
0.001028585208072789   -0.007298586603102219   -0.0002933508192017208
0.00033695717349674657   -0.007329410515533507   -0.00031017178235762024
0.0012342719678478569   -0.006050802321751395   -0.0003200382070513785
-0.0021251109548917242   -0.007334171010898347   -0.0003508357887547463
-0.0019410626465598776   -0.008432540137202908   -0.0003282932442375714
-0.0014618161755557853   -0.00734844516514409   -0.00034002358391605695
-0.0021093585866461028   -0.007343619747417992   -0.0003594693535849072
-0.0019410626465598776   -0.008432540137202908   -0.0003282932442375714
-0.0013848624562990202   -0.00845761082824392   -0.0003267882264264568
-0.0014618161755557853   -0.00734844516514409   -0.00034002358391605695
-0.001371506408438074   -0.008461191855785793   -0.0003328142246089516
-0.0021093585866461028   -0.007343619747417992   -0.0003594693535849072
-0.0014531268513811304   -0.007355428635383345   -0.00034181316208221305
-0.001371506408438074   -0.008461191855785793   -0.0003328142246089516
-0.0014618161755557853   -0.00734844516514409   -0.00034002358391605695
-0.0021093585866461028   -0.007343619747417992   -0.0003594693535849072
-0.001371506408438074   -0.008461191855785793   -0.0003328142246089516
-0.0019127341588865093   -0.008437798115922058   -0.0003453983335305373
-0.0019410626465598776   -0.008432540137202908   -0.0003282932442375714
-0.0021093585866461028   -0.007343619747417992   -0.0003594693535849072
-0.001371506408438074   -0.008461191855785793   -0.0003328142246089516
-0.0019410626465598776   -0.008432540137202908   -0.0003282932442375714
-0.0014618161755557853   -0.00734844516514409   -0.00034002358391605695
-0.0021093585866461028   -0.007343619747417992   -0.0003594693535849072
-0.0019127341588865093   -0.008437798115922058   -0.0003453983335305373
-0.0014531268513811304   -0.007355428635383345   -0.00034181316208221305
-0.0020917610385602437   -0.007355534415459649   -0.0003701138971571886
-0.0019127341588865093   -0.008437798115922058   -0.0003453983335305373
-0.001371506408438074   -0.008461191855785793   -0.0003328142246089516
-0.0014531268513811304   -0.007355428635383345   -0.00034181316208221305
-0.001354709369151431   -0.008469998539193984   -0.0003401055837125809
-0.0020917610385602437   -0.007355534415459649   -0.0003701138971571886
-0.0014415419871012269   -0.007365623496429589   -0.00034488569084317673
-0.001354709369151431   -0.008469998539193984   -0.0003401055837125809
-0.0014531268513811304   -0.007355428635383345   -0.00034181316208221305
-0.0020917610385602437   -0.007355534415459649   -0.0003701138971571886
-0.001354709369151431   -0.008469998539193984   -0.0003401055837125809
-0.0018847435901692866   -0.008448143397487708   -0.0003645604485386751
-0.0019127341588865093   -0.008437798115922058   -0.0003453983335305373
-0.0020917610385602437   -0.007355534415459649   -0.0003701138971571886
-0.001354709369151431   -0.008469998539193984   -0.0003401055837125809
-0.0019127341588865093   -0.008437798115922058   -0.0003453983335305373
-0.0014531268513811304   -0.007355428635383345   -0.00034181316208221305
-0.0020917610385602437   -0.007355534415459649   -0.0003701138971571886
-0.0018847435901692866   -0.008448143397487708   -0.0003645604485386751
-0.0014415419871012269   -0.007365623496429589   -0.00034488569084317673
-0.0020680745524050467   -0.007373833885313389   -0.00038282596187682216
-0.0018847435901692866   -0.008448143397487708   -0.0003645604485386751
-0.001354709369151431   -0.008469998539193984   -0.0003401055837125809
-0.0014415419871012269   -0.007365623496429589   -0.00034488569084317673
-0.0013381867076790806   -0.008484535684038974   -0.0003486496238331845
-0.0020680745524050467   -0.007373833885313389   -0.00038282596187682216
-0.0014291928305698966   -0.007379663915189042   -0.00034926639295620836
-0.0013381867076790806   -0.008484535684038974   -0.0003486496238331845
-0.0014415419871012269   -0.007365623496429589   -0.00034488569084317673
-0.0020680745524050467   -0.007373833885313389   -0.00038282596187682216
-0.0013381867076790806   -0.008484535684038974   -0.0003486496238331845
-0.0018489652465989196   -0.008467436753987334   -0.00038576274095232494
-0.0018847435901692866   -0.008448143397487708   -0.0003645604485386751
-0.0020680745524050467   -0.007373833885313389   -0.00038282596187682216
-0.0013381867076790806   -0.008484535684038974   -0.0003486496238331845
-0.0018847435901692866   -0.008448143397487708   -0.0003645604485386751
-0.0014415419871012269   -0.007365623496429589   -0.00034488569084317673
-0.0014618161755557853   -0.00734844516514409   -0.00034002358391605695
-0.0013848624562990202   -0.00845761082824392   -0.0003267882264264568
-0.0008651583346923311   -0.0073537777168714985   -0.00033318127810069335
-0.0014531268513811304   -0.007355428635383345   -0.00034181316208221305
-0.0013848624562990202   -0.00845761082824392   -0.0003267882264264568
-0.0008999820769055051   -0.008468845398856811   -0.0003263464876628412
-0.0008651583346923311   -0.0073537777168714985   -0.00033318127810069335
-0.000886374233136173   -0.008469940851435756   -0.0003235248122590492
-0.0014531268513811304   -0.007355428635383345   -0.00034181316208221305
-0.0008557963379094241   -0.007357298039826145   -0.00032924824497037046
-0.000886374233136173   -0.008469940851435756   -0.0003235248122590492
-0.0008651583346923311   -0.0073537777168714985   -0.00033318127810069335
-0.0014531268513811304   -0.007355428635383345   -0.00034181316208221305
-0.000886374233136173   -0.008469940851435756   -0.0003235248122590492
-0.001371506408438074   -0.008461191855785793   -0.0003328142246089516
-0.0013848624562990202   -0.00845761082824392   -0.0003267882264264568
-0.0014531268513811304   -0.007355428635383345   -0.00034181316208221305
-0.000886374233136173   -0.008469940851435756   -0.0003235248122590492
-0.0013848624562990202   -0.00845761082824392   -0.0003267882264264568
-0.0008651583346923311   -0.0073537777168714985   -0.00033318127810069335
-0.0014531268513811304   -0.007355428635383345   -0.00034181316208221305
-0.001371506408438074   -0.008461191855785793   -0.0003328142246089516
-0.0008557963379094241   -0.007357298039826145   -0.00032924824497037046
-0.0014415419871012269   -0.007365623496429589   -0.00034488569084317673
-0.001371506408438074   -0.008461191855785793   -0.0003328142246089516
-0.000886374233136173   -0.008469940851435756   -0.0003235248122590492
-0.0008557963379094241   -0.007357298039826145   -0.00032924824497037046
-0.0008722919783783979   -0.008475723831909308   -0.00032193049805564214
-0.0014415419871012269   -0.007365623496429589   -0.00034488569084317673
-0.0008457645045136284   -0.007363885130595293   -0.00032658015007521347
-0.0008722919783783979   -0.008475723831909308   -0.00032193049805564214
-0.0008557963379094241   -0.007357298039826145   -0.00032924824497037046
-0.0014415419871012269   -0.007365623496429589   -0.00034488569084317673
-0.0008722919783783979   -0.008475723831909308   -0.00032193049805564214
-0.001354709369151431   -0.008469998539193984   -0.0003401055837125809
-0.001371506408438074   -0.008461191855785793   -0.0003328142246089516
-0.0014415419871012269   -0.007365623496429589   -0.00034488569084317673
-0.0008722919783783979   -0.008475723831909308   -0.00032193049805564214
-0.001371506408438074   -0.008461191855785793   -0.0003328142246089516
-0.0008557963379094241   -0.007357298039826145   -0.00032924824497037046
-0.0014415419871012269   -0.007365623496429589   -0.00034488569084317673
-0.001354709369151431   -0.008469998539193984   -0.0003401055837125809
-0.0008457645045136284   -0.007363885130595293   -0.00032658015007521347
-0.0014291928305698966   -0.007379663915189042   -0.00034926639295620836
-0.001354709369151431   -0.008469998539193984   -0.0003401055837125809
-0.0008722919783783979   -0.008475723831909308   -0.00032193049805564214
-0.0008457645045136284   -0.007363885130595293   -0.00032658015007521347
-0.0008582128060023105   -0.008486422872101133   -0.0003215631567348217
-0.0014291928305698966   -0.007379663915189042   -0.00034926639295620836
-0.0008354550299946237   -0.007373611830950635   -0.00032524687194745565
-0.0008582128060023105   -0.008486422872101133   -0.0003215631567348217
-0.0008457645045136284   -0.007363885130595293   -0.00032658015007521347
-0.0014291928305698966   -0.007379663915189042   -0.00034926639295620836
-0.0008582128060023105   -0.008486422872101133   -0.0003215631567348217
-0.0013381867076790806   -0.008484535684038974   -0.0003486496238331845
-0.001354709369151431   -0.008469998539193984   -0.0003401055837125809
-0.0014291928305698966   -0.007379663915189042   -0.00034926639295620836
-0.0008582128060023105   -0.008486422872101133   -0.0003215631567348217
-0.001354709369151431   -0.008469998539193984   -0.0003401055837125809
-0.0008457645045136284   -0.007363885130595293   -0.00032658015007521347
-0.0008651583346923311   -0.0073537777168714985   -0.00033318127810069335
-0.0008999820769055051   -0.008468845398856811   -0.0003263464876628412
-0.0002862287129624493   -0.007349060939169949   -0.00033259579122802254
-0.0008557963379094241   -0.007357298039826145   -0.00032924824497037046
-0.0008999820769055051   -0.008468845398856811   -0.0003263464876628412
-0.0004308545914047917   -0.008465800649875425   -0.0003302260418512357
-0.0002862287129624493   -0.007349060939169949   -0.00033259579122802254
-0.0004159592921321007   -0.008464066572358181   -0.00031885679434547716
-0.0008557963379094241   -0.007357298039826145   -0.00032924824497037046
-0.00027589089765213377   -0.007348863589462264   -0.00032313639800372803
-0.0004159592921321007   -0.008464066572358181   -0.00031885679434547716
-0.0002862287129624493   -0.007349060939169949   -0.00033259579122802254
-0.0008557963379094241   -0.007357298039826145   -0.00032924824497037046
-0.0004159592921321007   -0.008464066572358181   -0.00031885679434547716
-0.000886374233136173   -0.008469940851435756   -0.0003235248122590492
-0.0008999820769055051   -0.008468845398856811   -0.0003263464876628412
-0.0008557963379094241   -0.007357298039826145   -0.00032924824497037046
-0.0004159592921321007   -0.008464066572358181   -0.00031885679434547716
-0.0008999820769055051   -0.008468845398856811   -0.0003263464876628412
-0.0002862287129624493   -0.007349060939169949   -0.00033259579122802254
-0.0008557963379094241   -0.007357298039826145   -0.00032924824497037046
-0.000886374233136173   -0.008469940851435756   -0.0003235248122590492
-0.00027589089765213377   -0.007348863589462264   -0.00032313639800372803
-0.0008457645045136284   -0.007363885130595293   -0.00032658015007521347
-0.000886374233136173   -0.008469940851435756   -0.0003235248122590492
-0.0004159592921321007   -0.008464066572358181   -0.00031885679434547716
-0.00027589089765213377   -0.007348863589462264   -0.00032313639800372803
-0.00040144801769415484   -0.008466628218720617   -0.00030879804808735424
-0.0008457645045136284   -0.007363885130595293   -0.00032658015007521347
-0.00026579747905167237   -0.0073515391139825975   -0.0003149504851886778
-0.00040144801769415484   -0.008466628218720617   -0.00030879804808735424
-0.00027589089765213377   -0.007348863589462264   -0.00032313639800372803
-0.0008457645045136284   -0.007363885130595293   -0.00032658015007521347
-0.00040144801769415484   -0.008466628218720617   -0.00030879804808735424
-0.0008722919783783979   -0.008475723831909308   -0.00032193049805564214
-0.000886374233136173   -0.008469940851435756   -0.0003235248122590492
-0.0008457645045136284   -0.007363885130595293   -0.00032658015007521347
-0.00040144801769415484   -0.008466628218720617   -0.00030879804808735424
-0.000886374233136173   -0.008469940851435756   -0.0003235248122590492
-0.00027589089765213377   -0.007348863589462264   -0.00032313639800372803
-0.0008457645045136284   -0.007363885130595293   -0.00032658015007521347
-0.0008722919783783979   -0.008475723831909308   -0.00032193049805564214
-0.00026579747905167237   -0.0073515391139825975   -0.0003149504851886778
-0.0008354550299946237   -0.007373611830950635   -0.00032524687194745565
-0.0008722919783783979   -0.008475723831909308   -0.00032193049805564214
-0.00040144801769415484   -0.008466628218720617   -0.00030879804808735424
-0.00026579747905167237   -0.0073515391139825975   -0.0003149504851886778
-0.0003882864385694033   -0.008474008591666365   -0.00029994439918396584
-0.0008354550299946237   -0.007373611830950635   -0.00032524687194745565
-0.00025671444999278935   -0.007357283899938656   -0.0003080798693825484
-0.0003882864385694033   -0.008474008591666365   -0.00029994439918396584
-0.00026579747905167237   -0.0073515391139825975   -0.0003149504851886778
-0.0008354550299946237   -0.007373611830950635   -0.00032524687194745565
-0.0003882864385694033   -0.008474008591666365   -0.00029994439918396584
-0.0008582128060023105   -0.008486422872101133   -0.0003215631567348217
-0.0008722919783783979   -0.008475723831909308   -0.00032193049805564214
-0.0008354550299946237   -0.007373611830950635   -0.00032524687194745565
-0.0003882864385694033   -0.008474008591666365   -0.00029994439918396584
-0.0008722919783783979   -0.008475723831909308   -0.00032193049805564214
-0.00026579747905167237   -0.0073515391139825975   -0.0003149504851886778
-0.0002862287129624493   -0.007349060939169949   -0.00033259579122802254
-0.0004308545914047917   -0.008465800649875425   -0.0003302260418512357
0.00031118692865953623   -0.00733445432778628   -0.0003387479483874191
-0.00027589089765213377   -0.007348863589462264   -0.00032313639800372803
-0.0004308545914047917   -0.008465800649875425   -0.0003302260418512357
5.783225228181398e-05   -0.008447945615723724   -0.0003391216357949066
0.00031118692865953623   -0.00733445432778628   -0.0003387479483874191
7.605704368468595e-05   -0.008442687667400955   -0.0003192042514612949
-0.00027589089765213377   -0.007348863589462264   -0.00032313639800372803
0.00032385783640748633   -0.007330284444131983   -0.0003237860828776711
7.605704368468595e-05   -0.008442687667400955   -0.0003192042514612949
0.00031118692865953623   -0.00733445432778628   -0.0003387479483874191
-0.00027589089765213377   -0.007348863589462264   -0.00032313639800372803
7.605704368468595e-05   -0.008442687667400955   -0.0003192042514612949
-0.0004159592921321007   -0.008464066572358181   -0.00031885679434547716
-0.0004308545914047917   -0.008465800649875425   -0.0003302260418512357
-0.00027589089765213377   -0.007348863589462264   -0.00032313639800372803
7.605704368468595e-05   -0.008442687667400955   -0.0003192042514612949
-0.0004308545914047917   -0.008465800649875425   -0.0003302260418512357
0.00031118692865953623   -0.00733445432778628   -0.0003387479483874191
-0.00027589089765213377   -0.007348863589462264   -0.00032313639800372803
-0.0004159592921321007   -0.008464066572358181   -0.00031885679434547716
0.00032385783640748633   -0.007330284444131983   -0.0003237860828776711
-0.00026579747905167237   -0.0073515391139825975   -0.0003149504851886778
-0.0004159592921321007   -0.008464066572358181   -0.00031885679434547716
7.605704368468595e-05   -0.008442687667400955   -0.0003192042514612949
0.00032385783640748633   -0.007330284444131983   -0.0003237860828776711
9.543587553323989e-05   -0.008442225080498867   -0.00030093391098121475
-0.00026579747905167237   -0.0073515391139825975   -0.0003149504851886778
0.00033695717349674657   -0.007329410515533507   -0.00031017178235762024
9.543587553323989e-05   -0.008442225080498867   -0.00030093391098121475
0.00032385783640748633   -0.007330284444131983   -0.0003237860828776711
-0.00026579747905167237   -0.0073515391139825975   -0.0003149504851886778
9.543587553323989e-05   -0.008442225080498867   -0.00030093391098121475
-0.00040144801769415484   -0.008466628218720617   -0.00030879804808735424
-0.0004159592921321007   -0.008464066572358181   -0.00031885679434547716
-0.00026579747905167237   -0.0073515391139825975   -0.0003149504851886778
9.543587553323989e-05   -0.008442225080498867   -0.00030093391098121475
-0.0004159592921321007   -0.008464066572358181   -0.00031885679434547716
0.00032385783640748633   -0.007330284444131983   -0.0003237860828776711
-0.00026579747905167237   -0.0073515391139825975   -0.0003149504851886778
-0.00040144801769415484   -0.008466628218720617   -0.00030879804808735424
0.00033695717349674657   -0.007329410515533507   -0.00031017178235762024
-0.00025671444999278935   -0.007357283899938656   -0.0003080798693825484
-0.00040144801769415484   -0.008466628218720617   -0.00030879804808735424
9.543587553323989e-05   -0.008442225080498867   -0.00030093391098121475
0.00033695717349674657   -0.007329410515533507   -0.00031017178235762024
0.00010960462878717611   -0.008446314589407467   -0.0002837910080210412
-0.00025671444999278935   -0.007357283899938656   -0.0003080798693825484
0.00034585495918847023   -0.007331246814785171   -0.00029772498627796834
0.00010960462878717611   -0.008446314589407467   -0.0002837910080210412
0.00033695717349674657   -0.007329410515533507   -0.00031017178235762024
-0.00025671444999278935   -0.007357283899938656   -0.0003080798693825484
0.00010960462878717611   -0.008446314589407467   -0.0002837910080210412
-0.0003882864385694033   -0.008474008591666365   -0.00029994439918396584
-0.00040144801769415484   -0.008466628218720617   -0.00030879804808735424
-0.00025671444999278935   -0.007357283899938656   -0.0003080798693825484
0.00010960462878717611   -0.008446314589407467   -0.0002837910080210412
-0.00040144801769415484   -0.008466628218720617   -0.00030879804808735424
0.00033695717349674657   -0.007329410515533507   -0.00031017178235762024
0.00031118692865953623   -0.00733445432778628   -0.0003387479483874191
5.783225228181398e-05   -0.008447945615723724   -0.0003391216357949066
0.0009433981307185961   -0.007309252452583678   -0.0003536298268413994
0.00032385783640748633   -0.007330284444131983   -0.0003237860828776711
5.783225228181398e-05   -0.008447945615723724   -0.0003391216357949066
0.0005742026462681206   -0.008413661013944956   -0.0003573088505425841
0.0009433981307185961   -0.007309252452583678   -0.0003536298268413994
0.0006217250509322599   -0.008403710647426735   -0.00032674772736572674
0.00032385783640748633   -0.007330284444131983   -0.0003237860828776711
0.0009772287370866414   -0.007300907033273173   -0.00033169731509031565
0.0006217250509322599   -0.008403710647426735   -0.00032674772736572674
0.0009433981307185961   -0.007309252452583678   -0.0003536298268413994
0.00032385783640748633   -0.007330284444131983   -0.0003237860828776711
0.0006217250509322599   -0.008403710647426735   -0.00032674772736572674
7.605704368468595e-05   -0.008442687667400955   -0.0003192042514612949
5.783225228181398e-05   -0.008447945615723724   -0.0003391216357949066
0.00032385783640748633   -0.007330284444131983   -0.0003237860828776711
0.0006217250509322599   -0.008403710647426735   -0.00032674772736572674
5.783225228181398e-05   -0.008447945615723724   -0.0003391216357949066
0.0009433981307185961   -0.007309252452583678   -0.0003536298268413994
0.00032385783640748633   -0.007330284444131983   -0.0003237860828776711
7.605704368468595e-05   -0.008442687667400955   -0.0003192042514612949
0.0009772287370866414   -0.007300907033273173   -0.00033169731509031565
0.00033695717349674657   -0.007329410515533507   -0.00031017178235762024
7.605704368468595e-05   -0.008442687667400955   -0.0003192042514612949
0.0006217250509322599   -0.008403710647426735   -0.00032674772736572674
0.0009772287370866414   -0.007300907033273173   -0.00033169731509031565
0.0006582613770875514   -0.008401982365146277   -0.00029823473842557105
0.00033695717349674657   -0.007329410515533507   -0.00031017178235762024
0.0010025169782284583   -0.00729852013140139   -0.000311572922012171
0.0006582613770875514   -0.008401982365146277   -0.00029823473842557105
0.0009772287370866414   -0.007300907033273173   -0.00033169731509031565
0.00033695717349674657   -0.007329410515533507   -0.00031017178235762024
0.0006582613770875514   -0.008401982365146277   -0.00029823473842557105
9.543587553323989e-05   -0.008442225080498867   -0.00030093391098121475
7.605704368468595e-05   -0.008442687667400955   -0.0003192042514612949
0.00033695717349674657   -0.007329410515533507   -0.00031017178235762024
0.0006582613770875514   -0.008401982365146277   -0.00029823473842557105
7.605704368468595e-05   -0.008442687667400955   -0.0003192042514612949
0.0009772287370866414   -0.007300907033273173   -0.00033169731509031565
0.00033695717349674657   -0.007329410515533507   -0.00031017178235762024
9.543587553323989e-05   -0.008442225080498867   -0.00030093391098121475
0.0010025169782284583   -0.00729852013140139   -0.000311572922012171
0.00034585495918847023   -0.007331246814785171   -0.00029772498627796834
9.543587553323989e-05   -0.008442225080498867   -0.00030093391098121475
0.0006582613770875514   -0.008401982365146277   -0.00029823473842557105
0.0010025169782284583   -0.00729852013140139   -0.000311572922012171
0.0006967008478521736   -0.008405150160915136   -0.00027199230677704624
0.00034585495918847023   -0.007331246814785171   -0.00029772498627796834
0.001028585208072789   -0.007298586603102219   -0.0002933508192017208
0.0006967008478521736   -0.008405150160915136   -0.00027199230677704624
0.0010025169782284583   -0.00729852013140139   -0.000311572922012171
0.00034585495918847023   -0.007331246814785171   -0.00029772498627796834
0.0006967008478521736   -0.008405150160915136   -0.00027199230677704624
0.00010960462878717611   -0.008446314589407467   -0.0002837910080210412
9.543587553323989e-05   -0.008442225080498867   -0.00030093391098121475
0.00034585495918847023   -0.007331246814785171   -0.00029772498627796834
0.0006967008478521736   -0.008405150160915136   -0.00027199230677704624
9.543587553323989e-05   -0.008442225080498867   -0.00030093391098121475
0.0010025169782284583   -0.00729852013140139   -0.000311572922012171
-0.0019410626465598776   -0.008432540137202908   -0.0003282932442375714
-0.001637883241962239   -0.009291003452879188   -0.0002988196389439503
-0.0013848624562990202   -0.00845761082824392   -0.0003267882264264568
-0.0019127341588865093   -0.008437798115922058   -0.0003453983335305373
-0.001637883241962239   -0.009291003452879188   -0.0002988196389439503
-0.0012406429325198093   -0.009327360583148153   -0.0003095632943833085
-0.0013848624562990202   -0.00845761082824392   -0.0003267882264264568
-0.0012221671879337477   -0.009325749537175295   -0.0003187952033288952
-0.0019127341588865093   -0.008437798115922058   -0.0003453983335305373
-0.001371506408438074   -0.008461191855785793   -0.0003328142246089516
-0.0012221671879337477   -0.009325749537175295   -0.0003187952033288952
-0.0013848624562990202   -0.00845761082824392   -0.0003267882264264568
-0.0019127341588865093   -0.008437798115922058   -0.0003453983335305373
-0.0012221671879337477   -0.009325749537175295   -0.0003187952033288952
-0.001596921523941096   -0.009290151299602332   -0.00032366175550917604
-0.001637883241962239   -0.009291003452879188   -0.0002988196389439503
-0.0019127341588865093   -0.008437798115922058   -0.0003453983335305373
-0.0012221671879337477   -0.009325749537175295   -0.0003187952033288952
-0.001637883241962239   -0.009291003452879188   -0.0002988196389439503
-0.0013848624562990202   -0.00845761082824392   -0.0003267882264264568
-0.0019127341588865093   -0.008437798115922058   -0.0003453983335305373
-0.001596921523941096   -0.009290151299602332   -0.00032366175550917604
-0.001371506408438074   -0.008461191855785793   -0.0003328142246089516
-0.0018847435901692866   -0.008448143397487708   -0.0003645604485386751
-0.001596921523941096   -0.009290151299602332   -0.00032366175550917604
-0.0012221671879337477   -0.009325749537175295   -0.0003187952033288952
-0.001371506408438074   -0.008461191855785793   -0.0003328142246089516
-0.0012002568386270463   -0.009331442282673495   -0.00032928619757931806
-0.0018847435901692866   -0.008448143397487708   -0.0003645604485386751
-0.001354709369151431   -0.008469998539193984   -0.0003401055837125809
-0.0012002568386270463   -0.009331442282673495   -0.00032928619757931806
-0.001371506408438074   -0.008461191855785793   -0.0003328142246089516
-0.0018847435901692866   -0.008448143397487708   -0.0003645604485386751
-0.0012002568386270463   -0.009331442282673495   -0.00032928619757931806
-0.001559348529916359   -0.009297110275648524   -0.0003502904619741946
-0.001596921523941096   -0.009290151299602332   -0.00032366175550917604
-0.0018847435901692866   -0.008448143397487708   -0.0003645604485386751
-0.0012002568386270463   -0.009331442282673495   -0.00032928619757931806
-0.001596921523941096   -0.009290151299602332   -0.00032366175550917604
-0.001371506408438074   -0.008461191855785793   -0.0003328142246089516
-0.0018847435901692866   -0.008448143397487708   -0.0003645604485386751
-0.001559348529916359   -0.009297110275648524   -0.0003502904619741946
-0.001354709369151431   -0.008469998539193984   -0.0003401055837125809
-0.0018489652465989196   -0.008467436753987334   -0.00038576274095232494
-0.001559348529916359   -0.009297110275648524   -0.0003502904619741946
-0.0012002568386270463   -0.009331442282673495   -0.00032928619757931806
-0.001354709369151431   -0.008469998539193984   -0.0003401055837125809
-0.001180389788238987   -0.00934459583332539   -0.00034095948921612985
-0.0018489652465989196   -0.008467436753987334   -0.00038576274095232494
-0.0013381867076790806   -0.008484535684038974   -0.0003486496238331845
-0.001180389788238987   -0.00934459583332539   -0.00034095948921612985
-0.001354709369151431   -0.008469998539193984   -0.0003401055837125809
-0.0018489652465989196   -0.008467436753987334   -0.00038576274095232494
-0.001180389788238987   -0.00934459583332539   -0.00034095948921612985
-0.001513395057852281   -0.009315092569831783   -0.0003786212013836057
-0.001559348529916359   -0.009297110275648524   -0.0003502904619741946
-0.0018489652465989196   -0.008467436753987334   -0.00038576274095232494
-0.001180389788238987   -0.00934459583332539   -0.00034095948921612985
-0.001559348529916359   -0.009297110275648524   -0.0003502904619741946
-0.001354709369151431   -0.008469998539193984   -0.0003401055837125809
-0.0013848624562990202   -0.00845761082824392   -0.0003267882264264568
-0.0012406429325198093   -0.009327360583148153   -0.0003095632943833085
-0.0008999820769055051   -0.008468845398856811   -0.0003263464876628412
-0.001371506408438074   -0.008461191855785793   -0.0003328142246089516
-0.0012406429325198093   -0.009327360583148153   -0.0003095632943833085
-0.0009121032452364783   -0.009349696247988419   -0.0003180136062392955
-0.0008999820769055051   -0.008468845398856811   -0.0003263464876628412
-0.0008933140890924029   -0.009346845249492907   -0.00031522020957030247
-0.001371506408438074   -0.008461191855785793   -0.0003328142246089516
-0.000886374233136173   -0.008469940851435756   -0.0003235248122590492
-0.0008933140890924029   -0.009346845249492907   -0.00031522020957030247
-0.0008999820769055051   -0.008468845398856811   -0.0003263464876628412
-0.001371506408438074   -0.008461191855785793   -0.0003328142246089516
-0.0008933140890924029   -0.009346845249492907   -0.00031522020957030247
-0.0012221671879337477   -0.009325749537175295   -0.0003187952033288952
-0.0012406429325198093   -0.009327360583148153   -0.0003095632943833085
-0.001371506408438074   -0.008461191855785793   -0.0003328142246089516
-0.0008933140890924029   -0.009346845249492907   -0.00031522020957030247
-0.0012406429325198093   -0.009327360583148153   -0.0003095632943833085
-0.0008999820769055051   -0.008468845398856811   -0.0003263464876628412
-0.001371506408438074   -0.008461191855785793   -0.0003328142246089516
-0.0012221671879337477   -0.009325749537175295   -0.0003187952033288952
-0.000886374233136173   -0.008469940851435756   -0.0003235248122590492
-0.001354709369151431   -0.008469998539193984   -0.0003401055837125809
-0.0012221671879337477   -0.009325749537175295   -0.0003187952033288952
-0.0008933140890924029   -0.009346845249492907   -0.00031522020957030247
-0.000886374233136173   -0.008469940851435756   -0.0003235248122590492
-0.0008746855429828616   -0.009350354718930273   -0.0003136620534673801
-0.001354709369151431   -0.008469998539193984   -0.0003401055837125809
-0.0008722919783783979   -0.008475723831909308   -0.00032193049805564214
-0.0008746855429828616   -0.009350354718930273   -0.0003136620534673801
-0.000886374233136173   -0.008469940851435756   -0.0003235248122590492
-0.001354709369151431   -0.008469998539193984   -0.0003401055837125809
-0.0008746855429828616   -0.009350354718930273   -0.0003136620534673801
-0.0012002568386270463   -0.009331442282673495   -0.00032928619757931806
-0.0012221671879337477   -0.009325749537175295   -0.0003187952033288952
-0.001354709369151431   -0.008469998539193984   -0.0003401055837125809
-0.0008746855429828616   -0.009350354718930273   -0.0003136620534673801
-0.0012221671879337477   -0.009325749537175295   -0.0003187952033288952
-0.000886374233136173   -0.008469940851435756   -0.0003235248122590492
-0.001354709369151431   -0.008469998539193984   -0.0003401055837125809
-0.0012002568386270463   -0.009331442282673495   -0.00032928619757931806
-0.0008722919783783979   -0.008475723831909308   -0.00032193049805564214
-0.0013381867076790806   -0.008484535684038974   -0.0003486496238331845
-0.0012002568386270463   -0.009331442282673495   -0.00032928619757931806
-0.0008746855429828616   -0.009350354718930273   -0.0003136620534673801
-0.0008722919783783979   -0.008475723831909308   -0.00032193049805564214
-0.0008574342323578933   -0.009360392229304812   -0.00031357958189348595
-0.0013381867076790806   -0.008484535684038974   -0.0003486496238331845
-0.0008582128060023105   -0.008486422872101133   -0.0003215631567348217
-0.0008574342323578933   -0.009360392229304812   -0.00031357958189348595
-0.0008722919783783979   -0.008475723831909308   -0.00032193049805564214
-0.0013381867076790806   -0.008484535684038974   -0.0003486496238331845
-0.0008574342323578933   -0.009360392229304812   -0.00031357958189348595
-0.001180389788238987   -0.00934459583332539   -0.00034095948921612985
-0.0012002568386270463   -0.009331442282673495   -0.00032928619757931806
-0.0013381867076790806   -0.008484535684038974   -0.0003486496238331845
-0.0008574342323578933   -0.009360392229304812   -0.00031357958189348595
-0.0012002568386270463   -0.009331442282673495   -0.00032928619757931806
-0.0008722919783783979   -0.008475723831909308   -0.00032193049805564214
-0.0008999820769055051   -0.008468845398856811   -0.0003263464876628412
-0.0009121032452364783   -0.009349696247988419   -0.0003180136062392955
-0.0004308545914047917   -0.008465800649875425   -0.0003302260418512357
-0.000886374233136173   -0.008469940851435756   -0.0003235248122590492
-0.0009121032452364783   -0.009349696247988419   -0.0003180136062392955
-0.0005970168304875021   -0.009359522782163615   -0.00032841775214870265
-0.0004308545914047917   -0.008465800649875425   -0.0003302260418512357
-0.0005758773910427548   -0.009355157345950457   -0.0003142096734474437
-0.000886374233136173   -0.008469940851435756   -0.0003235248122590492
-0.0004159592921321007   -0.008464066572358181   -0.00031885679434547716
-0.0005758773910427548   -0.009355157345950457   -0.0003142096734474437
-0.0004308545914047917   -0.008465800649875425   -0.0003302260418512357
-0.000886374233136173   -0.008469940851435756   -0.0003235248122590492
-0.0005758773910427548   -0.009355157345950457   -0.0003142096734474437
-0.0008933140890924029   -0.009346845249492907   -0.00031522020957030247
-0.0009121032452364783   -0.009349696247988419   -0.0003180136062392955
-0.000886374233136173   -0.008469940851435756   -0.0003235248122590492
-0.0005758773910427548   -0.009355157345950457   -0.0003142096734474437
-0.0009121032452364783   -0.009349696247988419   -0.0003180136062392955
-0.0004308545914047917   -0.008465800649875425   -0.0003302260418512357
-0.000886374233136173   -0.008469940851435756   -0.0003235248122590492
-0.0008933140890924029   -0.009346845249492907   -0.00031522020957030247
-0.0004159592921321007   -0.008464066572358181   -0.00031885679434547716
-0.0008722919783783979   -0.008475723831909308   -0.00032193049805564214
-0.0008933140890924029   -0.009346845249492907   -0.00031522020957030247
-0.0005758773910427548   -0.009355157345950457   -0.0003142096734474437
-0.0004159592921321007   -0.008464066572358181   -0.00031885679434547716
-0.0005556407738619249   -0.009356489529871257   -0.000301138344486531
-0.0008722919783783979   -0.008475723831909308   -0.00032193049805564214
-0.00040144801769415484   -0.008466628218720617   -0.00030879804808735424
-0.0005556407738619249   -0.009356489529871257   -0.000301138344486531
-0.0004159592921321007   -0.008464066572358181   -0.00031885679434547716
-0.0008722919783783979   -0.008475723831909308   -0.00032193049805564214
-0.0005556407738619249   -0.009356489529871257   -0.000301138344486531
-0.0008746855429828616   -0.009350354718930273   -0.0003136620534673801
-0.0008933140890924029   -0.009346845249492907   -0.00031522020957030247
-0.0008722919783783979   -0.008475723831909308   -0.00032193049805564214
-0.0005556407738619249   -0.009356489529871257   -0.000301138344486531
-0.0008933140890924029   -0.009346845249492907   -0.00031522020957030247
-0.0004159592921321007   -0.008464066572358181   -0.00031885679434547716
-0.0008722919783783979   -0.008475723831909308   -0.00032193049805564214
-0.0008746855429828616   -0.009350354718930273   -0.0003136620534673801
-0.00040144801769415484   -0.008466628218720617   -0.00030879804808735424
-0.0008582128060023105   -0.008486422872101133   -0.0003215631567348217
-0.0008746855429828616   -0.009350354718930273   -0.0003136620534673801
-0.0005556407738619249   -0.009356489529871257   -0.000301138344486531
-0.00040144801769415484   -0.008466628218720617   -0.00030879804808735424
-0.0005386442968333523   -0.009364436877558141   -0.000289810571239993
-0.0008582128060023105   -0.008486422872101133   -0.0003215631567348217
-0.0003882864385694033   -0.008474008591666365   -0.00029994439918396584
-0.0005386442968333523   -0.009364436877558141   -0.000289810571239993
-0.00040144801769415484   -0.008466628218720617   -0.00030879804808735424
-0.0008582128060023105   -0.008486422872101133   -0.0003215631567348217
-0.0005386442968333523   -0.009364436877558141   -0.000289810571239993
-0.0008574342323578933   -0.009360392229304812   -0.00031357958189348595
-0.0008746855429828616   -0.009350354718930273   -0.0003136620534673801
-0.0008582128060023105   -0.008486422872101133   -0.0003215631567348217
-0.0005386442968333523   -0.009364436877558141   -0.000289810571239993
-0.0008746855429828616   -0.009350354718930273   -0.0003136620534673801
-0.00040144801769415484   -0.008466628218720617   -0.00030879804808735424
-0.0004308545914047917   -0.008465800649875425   -0.0003302260418512357
-0.0005970168304875021   -0.009359522782163615   -0.00032841775214870265
5.783225228181398e-05   -0.008447945615723724   -0.0003391216357949066
-0.0004159592921321007   -0.008464066572358181   -0.00031885679434547716
-0.0005970168304875021   -0.009359522782163615   -0.00032841775214870265
-0.0002649382649954705   -0.00935294919007771   -0.0003410291823413059
5.783225228181398e-05   -0.008447945615723724   -0.0003391216357949066
-0.0002377905749447561   -0.00934603657852454   -0.00031579642700280114
-0.0004159592921321007   -0.008464066572358181   -0.00031885679434547716
7.605704368468595e-05   -0.008442687667400955   -0.0003192042514612949
-0.0002377905749447561   -0.00934603657852454   -0.00031579642700280114
5.783225228181398e-05   -0.008447945615723724   -0.0003391216357949066
-0.0004159592921321007   -0.008464066572358181   -0.00031885679434547716
-0.0002377905749447561   -0.00934603657852454   -0.00031579642700280114
-0.0005758773910427548   -0.009355157345950457   -0.0003142096734474437
-0.0005970168304875021   -0.009359522782163615   -0.00032841775214870265
-0.0004159592921321007   -0.008464066572358181   -0.00031885679434547716
-0.0002377905749447561   -0.00934603657852454   -0.00031579642700280114
-0.0005970168304875021   -0.009359522782163615   -0.00032841775214870265
5.783225228181398e-05   -0.008447945615723724   -0.0003391216357949066
-0.0004159592921321007   -0.008464066572358181   -0.00031885679434547716
-0.0005758773910427548   -0.009355157345950457   -0.0003142096734474437
7.605704368468595e-05   -0.008442687667400955   -0.0003192042514612949
-0.00040144801769415484   -0.008466628218720617   -0.00030879804808735424
-0.0005758773910427548   -0.009355157345950457   -0.0003142096734474437
-0.0002377905749447561   -0.00934603657852454   -0.00031579642700280114
7.605704368468595e-05   -0.008442687667400955   -0.0003192042514612949
-0.0002096441874585735   -0.009345050361271883   -0.0002917529265557012
-0.00040144801769415484   -0.008466628218720617   -0.00030879804808735424
9.543587553323989e-05   -0.008442225080498867   -0.00030093391098121475
-0.0002096441874585735   -0.009345050361271883   -0.0002917529265557012
7.605704368468595e-05   -0.008442687667400955   -0.0003192042514612949
-0.00040144801769415484   -0.008466628218720617   -0.00030879804808735424
-0.0002096441874585735   -0.009345050361271883   -0.0002917529265557012
-0.0005556407738619249   -0.009356489529871257   -0.000301138344486531
-0.0005758773910427548   -0.009355157345950457   -0.0003142096734474437
-0.00040144801769415484   -0.008466628218720617   -0.00030879804808735424
-0.0002096441874585735   -0.009345050361271883   -0.0002917529265557012
-0.0005758773910427548   -0.009355157345950457   -0.0003142096734474437
7.605704368468595e-05   -0.008442687667400955   -0.0003192042514612949
-0.00040144801769415484   -0.008466628218720617   -0.00030879804808735424
-0.0005556407738619249   -0.009356489529871257   -0.000301138344486531
9.543587553323989e-05   -0.008442225080498867   -0.00030093391098121475
-0.0003882864385694033   -0.008474008591666365   -0.00029994439918396584
-0.0005556407738619249   -0.009356489529871257   -0.000301138344486531
-0.0002096441874585735   -0.009345050361271883   -0.0002917529265557012
9.543587553323989e-05   -0.008442225080498867   -0.00030093391098121475
-0.0001890308286284387   -0.009351093224921976   -0.0002697167043110941
-0.0003882864385694033   -0.008474008591666365   -0.00029994439918396584
0.00010960462878717611   -0.008446314589407467   -0.0002837910080210412
-0.0001890308286284387   -0.009351093224921976   -0.0002697167043110941
9.543587553323989e-05   -0.008442225080498867   -0.00030093391098121475
-0.0003882864385694033   -0.008474008591666365   -0.00029994439918396584
-0.0001890308286284387   -0.009351093224921976   -0.0002697167043110941
-0.0005386442968333523   -0.009364436877558141   -0.000289810571239993
-0.0005556407738619249   -0.009356489529871257   -0.000301138344486531
-0.0003882864385694033   -0.008474008591666365   -0.00029994439918396584
-0.0001890308286284387   -0.009351093224921976   -0.0002697167043110941
-0.0005556407738619249   -0.009356489529871257   -0.000301138344486531
9.543587553323989e-05   -0.008442225080498867   -0.00030093391098121475
5.783225228181398e-05   -0.008447945615723724   -0.0003391216357949066
-0.0002649382649954705   -0.00935294919007771   -0.0003410291823413059
0.0005742026462681206   -0.008413661013944956   -0.0003573088505425841
7.605704368468595e-05   -0.008442687667400955   -0.0003192042514612949
-0.0002649382649954705   -0.00935294919007771   -0.0003410291823413059
8.658744736080296e-05   -0.009319790296515739   -0.0003656397387882205
0.0005742026462681206   -0.008413661013944956   -0.0003573088505425841
0.00015284544024221557   -0.009305141844730622   -0.0003245733773231333
7.605704368468595e-05   -0.008442687667400955   -0.0003192042514612949
0.0006217250509322599   -0.008403710647426735   -0.00032674772736572674
0.00015284544024221557   -0.009305141844730622   -0.0003245733773231333
0.0005742026462681206   -0.008413661013944956   -0.0003573088505425841
7.605704368468595e-05   -0.008442687667400955   -0.0003192042514612949
0.00015284544024221557   -0.009305141844730622   -0.0003245733773231333
-0.0002377905749447561   -0.00934603657852454   -0.00031579642700280114
-0.0002649382649954705   -0.00935294919007771   -0.0003410291823413059
7.605704368468595e-05   -0.008442687667400955   -0.0003192042514612949
0.00015284544024221557   -0.009305141844730622   -0.0003245733773231333
-0.0002649382649954705   -0.00935294919007771   -0.0003410291823413059
0.0005742026462681206   -0.008413661013944956   -0.0003573088505425841
7.605704368468595e-05   -0.008442687667400955   -0.0003192042514612949
-0.0002377905749447561   -0.00934603657852454   -0.00031579642700280114
0.0006217250509322599   -0.008403710647426735   -0.00032674772736572674
9.543587553323989e-05   -0.008442225080498867   -0.00030093391098121475
-0.0002377905749447561   -0.00934603657852454   -0.00031579642700280114
0.00015284544024221557   -0.009305141844730622   -0.0003245733773231333
0.0006217250509322599   -0.008403710647426735   -0.00032674772736572674
0.00020474973691742425   -0.009302368033531504   -0.0002857639258184904
9.543587553323989e-05   -0.008442225080498867   -0.00030093391098121475
0.0006582613770875514   -0.008401982365146277   -0.00029823473842557105
0.00020474973691742425   -0.009302368033531504   -0.0002857639258184904
0.0006217250509322599   -0.008403710647426735   -0.00032674772736572674
9.543587553323989e-05   -0.008442225080498867   -0.00030093391098121475
0.00020474973691742425   -0.009302368033531504   -0.0002857639258184904
-0.0002096441874585735   -0.009345050361271883   -0.0002917529265557012
-0.0002377905749447561   -0.00934603657852454   -0.00031579642700280114
9.543587553323989e-05   -0.008442225080498867   -0.00030093391098121475
0.00020474973691742425   -0.009302368033531504   -0.0002857639258184904
-0.0002377905749447561   -0.00934603657852454   -0.00031579642700280114
0.0006217250509322599   -0.008403710647426735   -0.00032674772736572674
9.543587553323989e-05   -0.008442225080498867   -0.00030093391098121475
-0.0002096441874585735   -0.009345050361271883   -0.0002917529265557012
0.0006582613770875514   -0.008401982365146277   -0.00029823473842557105
0.00010960462878717611   -0.008446314589407467   -0.0002837910080210412
-0.0002096441874585735   -0.009345050361271883   -0.0002917529265557012
0.00020474973691742425   -0.009302368033531504   -0.0002857639258184904
0.0006582613770875514   -0.008401982365146277   -0.00029823473842557105
0.0002594436102966859   -0.009305664969045079   -0.00025001794808053124
0.00010960462878717611   -0.008446314589407467   -0.0002837910080210412
0.0006967008478521736   -0.008405150160915136   -0.00027199230677704624
0.0002594436102966859   -0.009305664969045079   -0.00025001794808053124
0.0006582613770875514   -0.008401982365146277   -0.00029823473842557105
0.00010960462878717611   -0.008446314589407467   -0.0002837910080210412
0.0002594436102966859   -0.009305664969045079   -0.00025001794808053124
-0.0001890308286284387   -0.009351093224921976   -0.0002697167043110941
-0.0002096441874585735   -0.009345050361271883   -0.0002917529265557012
0.00010960462878717611   -0.008446314589407467   -0.0002837910080210412
0.0002594436102966859   -0.009305664969045079   -0.00025001794808053124
-0.0002096441874585735   -0.009345050361271883   -0.0002917529265557012
0.0006582613770875514   -0.008401982365146277   -0.00029823473842557105
-0.001637883241962239   -0.009291003452879188   -0.0002988196389439503
-0.0012282272965984345   -0.009806657188465791   -0.00026384360096682626
-0.0012406429325198093   -0.009327360583148153   -0.0003095632943833085
-0.001596921523941096   -0.009290151299602332   -0.00032366175550917604
-0.0012282272965984345   -0.009806657188465791   -0.00026384360096682626
-0.0010367494855010539   -0.00985203869230013   -0.00029027245365474506
-0.0012406429325198093   -0.009327360583148153   -0.0003095632943833085
-0.0010139651065575756   -0.009843682368789844   -0.00030031179618494186
-0.001596921523941096   -0.009290151299602332   -0.00032366175550917604
-0.0012221671879337477   -0.009325749537175295   -0.0003187952033288952
-0.0010139651065575756   -0.009843682368789844   -0.00030031179618494186
-0.0012406429325198093   -0.009327360583148153   -0.0003095632943833085
-0.001596921523941096   -0.009290151299602332   -0.00032366175550917604
-0.0010139651065575756   -0.009843682368789844   -0.00030031179618494186
-0.0011779301862315406   -0.009797161471020605   -0.0002934971497826595
-0.0012282272965984345   -0.009806657188465791   -0.00026384360096682626
-0.001596921523941096   -0.009290151299602332   -0.00032366175550917604
-0.0010139651065575756   -0.009843682368789844   -0.00030031179618494186
-0.0012282272965984345   -0.009806657188465791   -0.00026384360096682626
-0.0012406429325198093   -0.009327360583148153   -0.0003095632943833085
-0.001596921523941096   -0.009290151299602332   -0.00032366175550917604
-0.0011779301862315406   -0.009797161471020605   -0.0002934971497826595
-0.0012221671879337477   -0.009325749537175295   -0.0003187952033288952
-0.001559348529916359   -0.009297110275648524   -0.0003502904619741946
-0.0011779301862315406   -0.009797161471020605   -0.0002934971497826595
-0.0010139651065575756   -0.009843682368789844   -0.00030031179618494186
-0.0012221671879337477   -0.009325749537175295   -0.0003187952033288952
-0.0009884287013734966   -0.009844907702133903   -0.0003104670061163266
-0.001559348529916359   -0.009297110275648524   -0.0003502904619741946
-0.0012002568386270463   -0.009331442282673495   -0.00032928619757931806
-0.0009884287013734966   -0.009844907702133903   -0.0003104670061163266
-0.0012221671879337477   -0.009325749537175295   -0.0003187952033288952
-0.001559348529916359   -0.009297110275648524   -0.0003502904619741946
-0.0009884287013734966   -0.009844907702133903   -0.0003104670061163266
-0.0011346077943701638   -0.009798887062407592   -0.00032310810901363754
-0.0011779301862315406   -0.009797161471020605   -0.0002934971497826595
-0.001559348529916359   -0.009297110275648524   -0.0003502904619741946
-0.0009884287013734966   -0.009844907702133903   -0.0003104670061163266
-0.0011779301862315406   -0.009797161471020605   -0.0002934971497826595
-0.0012221671879337477   -0.009325749537175295   -0.0003187952033288952
-0.001559348529916359   -0.009297110275648524   -0.0003502904619741946
-0.0011346077943701638   -0.009798887062407592   -0.00032310810901363754
-0.0012002568386270463   -0.009331442282673495   -0.00032928619757931806
-0.001513395057852281   -0.009315092569831783   -0.0003786212013836057
-0.0011346077943701638   -0.009798887062407592   -0.00032310810901363754
-0.0009884287013734966   -0.009844907702133903   -0.0003104670061163266
-0.0012002568386270463   -0.009331442282673495   -0.00032928619757931806
-0.0009648721950449194   -0.009855797202054817   -0.00032077869156715367
-0.001513395057852281   -0.009315092569831783   -0.0003786212013836057
-0.001180389788238987   -0.00934459583332539   -0.00034095948921612985
-0.0009648721950449194   -0.009855797202054817   -0.00032077869156715367
-0.0012002568386270463   -0.009331442282673495   -0.00032928619757931806
-0.001513395057852281   -0.009315092569831783   -0.0003786212013836057
-0.0009648721950449194   -0.009855797202054817   -0.00032077869156715367
-0.0010829850748652263   -0.009812565753406262   -0.00035333411868446006
-0.0011346077943701638   -0.009798887062407592   -0.00032310810901363754
-0.001513395057852281   -0.009315092569831783   -0.0003786212013836057
-0.0009648721950449194   -0.009855797202054817   -0.00032077869156715367
-0.0011346077943701638   -0.009798887062407592   -0.00032310810901363754
-0.0012002568386270463   -0.009331442282673495   -0.00032928619757931806
-0.0012406429325198093   -0.009327360583148153   -0.0003095632943833085
-0.0010367494855010539   -0.00985203869230013   -0.00029027245365474506
-0.0009121032452364783   -0.009349696247988419   -0.0003180136062392955
-0.0012221671879337477   -0.009325749537175295   -0.0003187952033288952
-0.0010367494855010539   -0.00985203869230013   -0.00029027245365474506
-0.0008933343287805552   -0.009894624006560885   -0.000313423857363528
-0.0009121032452364783   -0.009349696247988419   -0.0003180136062392955
-0.000869587761063377   -0.009885892969262348   -0.00030724534485139466
-0.0012221671879337477   -0.009325749537175295   -0.0003187952033288952
-0.0008933140890924029   -0.009346845249492907   -0.00031522020957030247
-0.000869587761063377   -0.009885892969262348   -0.00030724534485139466
-0.0009121032452364783   -0.009349696247988419   -0.0003180136062392955
-0.0012221671879337477   -0.009325749537175295   -0.0003187952033288952
-0.000869587761063377   -0.009885892969262348   -0.00030724534485139466
-0.0010139651065575756   -0.009843682368789844   -0.00030031179618494186
-0.0010367494855010539   -0.00985203869230013   -0.00029027245365474506
-0.0012221671879337477   -0.009325749537175295   -0.0003187952033288952
-0.000869587761063377   -0.009885892969262348   -0.00030724534485139466
-0.0010367494855010539   -0.00985203869230013   -0.00029027245365474506
-0.0009121032452364783   -0.009349696247988419   -0.0003180136062392955
-0.0012221671879337477   -0.009325749537175295   -0.0003187952033288952
-0.0010139651065575756   -0.009843682368789844   -0.00030031179618494186
-0.0008933140890924029   -0.009346845249492907   -0.00031522020957030247
-0.0012002568386270463   -0.009331442282673495   -0.00032928619757931806
-0.0010139651065575756   -0.009843682368789844   -0.00030031179618494186
-0.000869587761063377   -0.009885892969262348   -0.00030724534485139466
-0.0008933140890924029   -0.009346845249492907   -0.00031522020957030247
-0.0008464924177640913   -0.009886341189447369   -0.00030101062987652826
-0.0012002568386270463   -0.009331442282673495   -0.00032928619757931806
-0.0008746855429828616   -0.009350354718930273   -0.0003136620534673801
-0.0008464924177640913   -0.009886341189447369   -0.00030101062987652826
-0.0008933140890924029   -0.009346845249492907   -0.00031522020957030247
-0.0012002568386270463   -0.009331442282673495   -0.00032928619757931806
-0.0008464924177640913   -0.009886341189447369   -0.00030101062987652826
-0.0009884287013734966   -0.009844907702133903   -0.0003104670061163266
-0.0010139651065575756   -0.009843682368789844   -0.00030031179618494186
-0.0012002568386270463   -0.009331442282673495   -0.00032928619757931806
-0.0008464924177640913   -0.009886341189447369   -0.00030101062987652826
-0.0010139651065575756   -0.009843682368789844   -0.00030031179618494186
-0.0008933140890924029   -0.009346845249492907   -0.00031522020957030247
-0.0012002568386270463   -0.009331442282673495   -0.00032928619757931806
-0.0009884287013734966   -0.009844907702133903   -0.0003104670061163266
-0.0008746855429828616   -0.009350354718930273   -0.0003136620534673801
-0.001180389788238987   -0.00934459583332539   -0.00034095948921612985
-0.0009884287013734966   -0.009844907702133903   -0.0003104670061163266
-0.0008464924177640913   -0.009886341189447369   -0.00030101062987652826
-0.0008746855429828616   -0.009350354718930273   -0.0003136620534673801
-0.0008225202210025741   -0.009895814594937968   -0.000295072623870111
-0.001180389788238987   -0.00934459583332539   -0.00034095948921612985
-0.0008574342323578933   -0.009360392229304812   -0.00031357958189348595
-0.0008225202210025741   -0.009895814594937968   -0.000295072623870111
-0.0008746855429828616   -0.009350354718930273   -0.0003136620534673801
-0.001180389788238987   -0.00934459583332539   -0.00034095948921612985
-0.0008225202210025741   -0.009895814594937968   -0.000295072623870111
-0.0009648721950449194   -0.009855797202054817   -0.00032077869156715367
-0.0009884287013734966   -0.009844907702133903   -0.0003104670061163266
-0.001180389788238987   -0.00934459583332539   -0.00034095948921612985
-0.0008225202210025741   -0.009895814594937968   -0.000295072623870111
-0.0009884287013734966   -0.009844907702133903   -0.0003104670061163266
-0.0008746855429828616   -0.009350354718930273   -0.0003136620534673801
-0.0009121032452364783   -0.009349696247988419   -0.0003180136062392955
-0.0008933343287805552   -0.009894624006560885   -0.000313423857363528
-0.0005970168304875021   -0.009359522782163615   -0.00032841775214870265
-0.0008933140890924029   -0.009346845249492907   -0.00031522020957030247
-0.0008933343287805552   -0.009894624006560885   -0.000313423857363528
-0.0007612321487878668   -0.009942878619153573   -0.0003393443273471962
-0.0005970168304875021   -0.009359522782163615   -0.00032841775214870265
-0.0007323115899965146   -0.009934975236177989   -0.00031610165227441704
-0.0008933140890924029   -0.009346845249492907   -0.00031522020957030247
-0.0005758773910427548   -0.009355157345950457   -0.0003142096734474437
-0.0007323115899965146   -0.009934975236177989   -0.00031610165227441704
-0.0005970168304875021   -0.009359522782163615   -0.00032841775214870265
-0.0008933140890924029   -0.009346845249492907   -0.00031522020957030247
-0.0007323115899965146   -0.009934975236177989   -0.00031610165227441704
-0.000869587761063377   -0.009885892969262348   -0.00030724534485139466
-0.0008933343287805552   -0.009894624006560885   -0.000313423857363528
-0.0008933140890924029   -0.009346845249492907   -0.00031522020957030247
-0.0007323115899965146   -0.009934975236177989   -0.00031610165227441704
-0.0008933343287805552   -0.009894624006560885   -0.000313423857363528
-0.0005970168304875021   -0.009359522782163615   -0.00032841775214870265
-0.0008933140890924029   -0.009346845249492907   -0.00031522020957030247
-0.000869587761063377   -0.009885892969262348   -0.00030724534485139466
-0.0005758773910427548   -0.009355157345950457   -0.0003142096734474437
-0.0008746855429828616   -0.009350354718930273   -0.0003136620534673801
-0.000869587761063377   -0.009885892969262348   -0.00030724534485139466
-0.0007323115899965146   -0.009934975236177989   -0.00031610165227441704
-0.0005758773910427548   -0.009355157345950457   -0.0003142096734474437
-0.0007053021313478557   -0.009934904890565937   -0.0002928108118847838
-0.0008746855429828616   -0.009350354718930273   -0.0003136620534673801
-0.0005556407738619249   -0.009356489529871257   -0.000301138344486531
-0.0007053021313478557   -0.009934904890565937   -0.0002928108118847838
-0.0005758773910427548   -0.009355157345950457   -0.0003142096734474437
-0.0008746855429828616   -0.009350354718930273   -0.0003136620534673801
-0.0007053021313478557   -0.009934904890565937   -0.0002928108118847838
-0.0008464924177640913   -0.009886341189447369   -0.00030101062987652826
-0.000869587761063377   -0.009885892969262348   -0.00030724534485139466
-0.0008746855429828616   -0.009350354718930273   -0.0003136620534673801
-0.0007053021313478557   -0.009934904890565937   -0.0002928108118847838
-0.000869587761063377   -0.009885892969262348   -0.00030724534485139466
-0.0005758773910427548   -0.009355157345950457   -0.0003142096734474437
-0.0008746855429828616   -0.009350354718930273   -0.0003136620534673801
-0.0008464924177640913   -0.009886341189447369   -0.00030101062987652826
-0.0005556407738619249   -0.009356489529871257   -0.000301138344486531
-0.0008574342323578933   -0.009360392229304812   -0.00031357958189348595
-0.0008464924177640913   -0.009886341189447369   -0.00030101062987652826
-0.0007053021313478557   -0.009934904890565937   -0.0002928108118847838
-0.0005556407738619249   -0.009356489529871257   -0.000301138344486531
-0.0006765776410234286   -0.00994233694644465   -0.00026968325291099
-0.0008574342323578933   -0.009360392229304812   -0.00031357958189348595
-0.0005386442968333523   -0.009364436877558141   -0.000289810571239993
-0.0006765776410234286   -0.00994233694644465   -0.00026968325291099
-0.0005556407738619249   -0.009356489529871257   -0.000301138344486531
-0.0008574342323578933   -0.009360392229304812   -0.00031357958189348595
-0.0006765776410234286   -0.00994233694644465   -0.00026968325291099
-0.0008225202210025741   -0.009895814594937968   -0.000295072623870111
-0.0008464924177640913   -0.009886341189447369   -0.00030101062987652826
-0.0008574342323578933   -0.009360392229304812   -0.00031357958189348595
-0.0006765776410234286   -0.00994233694644465   -0.00026968325291099
-0.0008464924177640913   -0.009886341189447369   -0.00030101062987652826
-0.0005556407738619249   -0.009356489529871257   -0.000301138344486531
-0.0005970168304875021   -0.009359522782163615   -0.00032841775214870265
-0.0007612321487878668   -0.009942878619153573   -0.0003393443273471962
-0.0002649382649954705   -0.00935294919007771   -0.0003410291823413059
-0.0005758773910427548   -0.009355157345950457   -0.0003142096734474437
-0.0007612321487878668   -0.009942878619153573   -0.0003393443273471962
-0.0006312127902451198   -0.01   -0.00036090235798989486
-0.0002649382649954705   -0.00935294919007771   -0.0003410291823413059
-0.000594372096958598   -0.01   -0.00032430347997926094
-0.0005758773910427548   -0.009355157345950457   -0.0003142096734474437
-0.0002377905749447561   -0.00934603657852454   -0.00031579642700280114
-0.000594372096958598   -0.01   -0.00032430347997926094
-0.0002649382649954705   -0.00935294919007771   -0.0003410291823413059
-0.0005758773910427548   -0.009355157345950457   -0.0003142096734474437
-0.000594372096958598   -0.01   -0.00032430347997926094
-0.0007323115899965146   -0.009934975236177989   -0.00031610165227441704
-0.0007612321487878668   -0.009942878619153573   -0.0003393443273471962
-0.0005758773910427548   -0.009355157345950457   -0.0003142096734474437
-0.000594372096958598   -0.01   -0.00032430347997926094
-0.0007612321487878668   -0.009942878619153573   -0.0003393443273471962
-0.0002649382649954705   -0.00935294919007771   -0.0003410291823413059
-0.0005758773910427548   -0.009355157345950457   -0.0003142096734474437
-0.0007323115899965146   -0.009934975236177989   -0.00031610165227441704
-0.0002377905749447561   -0.00934603657852454   -0.00031579642700280114
-0.0005556407738619249   -0.009356489529871257   -0.000301138344486531
-0.0007323115899965146   -0.009934975236177989   -0.00031610165227441704
-0.000594372096958598   -0.01   -0.00032430347997926094
-0.0002377905749447561   -0.00934603657852454   -0.00031579642700280114
-0.0005569787059891518   -0.01   -0.00028728340221249675
-0.0005556407738619249   -0.009356489529871257   -0.000301138344486531
-0.0002096441874585735   -0.009345050361271883   -0.0002917529265557012
-0.0005569787059891518   -0.01   -0.00028728340221249675
-0.0002377905749447561   -0.00934603657852454   -0.00031579642700280114
-0.0005556407738619249   -0.009356489529871257   -0.000301138344486531
-0.0005569787059891518   -0.01   -0.00028728340221249675
-0.0007053021313478557   -0.009934904890565937   -0.0002928108118847838
-0.0007323115899965146   -0.009934975236177989   -0.00031610165227441704
-0.0005556407738619249   -0.009356489529871257   -0.000301138344486531
-0.0005569787059891518   -0.01   -0.00028728340221249675
-0.0007323115899965146   -0.009934975236177989   -0.00031610165227441704
-0.0002377905749447561   -0.00934603657852454   -0.00031579642700280114
-0.0005556407738619249   -0.009356489529871257   -0.000301138344486531
-0.0007053021313478557   -0.009934904890565937   -0.0002928108118847838
-0.0002096441874585735   -0.009345050361271883   -0.0002917529265557012
-0.0005386442968333523   -0.009364436877558141   -0.000289810571239993
-0.0007053021313478557   -0.009934904890565937   -0.0002928108118847838
-0.0005569787059891518   -0.01   -0.00028728340221249675
-0.0002096441874585735   -0.009345050361271883   -0.0002917529265557012
-0.0005208993696719209   -0.01   -0.0002507852354878399
-0.0005386442968333523   -0.009364436877558141   -0.000289810571239993
-0.0001890308286284387   -0.009351093224921976   -0.0002697167043110941
-0.0005208993696719209   -0.01   -0.0002507852354878399
-0.0002096441874585735   -0.009345050361271883   -0.0002917529265557012
-0.0005386442968333523   -0.009364436877558141   -0.000289810571239993
-0.0005208993696719209   -0.01   -0.0002507852354878399
-0.0006765776410234286   -0.00994233694644465   -0.00026968325291099
-0.0007053021313478557   -0.009934904890565937   -0.0002928108118847838
-0.0005386442968333523   -0.009364436877558141   -0.000289810571239993
-0.0005208993696719209   -0.01   -0.0002507852354878399
-0.0007053021313478557   -0.009934904890565937   -0.0002928108118847838
-0.0002096441874585735   -0.009345050361271883   -0.0002917529265557012
-0.0002649382649954705   -0.00935294919007771   -0.0003410291823413059
-0.0006312127902451198   -0.01   -0.00036090235798989486
8.658744736080296e-05   -0.009319790296515739   -0.0003656397387882205
-0.0002377905749447561   -0.00934603657852454   -0.00031579642700280114
-0.0006312127902451198   -0.01   -0.00036090235798989486
-0.0005327729907871325   -0.01   -0.00038699934029218116
8.658744736080296e-05   -0.009319790296515739   -0.0003656397387882205
-0.00045269873999988344   -0.01   -0.0003333686138700926
-0.0002377905749447561   -0.00934603657852454   -0.00031579642700280114
0.00015284544024221557   -0.009305141844730622   -0.0003245733773231333
-0.00045269873999988344   -0.01   -0.0003333686138700926
8.658744736080296e-05   -0.009319790296515739   -0.0003656397387882205
-0.0002377905749447561   -0.00934603657852454   -0.00031579642700280114
-0.00045269873999988344   -0.01   -0.0003333686138700926
-0.000594372096958598   -0.01   -0.00032430347997926094
-0.0006312127902451198   -0.01   -0.00036090235798989486
-0.0002377905749447561   -0.00934603657852454   -0.00031579642700280114
-0.00045269873999988344   -0.01   -0.0003333686138700926
-0.0006312127902451198   -0.01   -0.00036090235798989486
8.658744736080296e-05   -0.009319790296515739   -0.0003656397387882205
-0.0002377905749447561   -0.00934603657852454   -0.00031579642700280114
-0.000594372096958598   -0.01   -0.00032430347997926094
0.00015284544024221557   -0.009305141844730622   -0.0003245733773231333
-0.0002096441874585735   -0.009345050361271883   -0.0002917529265557012
-0.000594372096958598   -0.01   -0.00032430347997926094
-0.00045269873999988344   -0.01   -0.0003333686138700926
0.00015284544024221557   -0.009305141844730622   -0.0003245733773231333
-0.000388871555333095   -0.01   -0.0002821027615979825
-0.0002096441874585735   -0.009345050361271883   -0.0002917529265557012
0.00020474973691742425   -0.009302368033531504   -0.0002857639258184904
-0.000388871555333095   -0.01   -0.0002821027615979825
0.00015284544024221557   -0.009305141844730622   -0.0003245733773231333
-0.0002096441874585735   -0.009345050361271883   -0.0002917529265557012
-0.000388871555333095   -0.01   -0.0002821027615979825
-0.0005569787059891518   -0.01   -0.00028728340221249675
-0.000594372096958598   -0.01   -0.00032430347997926094
-0.0002096441874585735   -0.009345050361271883   -0.0002917529265557012
-0.000388871555333095   -0.01   -0.0002821027615979825
-0.000594372096958598   -0.01   -0.00032430347997926094
0.00015284544024221557   -0.009305141844730622   -0.0003245733773231333
-0.0002096441874585735   -0.009345050361271883   -0.0002917529265557012
-0.0005569787059891518   -0.01   -0.00028728340221249675
0.00020474973691742425   -0.009302368033531504   -0.0002857639258184904
-0.0001890308286284387   -0.009351093224921976   -0.0002697167043110941
-0.0005569787059891518   -0.01   -0.00028728340221249675
-0.000388871555333095   -0.01   -0.0002821027615979825
0.00020474973691742425   -0.009302368033531504   -0.0002857639258184904
-0.00031014917746900175   -0.01   -0.00022884951194673413
-0.0001890308286284387   -0.009351093224921976   -0.0002697167043110941
0.0002594436102966859   -0.009305664969045079   -0.00025001794808053124
-0.00031014917746900175   -0.01   -0.00022884951194673413
0.00020474973691742425   -0.009302368033531504   -0.0002857639258184904
-0.0001890308286284387   -0.009351093224921976   -0.0002697167043110941
-0.00031014917746900175   -0.01   -0.00022884951194673413
-0.0005208993696719209   -0.01   -0.0002507852354878399
-0.0005569787059891518   -0.01   -0.00028728340221249675
-0.0001890308286284387   -0.009351093224921976   -0.0002697167043110941
-0.00031014917746900175   -0.01   -0.00022884951194673413
-0.0005569787059891518   -0.01   -0.00028728340221249675
0.00020474973691742425   -0.009302368033531504   -0.0002857639258184904
-0.0012282272965984345   -0.009806657188465791   -0.00026384360096682626
-0.0007751788961180407   -0.009859315507468982   -0.00022640380932219208
-0.0010367494855010539   -0.00985203869230013   -0.00029027245365474506
-0.0011779301862315406   -0.009797161471020605   -0.0002934971497826595
-0.0007751788961180407   -0.009859315507468982   -0.00022640380932219208
-0.000804260115753008   -0.0098954749155294   -0.00026051584992385765
-0.0010367494855010539   -0.00985203869230013   -0.00029027245365474506
-0.0007868007997981429   -0.009883926347188956   -0.0002738018846844067
-0.0011779301862315406   -0.009797161471020605   -0.0002934971497826595
-0.0010139651065575756   -0.009843682368789844   -0.00030031179618494186
-0.0007868007997981429   -0.009883926347188956   -0.0002738018846844067
-0.0010367494855010539   -0.00985203869230013   -0.00029027245365474506
-0.0011779301862315406   -0.009797161471020605   -0.0002934971497826595
-0.0007868007997981429   -0.009883926347188956   -0.0002738018846844067
-0.0007290015544042577   -0.009844392785719337   -0.00025764595600623135
-0.0007751788961180407   -0.009859315507468982   -0.00022640380932219208
-0.0011779301862315406   -0.009797161471020605   -0.0002934971497826595
-0.0007868007997981429   -0.009883926347188956   -0.0002738018846844067
-0.0007751788961180407   -0.009859315507468982   -0.00022640380932219208
-0.0010367494855010539   -0.00985203869230013   -0.00029027245365474506
-0.0011779301862315406   -0.009797161471020605   -0.0002934971497826595
-0.0007290015544042577   -0.009844392785719337   -0.00025764595600623135
-0.0010139651065575756   -0.009843682368789844   -0.00030031179618494186
-0.0011346077943701638   -0.009798887062407592   -0.00032310810901363754
-0.0007290015544042577   -0.009844392785719337   -0.00025764595600623135
-0.0007868007997981429   -0.009883926347188956   -0.0002738018846844067
-0.0010139651065575756   -0.009843682368789844   -0.00030031179618494186
-0.0007661306630084786   -0.00988048587395048   -0.0002861912303560456
-0.0011346077943701638   -0.009798887062407592   -0.00032310810901363754
-0.0009884287013734966   -0.009844907702133903   -0.0003104670061163266
-0.0007661306630084786   -0.00988048587395048   -0.0002861912303560456
-0.0010139651065575756   -0.009843682368789844   -0.00030031179618494186
-0.0011346077943701638   -0.009798887062407592   -0.00032310810901363754
-0.0007661306630084786   -0.00988048587395048   -0.0002861912303560456
-0.0006906324653101134   -0.009840731889687235   -0.00028778274065213385
-0.0007290015544042577   -0.009844392785719337   -0.00025764595600623135
-0.0011346077943701638   -0.009798887062407592   -0.00032310810901363754
-0.0007661306630084786   -0.00988048587395048   -0.0002861912303560456
-0.0007290015544042577   -0.009844392785719337   -0.00025764595600623135
-0.0010139651065575756   -0.009843682368789844   -0.00030031179618494186
-0.0011346077943701638   -0.009798887062407592   -0.00032310810901363754
-0.0006906324653101134   -0.009840731889687235   -0.00028778274065213385
-0.0009884287013734966   -0.009844907702133903   -0.0003104670061163266
-0.0010829850748652263   -0.009812565753406262   -0.00035333411868446006
-0.0006906324653101134   -0.009840731889687235   -0.00028778274065213385
-0.0007661306630084786   -0.00988048587395048   -0.0002861912303560456
-0.0009884287013734966   -0.009844907702133903   -0.0003104670061163266
-0.0007485376497812368   -0.009885240605540217   -0.0002976329925597419
-0.0010829850748652263   -0.009812565753406262   -0.00035333411868446006
-0.0009648721950449194   -0.009855797202054817   -0.00032077869156715367
-0.0007485376497812368   -0.009885240605540217   -0.0002976329925597419
-0.0009884287013734966   -0.009844907702133903   -0.0003104670061163266
-0.0010829850748652263   -0.009812565753406262   -0.00035333411868446006
-0.0007485376497812368   -0.009885240605540217   -0.0002976329925597419
-0.0006467880292463208   -0.009846622392049888   -0.0003167088618873148
-0.0006906324653101134   -0.009840731889687235   -0.00028778274065213385
-0.0010829850748652263   -0.009812565753406262   -0.00035333411868446006
-0.0007485376497812368   -0.009885240605540217   -0.0002976329925597419
-0.0006906324653101134   -0.009840731889687235   -0.00028778274065213385
-0.0009884287013734966   -0.009844907702133903   -0.0003104670061163266
-0.0010367494855010539   -0.00985203869230013   -0.00029027245365474506
-0.000804260115753008   -0.0098954749155294   -0.00026051584992385765
-0.0008933343287805552   -0.009894624006560885   -0.000313423857363528
-0.0010139651065575756   -0.009843682368789844   -0.00030031179618494186
-0.000804260115753008   -0.0098954749155294   -0.00026051584992385765
-0.0008510737997001833   -0.009916469301601692   -0.00028758501069580403
-0.0008933343287805552   -0.009894624006560885   -0.000313423857363528
-0.0008357432071779451   -0.009906098748501315   -0.00028774041450687477
-0.0010139651065575756   -0.009843682368789844   -0.00030031179618494186
-0.000869587761063377   -0.009885892969262348   -0.00030724534485139466
-0.0008357432071779451   -0.009906098748501315   -0.00028774041450687477
-0.0008933343287805552   -0.009894624006560885   -0.000313423857363528
-0.0010139651065575756   -0.009843682368789844   -0.00030031179618494186
-0.0008357432071779451   -0.009906098748501315   -0.00028774041450687477
-0.0007868007997981429   -0.009883926347188956   -0.0002738018846844067
-0.000804260115753008   -0.0098954749155294   -0.00026051584992385765
-0.0010139651065575756   -0.009843682368789844   -0.00030031179618494186
-0.0008357432071779451   -0.009906098748501315   -0.00028774041450687477
-0.000804260115753008   -0.0098954749155294   -0.00026051584992385765
-0.0008933343287805552   -0.009894624006560885   -0.000313423857363528
-0.0010139651065575756   -0.009843682368789844   -0.00030031179618494186
-0.0007868007997981429   -0.009883926347188956   -0.0002738018846844067
-0.000869587761063377   -0.009885892969262348   -0.00030724534485139466
-0.0009884287013734966   -0.009844907702133903   -0.0003104670061163266
-0.0007868007997981429   -0.009883926347188956   -0.0002738018846844067
-0.0008357432071779451   -0.009906098748501315   -0.00028774041450687477
-0.000869587761063377   -0.009885892969262348   -0.00030724534485139466
-0.0008187293742733403   -0.009903062010242053   -0.00028673506496173433
-0.0009884287013734966   -0.009844907702133903   -0.0003104670061163266
-0.0008464924177640913   -0.009886341189447369   -0.00030101062987652826
-0.0008187293742733403   -0.009903062010242053   -0.00028673506496173433
-0.000869587761063377   -0.009885892969262348   -0.00030724534485139466
-0.0009884287013734966   -0.009844907702133903   -0.0003104670061163266
-0.0008187293742733403   -0.009903062010242053   -0.00028673506496173433
-0.0007661306630084786   -0.00988048587395048   -0.0002861912303560456
-0.0007868007997981429   -0.009883926347188956   -0.0002738018846844067
-0.0009884287013734966   -0.009844907702133903   -0.0003104670061163266
-0.0008187293742733403   -0.009903062010242053   -0.00028673506496173433
-0.0007868007997981429   -0.009883926347188956   -0.0002738018846844067
-0.000869587761063377   -0.009885892969262348   -0.00030724534485139466
-0.0009884287013734966   -0.009844907702133903   -0.0003104670061163266
-0.0007661306630084786   -0.00988048587395048   -0.0002861912303560456
-0.0008464924177640913   -0.009886341189447369   -0.00030101062987652826
-0.0009648721950449194   -0.009855797202054817   -0.00032077869156715367
-0.0007661306630084786   -0.00988048587395048   -0.0002861912303560456
-0.0008187293742733403   -0.009903062010242053   -0.00028673506496173433
-0.0008464924177640913   -0.009886341189447369   -0.00030101062987652826
-0.0008014893148036978   -0.009907093889882061   -0.00028481576989108475
-0.0009648721950449194   -0.009855797202054817   -0.00032077869156715367
-0.0008225202210025741   -0.009895814594937968   -0.000295072623870111
-0.0008014893148036978   -0.009907093889882061   -0.00028481576989108475
-0.0008464924177640913   -0.009886341189447369   -0.00030101062987652826
-0.0009648721950449194   -0.009855797202054817   -0.00032077869156715367
-0.0008014893148036978   -0.009907093889882061   -0.00028481576989108475
-0.0007485376497812368   -0.009885240605540217   -0.0002976329925597419
-0.0007661306630084786   -0.00988048587395048   -0.0002861912303560456
-0.0009648721950449194   -0.009855797202054817   -0.00032077869156715367
-0.0008014893148036978   -0.009907093889882061   -0.00028481576989108475
-0.0007661306630084786   -0.00988048587395048   -0.0002861912303560456
-0.0008464924177640913   -0.009886341189447369   -0.00030101062987652826
-0.0008933343287805552   -0.009894624006560885   -0.000313423857363528
-0.0008510737997001833   -0.009916469301601692   -0.00028758501069580403
-0.0007612321487878668   -0.009942878619153573   -0.0003393443273471962
-0.000869587761063377   -0.009885892969262348   -0.00030724534485139466
-0.0008510737997001833   -0.009916469301601692   -0.00028758501069580403
-0.0009022303786187325   -0.009923192324276785   -0.0003144460568880428
-0.0007612321487878668   -0.009942878619153573   -0.0003393443273471962
-0.0008863417765479932   -0.009913131010524942   -0.00030195698750599704
-0.000869587761063377   -0.009885892969262348   -0.00030724534485139466
-0.0007323115899965146   -0.009934975236177989   -0.00031610165227441704
-0.0008863417765479932   -0.009913131010524942   -0.00030195698750599704
-0.0007612321487878668   -0.009942878619153573   -0.0003393443273471962
-0.000869587761063377   -0.009885892969262348   -0.00030724534485139466
-0.0008863417765479932   -0.009913131010524942   -0.00030195698750599704
-0.0008357432071779451   -0.009906098748501315   -0.00028774041450687477
-0.0008510737997001833   -0.009916469301601692   -0.00028758501069580403
-0.000869587761063377   -0.009885892969262348   -0.00030724534485139466
-0.0008863417765479932   -0.009913131010524942   -0.00030195698750599704
-0.0008510737997001833   -0.009916469301601692   -0.00028758501069580403
-0.0007612321487878668   -0.009942878619153573   -0.0003393443273471962
-0.000869587761063377   -0.009885892969262348   -0.00030724534485139466
-0.0008357432071779451   -0.009906098748501315   -0.00028774041450687477
-0.0007323115899965146   -0.009934975236177989   -0.00031610165227441704
-0.0008464924177640913   -0.009886341189447369   -0.00030101062987652826
-0.0008357432071779451   -0.009906098748501315   -0.00028774041450687477
-0.0008863417765479932   -0.009913131010524942   -0.00030195698750599704
-0.0007323115899965146   -0.009934975236177989   -0.00031610165227441704
-0.0008674302281869253   -0.009910505448787214   -0.0002880493096724896
-0.0008464924177640913   -0.009886341189447369   -0.00030101062987652826
-0.0007053021313478557   -0.009934904890565937   -0.0002928108118847838
-0.0008674302281869253   -0.009910505448787214   -0.0002880493096724896
-0.0007323115899965146   -0.009934975236177989   -0.00031610165227441704
-0.0008464924177640913   -0.009886341189447369   -0.00030101062987652826
-0.0008674302281869253   -0.009910505448787214   -0.0002880493096724896
-0.0008187293742733403   -0.009903062010242053   -0.00028673506496173433
-0.0008357432071779451   -0.009906098748501315   -0.00028774041450687477
-0.0008464924177640913   -0.009886341189447369   -0.00030101062987652826
-0.0008674302281869253   -0.009910505448787214   -0.0002880493096724896
-0.0008357432071779451   -0.009906098748501315   -0.00028774041450687477
-0.0007323115899965146   -0.009934975236177989   -0.00031610165227441704
-0.0008464924177640913   -0.009886341189447369   -0.00030101062987652826
-0.0008187293742733403   -0.009903062010242053   -0.00028673506496173433
-0.0007053021313478557   -0.009934904890565937   -0.0002928108118847838
-0.0008225202210025741   -0.009895814594937968   -0.000295072623870111
-0.0008187293742733403   -0.009903062010242053   -0.00028673506496173433
-0.0008674302281869253   -0.009910505448787214   -0.0002880493096724896
-0.0007053021313478557   -0.009934904890565937   -0.0002928108118847838
-0.0008480722893262935   -0.009914321193829446   -0.0002733238360459529
-0.0008225202210025741   -0.009895814594937968   -0.000295072623870111
-0.0006765776410234286   -0.00994233694644465   -0.00026968325291099
-0.0008480722893262935   -0.009914321193829446   -0.0002733238360459529
-0.0007053021313478557   -0.009934904890565937   -0.0002928108118847838
-0.0008225202210025741   -0.009895814594937968   -0.000295072623870111
-0.0008480722893262935   -0.009914321193829446   -0.0002733238360459529
-0.0008014893148036978   -0.009907093889882061   -0.00028481576989108475
-0.0008187293742733403   -0.009903062010242053   -0.00028673506496173433
-0.0008225202210025741   -0.009895814594937968   -0.000295072623870111
-0.0008480722893262935   -0.009914321193829446   -0.0002733238360459529
-0.0008187293742733403   -0.009903062010242053   -0.00028673506496173433
-0.0007053021313478557   -0.009934904890565937   -0.0002928108118847838
-0.0007612321487878668   -0.009942878619153573   -0.0003393443273471962
-0.0009022303786187325   -0.009923192324276785   -0.0003144460568880428
-0.0006312127902451198   -0.01   -0.00036090235798989486
-0.0007323115899965146   -0.009934975236177989   -0.00031610165227441704
-0.0009022303786187325   -0.009923192324276785   -0.0003144460568880428
-0.000976955658700169   -0.009909947056141066   -0.0003405386542848693
-0.0006312127902451198   -0.01   -0.00036090235798989486
-0.0009562693632497446   -0.009900130027678105   -0.00031587931345386896
-0.0007323115899965146   -0.009934975236177989   -0.00031610165227441704
-0.000594372096958598   -0.01   -0.00032430347997926094
-0.0009562693632497446   -0.009900130027678105   -0.00031587931345386896
-0.0006312127902451198   -0.01   -0.00036090235798989486
-0.0007323115899965146   -0.009934975236177989   -0.00031610165227441704
-0.0009562693632497446   -0.009900130027678105   -0.00031587931345386896
-0.0008863417765479932   -0.009913131010524942   -0.00030195698750599704
-0.0009022303786187325   -0.009923192324276785   -0.0003144460568880428
-0.0007323115899965146   -0.009934975236177989   -0.00031610165227441704
-0.0009562693632497446   -0.009900130027678105   -0.00031587931345386896
-0.0009022303786187325   -0.009923192324276785   -0.0003144460568880428
-0.0006312127902451198   -0.01   -0.00036090235798989486
-0.0007323115899965146   -0.009934975236177989   -0.00031610165227441704
-0.0008863417765479932   -0.009913131010524942   -0.00030195698750599704
-0.000594372096958598   -0.01   -0.00032430347997926094
-0.0007053021313478557   -0.009934904890565937   -0.0002928108118847838
-0.0008863417765479932   -0.009913131010524942   -0.00030195698750599704
-0.0009562693632497446   -0.009900130027678105   -0.00031587931345386896
-0.000594372096958598   -0.01   -0.00032430347997926094
-0.0009286239162509069   -0.009898333997730902   -0.000289586555677561
-0.0007053021313478557   -0.009934904890565937   -0.0002928108118847838
-0.0005569787059891518   -0.01   -0.00028728340221249675
-0.0009286239162509069   -0.009898333997730902   -0.000289586555677561
-0.000594372096958598   -0.01   -0.00032430347997926094
-0.0007053021313478557   -0.009934904890565937   -0.0002928108118847838
-0.0009286239162509069   -0.009898333997730902   -0.000289586555677561
-0.0008674302281869253   -0.009910505448787214   -0.0002880493096724896
-0.0008863417765479932   -0.009913131010524942   -0.00030195698750599704
-0.0007053021313478557   -0.009934904890565937   -0.0002928108118847838
-0.0009286239162509069   -0.009898333997730902   -0.000289586555677561
-0.0008863417765479932   -0.009913131010524942   -0.00030195698750599704
-0.000594372096958598   -0.01   -0.00032430347997926094
-0.0007053021313478557   -0.009934904890565937   -0.0002928108118847838
-0.0008674302281869253   -0.009910505448787214   -0.0002880493096724896
-0.0005569787059891518   -0.01   -0.00028728340221249675
-0.0006765776410234286   -0.00994233694644465   -0.00026968325291099
-0.0008674302281869253   -0.009910505448787214   -0.0002880493096724896
-0.0009286239162509069   -0.009898333997730902   -0.000289586555677561
-0.0005569787059891518   -0.01   -0.00028728340221249675
-0.0009031610403347073   -0.009903138210168878   -0.0002623978601366356
-0.0006765776410234286   -0.00994233694644465   -0.00026968325291099
-0.0005208993696719209   -0.01   -0.0002507852354878399
-0.0009031610403347073   -0.009903138210168878   -0.0002623978601366356
-0.0005569787059891518   -0.01   -0.00028728340221249675
-0.0006765776410234286   -0.00994233694644465   -0.00026968325291099
-0.0009031610403347073   -0.009903138210168878   -0.0002623978601366356
-0.0008480722893262935   -0.009914321193829446   -0.0002733238360459529
-0.0008674302281869253   -0.009910505448787214   -0.0002880493096724896
-0.0006765776410234286   -0.00994233694644465   -0.00026968325291099
-0.0009031610403347073   -0.009903138210168878   -0.0002623978601366356
-0.0008674302281869253   -0.009910505448787214   -0.0002880493096724896
-0.0005569787059891518   -0.01   -0.00028728340221249675
-0.0006312127902451198   -0.01   -0.00036090235798989486
-0.000976955658700169   -0.009909947056141066   -0.0003405386542848693
-0.0005327729907871325   -0.01   -0.00038699934029218116
-0.000594372096958598   -0.01   -0.00032430347997926094
-0.000976955658700169   -0.009909947056141066   -0.0003405386542848693
-0.0011299903506691183   -0.00986215509548718   -0.00036929700573653704
-0.0005327729907871325   -0.01   -0.00038699934029218116
-0.001071262231614493   -0.009853334822317953   -0.0003289166181588619
-0.000594372096958598   -0.01   -0.00032430347997926094
-0.00045269873999988344   -0.01   -0.0003333686138700926
-0.001071262231614493   -0.009853334822317953   -0.0003289166181588619
-0.0005327729907871325   -0.01   -0.00038699934029218116
-0.000594372096958598   -0.01   -0.00032430347997926094
-0.001071262231614493   -0.009853334822317953   -0.0003289166181588619
-0.0009562693632497446   -0.009900130027678105   -0.00031587931345386896
-0.000976955658700169   -0.009909947056141066   -0.0003405386542848693
-0.000594372096958598   -0.01   -0.00032430347997926094
-0.001071262231614493   -0.009853334822317953   -0.0003289166181588619
-0.000976955658700169   -0.009909947056141066   -0.0003405386542848693
-0.0005327729907871325   -0.01   -0.00038699934029218116
-0.000594372096958598   -0.01   -0.00032430347997926094
-0.0009562693632497446   -0.009900130027678105   -0.00031587931345386896
-0.00045269873999988344   -0.01   -0.0003333686138700926
-0.0005569787059891518   -0.01   -0.00028728340221249675
-0.0009562693632497446   -0.009900130027678105   -0.00031587931345386896
-0.001071262231614493   -0.009853334822317953   -0.0003289166181588619
-0.00045269873999988344   -0.01   -0.0003333686138700926
-0.001018071023006159   -0.009852490683921723   -0.0002861659728054093
-0.0005569787059891518   -0.01   -0.00028728340221249675
-0.000388871555333095   -0.01   -0.0002821027615979825
-0.001018071023006159   -0.009852490683921723   -0.0002861659728054093
-0.00045269873999988344   -0.01   -0.0003333686138700926
-0.0005569787059891518   -0.01   -0.00028728340221249675
-0.001018071023006159   -0.009852490683921723   -0.0002861659728054093
-0.0009286239162509069   -0.009898333997730902   -0.000289586555677561
-0.0009562693632497446   -0.009900130027678105   -0.00031587931345386896
-0.0005569787059891518   -0.01   -0.00028728340221249675
-0.001018071023006159   -0.009852490683921723   -0.0002861659728054093
-0.0009562693632497446   -0.009900130027678105   -0.00031587931345386896
-0.00045269873999988344   -0.01   -0.0003333686138700926
-0.0005569787059891518   -0.01   -0.00028728340221249675
-0.0009286239162509069   -0.009898333997730902   -0.000289586555677561
-0.000388871555333095   -0.01   -0.0002821027615979825
-0.0005208993696719209   -0.01   -0.0002507852354878399
-0.0009286239162509069   -0.009898333997730902   -0.000289586555677561
-0.001018071023006159   -0.009852490683921723   -0.0002861659728054093
-0.000388871555333095   -0.01   -0.0002821027615979825
-0.0009507535263747066   -0.009863918176697623   -0.00024175685844184466
-0.0005208993696719209   -0.01   -0.0002507852354878399
-0.00031014917746900175   -0.01   -0.00022884951194673413
-0.0009507535263747066   -0.009863918176697623   -0.00024175685844184466
-0.000388871555333095   -0.01   -0.0002821027615979825
-0.0005208993696719209   -0.01   -0.0002507852354878399
-0.0009507535263747066   -0.009863918176697623   -0.00024175685844184466
-0.0009031610403347073   -0.009903138210168878   -0.0002623978601366356
-0.0009286239162509069   -0.009898333997730902   -0.000289586555677561
-0.0005208993696719209   -0.01   -0.0002507852354878399
-0.0009507535263747066   -0.009863918176697623   -0.00024175685844184466
-0.0009286239162509069   -0.009898333997730902   -0.000289586555677561
-0.000388871555333095   -0.01   -0.0002821027615979825
-0.0007751788961180407   -0.009859315507468982   -0.00022640380932219208
-0.0003680544935161275   -0.009529384528249803   -0.00019410556154901613
-0.000804260115753008   -0.0098954749155294   -0.00026051584992385765
-0.0007290015544042577   -0.009844392785719337   -0.00025764595600623135
-0.0003680544935161275   -0.009529384528249803   -0.00019410556154901613
-0.0006001559535653265   -0.009557632606315185   -0.00023059300034403079
-0.000804260115753008   -0.0098954749155294   -0.00026051584992385765
-0.0005875783646539953   -0.009543593165919802   -0.0002426649802233171
-0.0007290015544042577   -0.009844392785719337   -0.00025764595600623135
-0.0007868007997981429   -0.009883926347188956   -0.0002738018846844067
-0.0005875783646539953   -0.009543593165919802   -0.0002426649802233171
-0.000804260115753008   -0.0098954749155294   -0.00026051584992385765
-0.0007290015544042577   -0.009844392785719337   -0.00025764595600623135
-0.0005875783646539953   -0.009543593165919802   -0.0002426649802233171
-0.0003303719350546165   -0.009511838616276287   -0.00022172880782293217
-0.0003680544935161275   -0.009529384528249803   -0.00019410556154901613
-0.0007290015544042577   -0.009844392785719337   -0.00025764595600623135
-0.0005875783646539953   -0.009543593165919802   -0.0002426649802233171
-0.0003680544935161275   -0.009529384528249803   -0.00019410556154901613
-0.000804260115753008   -0.0098954749155294   -0.00026051584992385765
-0.0007290015544042577   -0.009844392785719337   -0.00025764595600623135
-0.0003303719350546165   -0.009511838616276287   -0.00022172880782293217
-0.0007868007997981429   -0.009883926347188956   -0.0002738018846844067
-0.0006906324653101134   -0.009840731889687235   -0.00028778274065213385
-0.0003303719350546165   -0.009511838616276287   -0.00022172880782293217
-0.0005875783646539953   -0.009543593165919802   -0.0002426649802233171
-0.0007868007997981429   -0.009883926347188956   -0.0002738018846844067
-0.0005731887820910275   -0.009536663275413314   -0.0002537723307554969
-0.0006906324653101134   -0.009840731889687235   -0.00028778274065213385
-0.0007661306630084786   -0.00988048587395048   -0.0002861912303560456
-0.0005731887820910275   -0.009536663275413314   -0.0002537723307554969
-0.0007868007997981429   -0.009883926347188956   -0.0002738018846844067
-0.0006906324653101134   -0.009840731889687235   -0.00028778274065213385
-0.0005731887820910275   -0.009536663275413314   -0.0002537723307554969
-0.00030069746414678676   -0.009504450465422228   -0.00024792965569765674
-0.0003303719350546165   -0.009511838616276287   -0.00022172880782293217
-0.0006906324653101134   -0.009840731889687235   -0.00028778274065213385
-0.0005731887820910275   -0.009536663275413314   -0.0002537723307554969
-0.0003303719350546165   -0.009511838616276287   -0.00022172880782293217
-0.0007868007997981429   -0.009883926347188956   -0.0002738018846844067
-0.0006906324653101134   -0.009840731889687235   -0.00028778274065213385
-0.00030069746414678676   -0.009504450465422228   -0.00024792965569765674
-0.0007661306630084786   -0.00988048587395048   -0.0002861912303560456
-0.0006467880292463208   -0.009846622392049888   -0.0003167088618873148
-0.00030069746414678676   -0.009504450465422228   -0.00024792965569765674
-0.0005731887820910275   -0.009536663275413314   -0.0002537723307554969
-0.0007661306630084786   -0.00988048587395048   -0.0002861912303560456
-0.0005622234141986777   -0.00953663857669725   -0.00026395365849857905
-0.0006467880292463208   -0.009846622392049888   -0.0003167088618873148
-0.0007485376497812368   -0.009885240605540217   -0.0002976329925597419
-0.0005622234141986777   -0.00953663857669725   -0.00026395365849857905
-0.0007661306630084786   -0.00988048587395048   -0.0002861912303560456
-0.0006467880292463208   -0.009846622392049888   -0.0003167088618873148
-0.0005622234141986777   -0.00953663857669725   -0.00026395365849857905
-0.00026776858831885017   -0.009504909188752774   -0.0002726578591024691
-0.00030069746414678676   -0.009504450465422228   -0.00024792965569765674
-0.0006467880292463208   -0.009846622392049888   -0.0003167088618873148
-0.0005622234141986777   -0.00953663857669725   -0.00026395365849857905
-0.00030069746414678676   -0.009504450465422228   -0.00024792965569765674
-0.0007661306630084786   -0.00988048587395048   -0.0002861912303560456
-0.000804260115753008   -0.0098954749155294   -0.00026051584992385765
-0.0006001559535653265   -0.009557632606315185   -0.00023059300034403079
-0.0008510737997001833   -0.009916469301601692   -0.00028758501069580403
-0.0007868007997981429   -0.009883926347188956   -0.0002738018846844067
-0.0006001559535653265   -0.009557632606315185   -0.00023059300034403079
-0.0008330600673441647   -0.009567259103208405   -0.00025998474559066787
-0.0008510737997001833   -0.009916469301601692   -0.00028758501069580403
-0.0008226301279783977   -0.00955504262048751   -0.0002604429558628985
-0.0007868007997981429   -0.009883926347188956   -0.0002738018846844067
-0.0008357432071779451   -0.009906098748501315   -0.00028774041450687477
-0.0008226301279783977   -0.00955504262048751   -0.0002604429558628985
-0.0008510737997001833   -0.009916469301601692   -0.00028758501069580403
-0.0007868007997981429   -0.009883926347188956   -0.0002738018846844067
-0.0008226301279783977   -0.00955504262048751   -0.0002604429558628985
-0.0005875783646539953   -0.009543593165919802   -0.0002426649802233171
-0.0006001559535653265   -0.009557632606315185   -0.00023059300034403079
-0.0007868007997981429   -0.009883926347188956   -0.0002738018846844067
-0.0008226301279783977   -0.00955504262048751   -0.0002604429558628985
-0.0006001559535653265   -0.009557632606315185   -0.00023059300034403079
-0.0008510737997001833   -0.009916469301601692   -0.00028758501069580403
-0.0007868007997981429   -0.009883926347188956   -0.0002738018846844067
-0.0005875783646539953   -0.009543593165919802   -0.0002426649802233171
-0.0008357432071779451   -0.009906098748501315   -0.00028774041450687477
-0.0007661306630084786   -0.00988048587395048   -0.0002861912303560456
-0.0005875783646539953   -0.009543593165919802   -0.0002426649802233171
-0.0008226301279783977   -0.00955504262048751   -0.0002604429558628985
-0.0008357432071779451   -0.009906098748501315   -0.00028774041450687477
-0.0008118170279530998   -0.009549223731099314   -0.0002600044365325287
-0.0007661306630084786   -0.00988048587395048   -0.0002861912303560456
-0.0008187293742733403   -0.009903062010242053   -0.00028673506496173433
-0.0008118170279530998   -0.009549223731099314   -0.0002600044365325287
-0.0008357432071779451   -0.009906098748501315   -0.00028774041450687477
-0.0007661306630084786   -0.00988048587395048   -0.0002861912303560456
-0.0008118170279530998   -0.009549223731099314   -0.0002600044365325287
-0.0005731887820910275   -0.009536663275413314   -0.0002537723307554969
-0.0005875783646539953   -0.009543593165919802   -0.0002426649802233171
-0.0007661306630084786   -0.00988048587395048   -0.0002861912303560456
-0.0008118170279530998   -0.009549223731099314   -0.0002600044365325287
-0.0005875783646539953   -0.009543593165919802   -0.0002426649802233171
-0.0008357432071779451   -0.009906098748501315   -0.00028774041450687477
-0.0007661306630084786   -0.00988048587395048   -0.0002861912303560456
-0.0005731887820910275   -0.009536663275413314   -0.0002537723307554969
-0.0008187293742733403   -0.009903062010242053   -0.00028673506496173433
-0.0007485376497812368   -0.009885240605540217   -0.0002976329925597419
-0.0005731887820910275   -0.009536663275413314   -0.0002537723307554969
-0.0008118170279530998   -0.009549223731099314   -0.0002600044365325287
-0.0008187293742733403   -0.009903062010242053   -0.00028673506496173433
-0.0008014205785384687   -0.0095495520732449   -0.0002586762006654934
-0.0007485376497812368   -0.009885240605540217   -0.0002976329925597419
-0.0008014893148036978   -0.009907093889882061   -0.00028481576989108475
-0.0008014205785384687   -0.0095495520732449   -0.0002586762006654934
-0.0008187293742733403   -0.009903062010242053   -0.00028673506496173433
-0.0007485376497812368   -0.009885240605540217   -0.0002976329925597419
-0.0008014205785384687   -0.0095495520732449   -0.0002586762006654934
-0.0005622234141986777   -0.00953663857669725   -0.00026395365849857905
-0.0005731887820910275   -0.009536663275413314   -0.0002537723307554969
-0.0007485376497812368   -0.009885240605540217   -0.0002976329925597419
-0.0008014205785384687   -0.0095495520732449   -0.0002586762006654934
-0.0005731887820910275   -0.009536663275413314   -0.0002537723307554969
-0.0008187293742733403   -0.009903062010242053   -0.00028673506496173433
-0.0008510737997001833   -0.009916469301601692   -0.00028758501069580403
-0.0008330600673441647   -0.009567259103208405   -0.00025998474559066787
-0.0009022303786187325   -0.009923192324276785   -0.0003144460568880428
-0.0008357432071779451   -0.009906098748501315   -0.00028774041450687477
-0.0008330600673441647   -0.009567259103208405   -0.00025998474559066787
-0.0010649186484347614   -0.009557964285114035   -0.0002875852931407932
-0.0009022303786187325   -0.009923192324276785   -0.0003144460568880428
-0.001054572580065827   -0.009547031792469626   -0.0002768736066723565
-0.0008357432071779451   -0.009906098748501315   -0.00028774041450687477
-0.0008863417765479932   -0.009913131010524942   -0.00030195698750599704
-0.001054572580065827   -0.009547031792469626   -0.0002768736066723565
-0.0009022303786187325   -0.009923192324276785   -0.0003144460568880428
-0.0008357432071779451   -0.009906098748501315   -0.00028774041450687477
-0.001054572580065827   -0.009547031792469626   -0.0002768736066723565
-0.0008226301279783977   -0.00955504262048751   -0.0002604429558628985
-0.0008330600673441647   -0.009567259103208405   -0.00025998474559066787
-0.0008357432071779451   -0.009906098748501315   -0.00028774041450687477
-0.001054572580065827   -0.009547031792469626   -0.0002768736066723565
-0.0008330600673441647   -0.009567259103208405   -0.00025998474559066787
-0.0009022303786187325   -0.009923192324276785   -0.0003144460568880428
-0.0008357432071779451   -0.009906098748501315   -0.00028774041450687477
-0.0008226301279783977   -0.00955504262048751   -0.0002604429558628985
-0.0008863417765479932   -0.009913131010524942   -0.00030195698750599704
-0.0008187293742733403   -0.009903062010242053   -0.00028673506496173433
-0.0008226301279783977   -0.00955504262048751   -0.0002604429558628985
-0.001054572580065827   -0.009547031792469626   -0.0002768736066723565
-0.0008863417765479932   -0.009913131010524942   -0.00030195698750599704
-0.0010429671379239734   -0.009542407244167645   -0.0002652854643586616
-0.0008187293742733403   -0.009903062010242053   -0.00028673506496173433
-0.0008674302281869253   -0.009910505448787214   -0.0002880493096724896
-0.0010429671379239734   -0.009542407244167645   -0.0002652854643586616
-0.0008863417765479932   -0.009913131010524942   -0.00030195698750599704
-0.0008187293742733403   -0.009903062010242053   -0.00028673506496173433
-0.0010429671379239734   -0.009542407244167645   -0.0002652854643586616
-0.0008118170279530998   -0.009549223731099314   -0.0002600044365325287
-0.0008226301279783977   -0.00955504262048751   -0.0002604429558628985
-0.0008187293742733403   -0.009903062010242053   -0.00028673506496173433
-0.0010429671379239734   -0.009542407244167645   -0.0002652854643586616
-0.0008226301279783977   -0.00955504262048751   -0.0002604429558628985
-0.0008863417765479932   -0.009913131010524942   -0.00030195698750599704
-0.0008187293742733403   -0.009903062010242053   -0.00028673506496173433
-0.0008118170279530998   -0.009549223731099314   -0.0002600044365325287
-0.0008674302281869253   -0.009910505448787214   -0.0002880493096724896
-0.0008014893148036978   -0.009907093889882061   -0.00028481576989108475
-0.0008118170279530998   -0.009549223731099314   -0.0002600044365325287
-0.0010429671379239734   -0.009542407244167645   -0.0002652854643586616
-0.0008674302281869253   -0.009910505448787214   -0.0002880493096724896
-0.0010313901712314937   -0.009543568231195832   -0.00025271535799547076
-0.0008014893148036978   -0.009907093889882061   -0.00028481576989108475
-0.0008480722893262935   -0.009914321193829446   -0.0002733238360459529
-0.0010313901712314937   -0.009543568231195832   -0.00025271535799547076
-0.0008674302281869253   -0.009910505448787214   -0.0002880493096724896
-0.0008014893148036978   -0.009907093889882061   -0.00028481576989108475
-0.0010313901712314937   -0.009543568231195832   -0.00025271535799547076
-0.0008014205785384687   -0.0095495520732449   -0.0002586762006654934
-0.0008118170279530998   -0.009549223731099314   -0.0002600044365325287
-0.0008014893148036978   -0.009907093889882061   -0.00028481576989108475
-0.0010313901712314937   -0.009543568231195832   -0.00025271535799547076
-0.0008118170279530998   -0.009549223731099314   -0.0002600044365325287
-0.0008674302281869253   -0.009910505448787214   -0.0002880493096724896
-0.0009022303786187325   -0.009923192324276785   -0.0003144460568880428
-0.0010649186484347614   -0.009557964285114035   -0.0002875852931407932
-0.000976955658700169   -0.009909947056141066   -0.0003405386542848693
-0.0008863417765479932   -0.009913131010524942   -0.00030195698750599704
-0.0010649186484347614   -0.009557964285114035   -0.0002875852931407932
-0.0013181091181596696   -0.009528649188090947   -0.0003132365111036062
-0.000976955658700169   -0.009909947056141066   -0.0003405386542848693
-0.0013052305860995123   -0.009518942033782733   -0.0002915221594227248
-0.0008863417765479932   -0.009913131010524942   -0.00030195698750599704
-0.0009562693632497446   -0.009900130027678105   -0.00031587931345386896
-0.0013052305860995123   -0.009518942033782733   -0.0002915221594227248
-0.000976955658700169   -0.009909947056141066   -0.0003405386542848693
-0.0008863417765479932   -0.009913131010524942   -0.00030195698750599704
-0.0013052305860995123   -0.009518942033782733   -0.0002915221594227248
-0.001054572580065827   -0.009547031792469626   -0.0002768736066723565
-0.0010649186484347614   -0.009557964285114035   -0.0002875852931407932
-0.0008863417765479932   -0.009913131010524942   -0.00030195698750599704
-0.0013052305860995123   -0.009518942033782733   -0.0002915221594227248
-0.0010649186484347614   -0.009557964285114035   -0.0002875852931407932
-0.000976955658700169   -0.009909947056141066   -0.0003405386542848693
-0.0008863417765479932   -0.009913131010524942   -0.00030195698750599704
-0.001054572580065827   -0.009547031792469626   -0.0002768736066723565
-0.0009562693632497446   -0.009900130027678105   -0.00031587931345386896
-0.0008674302281869253   -0.009910505448787214   -0.0002880493096724896
-0.001054572580065827   -0.009547031792469626   -0.0002768736066723565
-0.0013052305860995123   -0.009518942033782733   -0.0002915221594227248
-0.0009562693632497446   -0.009900130027678105   -0.00031587931345386896
-0.0012872444236776469   -0.009515507601346737   -0.00026901720553023875
-0.0008674302281869253   -0.009910505448787214   -0.0002880493096724896
-0.0009286239162509069   -0.009898333997730902   -0.000289586555677561
-0.0012872444236776469   -0.009515507601346737   -0.00026901720553023875
-0.0009562693632497446   -0.009900130027678105   -0.00031587931345386896
-0.0008674302281869253   -0.009910505448787214   -0.0002880493096724896
-0.0012872444236776469   -0.009515507601346737   -0.00026901720553023875
-0.0010429671379239734   -0.009542407244167645   -0.0002652854643586616
-0.001054572580065827   -0.009547031792469626   -0.0002768736066723565
-0.0008674302281869253   -0.009910505448787214   -0.0002880493096724896
-0.0012872444236776469   -0.009515507601346737   -0.00026901720553023875
-0.001054572580065827   -0.009547031792469626   -0.0002768736066723565
-0.0009562693632497446   -0.009900130027678105   -0.00031587931345386896
-0.0008674302281869253   -0.009910505448787214   -0.0002880493096724896
-0.0010429671379239734   -0.009542407244167645   -0.0002652854643586616
-0.0009286239162509069   -0.009898333997730902   -0.000289586555677561
-0.0008480722893262935   -0.009914321193829446   -0.0002733238360459529
-0.0010429671379239734   -0.009542407244167645   -0.0002652854643586616
-0.0012872444236776469   -0.009515507601346737   -0.00026901720553023875
-0.0009286239162509069   -0.009898333997730902   -0.000289586555677561
-0.0012718997332806519   -0.00951833335334475   -0.0002451515196241368
-0.0008480722893262935   -0.009914321193829446   -0.0002733238360459529
-0.0009031610403347073   -0.009903138210168878   -0.0002623978601366356
-0.0012718997332806519   -0.00951833335334475   -0.0002451515196241368
-0.0009286239162509069   -0.009898333997730902   -0.000289586555677561
-0.0008480722893262935   -0.009914321193829446   -0.0002733238360459529
-0.0012718997332806519   -0.00951833335334475   -0.0002451515196241368
-0.0010313901712314937   -0.009543568231195832   -0.00025271535799547076
-0.0010429671379239734   -0.009542407244167645   -0.0002652854643586616
-0.0008480722893262935   -0.009914321193829446   -0.0002733238360459529
-0.0012718997332806519   -0.00951833335334475   -0.0002451515196241368
-0.0010429671379239734   -0.009542407244167645   -0.0002652854643586616
-0.0009286239162509069   -0.009898333997730902   -0.000289586555677561
-0.000976955658700169   -0.009909947056141066   -0.0003405386542848693
-0.0013181091181596696   -0.009528649188090947   -0.0003132365111036062
-0.0011299903506691183   -0.00986215509548718   -0.00036929700573653704
-0.0009562693632497446   -0.009900130027678105   -0.00031587931345386896
-0.0013181091181596696   -0.009528649188090947   -0.0003132365111036062
-0.0016438373038297862   -0.009480970678366098   -0.00033876583983102394
-0.0011299903506691183   -0.00986215509548718   -0.00036929700573653704
-0.0015992771020673937   -0.00947006156120411   -0.0003043855459533061
-0.0009562693632497446   -0.009900130027678105   -0.00031587931345386896
-0.001071262231614493   -0.009853334822317953   -0.0003289166181588619
-0.0015992771020673937   -0.00947006156120411   -0.0003043855459533061
-0.0011299903506691183   -0.00986215509548718   -0.00036929700573653704
-0.0009562693632497446   -0.009900130027678105   -0.00031587931345386896
-0.0015992771020673937   -0.00947006156120411   -0.0003043855459533061
-0.0013052305860995123   -0.009518942033782733   -0.0002915221594227248
-0.0013181091181596696   -0.009528649188090947   -0.0003132365111036062
-0.0009562693632497446   -0.009900130027678105   -0.00031587931345386896
-0.0015992771020673937   -0.00947006156120411   -0.0003043855459533061
-0.0013181091181596696   -0.009528649188090947   -0.0003132365111036062
-0.0011299903506691183   -0.00986215509548718   -0.00036929700573653704
-0.0009562693632497446   -0.009900130027678105   -0.00031587931345386896
-0.0013052305860995123   -0.009518942033782733   -0.0002915221594227248
-0.001071262231614493   -0.009853334822317953   -0.0003289166181588619
-0.0009286239162509069   -0.009898333997730902   -0.000289586555677561
-0.0013052305860995123   -0.009518942033782733   -0.0002915221594227248
-0.0015992771020673937   -0.00947006156120411   -0.0003043855459533061
-0.001071262231614493   -0.009853334822317953   -0.0003289166181588619
-0.001559968888338907   -0.00946688497075667   -0.000268299727608856
-0.0009286239162509069   -0.009898333997730902   -0.000289586555677561
-0.001018071023006159   -0.009852490683921723   -0.0002861659728054093
-0.001559968888338907   -0.00946688497075667   -0.000268299727608856
-0.001071262231614493   -0.009853334822317953   -0.0003289166181588619
-0.0009286239162509069   -0.009898333997730902   -0.000289586555677561
-0.001559968888338907   -0.00946688497075667   -0.000268299727608856
-0.0012872444236776469   -0.009515507601346737   -0.00026901720553023875
-0.0013052305860995123   -0.009518942033782733   -0.0002915221594227248
-0.0009286239162509069   -0.009898333997730902   -0.000289586555677561
-0.001559968888338907   -0.00946688497075667   -0.000268299727608856
-0.0013052305860995123   -0.009518942033782733   -0.0002915221594227248
-0.001071262231614493   -0.009853334822317953   -0.0003289166181588619
-0.0009286239162509069   -0.009898333997730902   -0.000289586555677561
-0.0012872444236776469   -0.009515507601346737   -0.00026901720553023875
-0.001018071023006159   -0.009852490683921723   -0.0002861659728054093
-0.0009031610403347073   -0.009903138210168878   -0.0002623978601366356
-0.0012872444236776469   -0.009515507601346737   -0.00026901720553023875
-0.001559968888338907   -0.00946688497075667   -0.000268299727608856
-0.001018071023006159   -0.009852490683921723   -0.0002861659728054093
-0.001509104848347484   -0.009473285832316526   -0.00023082631194439553
-0.0009031610403347073   -0.009903138210168878   -0.0002623978601366356
-0.0009507535263747066   -0.009863918176697623   -0.00024175685844184466
-0.001509104848347484   -0.009473285832316526   -0.00023082631194439553
-0.001018071023006159   -0.009852490683921723   -0.0002861659728054093
-0.0009031610403347073   -0.009903138210168878   -0.0002623978601366356
-0.001509104848347484   -0.009473285832316526   -0.00023082631194439553
-0.0012718997332806519   -0.00951833335334475   -0.0002451515196241368
-0.0012872444236776469   -0.009515507601346737   -0.00026901720553023875
-0.0009031610403347073   -0.009903138210168878   -0.0002623978601366356
-0.001509104848347484   -0.009473285832316526   -0.00023082631194439553
-0.0012872444236776469   -0.009515507601346737   -0.00026901720553023875
-0.001018071023006159   -0.009852490683921723   -0.0002861659728054093
-0.0003680544935161275   -0.009529384528249803   -0.00019410556154901613
-2.8358707207216083e-05   -0.008888232168605409   -0.0001592609949371426
-0.0006001559535653265   -0.009557632606315185   -0.00023059300034403079
-0.0003303719350546165   -0.009511838616276287   -0.00022172880782293217
-2.8358707207216083e-05   -0.008888232168605409   -0.0001592609949371426
-0.00043344375288647033   -0.008909699624150866   -0.00019531508515644496
-0.0006001559535653265   -0.009557632606315185   -0.00023059300034403079
-0.0004265168900237385   -0.008894932671268046   -0.00020516863459856593
-0.0003303719350546165   -0.009511838616276287   -0.00022172880782293217
-0.0005875783646539953   -0.009543593165919802   -0.0002426649802233171
-0.0004265168900237385   -0.008894932671268046   -0.00020516863459856593
-0.0006001559535653265   -0.009557632606315185   -0.00023059300034403079
-0.0003303719350546165   -0.009511838616276287   -0.00022172880782293217
-0.0004265168900237385   -0.008894932671268046   -0.00020516863459856593
-9.982553684488145e-07   -0.00887025939383516   -0.0001819408172296179
-2.8358707207216083e-05   -0.008888232168605409   -0.0001592609949371426
-0.0003303719350546165   -0.009511838616276287   -0.00022172880782293217
-0.0004265168900237385   -0.008894932671268046   -0.00020516863459856593
-2.8358707207216083e-05   -0.008888232168605409   -0.0001592609949371426
-0.0006001559535653265   -0.009557632606315185   -0.00023059300034403079
-0.0003303719350546165   -0.009511838616276287   -0.00022172880782293217
-9.982553684488145e-07   -0.00887025939383516   -0.0001819408172296179
-0.0005875783646539953   -0.009543593165919802   -0.0002426649802233171
-0.00030069746414678676   -0.009504450465422228   -0.00024792965569765674
-9.982553684488145e-07   -0.00887025939383516   -0.0001819408172296179
-0.0004265168900237385   -0.008894932671268046   -0.00020516863459856593
-0.0005875783646539953   -0.009543593165919802   -0.0002426649802233171
-0.00041844902258142956   -0.008886135211671893   -0.00021400456207721185
-0.00030069746414678676   -0.009504450465422228   -0.00024792965569765674
-0.0005731887820910275   -0.009536663275413314   -0.0002537723307554969
-0.00041844902258142956   -0.008886135211671893   -0.00021400456207721185
-0.0005875783646539953   -0.009543593165919802   -0.0002426649802233171
-0.00030069746414678676   -0.009504450465422228   -0.00024792965569765674
-0.00041844902258142956   -0.008886135211671893   -0.00021400456207721185
1.924013668650013e-05   -0.008860860720653785   -0.00020319530943263575
-9.982553684488145e-07   -0.00887025939383516   -0.0001819408172296179
-0.00030069746414678676   -0.009504450465422228   -0.00024792965569765674
-0.00041844902258142956   -0.008886135211671893   -0.00021400456207721185
-9.982553684488145e-07   -0.00887025939383516   -0.0001819408172296179
-0.0005875783646539953   -0.009543593165919802   -0.0002426649802233171
-0.00030069746414678676   -0.009504450465422228   -0.00024792965569765674
1.924013668650013e-05   -0.008860860720653785   -0.00020319530943263575
-0.0005731887820910275   -0.009536663275413314   -0.0002537723307554969
-0.00026776858831885017   -0.009504909188752774   -0.0002726578591024691
1.924013668650013e-05   -0.008860860720653785   -0.00020319530943263575
-0.00041844902258142956   -0.008886135211671893   -0.00021400456207721185
-0.0005731887820910275   -0.009536663275413314   -0.0002537723307554969
-0.000413603736975028   -0.008883017352110483   -0.00022192457759066404
-0.00026776858831885017   -0.009504909188752774   -0.0002726578591024691
-0.0005622234141986777   -0.00953663857669725   -0.00026395365849857905
-0.000413603736975028   -0.008883017352110483   -0.00022192457759066404
-0.0005731887820910275   -0.009536663275413314   -0.0002537723307554969
-0.00026776858831885017   -0.009504909188752774   -0.0002726578591024691
-0.000413603736975028   -0.008883017352110483   -0.00022192457759066404
4.1397874737457276e-05   -0.008857718055869126   -0.0002230256120644541
1.924013668650013e-05   -0.008860860720653785   -0.00020319530943263575
-0.00026776858831885017   -0.009504909188752774   -0.0002726578591024691
-0.000413603736975028   -0.008883017352110483   -0.00022192457759066404
1.924013668650013e-05   -0.008860860720653785   -0.00020319530943263575
-0.0005731887820910275   -0.009536663275413314   -0.0002537723307554969
-0.0006001559535653265   -0.009557632606315185   -0.00023059300034403079
-0.00043344375288647033   -0.008909699624150866   -0.00019531508515644496
-0.0008330600673441647   -0.009567259103208405   -0.00025998474559066787
-0.0005875783646539953   -0.009543593165919802   -0.0002426649802233171
-0.00043344375288647033   -0.008909699624150866   -0.00019531508515644496
-0.0008287921438669195   -0.008913891833975934   -0.00022448673923645545
-0.0008330600673441647   -0.009567259103208405   -0.00025998474559066787
-0.0008238318256095465   -0.008901343326638158   -0.00022458835134255548
-0.0005875783646539953   -0.009543593165919802   -0.0002426649802233171
-0.0008226301279783977   -0.00955504262048751   -0.0002604429558628985
-0.0008238318256095465   -0.008901343326638158   -0.00022458835134255548
-0.0008330600673441647   -0.009567259103208405   -0.00025998474559066787
-0.0005875783646539953   -0.009543593165919802   -0.0002426649802233171
-0.0008238318256095465   -0.008901343326638158   -0.00022458835134255548
-0.0004265168900237385   -0.008894932671268046   -0.00020516863459856593
-0.00043344375288647033   -0.008909699624150866   -0.00019531508515644496
-0.0005875783646539953   -0.009543593165919802   -0.0002426649802233171
-0.0008238318256095465   -0.008901343326638158   -0.00022458835134255548
-0.00043344375288647033   -0.008909699624150866   -0.00019531508515644496
-0.0008330600673441647   -0.009567259103208405   -0.00025998474559066787
-0.0005875783646539953   -0.009543593165919802   -0.0002426649802233171
-0.0004265168900237385   -0.008894932671268046   -0.00020516863459856593
-0.0008226301279783977   -0.00955504262048751   -0.0002604429558628985
-0.0005731887820910275   -0.009536663275413314   -0.0002537723307554969
-0.0004265168900237385   -0.008894932671268046   -0.00020516863459856593
-0.0008238318256095465   -0.008901343326638158   -0.00022458835134255548
-0.0008226301279783977   -0.00955504262048751   -0.0002604429558628985
-0.0008187073900359636   -0.00889412467677395   -0.00022370760304506329
-0.0005731887820910275   -0.009536663275413314   -0.0002537723307554969
-0.0008118170279530998   -0.009549223731099314   -0.0002600044365325287
-0.0008187073900359636   -0.00889412467677395   -0.00022370760304506329
-0.0008226301279783977   -0.00955504262048751   -0.0002604429558628985
-0.0005731887820910275   -0.009536663275413314   -0.0002537723307554969
-0.0008187073900359636   -0.00889412467677395   -0.00022370760304506329
-0.00041844902258142956   -0.008886135211671893   -0.00021400456207721185
-0.0004265168900237385   -0.008894932671268046   -0.00020516863459856593
-0.0005731887820910275   -0.009536663275413314   -0.0002537723307554969
-0.0008187073900359636   -0.00889412467677395   -0.00022370760304506329
-0.0004265168900237385   -0.008894932671268046   -0.00020516863459856593
-0.0008226301279783977   -0.00955504262048751   -0.0002604429558628985
-0.0005731887820910275   -0.009536663275413314   -0.0002537723307554969
-0.00041844902258142956   -0.008886135211671893   -0.00021400456207721185
-0.0008118170279530998   -0.009549223731099314   -0.0002600044365325287
-0.0005622234141986777   -0.00953663857669725   -0.00026395365849857905
-0.00041844902258142956   -0.008886135211671893   -0.00021400456207721185
-0.0008187073900359636   -0.00889412467677395   -0.00022370760304506329
-0.0008118170279530998   -0.009549223731099314   -0.0002600044365325287
-0.0008142345092037831   -0.008892169094470386   -0.0002219213753968735
-0.0005622234141986777   -0.00953663857669725   -0.00026395365849857905
-0.0008014205785384687   -0.0095495520732449   -0.0002586762006654934
-0.0008142345092037831   -0.008892169094470386   -0.0002219213753968735
-0.0008118170279530998   -0.009549223731099314   -0.0002600044365325287
-0.0005622234141986777   -0.00953663857669725   -0.00026395365849857905
-0.0008142345092037831   -0.008892169094470386   -0.0002219213753968735
-0.000413603736975028   -0.008883017352110483   -0.00022192457759066404
-0.00041844902258142956   -0.008886135211671893   -0.00021400456207721185
-0.0005622234141986777   -0.00953663857669725   -0.00026395365849857905
-0.0008142345092037831   -0.008892169094470386   -0.0002219213753968735
-0.00041844902258142956   -0.008886135211671893   -0.00021400456207721185
-0.0008118170279530998   -0.009549223731099314   -0.0002600044365325287
-0.0008330600673441647   -0.009567259103208405   -0.00025998474559066787
-0.0008287921438669195   -0.008913891833975934   -0.00022448673923645545
-0.0010649186484347614   -0.009557964285114035   -0.0002875852931407932
-0.0008226301279783977   -0.00955504262048751   -0.0002604429558628985
-0.0008287921438669195   -0.008913891833975934   -0.00022448673923645545
-0.0012186629490859686   -0.008900957203399298   -0.00025076486130221965
-0.0010649186484347614   -0.009557964285114035   -0.0002875852931407932
-0.0012140582251590952   -0.008890174918598623   -0.00024134029437713724
-0.0008226301279783977   -0.00955504262048751   -0.0002604429558628985
-0.001054572580065827   -0.009547031792469626   -0.0002768736066723565
-0.0012140582251590952   -0.008890174918598623   -0.00024134029437713724
-0.0010649186484347614   -0.009557964285114035   -0.0002875852931407932
-0.0008226301279783977   -0.00955504262048751   -0.0002604429558628985
-0.0012140582251590952   -0.008890174918598623   -0.00024134029437713724
-0.0008238318256095465   -0.008901343326638158   -0.00022458835134255548
-0.0008287921438669195   -0.008913891833975934   -0.00022448673923645545
-0.0008226301279783977   -0.00955504262048751   -0.0002604429558628985
-0.0012140582251590952   -0.008890174918598623   -0.00024134029437713724
-0.0008287921438669195   -0.008913891833975934   -0.00022448673923645545
-0.0010649186484347614   -0.009557964285114035   -0.0002875852931407932
-0.0008226301279783977   -0.00955504262048751   -0.0002604429558628985
-0.0008238318256095465   -0.008901343326638158   -0.00022458835134255548
-0.001054572580065827   -0.009547031792469626   -0.0002768736066723565
-0.0008118170279530998   -0.009549223731099314   -0.0002600044365325287
-0.0008238318256095465   -0.008901343326638158   -0.00022458835134255548
-0.0012140582251590952   -0.008890174918598623   -0.00024134029437713724
-0.001054572580065827   -0.009547031792469626   -0.0002768736066723565
-0.001208480246867168   -0.008884667659791559   -0.00023096105744936602
-0.0008118170279530998   -0.009549223731099314   -0.0002600044365325287
-0.0010429671379239734   -0.009542407244167645   -0.0002652854643586616
-0.001208480246867168   -0.008884667659791559   -0.00023096105744936602
-0.001054572580065827   -0.009547031792469626   -0.0002768736066723565
-0.0008118170279530998   -0.009549223731099314   -0.0002600044365325287
-0.001208480246867168   -0.008884667659791559   -0.00023096105744936602
-0.0008187073900359636   -0.00889412467677395   -0.00022370760304506329
-0.0008238318256095465   -0.008901343326638158   -0.00022458835134255548
-0.0008118170279530998   -0.009549223731099314   -0.0002600044365325287
-0.001208480246867168   -0.008884667659791559   -0.00023096105744936602
-0.0008238318256095465   -0.008901343326638158   -0.00022458835134255548
-0.001054572580065827   -0.009547031792469626   -0.0002768736066723565
-0.0008118170279530998   -0.009549223731099314   -0.0002600044365325287
-0.0008187073900359636   -0.00889412467677395   -0.00022370760304506329
-0.0010429671379239734   -0.009542407244167645   -0.0002652854643586616
-0.0008014205785384687   -0.0095495520732449   -0.0002586762006654934
-0.0008187073900359636   -0.00889412467677395   -0.00022370760304506329
-0.001208480246867168   -0.008884667659791559   -0.00023096105744936602
-0.0010429671379239734   -0.009542407244167645   -0.0002652854643586616
-0.0012031030208035298   -0.00888423040359644   -0.00021965499512236134
-0.0008014205785384687   -0.0095495520732449   -0.0002586762006654934
-0.0010313901712314937   -0.009543568231195832   -0.00025271535799547076
-0.0012031030208035298   -0.00888423040359644   -0.00021965499512236134
-0.0010429671379239734   -0.009542407244167645   -0.0002652854643586616
-0.0008014205785384687   -0.0095495520732449   -0.0002586762006654934
-0.0012031030208035298   -0.00888423040359644   -0.00021965499512236134
-0.0008142345092037831   -0.008892169094470386   -0.0002219213753968735
-0.0008187073900359636   -0.00889412467677395   -0.00022370760304506329
-0.0008014205785384687   -0.0095495520732449   -0.0002586762006654934
-0.0012031030208035298   -0.00888423040359644   -0.00021965499512236134
-0.0008187073900359636   -0.00889412467677395   -0.00022370760304506329
-0.0010429671379239734   -0.009542407244167645   -0.0002652854643586616
-0.0010649186484347614   -0.009557964285114035   -0.0002875852931407932
-0.0012186629490859686   -0.008900957203399298   -0.00025076486130221965
-0.0013181091181596696   -0.009528649188090947   -0.0003132365111036062
-0.001054572580065827   -0.009547031792469626   -0.0002768736066723565
-0.0012186629490859686   -0.008900957203399298   -0.00025076486130221965
-0.0016262472350132965   -0.008871251992625806   -0.00027418143513876294
-0.0013181091181596696   -0.009528649188090947   -0.0003132365111036062
-0.0016200166686660981   -0.008862085234951345   -0.00025518385005077345
-0.001054572580065827   -0.009547031792469626   -0.0002768736066723565
-0.0013052305860995123   -0.009518942033782733   -0.0002915221594227248
-0.0016200166686660981   -0.008862085234951345   -0.00025518385005077345
-0.0013181091181596696   -0.009528649188090947   -0.0003132365111036062
-0.001054572580065827   -0.009547031792469626   -0.0002768736066723565
-0.0016200166686660981   -0.008862085234951345   -0.00025518385005077345
-0.0012140582251590952   -0.008890174918598623   -0.00024134029437713724
-0.0012186629490859686   -0.008900957203399298   -0.00025076486130221965
-0.001054572580065827   -0.009547031792469626   -0.0002768736066723565
-0.0016200166686660981   -0.008862085234951345   -0.00025518385005077345
-0.0012186629490859686   -0.008900957203399298   -0.00025076486130221965
-0.0013181091181596696   -0.009528649188090947   -0.0003132365111036062
-0.001054572580065827   -0.009547031792469626   -0.0002768736066723565
-0.0012140582251590952   -0.008890174918598623   -0.00024134029437713724
-0.0013052305860995123   -0.009518942033782733   -0.0002915221594227248
-0.0010429671379239734   -0.009542407244167645   -0.0002652854643586616
-0.0012140582251590952   -0.008890174918598623   -0.00024134029437713724
-0.0016200166686660981   -0.008862085234951345   -0.00025518385005077345
-0.0013052305860995123   -0.009518942033782733   -0.0002915221594227248
-0.0016093328967000835   -0.008858128456268833   -0.00023538845054743227
-0.0010429671379239734   -0.009542407244167645   -0.0002652854643586616
-0.0012872444236776469   -0.009515507601346737   -0.00026901720553023875
-0.0016093328967000835   -0.008858128456268833   -0.00023538845054743227
-0.0013052305860995123   -0.009518942033782733   -0.0002915221594227248
-0.0010429671379239734   -0.009542407244167645   -0.0002652854643586616
-0.0016093328967000835   -0.008858128456268833   -0.00023538845054743227
-0.001208480246867168   -0.008884667659791559   -0.00023096105744936602
-0.0012140582251590952   -0.008890174918598623   -0.00024134029437713724
-0.0010429671379239734   -0.009542407244167645   -0.0002652854643586616
-0.0016093328967000835   -0.008858128456268833   -0.00023538845054743227
-0.0012140582251590952   -0.008890174918598623   -0.00024134029437713724
-0.0013052305860995123   -0.009518942033782733   -0.0002915221594227248
-0.0010429671379239734   -0.009542407244167645   -0.0002652854643586616
-0.001208480246867168   -0.008884667659791559   -0.00023096105744936602
-0.0012872444236776469   -0.009515507601346737   -0.00026901720553023875
-0.0010313901712314937   -0.009543568231195832   -0.00025271535799547076
-0.001208480246867168   -0.008884667659791559   -0.00023096105744936602
-0.0016093328967000835   -0.008858128456268833   -0.00023538845054743227
-0.0012872444236776469   -0.009515507601346737   -0.00026901720553023875
-0.001600908475633462   -0.008859640184618553   -0.00021452514846638474
-0.0010313901712314937   -0.009543568231195832   -0.00025271535799547076
-0.0012718997332806519   -0.00951833335334475   -0.0002451515196241368
-0.001600908475633462   -0.008859640184618553   -0.00021452514846638474
-0.0012872444236776469   -0.009515507601346737   -0.00026901720553023875
-0.0010313901712314937   -0.009543568231195832   -0.00025271535799547076
-0.001600908475633462   -0.008859640184618553   -0.00021452514846638474
-0.0012031030208035298   -0.00888423040359644   -0.00021965499512236134
-0.001208480246867168   -0.008884667659791559   -0.00023096105744936602
-0.0010313901712314937   -0.009543568231195832   -0.00025271535799547076
-0.001600908475633462   -0.008859640184618553   -0.00021452514846638474
-0.001208480246867168   -0.008884667659791559   -0.00023096105744936602
-0.0012872444236776469   -0.009515507601346737   -0.00026901720553023875
-0.0013181091181596696   -0.009528649188090947   -0.0003132365111036062
-0.0016262472350132965   -0.008871251992625806   -0.00027418143513876294
-0.0016438373038297862   -0.009480970678366098   -0.00033876583983102394
-0.0013052305860995123   -0.009518942033782733   -0.0002915221594227248
-0.0016262472350132965   -0.008871251992625806   -0.00027418143513876294
-0.0021010828977017027   -0.008827786470581895   -0.00029665113609633265
-0.0016438373038297862   -0.009480970678366098   -0.00033876583983102394
-0.002067020101045799   -0.008817934215088221   -0.00026676667971387453
-0.0013052305860995123   -0.009518942033782733   -0.0002915221594227248
-0.0015992771020673937   -0.00947006156120411   -0.0003043855459533061
-0.002067020101045799   -0.008817934215088221   -0.00026676667971387453
-0.0016438373038297862   -0.009480970678366098   -0.00033876583983102394
-0.0013052305860995123   -0.009518942033782733   -0.0002915221594227248
-0.002067020101045799   -0.008817934215088221   -0.00026676667971387453
-0.0016200166686660981   -0.008862085234951345   -0.00025518385005077345
-0.0016262472350132965   -0.008871251992625806   -0.00027418143513876294
-0.0013052305860995123   -0.009518942033782733   -0.0002915221594227248
-0.002067020101045799   -0.008817934215088221   -0.00026676667971387453
-0.0016262472350132965   -0.008871251992625806   -0.00027418143513876294
-0.0016438373038297862   -0.009480970678366098   -0.00033876583983102394
-0.0013052305860995123   -0.009518942033782733   -0.0002915221594227248
-0.0016200166686660981   -0.008862085234951345   -0.00025518385005077345
-0.0015992771020673937   -0.00947006156120411   -0.0003043855459533061
-0.0012872444236776469   -0.009515507601346737   -0.00026901720553023875
-0.0016200166686660981   -0.008862085234951345   -0.00025518385005077345
-0.002067020101045799   -0.008817934215088221   -0.00026676667971387453
-0.0015992771020673937   -0.00947006156120411   -0.0003043855459533061
-0.002037864344939893   -0.008814400439744585   -0.0002355368835989824
-0.0012872444236776469   -0.009515507601346737   -0.00026901720553023875
-0.001559968888338907   -0.00946688497075667   -0.000268299727608856
-0.002037864344939893   -0.008814400439744585   -0.0002355368835989824
-0.0015992771020673937   -0.00947006156120411   -0.0003043855459533061
-0.0012872444236776469   -0.009515507601346737   -0.00026901720553023875
-0.002037864344939893   -0.008814400439744585   -0.0002355368835989824
-0.0016093328967000835   -0.008858128456268833   -0.00023538845054743227
-0.0016200166686660981   -0.008862085234951345   -0.00025518385005077345
-0.0012872444236776469   -0.009515507601346737   -0.00026901720553023875
-0.002037864344939893   -0.008814400439744585   -0.0002355368835989824
-0.0016200166686660981   -0.008862085234951345   -0.00025518385005077345
-0.0015992771020673937   -0.00947006156120411   -0.0003043855459533061
-0.0012872444236776469   -0.009515507601346737   -0.00026901720553023875
-0.0016093328967000835   -0.008858128456268833   -0.00023538845054743227
-0.001559968888338907   -0.00946688497075667   -0.000268299727608856
-0.0012718997332806519   -0.00951833335334475   -0.0002451515196241368
-0.0016093328967000835   -0.008858128456268833   -0.00023538845054743227
-0.002037864344939893   -0.008814400439744585   -0.0002355368835989824
-0.001559968888338907   -0.00946688497075667   -0.000268299727608856
-0.0019987588137413506   -0.008819124022378966   -0.00020315508001488632
-0.0012718997332806519   -0.00951833335334475   -0.0002451515196241368
-0.001509104848347484   -0.009473285832316526   -0.00023082631194439553
-0.0019987588137413506   -0.008819124022378966   -0.00020315508001488632
-0.001559968888338907   -0.00946688497075667   -0.000268299727608856
-0.0012718997332806519   -0.00951833335334475   -0.0002451515196241368
-0.0019987588137413506   -0.008819124022378966   -0.00020315508001488632
-0.001600908475633462   -0.008859640184618553   -0.00021452514846638474
-0.0016093328967000835   -0.008858128456268833   -0.00023538845054743227
-0.0012718997332806519   -0.00951833335334475   -0.0002451515196241368
-0.0019987588137413506   -0.008819124022378966   -0.00020315508001488632
-0.0016093328967000835   -0.008858128456268833   -0.00023538845054743227
-0.001559968888338907   -0.00946688497075667   -0.000268299727608856
-2.8358707207216083e-05   -0.008888232168605409   -0.0001592609949371426
0.00023855441596779852   -0.007994263916538203   -0.00012090492890363979
-0.00043344375288647033   -0.008909699624150866   -0.00019531508515644496
-9.982553684488145e-07   -0.00887025939383516   -0.0001819408172296179
0.00023855441596779852   -0.007994263916538203   -0.00012090492890363979
-0.000308597218815144   -0.008009119949031336   -0.00015542555507528939
-0.00043344375288647033   -0.008909699624150866   -0.00019531508515644496
-0.0003067937220921117   -0.007994420883639159   -0.00016255559222944698
-9.982553684488145e-07   -0.00887025939383516   -0.0001819408172296179
-0.0004265168900237385   -0.008894932671268046   -0.00020516863459856593
-0.0003067937220921117   -0.007994420883639159   -0.00016255559222944698
-0.00043344375288647033   -0.008909699624150866   -0.00019531508515644496
-9.982553684488145e-07   -0.00887025939383516   -0.0001819408172296179
-0.0003067937220921117   -0.007994420883639159   -0.00016255559222944698
0.00025593953572845845   -0.007976634283544453   -0.0001383354681116831
0.00023855441596779852   -0.007994263916538203   -0.00012090492890363979
-9.982553684488145e-07   -0.00887025939383516   -0.0001819408172296179
-0.0003067937220921117   -0.007994420883639159   -0.00016255559222944698
0.00023855441596779852   -0.007994263916538203   -0.00012090492890363979
-0.00043344375288647033   -0.008909699624150866   -0.00019531508515644496
-9.982553684488145e-07   -0.00887025939383516   -0.0001819408172296179
0.00025593953572845845   -0.007976634283544453   -0.0001383354681116831
-0.0004265168900237385   -0.008894932671268046   -0.00020516863459856593
1.924013668650013e-05   -0.008860860720653785   -0.00020319530943263575
0.00025593953572845845   -0.007976634283544453   -0.0001383354681116831
-0.0003067937220921117   -0.007994420883639159   -0.00016255559222944698
-0.0004265168900237385   -0.008894932671268046   -0.00020516863459856593
-0.0003044417399756607   -0.007984578271231774   -0.00016872363801158537
1.924013668650013e-05   -0.008860860720653785   -0.00020319530943263575
-0.00041844902258142956   -0.008886135211671893   -0.00021400456207721185
-0.0003044417399756607   -0.007984578271231774   -0.00016872363801158537
-0.0004265168900237385   -0.008894932671268046   -0.00020516863459856593
1.924013668650013e-05   -0.008860860720653785   -0.00020319530943263575
-0.0003044417399756607   -0.007984578271231774   -0.00016872363801158537
0.0002673582431484867   -0.007966045229462012   -0.00015439914793144107
0.00025593953572845845   -0.007976634283544453   -0.0001383354681116831
1.924013668650013e-05   -0.008860860720653785   -0.00020319530943263575
-0.0003044417399756607   -0.007984578271231774   -0.00016872363801158537
0.00025593953572845845   -0.007976634283544453   -0.0001383354681116831
-0.0004265168900237385   -0.008894932671268046   -0.00020516863459856593
1.924013668650013e-05   -0.008860860720653785   -0.00020319530943263575
0.0002673582431484867   -0.007966045229462012   -0.00015439914793144107
-0.00041844902258142956   -0.008886135211671893   -0.00021400456207721185
4.1397874737457276e-05   -0.008857718055869126   -0.0002230256120644541
0.0002673582431484867   -0.007966045229462012   -0.00015439914793144107
-0.0003044417399756607   -0.007984578271231774   -0.00016872363801158537
-0.00041844902258142956   -0.008886135211671893   -0.00021400456207721185
-0.0003049086707135735   -0.007979231573340663   -0.0001739986220508947
4.1397874737457276e-05   -0.008857718055869126   -0.0002230256120644541
-0.000413603736975028   -0.008883017352110483   -0.00022192457759066404
-0.0003049086707135735   -0.007979231573340663   -0.0001739986220508947
-0.00041844902258142956   -0.008886135211671893   -0.00021400456207721185
4.1397874737457276e-05   -0.008857718055869126   -0.0002230256120644541
-0.0003049086707135735   -0.007979231573340663   -0.0001739986220508947
0.00027954873654608493   -0.007960170066986922   -0.00016913147561317844
0.0002673582431484867   -0.007966045229462012   -0.00015439914793144107
4.1397874737457276e-05   -0.008857718055869126   -0.0002230256120644541
-0.0003049086707135735   -0.007979231573340663   -0.0001739986220508947
0.0002673582431484867   -0.007966045229462012   -0.00015439914793144107
-0.00041844902258142956   -0.008886135211671893   -0.00021400456207721185
-0.00043344375288647033   -0.008909699624150866   -0.00019531508515644496
-0.000308597218815144   -0.008009119949031336   -0.00015542555507528939
-0.0008287921438669195   -0.008913891833975934   -0.00022448673923645545
-0.0004265168900237385   -0.008894932671268046   -0.00020516863459856593
-0.000308597218815144   -0.008009119949031336   -0.00015542555507528939
-0.0008379546404489005   -0.008009547969331144   -0.00018321516499356493
-0.0008287921438669195   -0.008913891833975934   -0.00022448673923645545
-0.0008378450784218553   -0.007997334047447655   -0.00018252309277032425
-0.0004265168900237385   -0.008894932671268046   -0.00020516863459856593
-0.0008238318256095465   -0.008901343326638158   -0.00022458835134255548
-0.0008378450784218553   -0.007997334047447655   -0.00018252309277032425
-0.0008287921438669195   -0.008913891833975934   -0.00022448673923645545
-0.0004265168900237385   -0.008894932671268046   -0.00020516863459856593
-0.0008378450784218553   -0.007997334047447655   -0.00018252309277032425
-0.0003067937220921117   -0.007994420883639159   -0.00016255559222944698
-0.000308597218815144   -0.008009119949031336   -0.00015542555507528939
-0.0004265168900237385   -0.008894932671268046   -0.00020516863459856593
-0.0008378450784218553   -0.007997334047447655   -0.00018252309277032425
-0.000308597218815144   -0.008009119949031336   -0.00015542555507528939
-0.0008287921438669195   -0.008913891833975934   -0.00022448673923645545
-0.0004265168900237385   -0.008894932671268046   -0.00020516863459856593
-0.0003067937220921117   -0.007994420883639159   -0.00016255559222944698
-0.0008238318256095465   -0.008901343326638158   -0.00022458835134255548
-0.00041844902258142956   -0.008886135211671893   -0.00021400456207721185
-0.0003067937220921117   -0.007994420883639159   -0.00016255559222944698
-0.0008378450784218553   -0.007997334047447655   -0.00018252309277032425
-0.0008238318256095465   -0.008901343326638158   -0.00022458835134255548
-0.0008376885392586019   -0.007989389221124318   -0.00018086468911146465
-0.00041844902258142956   -0.008886135211671893   -0.00021400456207721185
-0.0008187073900359636   -0.00889412467677395   -0.00022370760304506329
-0.0008376885392586019   -0.007989389221124318   -0.00018086468911146465
-0.0008238318256095465   -0.008901343326638158   -0.00022458835134255548
-0.00041844902258142956   -0.008886135211671893   -0.00021400456207721185
-0.0008376885392586019   -0.007989389221124318   -0.00018086468911146465
-0.0003044417399756607   -0.007984578271231774   -0.00016872363801158537
-0.0003067937220921117   -0.007994420883639159   -0.00016255559222944698
-0.00041844902258142956   -0.008886135211671893   -0.00021400456207721185
-0.0008376885392586019   -0.007989389221124318   -0.00018086468911146465
-0.0003067937220921117   -0.007994420883639159   -0.00016255559222944698
-0.0008238318256095465   -0.008901343326638158   -0.00022458835134255548
-0.00041844902258142956   -0.008886135211671893   -0.00021400456207721185
-0.0003044417399756607   -0.007984578271231774   -0.00016872363801158537
-0.0008187073900359636   -0.00889412467677395   -0.00022370760304506329
-0.000413603736975028   -0.008883017352110483   -0.00022192457759066404
-0.0003044417399756607   -0.007984578271231774   -0.00016872363801158537
-0.0008376885392586019   -0.007989389221124318   -0.00018086468911146465
-0.0008187073900359636   -0.00889412467677395   -0.00022370760304506329
-0.0008382190387850863   -0.007985724440614926   -0.00017830063581573575
-0.000413603736975028   -0.008883017352110483   -0.00022192457759066404
-0.0008142345092037831   -0.008892169094470386   -0.0002219213753968735
-0.0008382190387850863   -0.007985724440614926   -0.00017830063581573575
-0.0008187073900359636   -0.00889412467677395   -0.00022370760304506329
-0.000413603736975028   -0.008883017352110483   -0.00022192457759066404
-0.0008382190387850863   -0.007985724440614926   -0.00017830063581573575
-0.0003049086707135735   -0.007979231573340663   -0.0001739986220508947
-0.0003044417399756607   -0.007984578271231774   -0.00016872363801158537
-0.000413603736975028   -0.008883017352110483   -0.00022192457759066404
-0.0008382190387850863   -0.007985724440614926   -0.00017830063581573575
-0.0003044417399756607   -0.007984578271231774   -0.00016872363801158537
-0.0008187073900359636   -0.00889412467677395   -0.00022370760304506329
-0.0008287921438669195   -0.008913891833975934   -0.00022448673923645545
-0.0008379546404489005   -0.008009547969331144   -0.00018321516499356493
-0.0012186629490859686   -0.008900957203399298   -0.00025076486130221965
-0.0008238318256095465   -0.008901343326638158   -0.00022458835134255548
-0.0008379546404489005   -0.008009547969331144   -0.00018321516499356493
-0.0013590091120035596   -0.007996097365889326   -0.00020734412229064363
-0.0012186629490859686   -0.008900957203399298   -0.00025076486130221965
-0.0013593155901740798   -0.007985998648375996   -0.00019893336473761667
-0.0008238318256095465   -0.008901343326638158   -0.00022458835134255548
-0.0012140582251590952   -0.008890174918598623   -0.00024134029437713724
-0.0013593155901740798   -0.007985998648375996   -0.00019893336473761667
-0.0012186629490859686   -0.008900957203399298   -0.00025076486130221965
-0.0008238318256095465   -0.008901343326638158   -0.00022458835134255548
-0.0013593155901740798   -0.007985998648375996   -0.00019893336473761667
-0.0008378450784218553   -0.007997334047447655   -0.00018252309277032425
-0.0008379546404489005   -0.008009547969331144   -0.00018321516499356493
-0.0008238318256095465   -0.008901343326638158   -0.00022458835134255548
-0.0013593155901740798   -0.007985998648375996   -0.00019893336473761667
-0.0008379546404489005   -0.008009547969331144   -0.00018321516499356493
-0.0012186629490859686   -0.008900957203399298   -0.00025076486130221965
-0.0008238318256095465   -0.008901343326638158   -0.00022458835134255548
-0.0008378450784218553   -0.007997334047447655   -0.00018252309277032425
-0.0012140582251590952   -0.008890174918598623   -0.00024134029437713724
-0.0008187073900359636   -0.00889412467677395   -0.00022370760304506329
-0.0008378450784218553   -0.007997334047447655   -0.00018252309277032425
-0.0013593155901740798   -0.007985998648375996   -0.00019893336473761667
-0.0012140582251590952   -0.008890174918598623   -0.00024134029437713724
-0.0013587527847900526   -0.007980132258546341   -0.0001895805997221507
-0.0008187073900359636   -0.00889412467677395   -0.00022370760304506329
-0.001208480246867168   -0.008884667659791559   -0.00023096105744936602
-0.0013587527847900526   -0.007980132258546341   -0.0001895805997221507
-0.0012140582251590952   -0.008890174918598623   -0.00024134029437713724
-0.0008187073900359636   -0.00889412467677395   -0.00022370760304506329
-0.0013587527847900526   -0.007980132258546341   -0.0001895805997221507
-0.0008376885392586019   -0.007989389221124318   -0.00018086468911146465
-0.0008378450784218553   -0.007997334047447655   -0.00018252309277032425
-0.0008187073900359636   -0.00889412467677395   -0.00022370760304506329
-0.0013587527847900526   -0.007980132258546341   -0.0001895805997221507
-0.0008378450784218553   -0.007997334047447655   -0.00018252309277032425
-0.0012140582251590952   -0.008890174918598623   -0.00024134029437713724
-0.0008187073900359636   -0.00889412467677395   -0.00022370760304506329
-0.0008376885392586019   -0.007989389221124318   -0.00018086468911146465
-0.001208480246867168   -0.008884667659791559   -0.00023096105744936602
-0.0008142345092037831   -0.008892169094470386   -0.0002219213753968735
-0.0008376885392586019   -0.007989389221124318   -0.00018086468911146465
-0.0013587527847900526   -0.007980132258546341   -0.0001895805997221507
-0.001208480246867168   -0.008884667659791559   -0.00023096105744936602
-0.0013583716653050141   -0.007978434453870026   -0.00017931057137905146
-0.0008142345092037831   -0.008892169094470386   -0.0002219213753968735
-0.0012031030208035298   -0.00888423040359644   -0.00021965499512236134
-0.0013583716653050141   -0.007978434453870026   -0.00017931057137905146
-0.001208480246867168   -0.008884667659791559   -0.00023096105744936602
-0.0008142345092037831   -0.008892169094470386   -0.0002219213753968735
-0.0013583716653050141   -0.007978434453870026   -0.00017931057137905146
-0.0008382190387850863   -0.007985724440614926   -0.00017830063581573575
-0.0008376885392586019   -0.007989389221124318   -0.00018086468911146465
-0.0008142345092037831   -0.008892169094470386   -0.0002219213753968735
-0.0013583716653050141   -0.007978434453870026   -0.00017931057137905146
-0.0008376885392586019   -0.007989389221124318   -0.00018086468911146465
-0.001208480246867168   -0.008884667659791559   -0.00023096105744936602
-0.0012186629490859686   -0.008900957203399298   -0.00025076486130221965
-0.0013590091120035596   -0.007996097365889326   -0.00020734412229064363
-0.0016262472350132965   -0.008871251992625806   -0.00027418143513876294
-0.0012140582251590952   -0.008890174918598623   -0.00024134029437713724
-0.0013590091120035596   -0.007996097365889326   -0.00020734412229064363
-0.0018958518027408348   -0.00796919353167887   -0.00022795892781593286
-0.0016262472350132965   -0.008871251992625806   -0.00027418143513876294
-0.0018949348699766702   -0.00796106128986446   -0.00021172220319989882
-0.0012140582251590952   -0.008890174918598623   -0.00024134029437713724
-0.0016200166686660981   -0.008862085234951345   -0.00025518385005077345
-0.0018949348699766702   -0.00796106128986446   -0.00021172220319989882
-0.0016262472350132965   -0.008871251992625806   -0.00027418143513876294
-0.0012140582251590952   -0.008890174918598623   -0.00024134029437713724
-0.0018949348699766702   -0.00796106128986446   -0.00021172220319989882
-0.0013593155901740798   -0.007985998648375996   -0.00019893336473761667
-0.0013590091120035596   -0.007996097365889326   -0.00020734412229064363
-0.0012140582251590952   -0.008890174918598623   -0.00024134029437713724
-0.0018949348699766702   -0.00796106128986446   -0.00021172220319989882
-0.0013590091120035596   -0.007996097365889326   -0.00020734412229064363
-0.0016262472350132965   -0.008871251992625806   -0.00027418143513876294
-0.0012140582251590952   -0.008890174918598623   -0.00024134029437713724
-0.0013593155901740798   -0.007985998648375996   -0.00019893336473761667
-0.0016200166686660981   -0.008862085234951345   -0.00025518385005077345
-0.001208480246867168   -0.008884667659791559   -0.00023096105744936602
-0.0013593155901740798   -0.007985998648375996   -0.00019893336473761667
-0.0018949348699766702   -0.00796106128986446   -0.00021172220319989882
-0.0016200166686660981   -0.008862085234951345   -0.00025518385005077345
-0.0018900539499401544   -0.007957082548233716   -0.00019468917625697734
-0.001208480246867168   -0.008884667659791559   -0.00023096105744936602
-0.0016093328967000835   -0.008858128456268833   -0.00023538845054743227
-0.0018900539499401544   -0.007957082548233716   -0.00019468917625697734
-0.0016200166686660981   -0.008862085234951345   -0.00025518385005077345
-0.001208480246867168   -0.008884667659791559   -0.00023096105744936602
-0.0018900539499401544   -0.007957082548233716   -0.00019468917625697734
-0.0013587527847900526   -0.007980132258546341   -0.0001895805997221507
-0.0013593155901740798   -0.007985998648375996   -0.00019893336473761667
-0.001208480246867168   -0.008884667659791559   -0.00023096105744936602
-0.0018900539499401544   -0.007957082548233716   -0.00019468917625697734
-0.0013593155901740798   -0.007985998648375996   -0.00019893336473761667
-0.0016200166686660981   -0.008862085234951345   -0.00025518385005077345
-0.001208480246867168   -0.008884667659791559   -0.00023096105744936602
-0.0013587527847900526   -0.007980132258546341   -0.0001895805997221507
-0.0016093328967000835   -0.008858128456268833   -0.00023538845054743227
-0.0012031030208035298   -0.00888423040359644   -0.00021965499512236134
-0.0013587527847900526   -0.007980132258546341   -0.0001895805997221507
-0.0018900539499401544   -0.007957082548233716   -0.00019468917625697734
-0.0016093328967000835   -0.008858128456268833   -0.00023538845054743227
-0.001886880154843538   -0.007957633810497479   -0.00017665922194113804
-0.0012031030208035298   -0.00888423040359644   -0.00021965499512236134
-0.001600908475633462   -0.008859640184618553   -0.00021452514846638474
-0.001886880154843538   -0.007957633810497479   -0.00017665922194113804
-0.0016093328967000835   -0.008858128456268833   -0.00023538845054743227
-0.0012031030208035298   -0.00888423040359644   -0.00021965499512236134
-0.001886880154843538   -0.007957633810497479   -0.00017665922194113804
-0.0013583716653050141   -0.007978434453870026   -0.00017931057137905146
-0.0013587527847900526   -0.007980132258546341   -0.0001895805997221507
-0.0012031030208035298   -0.00888423040359644   -0.00021965499512236134
-0.001886880154843538   -0.007957633810497479   -0.00017665922194113804
-0.0013587527847900526   -0.007980132258546341   -0.0001895805997221507
-0.0016093328967000835   -0.008858128456268833   -0.00023538845054743227
-0.0016262472350132965   -0.008871251992625806   -0.00027418143513876294
-0.0018958518027408348   -0.00796919353167887   -0.00022795892781593286
-0.0021010828977017027   -0.008827786470581895   -0.00029665113609633265
-0.0016200166686660981   -0.008862085234951345   -0.00025518385005077345
-0.0018958518027408348   -0.00796919353167887   -0.00022795892781593286
-0.002495668630594092   -0.007931388780718657   -0.0002469039550255842
-0.0021010828977017027   -0.008827786470581895   -0.00029665113609633265
-0.0024712655713410117   -0.007923231762327608   -0.00022185217278458848
-0.0016200166686660981   -0.008862085234951345   -0.00025518385005077345
-0.002067020101045799   -0.008817934215088221   -0.00026676667971387453
-0.0024712655713410117   -0.007923231762327608   -0.00022185217278458848
-0.0021010828977017027   -0.008827786470581895   -0.00029665113609633265
-0.0016200166686660981   -0.008862085234951345   -0.00025518385005077345
-0.0024712655713410117   -0.007923231762327608   -0.00022185217278458848
-0.0018949348699766702   -0.00796106128986446   -0.00021172220319989882
-0.0018958518027408348   -0.00796919353167887   -0.00022795892781593286
-0.0016200166686660981   -0.008862085234951345   -0.00025518385005077345
-0.0024712655713410117   -0.007923231762327608   -0.00022185217278458848
-0.0018958518027408348   -0.00796919353167887   -0.00022795892781593286
-0.0021010828977017027   -0.008827786470581895   -0.00029665113609633265
-0.0016200166686660981   -0.008862085234951345   -0.00025518385005077345
-0.0018949348699766702   -0.00796106128986446   -0.00021172220319989882
-0.002067020101045799   -0.008817934215088221   -0.00026676667971387453
-0.0016093328967000835   -0.008858128456268833   -0.00023538845054743227
-0.0018949348699766702   -0.00796106128986446   -0.00021172220319989882
-0.0024712655713410117   -0.007923231762327608   -0.00022185217278458848
-0.002067020101045799   -0.008817934215088221   -0.00026676667971387453
-0.0024506562118711984   -0.007919952828980338   -0.00019543754198845349
-0.0016093328967000835   -0.008858128456268833   -0.00023538845054743227
-0.002037864344939893   -0.008814400439744585   -0.0002355368835989824
-0.0024506562118711984   -0.007919952828980338   -0.00019543754198845349
-0.002067020101045799   -0.008817934215088221   -0.00026676667971387453
-0.0016093328967000835   -0.008858128456268833   -0.00023538845054743227
-0.0024506562118711984   -0.007919952828980338   -0.00019543754198845349
-0.0018900539499401544   -0.007957082548233716   -0.00019468917625697734
-0.0018949348699766702   -0.00796106128986446   -0.00021172220319989882
-0.0016093328967000835   -0.008858128456268833   -0.00023538845054743227
-0.0024506562118711984   -0.007919952828980338   -0.00019543754198845349
-0.0018949348699766702   -0.00796106128986446   -0.00021172220319989882
-0.002067020101045799   -0.008817934215088221   -0.00026676667971387453
-0.0016093328967000835   -0.008858128456268833   -0.00023538845054743227
-0.0018900539499401544   -0.007957082548233716   -0.00019468917625697734
-0.002037864344939893   -0.008814400439744585   -0.0002355368835989824
-0.001600908475633462   -0.008859640184618553   -0.00021452514846638474
-0.0018900539499401544   -0.007957082548233716   -0.00019468917625697734
-0.0024506562118711984   -0.007919952828980338   -0.00019543754198845349
-0.002037864344939893   -0.008814400439744585   -0.0002355368835989824
-0.0024212727316110178   -0.007923761831568326   -0.00016785840491946079
-0.001600908475633462   -0.008859640184618553   -0.00021452514846638474
-0.0019987588137413506   -0.008819124022378966   -0.00020315508001488632
-0.0024212727316110178   -0.007923761831568326   -0.00016785840491946079
-0.002037864344939893   -0.008814400439744585   -0.0002355368835989824
-0.001600908475633462   -0.008859640184618553   -0.00021452514846638474
-0.0024212727316110178   -0.007923761831568326   -0.00016785840491946079
-0.001886880154843538   -0.007957633810497479   -0.00017665922194113804
-0.0018900539499401544   -0.007957082548233716   -0.00019468917625697734
-0.001600908475633462   -0.008859640184618553   -0.00021452514846638474
-0.0024212727316110178   -0.007923761831568326   -0.00016785840491946079
-0.0018900539499401544   -0.007957082548233716   -0.00019468917625697734
-0.002037864344939893   -0.008814400439744585   -0.0002355368835989824
0.00023855441596779852   -0.007994263916538203   -0.00012090492890363979
0.00043102373913628337   -0.006898348626629886   -8.095621421787516e-05
-0.000308597218815144   -0.008009119949031336   -0.00015542555507528939
0.00025593953572845845   -0.007976634283544453   -0.0001383354681116831
0.00043102373913628337   -0.006898348626629886   -8.095621421787516e-05
-0.00022819597110828845   -0.006906389457142549   -0.0001133693775016387
-0.000308597218815144   -0.008009119949031336   -0.00015542555507528939
-0.00023062199962183195   -0.006892097186127276   -0.00011754819002949357
0.00025593953572845845   -0.007976634283544453   -0.0001383354681116831
-0.0003067937220921117   -0.007994420883639159   -0.00016255559222944698
-0.00023062199962183195   -0.006892097186127276   -0.00011754819002949357
-0.000308597218815144   -0.008009119949031336   -0.00015542555507528939
0.00025593953572845845   -0.007976634283544453   -0.0001383354681116831
-0.00023062199962183195   -0.006892097186127276   -0.00011754819002949357
0.00043926563806545056   -0.006881353831125483   -9.302545837217232e-05
0.00043102373913628337   -0.006898348626629886   -8.095621421787516e-05
0.00025593953572845845   -0.007976634283544453   -0.0001383354681116831
-0.00023062199962183195   -0.006892097186127276   -0.00011754819002949357
0.00043102373913628337   -0.006898348626629886   -8.095621421787516e-05
-0.000308597218815144   -0.008009119949031336   -0.00015542555507528939
0.00025593953572845845   -0.007976634283544453   -0.0001383354681116831
0.00043926563806545056   -0.006881353831125483   -9.302545837217232e-05
-0.0003067937220921117   -0.007994420883639159   -0.00016255559222944698
0.0002673582431484867   -0.007966045229462012   -0.00015439914793144107
0.00043926563806545056   -0.006881353831125483   -9.302545837217232e-05
-0.00023062199962183195   -0.006892097186127276   -0.00011754819002949357
-0.0003067937220921117   -0.007994420883639159   -0.00016255559222944698
-0.00023308961348624752   -0.006881535994917575   -0.00012083494706676437
0.0002673582431484867   -0.007966045229462012   -0.00015439914793144107
-0.0003044417399756607   -0.007984578271231774   -0.00016872363801158537
-0.00023308961348624752   -0.006881535994917575   -0.00012083494706676437
-0.0003067937220921117   -0.007994420883639159   -0.00016255559222944698
0.0002673582431484867   -0.007966045229462012   -0.00015439914793144107
-0.00023308961348624752   -0.006881535994917575   -0.00012083494706676437
0.0004427645162248042   -0.006869905847747678   -0.00010377049255357952
0.00043926563806545056   -0.006881353831125483   -9.302545837217232e-05
0.0002673582431484867   -0.007966045229462012   -0.00015439914793144107
-0.00023308961348624752   -0.006881535994917575   -0.00012083494706676437
0.00043926563806545056   -0.006881353831125483   -9.302545837217232e-05
-0.0003067937220921117   -0.007994420883639159   -0.00016255559222944698
0.0002673582431484867   -0.007966045229462012   -0.00015439914793144107
0.0004427645162248042   -0.006869905847747678   -0.00010377049255357952
-0.0003044417399756607   -0.007984578271231774   -0.00016872363801158537
0.00027954873654608493   -0.007960170066986922   -0.00016913147561317844
0.0004427645162248042   -0.006869905847747678   -0.00010377049255357952
-0.00023308961348624752   -0.006881535994917575   -0.00012083494706676437
-0.0003044417399756607   -0.007984578271231774   -0.00016872363801158537
-0.0002379060902770586   -0.0068743191685428605   -0.00012325795863009343
0.00027954873654608493   -0.007960170066986922   -0.00016913147561317844
-0.0003049086707135735   -0.007979231573340663   -0.0001739986220508947
-0.0002379060902770586   -0.0068743191685428605   -0.00012325795863009343
-0.0003044417399756607   -0.007984578271231774   -0.00016872363801158537
0.00027954873654608493   -0.007960170066986922   -0.00016913147561317844
-0.0002379060902770586   -0.0068743191685428605   -0.00012325795863009343
0.00044585156198316165   -0.006861656698892634   -0.00011325816571688096
0.0004427645162248042   -0.006869905847747678   -0.00010377049255357952
0.00027954873654608493   -0.007960170066986922   -0.00016913147561317844
-0.0002379060902770586   -0.0068743191685428605   -0.00012325795863009343
0.0004427645162248042   -0.006869905847747678   -0.00010377049255357952
-0.0003044417399756607   -0.007984578271231774   -0.00016872363801158537
-0.000308597218815144   -0.008009119949031336   -0.00015542555507528939
-0.00022819597110828845   -0.006906389457142549   -0.0001133693775016387
-0.0008379546404489005   -0.008009547969331144   -0.00018321516499356493
-0.0003067937220921117   -0.007994420883639159   -0.00016255559222944698
-0.00022819597110828845   -0.006906389457142549   -0.0001133693775016387
-0.0008620743252943104   -0.006903237908836751   -0.00013924900966066355
-0.0008379546404489005   -0.008009547969331144   -0.00018321516499356493
-0.0008658813507844435   -0.0068916044464670135   -0.00013756761233295494
-0.0003067937220921117   -0.007994420883639159   -0.00016255559222944698
-0.0008378450784218553   -0.007997334047447655   -0.00018252309277032425
-0.0008658813507844435   -0.0068916044464670135   -0.00013756761233295494
-0.0008379546404489005   -0.008009547969331144   -0.00018321516499356493
-0.0003067937220921117   -0.007994420883639159   -0.00016255559222944698
-0.0008658813507844435   -0.0068916044464670135   -0.00013756761233295494
-0.00023062199962183195   -0.006892097186127276   -0.00011754819002949357
-0.00022819597110828845   -0.006906389457142549   -0.0001133693775016387
-0.0003067937220921117   -0.007994420883639159   -0.00016255559222944698
-0.0008658813507844435   -0.0068916044464670135   -0.00013756761233295494
-0.00022819597110828845   -0.006906389457142549   -0.0001133693775016387
-0.0008379546404489005   -0.008009547969331144   -0.00018321516499356493
-0.0003067937220921117   -0.007994420883639159   -0.00016255559222944698
-0.00023062199962183195   -0.006892097186127276   -0.00011754819002949357
-0.0008378450784218553   -0.007997334047447655   -0.00018252309277032425
-0.0003044417399756607   -0.007984578271231774   -0.00016872363801158537
-0.00023062199962183195   -0.006892097186127276   -0.00011754819002949357
-0.0008658813507844435   -0.0068916044464670135   -0.00013756761233295494
-0.0008378450784218553   -0.007997334047447655   -0.00018252309277032425
-0.0008697448107332364   -0.006883161041598018   -0.00013496008456568653
-0.0003044417399756607   -0.007984578271231774   -0.00016872363801158537
-0.0008376885392586019   -0.007989389221124318   -0.00018086468911146465
-0.0008697448107332364   -0.006883161041598018   -0.00013496008456568653
-0.0008378450784218553   -0.007997334047447655   -0.00018252309277032425
-0.0003044417399756607   -0.007984578271231774   -0.00016872363801158537
-0.0008697448107332364   -0.006883161041598018   -0.00013496008456568653
-0.00023308961348624752   -0.006881535994917575   -0.00012083494706676437
-0.00023062199962183195   -0.006892097186127276   -0.00011754819002949357
-0.0003044417399756607   -0.007984578271231774   -0.00016872363801158537
-0.0008697448107332364   -0.006883161041598018   -0.00013496008456568653
-0.00023062199962183195   -0.006892097186127276   -0.00011754819002949357
-0.0008378450784218553   -0.007997334047447655   -0.00018252309277032425
-0.0003044417399756607   -0.007984578271231774   -0.00016872363801158537
-0.00023308961348624752   -0.006881535994917575   -0.00012083494706676437
-0.0008376885392586019   -0.007989389221124318   -0.00018086468911146465
-0.0003049086707135735   -0.007979231573340663   -0.0001739986220508947
-0.00023308961348624752   -0.006881535994917575   -0.00012083494706676437
-0.0008697448107332364   -0.006883161041598018   -0.00013496008456568653
-0.0008376885392586019   -0.007989389221124318   -0.00018086468911146465
-0.0008742733779469431   -0.00687795782821379   -0.00013148090753696903
-0.0003049086707135735   -0.007979231573340663   -0.0001739986220508947
-0.0008382190387850863   -0.007985724440614926   -0.00017830063581573575
-0.0008742733779469431   -0.00687795782821379   -0.00013148090753696903
-0.0008376885392586019   -0.007989389221124318   -0.00018086468911146465
-0.0003049086707135735   -0.007979231573340663   -0.0001739986220508947
-0.0008742733779469431   -0.00687795782821379   -0.00013148090753696903
-0.0002379060902770586   -0.0068743191685428605   -0.00012325795863009343
-0.00023308961348624752   -0.006881535994917575   -0.00012083494706676437
-0.0003049086707135735   -0.007979231573340663   -0.0001739986220508947
-0.0008742733779469431   -0.00687795782821379   -0.00013148090753696903
-0.00023308961348624752   -0.006881535994917575   -0.00012083494706676437
-0.0008376885392586019   -0.007989389221124318   -0.00018086468911146465
-0.0008379546404489005   -0.008009547969331144   -0.00018321516499356493
-0.0008620743252943104   -0.006903237908836751   -0.00013924900966066355
-0.0013590091120035596   -0.007996097365889326   -0.00020734412229064363
-0.0008378450784218553   -0.007997334047447655   -0.00018252309277032425
-0.0008620743252943104   -0.006903237908836751   -0.00013924900966066355
-0.0014856851075705536   -0.006889804282645241   -0.00016101769184602885
-0.0013590091120035596   -0.007996097365889326   -0.00020734412229064363
-0.00148988958557027   -0.006880522440903085   -0.00015352411115243889
-0.0008378450784218553   -0.007997334047447655   -0.00018252309277032425
-0.0013593155901740798   -0.007985998648375996   -0.00019893336473761667
-0.00148988958557027   -0.006880522440903085   -0.00015352411115243889
-0.0013590091120035596   -0.007996097365889326   -0.00020734412229064363
-0.0008378450784218553   -0.007997334047447655   -0.00018252309277032425
-0.00148988958557027   -0.006880522440903085   -0.00015352411115243889
-0.0008658813507844435   -0.0068916044464670135   -0.00013756761233295494
-0.0008620743252943104   -0.006903237908836751   -0.00013924900966066355
-0.0008378450784218553   -0.007997334047447655   -0.00018252309277032425
-0.00148988958557027   -0.006880522440903085   -0.00015352411115243889
-0.0008620743252943104   -0.006903237908836751   -0.00013924900966066355
-0.0013590091120035596   -0.007996097365889326   -0.00020734412229064363
-0.0008378450784218553   -0.007997334047447655   -0.00018252309277032425
-0.0008658813507844435   -0.0068916044464670135   -0.00013756761233295494
-0.0013593155901740798   -0.007985998648375996   -0.00019893336473761667
-0.0008376885392586019   -0.007989389221124318   -0.00018086468911146465
-0.0008658813507844435   -0.0068916044464670135   -0.00013756761233295494
-0.00148988958557027   -0.006880522440903085   -0.00015352411115243889
-0.0013593155901740798   -0.007985998648375996   -0.00019893336473761667
-0.0014933047837364724   -0.006874401643644905   -0.00014512546985052198
-0.0008376885392586019   -0.007989389221124318   -0.00018086468911146465
-0.0013587527847900526   -0.007980132258546341   -0.0001895805997221507
-0.0014933047837364724   -0.006874401643644905   -0.00014512546985052198
-0.0013593155901740798   -0.007985998648375996   -0.00019893336473761667
-0.0008376885392586019   -0.007989389221124318   -0.00018086468911146465
-0.0014933047837364724   -0.006874401643644905   -0.00014512546985052198
-0.0008697448107332364   -0.006883161041598018   -0.00013496008456568653
-0.0008658813507844435   -0.0068916044464670135   -0.00013756761233295494
-0.0008376885392586019   -0.007989389221124318   -0.00018086468911146465
-0.0014933047837364724   -0.006874401643644905   -0.00014512546985052198
-0.0008658813507844435   -0.0068916044464670135   -0.00013756761233295494
-0.0013593155901740798   -0.007985998648375996   -0.00019893336473761667
-0.0008376885392586019   -0.007989389221124318   -0.00018086468911146465
-0.0008697448107332364   -0.006883161041598018   -0.00013496008456568653
-0.0013587527847900526   -0.007980132258546341   -0.0001895805997221507
-0.0008382190387850863   -0.007985724440614926   -0.00017830063581573575
-0.0008697448107332364   -0.006883161041598018   -0.00013496008456568653
-0.0014933047837364724   -0.006874401643644905   -0.00014512546985052198
-0.0013587527847900526   -0.007980132258546341   -0.0001895805997221507
-0.0014968416356183067   -0.00687142519361027   -0.00013584529272915415
-0.0008382190387850863   -0.007985724440614926   -0.00017830063581573575
-0.0013583716653050141   -0.007978434453870026   -0.00017931057137905146
-0.0014968416356183067   -0.00687142519361027   -0.00013584529272915415
-0.0013587527847900526   -0.007980132258546341   -0.0001895805997221507
-0.0008382190387850863   -0.007985724440614926   -0.00017830063581573575
-0.0014968416356183067   -0.00687142519361027   -0.00013584529272915415
-0.0008742733779469431   -0.00687795782821379   -0.00013148090753696903
-0.0008697448107332364   -0.006883161041598018   -0.00013496008456568653
-0.0008382190387850863   -0.007985724440614926   -0.00017830063581573575
-0.0014968416356183067   -0.00687142519361027   -0.00013584529272915415
-0.0008697448107332364   -0.006883161041598018   -0.00013496008456568653
-0.0013587527847900526   -0.007980132258546341   -0.0001895805997221507
-0.0013590091120035596   -0.007996097365889326   -0.00020734412229064363
-0.0014856851075705536   -0.006889804282645241   -0.00016101769184602885
-0.0018958518027408348   -0.00796919353167887   -0.00022795892781593286
-0.0013593155901740798   -0.007985998648375996   -0.00019893336473761667
-0.0014856851075705536   -0.006889804282645241   -0.00016101769184602885
-0.0021240747173729255   -0.006866318360733232   -0.00017884134095429095
-0.0018958518027408348   -0.00796919353167887   -0.00022795892781593286
-0.002127379473108973   -0.006859288736677449   -0.00016544699831176596
-0.0013593155901740798   -0.007985998648375996   -0.00019893336473761667
-0.0018949348699766702   -0.00796106128986446   -0.00021172220319989882
-0.002127379473108973   -0.006859288736677449   -0.00016544699831176596
-0.0018958518027408348   -0.00796919353167887   -0.00022795892781593286
-0.0013593155901740798   -0.007985998648375996   -0.00019893336473761667
-0.002127379473108973   -0.006859288736677449   -0.00016544699831176596
-0.00148988958557027   -0.006880522440903085   -0.00015352411115243889
-0.0014856851075705536   -0.006889804282645241   -0.00016101769184602885
-0.0013593155901740798   -0.007985998648375996   -0.00019893336473761667
-0.002127379473108973   -0.006859288736677449   -0.00016544699831176596
-0.0014856851075705536   -0.006889804282645241   -0.00016101769184602885
-0.0018958518027408348   -0.00796919353167887   -0.00022795892781593286
-0.0013593155901740798   -0.007985998648375996   -0.00019893336473761667
-0.00148988958557027   -0.006880522440903085   -0.00015352411115243889
-0.0018949348699766702   -0.00796106128986446   -0.00021172220319989882
-0.0013587527847900526   -0.007980132258546341   -0.0001895805997221507
-0.00148988958557027   -0.006880522440903085   -0.00015352411115243889
-0.002127379473108973   -0.006859288736677449   -0.00016544699831176596
-0.0018949348699766702   -0.00796106128986446   -0.00021172220319989882
-0.002127212514433608   -0.0068552997819701054   -0.00015127122338677218
-0.0013587527847900526   -0.007980132258546341   -0.0001895805997221507
-0.0018900539499401544   -0.007957082548233716   -0.00019468917625697734
-0.002127212514433608   -0.0068552997819701054   -0.00015127122338677218
-0.0018949348699766702   -0.00796106128986446   -0.00021172220319989882
-0.0013587527847900526   -0.007980132258546341   -0.0001895805997221507
-0.002127212514433608   -0.0068552997819701054   -0.00015127122338677218
-0.0014933047837364724   -0.006874401643644905   -0.00014512546985052198
-0.00148988958557027   -0.006880522440903085   -0.00015352411115243889
-0.0013587527847900526   -0.007980132258546341   -0.0001895805997221507
-0.002127212514433608   -0.0068552997819701054   -0.00015127122338677218
-0.00148988958557027   -0.006880522440903085   -0.00015352411115243889
-0.0018949348699766702   -0.00796106128986446   -0.00021172220319989882
-0.0013587527847900526   -0.007980132258546341   -0.0001895805997221507
-0.0014933047837364724   -0.006874401643644905   -0.00014512546985052198
-0.0018900539499401544   -0.007957082548233716   -0.00019468917625697734
-0.0013583716653050141   -0.007978434453870026   -0.00017931057137905146
-0.0014933047837364724   -0.006874401643644905   -0.00014512546985052198
-0.002127212514433608   -0.0068552997819701054   -0.00015127122338677218
-0.0018900539499401544   -0.007957082548233716   -0.00019468917625697734
-0.002128170438649897   -0.006854753671420238   -0.0001361434866226162
-0.0013583716653050141   -0.007978434453870026   -0.00017931057137905146
-0.001886880154843538   -0.007957633810497479   -0.00017665922194113804
-0.002128170438649897   -0.006854753671420238   -0.0001361434866226162
-0.0018900539499401544   -0.007957082548233716   -0.00019468917625697734
-0.0013583716653050141   -0.007978434453870026   -0.00017931057137905146
-0.002128170438649897   -0.006854753671420238   -0.0001361434866226162
-0.0014968416356183067   -0.00687142519361027   -0.00013584529272915415
-0.0014933047837364724   -0.006874401643644905   -0.00014512546985052198
-0.0013583716653050141   -0.007978434453870026   -0.00017931057137905146
-0.002128170438649897   -0.006854753671420238   -0.0001361434866226162
-0.0014933047837364724   -0.006874401643644905   -0.00014512546985052198
-0.0018900539499401544   -0.007957082548233716   -0.00019468917625697734
-0.0018958518027408348   -0.00796919353167887   -0.00022795892781593286
-0.0021240747173729255   -0.006866318360733232   -0.00017884134095429095
-0.002495668630594092   -0.007931388780718657   -0.0002469039550255842
-0.0018949348699766702   -0.00796106128986446   -0.00021172220319989882
-0.0021240747173729255   -0.006866318360733232   -0.00017884134095429095
-0.00282122909136766   -0.006834812137018183   -0.00019410571828486363
-0.002495668630594092   -0.007931388780718657   -0.0002469039550255842
-0.0028058064155678975   -0.006828382786102486   -0.0001742535596236205
-0.0018949348699766702   -0.00796106128986446   -0.00021172220319989882
-0.0024712655713410117   -0.007923231762327608   -0.00022185217278458848
-0.0028058064155678975   -0.006828382786102486   -0.0001742535596236205
-0.002495668630594092   -0.007931388780718657   -0.0002469039550255842
-0.0018949348699766702   -0.00796106128986446   -0.00021172220319989882
-0.0028058064155678975   -0.006828382786102486   -0.0001742535596236205
-0.002127379473108973   -0.006859288736677449   -0.00016544699831176596
-0.0021240747173729255   -0.006866318360733232   -0.00017884134095429095
-0.0018949348699766702   -0.00796106128986446   -0.00021172220319989882
-0.0028058064155678975   -0.006828382786102486   -0.0001742535596236205
-0.0021240747173729255   -0.006866318360733232   -0.00017884134095429095
-0.002495668630594092   -0.007931388780718657   -0.0002469039550255842
-0.0018949348699766702   -0.00796106128986446   -0.00021172220319989882
-0.002127379473108973   -0.006859288736677449   -0.00016544699831176596
-0.0024712655713410117   -0.007923231762327608   -0.00022185217278458848
-0.0018900539499401544   -0.007957082548233716   -0.00019468917625697734
-0.002127379473108973   -0.006859288736677449   -0.00016544699831176596
-0.0028058064155678975   -0.006828382786102486   -0.0001742535596236205
-0.0024712655713410117   -0.007923231762327608   -0.00022185217278458848
-0.00279293017019514   -0.0068253082558333575   -0.00015302265490387663
-0.0018900539499401544   -0.007957082548233716   -0.00019468917625697734
-0.0024506562118711984   -0.007919952828980338   -0.00019543754198845349
-0.00279293017019514   -0.0068253082558333575   -0.00015302265490387663
-0.0024712655713410117   -0.007923231762327608   -0.00022185217278458848
-0.0018900539499401544   -0.007957082548233716   -0.00019468917625697734
-0.00279293017019514   -0.0068253082558333575   -0.00015302265490387663
-0.002127212514433608   -0.0068552997819701054   -0.00015127122338677218
-0.002127379473108973   -0.006859288736677449   -0.00016544699831176596
-0.0018900539499401544   -0.007957082548233716   -0.00019468917625697734
-0.00279293017019514   -0.0068253082558333575   -0.00015302265490387663
-0.002127379473108973   -0.006859288736677449   -0.00016544699831176596
-0.0024712655713410117   -0.007923231762327608   -0.00022185217278458848
-0.0018900539499401544   -0.007957082548233716   -0.00019468917625697734
-0.002127212514433608   -0.0068552997819701054   -0.00015127122338677218
-0.0024506562118711984   -0.007919952828980338   -0.00019543754198845349
-0.001886880154843538   -0.007957633810497479   -0.00017665922194113804
-0.002127212514433608   -0.0068552997819701054   -0.00015127122338677218
-0.00279293017019514   -0.0068253082558333575   -0.00015302265490387663
-0.0024506562118711984   -0.007919952828980338   -0.00019543754198845349
-0.0027724280155350216   -0.006827971596549762   -0.0001305892681587937
-0.001886880154843538   -0.007957633810497479   -0.00017665922194113804
-0.0024212727316110178   -0.007923761831568326   -0.00016785840491946079
-0.0027724280155350216   -0.006827971596549762   -0.0001305892681587937
-0.0024506562118711984   -0.007919952828980338   -0.00019543754198845349
-0.001886880154843538   -0.007957633810497479   -0.00017665922194113804
-0.0027724280155350216   -0.006827971596549762   -0.0001305892681587937
-0.002128170438649897   -0.006854753671420238   -0.0001361434866226162
-0.002127212514433608   -0.0068552997819701054   -0.00015127122338677218
-0.001886880154843538   -0.007957633810497479   -0.00017665922194113804
-0.0027724280155350216   -0.006827971596549762   -0.0001305892681587937
-0.002127212514433608   -0.0068552997819701054   -0.00015127122338677218
-0.0024506562118711984   -0.007919952828980338   -0.00019543754198845349
0.00043102373913628337   -0.006898348626629886   -8.095621421787516e-05
0.0005471244695432775   -0.005649650102280602   -4.248859407104436e-05
-0.00022819597110828845   -0.006906389457142549   -0.0001133693775016387
0.00043926563806545056   -0.006881353831125483   -9.302545837217232e-05
0.0005471244695432775   -0.005649650102280602   -4.248859407104436e-05
-0.00019425987137521332   -0.005650701990045323   -7.22743934646667e-05
-0.00022819597110828845   -0.006906389457142549   -0.0001133693775016387
-0.000199997091864977   -0.005636994034356359   -7.33463158273153e-05
0.00043926563806545056   -0.006881353831125483   -9.302545837217232e-05
-0.00023062199962183195   -0.006892097186127276   -0.00011754819002949357
-0.000199997091864977   -0.005636994034356359   -7.33463158273153e-05
-0.00022819597110828845   -0.006906389457142549   -0.0001133693775016387
0.00043926563806545056   -0.006881353831125483   -9.302545837217232e-05
-0.000199997091864977   -0.005636994034356359   -7.33463158273153e-05
0.0005470760566210598   -0.005633467129034706   -4.904904935993173e-05
0.0005471244695432775   -0.005649650102280602   -4.248859407104436e-05
0.00043926563806545056   -0.006881353831125483   -9.302545837217232e-05
-0.000199997091864977   -0.005636994034356359   -7.33463158273153e-05
0.0005471244695432775   -0.005649650102280602   -4.248859407104436e-05
-0.00022819597110828845   -0.006906389457142549   -0.0001133693775016387
0.00043926563806545056   -0.006881353831125483   -9.302545837217232e-05
0.0005470760566210598   -0.005633467129034706   -4.904904935993173e-05
-0.00023062199962183195   -0.006892097186127276   -0.00011754819002949357
0.0004427645162248042   -0.006869905847747678   -0.00010377049255357952
0.0005470760566210598   -0.005633467129034706   -4.904904935993173e-05
-0.000199997091864977   -0.005636994034356359   -7.33463158273153e-05
-0.00023062199962183195   -0.006892097186127276   -0.00011754819002949357
-0.00020638881647653897   -0.005625828236125786   -7.359430943063885e-05
0.0004427645162248042   -0.006869905847747678   -0.00010377049255357952
-0.00023308961348624752   -0.006881535994917575   -0.00012083494706676437
-0.00020638881647653897   -0.005625828236125786   -7.359430943063885e-05
-0.00023062199962183195   -0.006892097186127276   -0.00011754819002949357
0.0004427645162248042   -0.006869905847747678   -0.00010377049255357952
-0.00020638881647653897   -0.005625828236125786   -7.359430943063885e-05
0.000543480518856928   -0.005621296065097523   -5.4288655884188364e-05
0.0005470760566210598   -0.005633467129034706   -4.904904935993173e-05
0.0004427645162248042   -0.006869905847747678   -0.00010377049255357952
-0.00020638881647653897   -0.005625828236125786   -7.359430943063885e-05
0.0005470760566210598   -0.005633467129034706   -4.904904935993173e-05
-0.00023062199962183195   -0.006892097186127276   -0.00011754819002949357
0.0004427645162248042   -0.006869905847747678   -0.00010377049255357952
0.000543480518856928   -0.005621296065097523   -5.4288655884188364e-05
-0.00023308961348624752   -0.006881535994917575   -0.00012083494706676437
0.00044585156198316165   -0.006861656698892634   -0.00011325816571688096
0.000543480518856928   -0.005621296065097523   -5.4288655884188364e-05
-0.00020638881647653897   -0.005625828236125786   -7.359430943063885e-05
-0.00023308961348624752   -0.006881535994917575   -0.00012083494706676437
-0.0002146391652958888   -0.005616864060931597   -7.298588774276474e-05
0.00044585156198316165   -0.006861656698892634   -0.00011325816571688096
-0.0002379060902770586   -0.0068743191685428605   -0.00012325795863009343
-0.0002146391652958888   -0.005616864060931597   -7.298588774276474e-05
-0.00023308961348624752   -0.006881535994917575   -0.00012083494706676437
0.00044585156198316165   -0.006861656698892634   -0.00011325816571688096
-0.0002146391652958888   -0.005616864060931597   -7.298588774276474e-05
0.0005381522457348927   -0.0056107744277148295   -5.829998984584419e-05
0.000543480518856928   -0.005621296065097523   -5.4288655884188364e-05
0.00044585156198316165   -0.006861656698892634   -0.00011325816571688096
-0.0002146391652958888   -0.005616864060931597   -7.298588774276474e-05
0.000543480518856928   -0.005621296065097523   -5.4288655884188364e-05
-0.00023308961348624752   -0.006881535994917575   -0.00012083494706676437
-0.00022819597110828845   -0.006906389457142549   -0.0001133693775016387
-0.00019425987137521332   -0.005650701990045323   -7.22743934646667e-05
-0.0008620743252943104   -0.006903237908836751   -0.00013924900966066355
-0.00023062199962183195   -0.006892097186127276   -0.00011754819002949357
-0.00019425987137521332   -0.005650701990045323   -7.22743934646667e-05
-0.0009023908677520817   -0.005644259118632531   -9.593338739435372e-05
-0.0008620743252943104   -0.006903237908836751   -0.00013924900966066355
-0.0009091423396935067   -0.005633265614748989   -9.313433087071721e-05
-0.00023062199962183195   -0.006892097186127276   -0.00011754819002949357
-0.0008658813507844435   -0.0068916044464670135   -0.00013756761233295494
-0.0009091423396935067   -0.005633265614748989   -9.313433087071721e-05
-0.0008620743252943104   -0.006903237908836751   -0.00013924900966066355
-0.00023062199962183195   -0.006892097186127276   -0.00011754819002949357
-0.0009091423396935067   -0.005633265614748989   -9.313433087071721e-05
-0.000199997091864977   -0.005636994034356359   -7.33463158273153e-05
-0.00019425987137521332   -0.005650701990045323   -7.22743934646667e-05
-0.00023062199962183195   -0.006892097186127276   -0.00011754819002949357
-0.0009091423396935067   -0.005633265614748989   -9.313433087071721e-05
-0.00019425987137521332   -0.005650701990045323   -7.22743934646667e-05
-0.0008620743252943104   -0.006903237908836751   -0.00013924900966066355
-0.00023062199962183195   -0.006892097186127276   -0.00011754819002949357
-0.000199997091864977   -0.005636994034356359   -7.33463158273153e-05
-0.0008658813507844435   -0.0068916044464670135   -0.00013756761233295494
-0.00023308961348624752   -0.006881535994917575   -0.00012083494706676437
-0.000199997091864977   -0.005636994034356359   -7.33463158273153e-05
-0.0009091423396935067   -0.005633265614748989   -9.313433087071721e-05
-0.0008658813507844435   -0.0068916044464670135   -0.00013756761233295494
-0.0009160511971171447   -0.0056243393115242716   -8.946868342024572e-05
-0.00023308961348624752   -0.006881535994917575   -0.00012083494706676437
-0.0008697448107332364   -0.006883161041598018   -0.00013496008456568653
-0.0009160511971171447   -0.0056243393115242716   -8.946868342024572e-05
-0.0008658813507844435   -0.0068916044464670135   -0.00013756761233295494
-0.00023308961348624752   -0.006881535994917575   -0.00012083494706676437
-0.0009160511971171447   -0.0056243393115242716   -8.946868342024572e-05
-0.00020638881647653897   -0.005625828236125786   -7.359430943063885e-05
-0.000199997091864977   -0.005636994034356359   -7.33463158273153e-05
-0.00023308961348624752   -0.006881535994917575   -0.00012083494706676437
-0.0009160511971171447   -0.0056243393115242716   -8.946868342024572e-05
-0.000199997091864977   -0.005636994034356359   -7.33463158273153e-05
-0.0008658813507844435   -0.0068916044464670135   -0.00013756761233295494
-0.00023308961348624752   -0.006881535994917575   -0.00012083494706676437
-0.00020638881647653897   -0.005625828236125786   -7.359430943063885e-05
-0.0008697448107332364   -0.006883161041598018   -0.00013496008456568653
-0.0002379060902770586   -0.0068743191685428605   -0.00012325795863009343
-0.00020638881647653897   -0.005625828236125786   -7.359430943063885e-05
-0.0009160511971171447   -0.0056243393115242716   -8.946868342024572e-05
-0.0008697448107332364   -0.006883161041598018   -0.00013496008456568653
-0.0009235968240237411   -0.005617589095309186   -8.498663376214051e-05
-0.0002379060902770586   -0.0068743191685428605   -0.00012325795863009343
-0.0008742733779469431   -0.00687795782821379   -0.00013148090753696903
-0.0009235968240237411   -0.005617589095309186   -8.498663376214051e-05
-0.0008697448107332364   -0.006883161041598018   -0.00013496008456568653
-0.0002379060902770586   -0.0068743191685428605   -0.00012325795863009343
-0.0009235968240237411   -0.005617589095309186   -8.498663376214051e-05
-0.0002146391652958888   -0.005616864060931597   -7.298588774276474e-05
-0.00020638881647653897   -0.005625828236125786   -7.359430943063885e-05
-0.0002379060902770586   -0.0068743191685428605   -0.00012325795863009343
-0.0009235968240237411   -0.005617589095309186   -8.498663376214051e-05
-0.00020638881647653897   -0.005625828236125786   -7.359430943063885e-05
-0.0008697448107332364   -0.006883161041598018   -0.00013496008456568653
-0.0008620743252943104   -0.006903237908836751   -0.00013924900966066355
-0.0009023908677520817   -0.005644259118632531   -9.593338739435372e-05
-0.0014856851075705536   -0.006889804282645241   -0.00016101769184602885
-0.0008658813507844435   -0.0068916044464670135   -0.00013756761233295494
-0.0009023908677520817   -0.005644259118632531   -9.593338739435372e-05
-0.0015985975933655763   -0.005631401447624928   -0.00011537773985298506
-0.0014856851075705536   -0.006889804282645241   -0.00016101769184602885
-0.00160565905536771   -0.005622848172382764   -0.000108743245304537
-0.0008658813507844435   -0.0068916044464670135   -0.00013756761233295494
-0.00148988958557027   -0.006880522440903085   -0.00015352411115243889
-0.00160565905536771   -0.005622848172382764   -0.000108743245304537
-0.0014856851075705536   -0.006889804282645241   -0.00016101769184602885
-0.0008658813507844435   -0.0068916044464670135   -0.00013756761233295494
-0.00160565905536771   -0.005622848172382764   -0.000108743245304537
-0.0009091423396935067   -0.005633265614748989   -9.313433087071721e-05
-0.0009023908677520817   -0.005644259118632531   -9.593338739435372e-05
-0.0008658813507844435   -0.0068916044464670135   -0.00013756761233295494
-0.00160565905536771   -0.005622848172382764   -0.000108743245304537
-0.0009023908677520817   -0.005644259118632531   -9.593338739435372e-05
-0.0014856851075705536   -0.006889804282645241   -0.00016101769184602885
-0.0008658813507844435   -0.0068916044464670135   -0.00013756761233295494
-0.0009091423396935067   -0.005633265614748989   -9.313433087071721e-05
-0.00148988958557027   -0.006880522440903085   -0.00015352411115243889
-0.0008697448107332364   -0.006883161041598018   -0.00013496008456568653
-0.0009091423396935067   -0.005633265614748989   -9.313433087071721e-05
-0.00160565905536771   -0.005622848172382764   -0.000108743245304537
-0.00148988958557027   -0.006880522440903085   -0.00015352411115243889
-0.0016120126117335576   -0.005616347767122398   -0.00010126541299047801
-0.0008697448107332364   -0.006883161041598018   -0.00013496008456568653
-0.0014933047837364724   -0.006874401643644905   -0.00014512546985052198
-0.0016120126117335576   -0.005616347767122398   -0.00010126541299047801
-0.00148988958557027   -0.006880522440903085   -0.00015352411115243889
-0.0008697448107332364   -0.006883161041598018   -0.00013496008456568653
-0.0016120126117335576   -0.005616347767122398   -0.00010126541299047801
-0.0009160511971171447   -0.0056243393115242716   -8.946868342024572e-05
-0.0009091423396935067   -0.005633265614748989   -9.313433087071721e-05
-0.0008697448107332364   -0.006883161041598018   -0.00013496008456568653
-0.0016120126117335576   -0.005616347767122398   -0.00010126541299047801
-0.0009091423396935067   -0.005633265614748989   -9.313433087071721e-05
-0.00148988958557027   -0.006880522440903085   -0.00015352411115243889
-0.0008697448107332364   -0.006883161041598018   -0.00013496008456568653
-0.0009160511971171447   -0.0056243393115242716   -8.946868342024572e-05
-0.0014933047837364724   -0.006874401643644905   -0.00014512546985052198
-0.0008742733779469431   -0.00687795782821379   -0.00013148090753696903
-0.0009160511971171447   -0.0056243393115242716   -8.946868342024572e-05
-0.0016120126117335576   -0.005616347767122398   -0.00010126541299047801
-0.0014933047837364724   -0.006874401643644905   -0.00014512546985052198
-0.0016184335467449985   -0.0056119041434802685   -9.297275717358497e-05
-0.0008742733779469431   -0.00687795782821379   -0.00013148090753696903
-0.0014968416356183067   -0.00687142519361027   -0.00013584529272915415
-0.0016184335467449985   -0.0056119041434802685   -9.297275717358497e-05
-0.0014933047837364724   -0.006874401643644905   -0.00014512546985052198
-0.0008742733779469431   -0.00687795782821379   -0.00013148090753696903
-0.0016184335467449985   -0.0056119041434802685   -9.297275717358497e-05
-0.0009235968240237411   -0.005617589095309186   -8.498663376214051e-05
-0.0009160511971171447   -0.0056243393115242716   -8.946868342024572e-05
-0.0008742733779469431   -0.00687795782821379   -0.00013148090753696903
-0.0016184335467449985   -0.0056119041434802685   -9.297275717358497e-05
-0.0009160511971171447   -0.0056243393115242716   -8.946868342024572e-05
-0.0014933047837364724   -0.006874401643644905   -0.00014512546985052198
-0.0014856851075705536   -0.006889804282645241   -0.00016101769184602885
-0.0015985975933655763   -0.005631401447624928   -0.00011537773985298506
-0.0021240747173729255   -0.006866318360733232   -0.00017884134095429095
-0.00148988958557027   -0.006880522440903085   -0.00015352411115243889
-0.0015985975933655763   -0.005631401447624928   -0.00011537773985298506
-0.002308824798508235   -0.005611872456568378   -0.0001307114423141335
-0.0021240747173729255   -0.006866318360733232   -0.00017884134095429095
-0.002315278712352474   -0.005605751586233397   -0.00012020701457181677
-0.00148988958557027   -0.006880522440903085   -0.00015352411115243889
-0.002127379473108973   -0.006859288736677449   -0.00016544699831176596
-0.002315278712352474   -0.005605751586233397   -0.00012020701457181677
-0.0021240747173729255   -0.006866318360733232   -0.00017884134095429095
-0.00148988958557027   -0.006880522440903085   -0.00015352411115243889
-0.002315278712352474   -0.005605751586233397   -0.00012020701457181677
-0.00160565905536771   -0.005622848172382764   -0.000108743245304537
-0.0015985975933655763   -0.005631401447624928   -0.00011537773985298506
-0.00148988958557027   -0.006880522440903085   -0.00015352411115243889
-0.002315278712352474   -0.005605751586233397   -0.00012020701457181677
-0.0015985975933655763   -0.005631401447624928   -0.00011537773985298506
-0.0021240747173729255   -0.006866318360733232   -0.00017884134095429095
-0.00148988958557027   -0.006880522440903085   -0.00015352411115243889
-0.00160565905536771   -0.005622848172382764   -0.000108743245304537
-0.002127379473108973   -0.006859288736677449   -0.00016544699831176596
-0.0014933047837364724   -0.006874401643644905   -0.00014512546985052198
-0.00160565905536771   -0.005622848172382764   -0.000108743245304537
-0.002315278712352474   -0.005605751586233397   -0.00012020701457181677
-0.002127379473108973   -0.006859288736677449   -0.00016544699831176596
-0.0023187991627807683   -0.005601503332420356   -0.00010896490322178435
-0.0014933047837364724   -0.006874401643644905   -0.00014512546985052198
-0.002127212514433608   -0.0068552997819701054   -0.00015127122338677218
-0.0023187991627807683   -0.005601503332420356   -0.00010896490322178435
-0.002127379473108973   -0.006859288736677449   -0.00016544699831176596
-0.0014933047837364724   -0.006874401643644905   -0.00014512546985052198
-0.0023187991627807683   -0.005601503332420356   -0.00010896490322178435
-0.0016120126117335576   -0.005616347767122398   -0.00010126541299047801
-0.00160565905536771   -0.005622848172382764   -0.000108743245304537
-0.0014933047837364724   -0.006874401643644905   -0.00014512546985052198
-0.0023187991627807683   -0.005601503332420356   -0.00010896490322178435
-0.00160565905536771   -0.005622848172382764   -0.000108743245304537
-0.002127379473108973   -0.006859288736677449   -0.00016544699831176596
-0.0014933047837364724   -0.006874401643644905   -0.00014512546985052198
-0.0016120126117335576   -0.005616347767122398   -0.00010126541299047801
-0.002127212514433608   -0.0068552997819701054   -0.00015127122338677218
-0.0014968416356183067   -0.00687142519361027   -0.00013584529272915415
-0.0016120126117335576   -0.005616347767122398   -0.00010126541299047801
-0.0023187991627807683   -0.005601503332420356   -0.00010896490322178435
-0.002127212514433608   -0.0068552997819701054   -0.00015127122338677218
-0.0023228682432684237   -0.005599509504141956   -9.683649650568229e-05
-0.0014968416356183067   -0.00687142519361027   -0.00013584529272915415
-0.002128170438649897   -0.006854753671420238   -0.0001361434866226162
-0.0023228682432684237   -0.005599509504141956   -9.683649650568229e-05
-0.002127212514433608   -0.0068552997819701054   -0.00015127122338677218
-0.0014968416356183067   -0.00687142519361027   -0.00013584529272915415
-0.0023228682432684237   -0.005599509504141956   -9.683649650568229e-05
-0.0016184335467449985   -0.0056119041434802685   -9.297275717358497e-05
-0.0016120126117335576   -0.005616347767122398   -0.00010126541299047801
-0.0014968416356183067   -0.00687142519361027   -0.00013584529272915415
-0.0023228682432684237   -0.005599509504141956   -9.683649650568229e-05
-0.0016120126117335576   -0.005616347767122398   -0.00010126541299047801
-0.002127212514433608   -0.0068552997819701054   -0.00015127122338677218
-0.0021240747173729255   -0.006866318360733232   -0.00017884134095429095
-0.002308824798508235   -0.005611872456568378   -0.0001307114423141335
-0.00282122909136766   -0.006834812137018183   -0.00019410571828486363
-0.002127379473108973   -0.006859288736677449   -0.00016544699831176596
-0.002308824798508235   -0.005611872456568378   -0.0001307114423141335
-0.0030729351147175785   -0.005587177921373313   -0.000142550750894833
-0.00282122909136766   -0.006834812137018183   -0.00019410571828486363
-0.0030656797587128087   -0.0055822366824530185   -0.00012814619596433305
-0.002127379473108973   -0.006859288736677449   -0.00016544699831176596
-0.0028058064155678975   -0.006828382786102486   -0.0001742535596236205
-0.0030656797587128087   -0.0055822366824530185   -0.00012814619596433305
-0.00282122909136766   -0.006834812137018183   -0.00019410571828486363
-0.002127379473108973   -0.006859288736677449   -0.00016544699831176596
-0.0030656797587128087   -0.0055822366824530185   -0.00012814619596433305
-0.002315278712352474   -0.005605751586233397   -0.00012020701457181677
-0.002308824798508235   -0.005611872456568378   -0.0001307114423141335
-0.002127379473108973   -0.006859288736677449   -0.00016544699831176596
-0.0030656797587128087   -0.0055822366824530185   -0.00012814619596433305
-0.002308824798508235   -0.005611872456568378   -0.0001307114423141335
-0.00282122909136766   -0.006834812137018183   -0.00019410571828486363
-0.002127379473108973   -0.006859288736677449   -0.00016544699831176596
-0.002315278712352474   -0.005605751586233397   -0.00012020701457181677
-0.0028058064155678975   -0.006828382786102486   -0.0001742535596236205
-0.002127212514433608   -0.0068552997819701054   -0.00015127122338677218
-0.002315278712352474   -0.005605751586233397   -0.00012020701457181677
-0.0030656797587128087   -0.0055822366824530185   -0.00012814619596433305
-0.0028058064155678975   -0.006828382786102486   -0.0001742535596236205
-0.0030597393640433984   -0.005579057269669485   -0.00011238662671690705
-0.002127212514433608   -0.0068552997819701054   -0.00015127122338677218
-0.00279293017019514   -0.0068253082558333575   -0.00015302265490387663
-0.0030597393640433984   -0.005579057269669485   -0.00011238662671690705
-0.0028058064155678975   -0.006828382786102486   -0.0001742535596236205
-0.002127212514433608   -0.0068552997819701054   -0.00015127122338677218
-0.0030597393640433984   -0.005579057269669485   -0.00011238662671690705
-0.0023187991627807683   -0.005601503332420356   -0.00010896490322178435
-0.002315278712352474   -0.005605751586233397   -0.00012020701457181677
-0.002127212514433608   -0.0068552997819701054   -0.00015127122338677218
-0.0030597393640433984   -0.005579057269669485   -0.00011238662671690705
-0.002315278712352474   -0.005605751586233397   -0.00012020701457181677
-0.0028058064155678975   -0.006828382786102486   -0.0001742535596236205
-0.002127212514433608   -0.0068552997819701054   -0.00015127122338677218
-0.0023187991627807683   -0.005601503332420356   -0.00010896490322178435
-0.00279293017019514   -0.0068253082558333575   -0.00015302265490387663
-0.002128170438649897   -0.006854753671420238   -0.0001361434866226162
-0.0023187991627807683   -0.005601503332420356   -0.00010896490322178435
-0.0030597393640433984   -0.005579057269669485   -0.00011238662671690705
-0.00279293017019514   -0.0068253082558333575   -0.00015302265490387663
-0.0030474315965067287   -0.0055801060946554515   -9.54240451213486e-05
-0.002128170438649897   -0.006854753671420238   -0.0001361434866226162
-0.0027724280155350216   -0.006827971596549762   -0.0001305892681587937
-0.0030474315965067287   -0.0055801060946554515   -9.54240451213486e-05
-0.00279293017019514   -0.0068253082558333575   -0.00015302265490387663
-0.002128170438649897   -0.006854753671420238   -0.0001361434866226162
-0.0030474315965067287   -0.0055801060946554515   -9.54240451213486e-05
-0.0023228682432684237   -0.005599509504141956   -9.683649650568229e-05
-0.0023187991627807683   -0.005601503332420356   -0.00010896490322178435
-0.002128170438649897   -0.006854753671420238   -0.0001361434866226162
-0.0030474315965067287   -0.0055801060946554515   -9.54240451213486e-05
-0.0023187991627807683   -0.005601503332420356   -0.00010896490322178435
-0.00279293017019514   -0.0068253082558333575   -0.00015302265490387663
0.0005471244695432775   -0.005649650102280602   -4.248859407104436e-05
0.0005840666846790725   -0.004297230410236013   -9.054082117801879e-06
-0.00019425987137521332   -0.005650701990045323   -7.22743934646667e-05
0.0005470760566210598   -0.005633467129034706   -4.904904935993173e-05
0.0005840666846790725   -0.004297230410236013   -9.054082117801879e-06
-0.00020842834782106053   -0.004291367369402652   -3.528515865022625e-05
-0.00019425987137521332   -0.005650701990045323   -7.22743934646667e-05
-0.00021671983611631435   -0.004278435173322821   -3.312616885632291e-05
0.0005470760566210598   -0.005633467129034706   -4.904904935993173e-05
-0.000199997091864977   -0.005636994034356359   -7.33463158273153e-05
-0.00021671983611631435   -0.004278435173322821   -3.312616885632291e-05
-0.00019425987137521332   -0.005650701990045323   -7.22743934646667e-05
0.0005470760566210598   -0.005633467129034706   -4.904904935993173e-05
-0.00021671983611631435   -0.004278435173322821   -3.312616885632291e-05
0.0005764162705475596   -0.004281980770157337   -9.825517831992797e-06
0.0005840666846790725   -0.004297230410236013   -9.054082117801879e-06
0.0005470760566210598   -0.005633467129034706   -4.904904935993173e-05
-0.00021671983611631435   -0.004278435173322821   -3.312616885632291e-05
0.0005840666846790725   -0.004297230410236013   -9.054082117801879e-06
-0.00019425987137521332   -0.005650701990045323   -7.22743934646667e-05
0.0005470760566210598   -0.005633467129034706   -4.904904935993173e-05
0.0005764162705475596   -0.004281980770157337   -9.825517831992797e-06
-0.000199997091864977   -0.005636994034356359   -7.33463158273153e-05
0.000543480518856928   -0.005621296065097523   -5.4288655884188364e-05
0.0005764162705475596   -0.004281980770157337   -9.825517831992797e-06
-0.00021671983611631435   -0.004278435173322821   -3.312616885632291e-05
-0.000199997091864977   -0.005636994034356359   -7.33463158273153e-05
-0.00022630199151011703   -0.004266683990114067   -3.019090524407457e-05
0.000543480518856928   -0.005621296065097523   -5.4288655884188364e-05
-0.00020638881647653897   -0.005625828236125786   -7.359430943063885e-05
-0.00022630199151011703   -0.004266683990114067   -3.019090524407457e-05
-0.000199997091864977   -0.005636994034356359   -7.33463158273153e-05
0.000543480518856928   -0.005621296065097523   -5.4288655884188364e-05
-0.00022630199151011703   -0.004266683990114067   -3.019090524407457e-05
0.000566132404752274   -0.0042690417372911755   -9.03059675102266e-06
0.0005764162705475596   -0.004281980770157337   -9.825517831992797e-06
0.000543480518856928   -0.005621296065097523   -5.4288655884188364e-05
-0.00022630199151011703   -0.004266683990114067   -3.019090524407457e-05
0.0005764162705475596   -0.004281980770157337   -9.825517831992797e-06
-0.000199997091864977   -0.005636994034356359   -7.33463158273153e-05
0.000543480518856928   -0.005621296065097523   -5.4288655884188364e-05
0.000566132404752274   -0.0042690417372911755   -9.03059675102266e-06
-0.00020638881647653897   -0.005625828236125786   -7.359430943063885e-05
0.0005381522457348927   -0.0056107744277148295   -5.829998984584419e-05
0.000566132404752274   -0.0042690417372911755   -9.03059675102266e-06
-0.00022630199151011703   -0.004266683990114067   -3.019090524407457e-05
-0.00020638881647653897   -0.005625828236125786   -7.359430943063885e-05
-0.0002372781441191222   -0.004255929698557838   -2.6288645214817446e-05
0.0005381522457348927   -0.0056107744277148295   -5.829998984584419e-05
-0.0002146391652958888   -0.005616864060931597   -7.298588774276474e-05
-0.0002372781441191222   -0.004255929698557838   -2.6288645214817446e-05
-0.00020638881647653897   -0.005625828236125786   -7.359430943063885e-05
0.0005381522457348927   -0.0056107744277148295   -5.829998984584419e-05
-0.0002372781441191222   -0.004255929698557838   -2.6288645214817446e-05
0.0005523408351678602   -0.004255853087099106   -6.734063043550739e-06
0.000566132404752274   -0.0042690417372911755   -9.03059675102266e-06
0.0005381522457348927   -0.0056107744277148295   -5.829998984584419e-05
-0.0002372781441191222   -0.004255929698557838   -2.6288645214817446e-05
0.000566132404752274   -0.0042690417372911755   -9.03059675102266e-06
-0.00020638881647653897   -0.005625828236125786   -7.359430943063885e-05
-0.00019425987137521332   -0.005650701990045323   -7.22743934646667e-05
-0.00020842834782106053   -0.004291367369402652   -3.528515865022625e-05
-0.0009023908677520817   -0.005644259118632531   -9.593338739435372e-05
-0.000199997091864977   -0.005636994034356359   -7.33463158273153e-05
-0.00020842834782106053   -0.004291367369402652   -3.528515865022625e-05
-0.000959049968624804   -0.004283392746606244   -5.652873110622629e-05
-0.0009023908677520817   -0.005644259118632531   -9.593338739435372e-05
-0.0009678014260404135   -0.004273001153775556   -5.2481280584683506e-05
-0.000199997091864977   -0.005636994034356359   -7.33463158273153e-05
-0.0009091423396935067   -0.005633265614748989   -9.313433087071721e-05
-0.0009678014260404135   -0.004273001153775556   -5.2481280584683506e-05
-0.0009023908677520817   -0.005644259118632531   -9.593338739435372e-05
-0.000199997091864977   -0.005636994034356359   -7.33463158273153e-05
-0.0009678014260404135   -0.004273001153775556   -5.2481280584683506e-05
-0.00021671983611631435   -0.004278435173322821   -3.312616885632291e-05
-0.00020842834782106053   -0.004291367369402652   -3.528515865022625e-05
-0.000199997091864977   -0.005636994034356359   -7.33463158273153e-05
-0.0009678014260404135   -0.004273001153775556   -5.2481280584683506e-05
-0.00020842834782106053   -0.004291367369402652   -3.528515865022625e-05
-0.0009023908677520817   -0.005644259118632531   -9.593338739435372e-05
-0.000199997091864977   -0.005636994034356359   -7.33463158273153e-05
-0.00021671983611631435   -0.004278435173322821   -3.312616885632291e-05
-0.0009091423396935067   -0.005633265614748989   -9.313433087071721e-05
-0.00020638881647653897   -0.005625828236125786   -7.359430943063885e-05
-0.00021671983611631435   -0.004278435173322821   -3.312616885632291e-05
-0.0009678014260404135   -0.004273001153775556   -5.2481280584683506e-05
-0.0009091423396935067   -0.005633265614748989   -9.313433087071721e-05
-0.0009767837215762462   -0.004263516145114817   -4.767829078623827e-05
-0.00020638881647653897   -0.005625828236125786   -7.359430943063885e-05
-0.0009160511971171447   -0.0056243393115242716   -8.946868342024572e-05
-0.0009767837215762462   -0.004263516145114817   -4.767829078623827e-05
-0.0009091423396935067   -0.005633265614748989   -9.313433087071721e-05
-0.00020638881647653897   -0.005625828236125786   -7.359430943063885e-05
-0.0009767837215762462   -0.004263516145114817   -4.767829078623827e-05
-0.00022630199151011703   -0.004266683990114067   -3.019090524407457e-05
-0.00021671983611631435   -0.004278435173322821   -3.312616885632291e-05
-0.00020638881647653897   -0.005625828236125786   -7.359430943063885e-05
-0.0009767837215762462   -0.004263516145114817   -4.767829078623827e-05
-0.00021671983611631435   -0.004278435173322821   -3.312616885632291e-05
-0.0009091423396935067   -0.005633265614748989   -9.313433087071721e-05
-0.00020638881647653897   -0.005625828236125786   -7.359430943063885e-05
-0.00022630199151011703   -0.004266683990114067   -3.019090524407457e-05
-0.0009160511971171447   -0.0056243393115242716   -8.946868342024572e-05
-0.0002146391652958888   -0.005616864060931597   -7.298588774276474e-05
-0.00022630199151011703   -0.004266683990114067   -3.019090524407457e-05
-0.0009767837215762462   -0.004263516145114817   -4.767829078623827e-05
-0.0009160511971171447   -0.0056243393115242716   -8.946868342024572e-05
-0.000986391155566144   -0.004255133050179931   -4.212381501129815e-05
-0.0002146391652958888   -0.005616864060931597   -7.298588774276474e-05
-0.0009235968240237411   -0.005617589095309186   -8.498663376214051e-05
-0.000986391155566144   -0.004255133050179931   -4.212381501129815e-05
-0.0009160511971171447   -0.0056243393115242716   -8.946868342024572e-05
-0.0002146391652958888   -0.005616864060931597   -7.298588774276474e-05
-0.000986391155566144   -0.004255133050179931   -4.212381501129815e-05
-0.0002372781441191222   -0.004255929698557838   -2.6288645214817446e-05
-0.00022630199151011703   -0.004266683990114067   -3.019090524407457e-05
-0.0002146391652958888   -0.005616864060931597   -7.298588774276474e-05
-0.000986391155566144   -0.004255133050179931   -4.212381501129815e-05
-0.00022630199151011703   -0.004266683990114067   -3.019090524407457e-05
-0.0009160511971171447   -0.0056243393115242716   -8.946868342024572e-05
-0.0009023908677520817   -0.005644259118632531   -9.593338739435372e-05
-0.000959049968624804   -0.004283392746606244   -5.652873110622629e-05
-0.0015985975933655763   -0.005631401447624928   -0.00011537773985298506
-0.0009091423396935067   -0.005633265614748989   -9.313433087071721e-05
-0.000959049968624804   -0.004283392746606244   -5.652873110622629e-05
-0.0016968658419768798   -0.004273307129662466   -7.400180266091875e-05
-0.0015985975933655763   -0.005631401447624928   -0.00011537773985298506
-0.0017056686276526458   -0.004265207259273158   -6.811237954956197e-05
-0.0009091423396935067   -0.005633265614748989   -9.313433087071721e-05
-0.00160565905536771   -0.005622848172382764   -0.000108743245304537
-0.0017056686276526458   -0.004265207259273158   -6.811237954956197e-05
-0.0015985975933655763   -0.005631401447624928   -0.00011537773985298506
-0.0009091423396935067   -0.005633265614748989   -9.313433087071721e-05
-0.0017056686276526458   -0.004265207259273158   -6.811237954956197e-05
-0.0009678014260404135   -0.004273001153775556   -5.2481280584683506e-05
-0.000959049968624804   -0.004283392746606244   -5.652873110622629e-05
-0.0009091423396935067   -0.005633265614748989   -9.313433087071721e-05
-0.0017056686276526458   -0.004265207259273158   -6.811237954956197e-05
-0.000959049968624804   -0.004283392746606244   -5.652873110622629e-05
-0.0015985975933655763   -0.005631401447624928   -0.00011537773985298506
-0.0009091423396935067   -0.005633265614748989   -9.313433087071721e-05
-0.0009678014260404135   -0.004273001153775556   -5.2481280584683506e-05
-0.00160565905536771   -0.005622848172382764   -0.000108743245304537
-0.0009160511971171447   -0.0056243393115242716   -8.946868342024572e-05
-0.0009678014260404135   -0.004273001153775556   -5.2481280584683506e-05
-0.0017056686276526458   -0.004265207259273158   -6.811237954956197e-05
-0.00160565905536771   -0.005622848172382764   -0.000108743245304537
-0.0017138692787120279   -0.004258044900886862   -6.14925041396337e-05
-0.0009160511971171447   -0.0056243393115242716   -8.946868342024572e-05
-0.0016120126117335576   -0.005616347767122398   -0.00010126541299047801
-0.0017138692787120279   -0.004258044900886862   -6.14925041396337e-05
-0.00160565905536771   -0.005622848172382764   -0.000108743245304537
-0.0009160511971171447   -0.0056243393115242716   -8.946868342024572e-05
-0.0017138692787120279   -0.004258044900886862   -6.14925041396337e-05
-0.0009767837215762462   -0.004263516145114817   -4.767829078623827e-05
-0.0009678014260404135   -0.004273001153775556   -5.2481280584683506e-05
-0.0009160511971171447   -0.0056243393115242716   -8.946868342024572e-05
-0.0017138692787120279   -0.004258044900886862   -6.14925041396337e-05
-0.0009678014260404135   -0.004273001153775556   -5.2481280584683506e-05
-0.00160565905536771   -0.005622848172382764   -0.000108743245304537
-0.0009160511971171447   -0.0056243393115242716   -8.946868342024572e-05
-0.0009767837215762462   -0.004263516145114817   -4.767829078623827e-05
-0.0016120126117335576   -0.005616347767122398   -0.00010126541299047801
-0.0009235968240237411   -0.005617589095309186   -8.498663376214051e-05
-0.0009767837215762462   -0.004263516145114817   -4.767829078623827e-05
-0.0017138692787120279   -0.004258044900886862   -6.14925041396337e-05
-0.0016120126117335576   -0.005616347767122398   -0.00010126541299047801
-0.0017221003370078932   -0.004251832425935535   -5.417471789328016e-05
-0.0009235968240237411   -0.005617589095309186   -8.498663376214051e-05
-0.0016184335467449985   -0.0056119041434802685   -9.297275717358497e-05
-0.0017221003370078932   -0.004251832425935535   -5.417471789328016e-05
-0.0016120126117335576   -0.005616347767122398   -0.00010126541299047801
-0.0009235968240237411   -0.005617589095309186   -8.498663376214051e-05
-0.0017221003370078932   -0.004251832425935535   -5.417471789328016e-05
-0.000986391155566144   -0.004255133050179931   -4.212381501129815e-05
-0.0009767837215762462   -0.004263516145114817   -4.767829078623827e-05
-0.0009235968240237411   -0.005617589095309186   -8.498663376214051e-05
-0.0017221003370078932   -0.004251832425935535   -5.417471789328016e-05
-0.0009767837215762462   -0.004263516145114817   -4.767829078623827e-05
-0.0016120126117335576   -0.005616347767122398   -0.00010126541299047801
-0.0015985975933655763   -0.005631401447624928   -0.00011537773985298506
-0.0016968658419768798   -0.004273307129662466   -7.400180266091875e-05
-0.002308824798508235   -0.005611872456568378   -0.0001307114423141335
-0.00160565905536771   -0.005622848172382764   -0.000108743245304537
-0.0016968658419768798   -0.004273307129662466   -7.400180266091875e-05
-0.0024483650673593673   -0.004259333579590226   -8.754626666538821e-05
-0.002308824798508235   -0.005611872456568378   -0.0001307114423141335
-0.0024567489246817027   -0.004253637170824191   -7.983924461876924e-05
-0.00160565905536771   -0.005622848172382764   -0.000108743245304537
-0.002315278712352474   -0.005605751586233397   -0.00012020701457181677
-0.0024567489246817027   -0.004253637170824191   -7.983924461876924e-05
-0.002308824798508235   -0.005611872456568378   -0.0001307114423141335
-0.00160565905536771   -0.005622848172382764   -0.000108743245304537
-0.0024567489246817027   -0.004253637170824191   -7.983924461876924e-05
-0.0017056686276526458   -0.004265207259273158   -6.811237954956197e-05
-0.0016968658419768798   -0.004273307129662466   -7.400180266091875e-05
-0.00160565905536771   -0.005622848172382764   -0.000108743245304537
-0.0024567489246817027   -0.004253637170824191   -7.983924461876924e-05
-0.0016968658419768798   -0.004273307129662466   -7.400180266091875e-05
-0.002308824798508235   -0.005611872456568378   -0.0001307114423141335
-0.00160565905536771   -0.005622848172382764   -0.000108743245304537
-0.0017056686276526458   -0.004265207259273158   -6.811237954956197e-05
-0.002315278712352474   -0.005605751586233397   -0.00012020701457181677
-0.0016120126117335576   -0.005616347767122398   -0.00010126541299047801
-0.0017056686276526458   -0.004265207259273158   -6.811237954956197e-05
-0.0024567489246817027   -0.004253637170824191   -7.983924461876924e-05
-0.002315278712352474   -0.005605751586233397   -0.00012020701457181677
-0.0024628367288671337   -0.004248644491462586   -7.15051953906709e-05
-0.0016120126117335576   -0.005616347767122398   -0.00010126541299047801
-0.0023187991627807683   -0.005601503332420356   -0.00010896490322178435
-0.0024628367288671337   -0.004248644491462586   -7.15051953906709e-05
-0.002315278712352474   -0.005605751586233397   -0.00012020701457181677
-0.0016120126117335576   -0.005616347767122398   -0.00010126541299047801
-0.0024628367288671337   -0.004248644491462586   -7.15051953906709e-05
-0.0017138692787120279   -0.004258044900886862   -6.14925041396337e-05
-0.0017056686276526458   -0.004265207259273158   -6.811237954956197e-05
-0.0016120126117335576   -0.005616347767122398   -0.00010126541299047801
-0.0024628367288671337   -0.004248644491462586   -7.15051953906709e-05
-0.0017056686276526458   -0.004265207259273158   -6.811237954956197e-05
-0.002315278712352474   -0.005605751586233397   -0.00012020701457181677
-0.0016120126117335576   -0.005616347767122398   -0.00010126541299047801
-0.0017138692787120279   -0.004258044900886862   -6.14925041396337e-05
-0.0023187991627807683   -0.005601503332420356   -0.00010896490322178435
-0.0016184335467449985   -0.0056119041434802685   -9.297275717358497e-05
-0.0017138692787120279   -0.004258044900886862   -6.14925041396337e-05
-0.0024628367288671337   -0.004248644491462586   -7.15051953906709e-05
-0.0023187991627807683   -0.005601503332420356   -0.00010896490322178435
-0.0024689407897584134   -0.004244675911890993   -6.239555290419755e-05
-0.0016184335467449985   -0.0056119041434802685   -9.297275717358497e-05
-0.0023228682432684237   -0.005599509504141956   -9.683649650568229e-05
-0.0024689407897584134   -0.004244675911890993   -6.239555290419755e-05
-0.0023187991627807683   -0.005601503332420356   -0.00010896490322178435
-0.0016184335467449985   -0.0056119041434802685   -9.297275717358497e-05
-0.0024689407897584134   -0.004244675911890993   -6.239555290419755e-05
-0.0017221003370078932   -0.004251832425935535   -5.417471789328016e-05
-0.0017138692787120279   -0.004258044900886862   -6.14925041396337e-05
-0.0016184335467449985   -0.0056119041434802685   -9.297275717358497e-05
-0.0024689407897584134   -0.004244675911890993   -6.239555290419755e-05
-0.0017138692787120279   -0.004258044900886862   -6.14925041396337e-05
-0.0023187991627807683   -0.005601503332420356   -0.00010896490322178435
-0.002308824798508235   -0.005611872456568378   -0.0001307114423141335
-0.0024483650673593673   -0.004259333579590226   -8.754626666538821e-05
-0.0030729351147175785   -0.005587177921373313   -0.000142550750894833
-0.002315278712352474   -0.005605751586233397   -0.00012020701457181677
-0.0024483650673593673   -0.004259333579590226   -8.754626666538821e-05
-0.003247467822910668   -0.0042422362353498316   -9.681323017801948e-05
-0.0030729351147175785   -0.005587177921373313   -0.000142550750894833
-0.0032472028918180897   -0.0042381302994409   -8.780889984881408e-05
-0.002315278712352474   -0.005605751586233397   -0.00012020701457181677
-0.0030656797587128087   -0.0055822366824530185   -0.00012814619596433305
-0.0032472028918180897   -0.0042381302994409   -8.780889984881408e-05
-0.0030729351147175785   -0.005587177921373313   -0.000142550750894833
-0.002315278712352474   -0.005605751586233397   -0.00012020701457181677
-0.0032472028918180897   -0.0042381302994409   -8.780889984881408e-05
-0.0024567489246817027   -0.004253637170824191   -7.983924461876924e-05
-0.0024483650673593673   -0.004259333579590226   -8.754626666538821e-05
-0.002315278712352474   -0.005605751586233397   -0.00012020701457181677
-0.0032472028918180897   -0.0042381302994409   -8.780889984881408e-05
-0.0024483650673593673   -0.004259333579590226   -8.754626666538821e-05
-0.0030729351147175785   -0.005587177921373313   -0.000142550750894833
-0.002315278712352474   -0.005605751586233397   -0.00012020701457181677
-0.0024567489246817027   -0.004253637170824191   -7.983924461876924e-05
-0.0030656797587128087   -0.0055822366824530185   -0.00012814619596433305
-0.0023187991627807683   -0.005601503332420356   -0.00010896490322178435
-0.0024567489246817027   -0.004253637170824191   -7.983924461876924e-05
-0.0032472028918180897   -0.0042381302994409   -8.780889984881408e-05
-0.0030656797587128087   -0.0055822366824530185   -0.00012814619596433305
-0.003247188711945298   -0.004234258823916746   -7.756142424083251e-05
-0.0023187991627807683   -0.005601503332420356   -0.00010896490322178435
-0.0030597393640433984   -0.005579057269669485   -0.00011238662671690705
-0.003247188711945298   -0.004234258823916746   -7.756142424083251e-05
-0.0030656797587128087   -0.0055822366824530185   -0.00012814619596433305
-0.0023187991627807683   -0.005601503332420356   -0.00010896490322178435
-0.003247188711945298   -0.004234258823916746   -7.756142424083251e-05
-0.0024628367288671337   -0.004248644491462586   -7.15051953906709e-05
-0.0024567489246817027   -0.004253637170824191   -7.983924461876924e-05
-0.0023187991627807683   -0.005601503332420356   -0.00010896490322178435
-0.003247188711945298   -0.004234258823916746   -7.756142424083251e-05
-0.0024567489246817027   -0.004253637170824191   -7.983924461876924e-05
-0.0030656797587128087   -0.0055822366824530185   -0.00012814619596433305
-0.0023187991627807683   -0.005601503332420356   -0.00010896490322178435
-0.0024628367288671337   -0.004248644491462586   -7.15051953906709e-05
-0.0030597393640433984   -0.005579057269669485   -0.00011238662671690705
-0.0023228682432684237   -0.005599509504141956   -9.683649650568229e-05
-0.0024628367288671337   -0.004248644491462586   -7.15051953906709e-05
-0.003247188711945298   -0.004234258823916746   -7.756142424083251e-05
-0.0030597393640433984   -0.005579057269669485   -0.00011238662671690705
-0.0032422605006311644   -0.0042330073824350676   -6.620725211149897e-05
-0.0023228682432684237   -0.005599509504141956   -9.683649650568229e-05
-0.0030474315965067287   -0.0055801060946554515   -9.54240451213486e-05
-0.0032422605006311644   -0.0042330073824350676   -6.620725211149897e-05
-0.0030597393640433984   -0.005579057269669485   -0.00011238662671690705
-0.0023228682432684237   -0.005599509504141956   -9.683649650568229e-05
-0.0032422605006311644   -0.0042330073824350676   -6.620725211149897e-05
-0.0024689407897584134   -0.004244675911890993   -6.239555290419755e-05
-0.0024628367288671337   -0.004248644491462586   -7.15051953906709e-05
-0.0023228682432684237   -0.005599509504141956   -9.683649650568229e-05
-0.0032422605006311644   -0.0042330073824350676   -6.620725211149897e-05
-0.0024628367288671337   -0.004248644491462586   -7.15051953906709e-05
-0.0030597393640433984   -0.005579057269669485   -0.00011238662671690705
0.0005840666846790725   -0.004297230410236013   -9.054082117801879e-06
0.0005359866156232794   -0.002888483910569702   1.4192914481334344e-05
-0.00020842834782106053   -0.004291367369402652   -3.528515865022625e-05
0.0005764162705475596   -0.004281980770157337   -9.825517831992797e-06
0.0005359866156232794   -0.002888483910569702   1.4192914481334344e-05
-0.00027120823693390316   -0.002876295913438707   -5.494284550411334e-06
-0.00020842834782106053   -0.004291367369402652   -3.528515865022625e-05
-0.0002816272548083068   -0.0028648873367076613   -2.1560358886049213e-07
0.0005764162705475596   -0.004281980770157337   -9.825517831992797e-06
-0.00021671983611631435   -0.004278435173322821   -3.312616885632291e-05
-0.0002816272548083068   -0.0028648873367076613   -2.1560358886049213e-07
-0.00020842834782106053   -0.004291367369402652   -3.528515865022625e-05
0.0005764162705475596   -0.004281980770157337   -9.825517831992797e-06
-0.0002816272548083068   -0.0028648873367076613   -2.1560358886049213e-07
0.0005203918554143139   -0.0028741872870076553   2.0066612341720153e-05
0.0005359866156232794   -0.002888483910569702   1.4192914481334344e-05
0.0005764162705475596   -0.004281980770157337   -9.825517831992797e-06
-0.0002816272548083068   -0.0028648873367076613   -2.1560358886049213e-07
0.0005359866156232794   -0.002888483910569702   1.4192914481334344e-05
-0.00020842834782106053   -0.004291367369402652   -3.528515865022625e-05
0.0005764162705475596   -0.004281980770157337   -9.825517831992797e-06
0.0005203918554143139   -0.0028741872870076553   2.0066612341720153e-05
-0.00021671983611631435   -0.004278435173322821   -3.312616885632291e-05
0.000566132404752274   -0.0042690417372911755   -9.03059675102266e-06
0.0005203918554143139   -0.0028741872870076553   2.0066612341720153e-05
-0.0002816272548083068   -0.0028648873367076613   -2.1560358886049213e-07
-0.00021671983611631435   -0.004278435173322821   -3.312616885632291e-05
-0.0002939510198529595   -0.0028530228426347855   6.1096222822655246e-06
0.000566132404752274   -0.0042690417372911755   -9.03059675102266e-06
-0.00022630199151011703   -0.004266683990114067   -3.019090524407457e-05
-0.0002939510198529595   -0.0028530228426347855   6.1096222822655246e-06
-0.00021671983611631435   -0.004278435173322821   -3.312616885632291e-05
0.000566132404752274   -0.0042690417372911755   -9.03059675102266e-06
-0.0002939510198529595   -0.0028530228426347855   6.1096222822655246e-06
0.0005022629266020458   -0.00286041400718238   2.9133862229358177e-05
0.0005203918554143139   -0.0028741872870076553   2.0066612341720153e-05
0.000566132404752274   -0.0042690417372911755   -9.03059675102266e-06
-0.0002939510198529595   -0.0028530228426347855   6.1096222822655246e-06
0.0005203918554143139   -0.0028741872870076553   2.0066612341720153e-05
-0.00021671983611631435   -0.004278435173322821   -3.312616885632291e-05
0.000566132404752274   -0.0042690417372911755   -9.03059675102266e-06
0.0005022629266020458   -0.00286041400718238   2.9133862229358177e-05
-0.00022630199151011703   -0.004266683990114067   -3.019090524407457e-05
0.0005523408351678602   -0.004255853087099106   -6.734063043550739e-06
0.0005022629266020458   -0.00286041400718238   2.9133862229358177e-05
-0.0002939510198529595   -0.0028530228426347855   6.1096222822655246e-06
-0.00022630199151011703   -0.004266683990114067   -3.019090524407457e-05
-0.0003068582084875264   -0.002840584563164165   1.3489044384223075e-05
0.0005523408351678602   -0.004255853087099106   -6.734063043550739e-06
-0.0002372781441191222   -0.004255929698557838   -2.6288645214817446e-05
-0.0003068582084875264   -0.002840584563164165   1.3489044384223075e-05
-0.00022630199151011703   -0.004266683990114067   -3.019090524407457e-05
0.0005523408351678602   -0.004255853087099106   -6.734063043550739e-06
-0.0003068582084875264   -0.002840584563164165   1.3489044384223075e-05
0.00048004364650100435   -0.002843329419276749   3.9220734255894774e-05
0.0005022629266020458   -0.00286041400718238   2.9133862229358177e-05
0.0005523408351678602   -0.004255853087099106   -6.734063043550739e-06
-0.0003068582084875264   -0.002840584563164165   1.3489044384223075e-05
0.0005022629266020458   -0.00286041400718238   2.9133862229358177e-05
-0.00022630199151011703   -0.004266683990114067   -3.019090524407457e-05
-0.00020842834782106053   -0.004291367369402652   -3.528515865022625e-05
-0.00027120823693390316   -0.002876295913438707   -5.494284550411334e-06
-0.000959049968624804   -0.004283392746606244   -5.652873110622629e-05
-0.00021671983611631435   -0.004278435173322821   -3.312616885632291e-05
-0.00027120823693390316   -0.002876295913438707   -5.494284550411334e-06
-0.0010289265033299924   -0.0028730844573454624   -2.395998867297832e-05
-0.000959049968624804   -0.004283392746606244   -5.652873110622629e-05
-0.0010386112479600282   -0.0028635170021164133   -1.871008657720374e-05
-0.00021671983611631435   -0.004278435173322821   -3.312616885632291e-05
-0.0009678014260404135   -0.004273001153775556   -5.2481280584683506e-05
-0.0010386112479600282   -0.0028635170021164133   -1.871008657720374e-05
-0.000959049968624804   -0.004283392746606244   -5.652873110622629e-05
-0.00021671983611631435   -0.004278435173322821   -3.312616885632291e-05
-0.0010386112479600282   -0.0028635170021164133   -1.871008657720374e-05
-0.0002816272548083068   -0.0028648873367076613   -2.1560358886049213e-07
-0.00027120823693390316   -0.002876295913438707   -5.494284550411334e-06
-0.00021671983611631435   -0.004278435173322821   -3.312616885632291e-05
-0.0010386112479600282   -0.0028635170021164133   -1.871008657720374e-05
-0.00027120823693390316   -0.002876295913438707   -5.494284550411334e-06
-0.000959049968624804   -0.004283392746606244   -5.652873110622629e-05
-0.00021671983611631435   -0.004278435173322821   -3.312616885632291e-05
-0.0002816272548083068   -0.0028648873367076613   -2.1560358886049213e-07
-0.0009678014260404135   -0.004273001153775556   -5.2481280584683506e-05
-0.00022630199151011703   -0.004266683990114067   -3.019090524407457e-05
-0.0002816272548083068   -0.0028648873367076613   -2.1560358886049213e-07
-0.0010386112479600282   -0.0028635170021164133   -1.871008657720374e-05
-0.0009678014260404135   -0.004273001153775556   -5.2481280584683506e-05
-0.0010486961856255076   -0.002853633601268584   -1.287463205808003e-05
-0.00022630199151011703   -0.004266683990114067   -3.019090524407457e-05
-0.0009767837215762462   -0.004263516145114817   -4.767829078623827e-05
-0.0010486961856255076   -0.002853633601268584   -1.287463205808003e-05
-0.0009678014260404135   -0.004273001153775556   -5.2481280584683506e-05
-0.00022630199151011703   -0.004266683990114067   -3.019090524407457e-05
-0.0010486961856255076   -0.002853633601268584   -1.287463205808003e-05
-0.0002939510198529595   -0.0028530228426347855   6.1096222822655246e-06
-0.0002816272548083068   -0.0028648873367076613   -2.1560358886049213e-07
-0.00022630199151011703   -0.004266683990114067   -3.019090524407457e-05
-0.0010486961856255076   -0.002853633601268584   -1.287463205808003e-05
-0.0002816272548083068   -0.0028648873367076613   -2.1560358886049213e-07
-0.0009678014260404135   -0.004273001153775556   -5.2481280584683506e-05
-0.00022630199151011703   -0.004266683990114067   -3.019090524407457e-05
-0.0002939510198529595   -0.0028530228426347855   6.1096222822655246e-06
-0.0009767837215762462   -0.004263516145114817   -4.767829078623827e-05
-0.0002372781441191222   -0.004255929698557838   -2.6288645214817446e-05
-0.0002939510198529595   -0.0028530228426347855   6.1096222822655246e-06
-0.0010486961856255076   -0.002853633601268584   -1.287463205808003e-05
-0.0009767837215762462   -0.004263516145114817   -4.767829078623827e-05
-0.001059262217145674   -0.0028437040038214547   -6.3514209019561174e-06
-0.0002372781441191222   -0.004255929698557838   -2.6288645214817446e-05
-0.000986391155566144   -0.004255133050179931   -4.212381501129815e-05
-0.001059262217145674   -0.0028437040038214547   -6.3514209019561174e-06
-0.0009767837215762462   -0.004263516145114817   -4.767829078623827e-05
-0.0002372781441191222   -0.004255929698557838   -2.6288645214817446e-05
-0.001059262217145674   -0.0028437040038214547   -6.3514209019561174e-06
-0.0003068582084875264   -0.002840584563164165   1.3489044384223075e-05
-0.0002939510198529595   -0.0028530228426347855   6.1096222822655246e-06
-0.0002372781441191222   -0.004255929698557838   -2.6288645214817446e-05
-0.001059262217145674   -0.0028437040038214547   -6.3514209019561174e-06
-0.0002939510198529595   -0.0028530228426347855   6.1096222822655246e-06
-0.0009767837215762462   -0.004263516145114817   -4.767829078623827e-05
-0.000959049968624804   -0.004283392746606244   -5.652873110622629e-05
-0.0010289265033299924   -0.0028730844573454624   -2.395998867297832e-05
-0.0016968658419768798   -0.004273307129662466   -7.400180266091875e-05
-0.0009678014260404135   -0.004273001153775556   -5.2481280584683506e-05
-0.0010289265033299924   -0.0028730844573454624   -2.395998867297832e-05
-0.0017771519938923474   -0.002872110137699612   -4.033275904118826e-05
-0.0016968658419768798   -0.004273307129662466   -7.400180266091875e-05
-0.0017865414952977518   -0.002864002649742817   -3.503488768631549e-05
-0.0009678014260404135   -0.004273001153775556   -5.2481280584683506e-05
-0.0017056686276526458   -0.004265207259273158   -6.811237954956197e-05
-0.0017865414952977518   -0.002864002649742817   -3.503488768631549e-05
-0.0016968658419768798   -0.004273307129662466   -7.400180266091875e-05
-0.0009678014260404135   -0.004273001153775556   -5.2481280584683506e-05
-0.0017865414952977518   -0.002864002649742817   -3.503488768631549e-05
-0.0010386112479600282   -0.0028635170021164133   -1.871008657720374e-05
-0.0010289265033299924   -0.0028730844573454624   -2.395998867297832e-05
-0.0009678014260404135   -0.004273001153775556   -5.2481280584683506e-05
-0.0017865414952977518   -0.002864002649742817   -3.503488768631549e-05
-0.0010289265033299924   -0.0028730844573454624   -2.395998867297832e-05
-0.0016968658419768798   -0.004273307129662466   -7.400180266091875e-05
-0.0009678014260404135   -0.004273001153775556   -5.2481280584683506e-05
-0.0010386112479600282   -0.0028635170021164133   -1.871008657720374e-05
-0.0017056686276526458   -0.004265207259273158   -6.811237954956197e-05
-0.0009767837215762462   -0.004263516145114817   -4.767829078623827e-05
-0.0010386112479600282   -0.0028635170021164133   -1.871008657720374e-05
-0.0017865414952977518   -0.002864002649742817   -3.503488768631549e-05
-0.0017056686276526458   -0.004265207259273158   -6.811237954956197e-05
-0.001795493698246833   -0.0028558603209108313   -2.9214086066801962e-05
-0.0009767837215762462   -0.004263516145114817   -4.767829078623827e-05
-0.0017138692787120279   -0.004258044900886862   -6.14925041396337e-05
-0.001795493698246833   -0.0028558603209108313   -2.9214086066801962e-05
-0.0017056686276526458   -0.004265207259273158   -6.811237954956197e-05
-0.0009767837215762462   -0.004263516145114817   -4.767829078623827e-05
-0.001795493698246833   -0.0028558603209108313   -2.9214086066801962e-05
-0.0010486961856255076   -0.002853633601268584   -1.287463205808003e-05
-0.0010386112479600282   -0.0028635170021164133   -1.871008657720374e-05
-0.0009767837215762462   -0.004263516145114817   -4.767829078623827e-05
-0.001795493698246833   -0.0028558603209108313   -2.9214086066801962e-05
-0.0010386112479600282   -0.0028635170021164133   -1.871008657720374e-05
-0.0017056686276526458   -0.004265207259273158   -6.811237954956197e-05
-0.0009767837215762462   -0.004263516145114817   -4.767829078623827e-05
-0.0010486961856255076   -0.002853633601268584   -1.287463205808003e-05
-0.0017138692787120279   -0.004258044900886862   -6.14925041396337e-05
-0.000986391155566144   -0.004255133050179931   -4.212381501129815e-05
-0.0010486961856255076   -0.002853633601268584   -1.287463205808003e-05
-0.001795493698246833   -0.0028558603209108313   -2.9214086066801962e-05
-0.0017138692787120279   -0.004258044900886862   -6.14925041396337e-05
-0.0018043631114707805   -0.0028476192886723642   -2.2889792628104506e-05
-0.000986391155566144   -0.004255133050179931   -4.212381501129815e-05
-0.0017221003370078932   -0.004251832425935535   -5.417471789328016e-05
-0.0018043631114707805   -0.0028476192886723642   -2.2889792628104506e-05
-0.0017138692787120279   -0.004258044900886862   -6.14925041396337e-05
-0.000986391155566144   -0.004255133050179931   -4.212381501129815e-05
-0.0018043631114707805   -0.0028476192886723642   -2.2889792628104506e-05
-0.001059262217145674   -0.0028437040038214547   -6.3514209019561174e-06
-0.0010486961856255076   -0.002853633601268584   -1.287463205808003e-05
-0.000986391155566144   -0.004255133050179931   -4.212381501129815e-05
-0.0018043631114707805   -0.0028476192886723642   -2.2889792628104506e-05
-0.0010486961856255076   -0.002853633601268584   -1.287463205808003e-05
-0.0017138692787120279   -0.004258044900886862   -6.14925041396337e-05
-0.0016968658419768798   -0.004273307129662466   -7.400180266091875e-05
-0.0017771519938923474   -0.002872110137699612   -4.033275904118826e-05
-0.0024483650673593673   -0.004259333579590226   -8.754626666538821e-05
-0.0017056686276526458   -0.004265207259273158   -6.811237954956197e-05
-0.0017771519938923474   -0.002872110137699612   -4.033275904118826e-05
-0.0025414838031484165   -0.0028673581635809122   -5.345198466104591e-05
-0.0024483650673593673   -0.004259333579590226   -8.754626666538821e-05
-0.0025504303197723876   -0.0028612066685183637   -4.81695593748129e-05
-0.0017056686276526458   -0.004265207259273158   -6.811237954956197e-05
-0.0024567489246817027   -0.004253637170824191   -7.983924461876924e-05
-0.0025504303197723876   -0.0028612066685183637   -4.81695593748129e-05
-0.0024483650673593673   -0.004259333579590226   -8.754626666538821e-05
-0.0017056686276526458   -0.004265207259273158   -6.811237954956197e-05
-0.0025504303197723876   -0.0028612066685183637   -4.81695593748129e-05
-0.0017865414952977518   -0.002864002649742817   -3.503488768631549e-05
-0.0017771519938923474   -0.002872110137699612   -4.033275904118826e-05
-0.0017056686276526458   -0.004265207259273158   -6.811237954956197e-05
-0.0025504303197723876   -0.0028612066685183637   -4.81695593748129e-05
-0.0017771519938923474   -0.002872110137699612   -4.033275904118826e-05
-0.0024483650673593673   -0.004259333579590226   -8.754626666538821e-05
-0.0017056686276526458   -0.004265207259273158   -6.811237954956197e-05
-0.0017865414952977518   -0.002864002649742817   -3.503488768631549e-05
-0.0024567489246817027   -0.004253637170824191   -7.983924461876924e-05
-0.0017138692787120279   -0.004258044900886862   -6.14925041396337e-05
-0.0017865414952977518   -0.002864002649742817   -3.503488768631549e-05
-0.0025504303197723876   -0.0028612066685183637   -4.81695593748129e-05
-0.0024567489246817027   -0.004253637170824191   -7.983924461876924e-05
-0.0025578663414043516   -0.002854757427122096   -4.248391775611458e-05
-0.0017138692787120279   -0.004258044900886862   -6.14925041396337e-05
-0.0024628367288671337   -0.004248644491462586   -7.15051953906709e-05
-0.0025578663414043516   -0.002854757427122096   -4.248391775611458e-05
-0.0024567489246817027   -0.004253637170824191   -7.983924461876924e-05
-0.0017138692787120279   -0.004258044900886862   -6.14925041396337e-05
-0.0025578663414043516   -0.002854757427122096   -4.248391775611458e-05
-0.001795493698246833   -0.0028558603209108313   -2.9214086066801962e-05
-0.0017865414952977518   -0.002864002649742817   -3.503488768631549e-05
-0.0017138692787120279   -0.004258044900886862   -6.14925041396337e-05
-0.0025578663414043516   -0.002854757427122096   -4.248391775611458e-05
-0.0017865414952977518   -0.002864002649742817   -3.503488768631549e-05
-0.0024567489246817027   -0.004253637170824191   -7.983924461876924e-05
-0.0017138692787120279   -0.004258044900886862   -6.14925041396337e-05
-0.001795493698246833   -0.0028558603209108313   -2.9214086066801962e-05
-0.0024628367288671337   -0.004248644491462586   -7.15051953906709e-05
-0.0017221003370078932   -0.004251832425935535   -5.417471789328016e-05
-0.001795493698246833   -0.0028558603209108313   -2.9214086066801962e-05
-0.0025578663414043516   -0.002854757427122096   -4.248391775611458e-05
-0.0024628367288671337   -0.004248644491462586   -7.15051953906709e-05
-0.002564886208810489   -0.002848235066707416   -3.624980403709614e-05
-0.0017221003370078932   -0.004251832425935535   -5.417471789328016e-05
-0.0024689407897584134   -0.004244675911890993   -6.239555290419755e-05
-0.002564886208810489   -0.002848235066707416   -3.624980403709614e-05
-0.0024628367288671337   -0.004248644491462586   -7.15051953906709e-05
-0.0017221003370078932   -0.004251832425935535   -5.417471789328016e-05
-0.002564886208810489   -0.002848235066707416   -3.624980403709614e-05
-0.0018043631114707805   -0.0028476192886723642   -2.2889792628104506e-05
-0.001795493698246833   -0.0028558603209108313   -2.9214086066801962e-05
-0.0017221003370078932   -0.004251832425935535   -5.417471789328016e-05
-0.002564886208810489   -0.002848235066707416   -3.624980403709614e-05
-0.001795493698246833   -0.0028558603209108313   -2.9214086066801962e-05
-0.0024628367288671337   -0.004248644491462586   -7.15051953906709e-05
-0.0024483650673593673   -0.004259333579590226   -8.754626666538821e-05
-0.0025414838031484165   -0.0028673581635809122   -5.345198466104591e-05
-0.003247467822910668   -0.0042422362353498316   -9.681323017801948e-05
-0.0024567489246817027   -0.004253637170824191   -7.983924461876924e-05
-0.0025414838031484165   -0.0028673581635809122   -5.345198466104591e-05
-0.0033452238768001703   -0.0028591143660460176   -6.213256102514337e-05
-0.003247467822910668   -0.0042422362353498316   -9.681323017801948e-05
-0.0033500144144193726   -0.0028543992575767846   -5.7708182926353654e-05
-0.0024567489246817027   -0.004253637170824191   -7.983924461876924e-05
-0.0032472028918180897   -0.0042381302994409   -8.780889984881408e-05
-0.0033500144144193726   -0.0028543992575767846   -5.7708182926353654e-05
-0.003247467822910668   -0.0042422362353498316   -9.681323017801948e-05
-0.0024567489246817027   -0.004253637170824191   -7.983924461876924e-05
-0.0033500144144193726   -0.0028543992575767846   -5.7708182926353654e-05
-0.0025504303197723876   -0.0028612066685183637   -4.81695593748129e-05
-0.0025414838031484165   -0.0028673581635809122   -5.345198466104591e-05
-0.0024567489246817027   -0.004253637170824191   -7.983924461876924e-05
-0.0033500144144193726   -0.0028543992575767846   -5.7708182926353654e-05
-0.0025414838031484165   -0.0028673581635809122   -5.345198466104591e-05
-0.003247467822910668   -0.0042422362353498316   -9.681323017801948e-05
-0.0024567489246817027   -0.004253637170824191   -7.983924461876924e-05
-0.0025504303197723876   -0.0028612066685183637   -4.81695593748129e-05
-0.0032472028918180897   -0.0042381302994409   -8.780889984881408e-05
-0.0024628367288671337   -0.004248644491462586   -7.15051953906709e-05
-0.0025504303197723876   -0.0028612066685183637   -4.81695593748129e-05
-0.0033500144144193726   -0.0028543992575767846   -5.7708182926353654e-05
-0.0032472028918180897   -0.0042381302994409   -8.780889984881408e-05
-0.0033543953231118125   -0.0028488761143815513   -5.2359638416016976e-05
-0.0024628367288671337   -0.004248644491462586   -7.15051953906709e-05
-0.003247188711945298   -0.004234258823916746   -7.756142424083251e-05
-0.0033543953231118125   -0.0028488761143815513   -5.2359638416016976e-05
-0.0032472028918180897   -0.0042381302994409   -8.780889984881408e-05
-0.0024628367288671337   -0.004248644491462586   -7.15051953906709e-05
-0.0033543953231118125   -0.0028488761143815513   -5.2359638416016976e-05
-0.0025578663414043516   -0.002854757427122096   -4.248391775611458e-05
-0.0025504303197723876   -0.0028612066685183637   -4.81695593748129e-05
-0.0024628367288671337   -0.004248644491462586   -7.15051953906709e-05
-0.0033543953231118125   -0.0028488761143815513   -5.2359638416016976e-05
-0.0025504303197723876   -0.0028612066685183637   -4.81695593748129e-05
-0.0032472028918180897   -0.0042381302994409   -8.780889984881408e-05
-0.0024628367288671337   -0.004248644491462586   -7.15051953906709e-05
-0.0025578663414043516   -0.002854757427122096   -4.248391775611458e-05
-0.003247188711945298   -0.004234258823916746   -7.756142424083251e-05
-0.0024689407897584134   -0.004244675911890993   -6.239555290419755e-05
-0.0025578663414043516   -0.002854757427122096   -4.248391775611458e-05
-0.0033543953231118125   -0.0028488761143815513   -5.2359638416016976e-05
-0.003247188711945298   -0.004234258823916746   -7.756142424083251e-05
-0.0033556546906877175   -0.00284436850049121   -4.628171746547798e-05
-0.0024689407897584134   -0.004244675911890993   -6.239555290419755e-05
-0.0032422605006311644   -0.0042330073824350676   -6.620725211149897e-05
-0.0033556546906877175   -0.00284436850049121   -4.628171746547798e-05
-0.003247188711945298   -0.004234258823916746   -7.756142424083251e-05
-0.0024689407897584134   -0.004244675911890993   -6.239555290419755e-05
-0.0033556546906877175   -0.00284436850049121   -4.628171746547798e-05
-0.002564886208810489   -0.002848235066707416   -3.624980403709614e-05
-0.0025578663414043516   -0.002854757427122096   -4.248391775611458e-05
-0.0024689407897584134   -0.004244675911890993   -6.239555290419755e-05
-0.0033556546906877175   -0.00284436850049121   -4.628171746547798e-05
-0.0025578663414043516   -0.002854757427122096   -4.248391775611458e-05
-0.003247188711945298   -0.004234258823916746   -7.756142424083251e-05
0.0005359866156232794   -0.002888483910569702   1.4192914481334344e-05
0.00038351315611590247   -0.0014658857349448607   1.6188459979895653e-05
-0.00027120823693390316   -0.002876295913438707   -5.494284550411334e-06
0.0005203918554143139   -0.0028741872870076553   2.0066612341720153e-05
0.00038351315611590247   -0.0014658857349448607   1.6188459979895653e-05
-0.00037887334350025385   -0.0014493573616674849   1.2308322887349942e-05
-0.00027120823693390316   -0.002876295913438707   -5.494284550411334e-06
-0.0003895695377691136   -0.0014448428046117275   2.0152527130990794e-05
0.0005203918554143139   -0.0028741872870076553   2.0066612341720153e-05
-0.0002816272548083068   -0.0028648873367076613   -2.1560358886049213e-07
-0.0003895695377691136   -0.0014448428046117275   2.0152527130990794e-05
-0.00027120823693390316   -0.002876295913438707   -5.494284550411334e-06
0.0005203918554143139   -0.0028741872870076553   2.0066612341720153e-05
-0.0003895695377691136   -0.0014448428046117275   2.0152527130990794e-05
0.0003498000397916408   -0.0014501288043787175   3.511332894468091e-05
0.00038351315611590247   -0.0014658857349448607   1.6188459979895653e-05
0.0005203918554143139   -0.0028741872870076553   2.0066612341720153e-05
-0.0003895695377691136   -0.0014448428046117275   2.0152527130990794e-05
0.00038351315611590247   -0.0014658857349448607   1.6188459979895653e-05
-0.00027120823693390316   -0.002876295913438707   -5.494284550411334e-06
0.0005203918554143139   -0.0028741872870076553   2.0066612341720153e-05
0.0003498000397916408   -0.0014501288043787175   3.511332894468091e-05
-0.0002816272548083068   -0.0028648873367076613   -2.1560358886049213e-07
0.0005022629266020458   -0.00286041400718238   2.9133862229358177e-05
0.0003498000397916408   -0.0014501288043787175   3.511332894468091e-05
-0.0003895695377691136   -0.0014448428046117275   2.0152527130990794e-05
-0.0002816272548083068   -0.0028648873367076613   -2.1560358886049213e-07
-0.0004041999495379284   -0.0014348638533772157   2.984262372121384e-05
0.0005022629266020458   -0.00286041400718238   2.9133862229358177e-05
-0.0002939510198529595   -0.0028530228426347855   6.1096222822655246e-06
-0.0004041999495379284   -0.0014348638533772157   2.984262372121384e-05
-0.0002816272548083068   -0.0028648873367076613   -2.1560358886049213e-07
0.0005022629266020458   -0.00286041400718238   2.9133862229358177e-05
-0.0004041999495379284   -0.0014348638533772157   2.984262372121384e-05
0.00033031432600025295   -0.001438156534297324   4.891715115691638e-05
0.0003498000397916408   -0.0014501288043787175   3.511332894468091e-05
0.0005022629266020458   -0.00286041400718238   2.9133862229358177e-05
-0.0004041999495379284   -0.0014348638533772157   2.984262372121384e-05
0.0003498000397916408   -0.0014501288043787175   3.511332894468091e-05
-0.0002816272548083068   -0.0028648873367076613   -2.1560358886049213e-07
0.0005022629266020458   -0.00286041400718238   2.9133862229358177e-05
0.00033031432600025295   -0.001438156534297324   4.891715115691638e-05
-0.0002939510198529595   -0.0028530228426347855   6.1096222822655246e-06
0.00048004364650100435   -0.002843329419276749   3.9220734255894774e-05
0.00033031432600025295   -0.001438156534297324   4.891715115691638e-05
-0.0004041999495379284   -0.0014348638533772157   2.984262372121384e-05
-0.0002939510198529595   -0.0028530228426347855   6.1096222822655246e-06
-0.00041675209279557813   -0.001424482635351929   3.833808903160178e-05
0.00048004364650100435   -0.002843329419276749   3.9220734255894774e-05
-0.0003068582084875264   -0.002840584563164165   1.3489044384223075e-05
-0.00041675209279557813   -0.001424482635351929   3.833808903160178e-05
-0.0002939510198529595   -0.0028530228426347855   6.1096222822655246e-06
0.00048004364650100435   -0.002843329419276749   3.9220734255894774e-05
-0.00041675209279557813   -0.001424482635351929   3.833808903160178e-05
0.00030492944983310507   -0.0014190027412668714   6.487283891721796e-05
0.00033031432600025295   -0.001438156534297324   4.891715115691638e-05
0.00048004364650100435   -0.002843329419276749   3.9220734255894774e-05
-0.00041675209279557813   -0.001424482635351929   3.833808903160178e-05
0.00033031432600025295   -0.001438156534297324   4.891715115691638e-05
-0.0002939510198529595   -0.0028530228426347855   6.1096222822655246e-06
-0.00027120823693390316   -0.002876295913438707   -5.494284550411334e-06
-0.00037887334350025385   -0.0014493573616674849   1.2308322887349942e-05
-0.0010289265033299924   -0.0028730844573454624   -2.395998867297832e-05
-0.0002816272548083068   -0.0028648873367076613   -2.1560358886049213e-07
-0.00037887334350025385   -0.0014493573616674849   1.2308322887349942e-05
-0.0010972612092017629   -0.0014725551090912863   -1.078742264856162e-06
-0.0010289265033299924   -0.0028730844573454624   -2.395998867297832e-05
-0.0011076182749918718   -0.0014642862208011503   4.684804385948239e-06
-0.0002816272548083068   -0.0028648873367076613   -2.1560358886049213e-07
-0.0010386112479600282   -0.0028635170021164133   -1.871008657720374e-05
-0.0011076182749918718   -0.0014642862208011503   4.684804385948239e-06
-0.0010289265033299924   -0.0028730844573454624   -2.395998867297832e-05
-0.0002816272548083068   -0.0028648873367076613   -2.1560358886049213e-07
-0.0011076182749918718   -0.0014642862208011503   4.684804385948239e-06
-0.0003895695377691136   -0.0014448428046117275   2.0152527130990794e-05
-0.00037887334350025385   -0.0014493573616674849   1.2308322887349942e-05
-0.0002816272548083068   -0.0028648873367076613   -2.1560358886049213e-07
-0.0011076182749918718   -0.0014642862208011503   4.684804385948239e-06
-0.00037887334350025385   -0.0014493573616674849   1.2308322887349942e-05
-0.0010289265033299924   -0.0028730844573454624   -2.395998867297832e-05
-0.0002816272548083068   -0.0028648873367076613   -2.1560358886049213e-07
-0.0003895695377691136   -0.0014448428046117275   2.0152527130990794e-05
-0.0010386112479600282   -0.0028635170021164133   -1.871008657720374e-05
-0.0002939510198529595   -0.0028530228426347855   6.1096222822655246e-06
-0.0003895695377691136   -0.0014448428046117275   2.0152527130990794e-05
-0.0011076182749918718   -0.0014642862208011503   4.684804385948239e-06
-0.0010386112479600282   -0.0028635170021164133   -1.871008657720374e-05
-0.0011187349169232252   -0.0014545977900968531   1.0923079465517906e-05
-0.0002939510198529595   -0.0028530228426347855   6.1096222822655246e-06
-0.0010486961856255076   -0.002853633601268584   -1.287463205808003e-05
-0.0011187349169232252   -0.0014545977900968531   1.0923079465517906e-05
-0.0010386112479600282   -0.0028635170021164133   -1.871008657720374e-05
-0.0002939510198529595   -0.0028530228426347855   6.1096222822655246e-06
-0.0011187349169232252   -0.0014545977900968531   1.0923079465517906e-05
-0.0004041999495379284   -0.0014348638533772157   2.984262372121384e-05
-0.0003895695377691136   -0.0014448428046117275   2.0152527130990794e-05
-0.0002939510198529595   -0.0028530228426347855   6.1096222822655246e-06
-0.0011187349169232252   -0.0014545977900968531   1.0923079465517906e-05
-0.0003895695377691136   -0.0014448428046117275   2.0152527130990794e-05
-0.0010386112479600282   -0.0028635170021164133   -1.871008657720374e-05
-0.0002939510198529595   -0.0028530228426347855   6.1096222822655246e-06
-0.0004041999495379284   -0.0014348638533772157   2.984262372121384e-05
-0.0010486961856255076   -0.002853633601268584   -1.287463205808003e-05
-0.0003068582084875264   -0.002840584563164165   1.3489044384223075e-05
-0.0004041999495379284   -0.0014348638533772157   2.984262372121384e-05
-0.0011187349169232252   -0.0014545977900968531   1.0923079465517906e-05
-0.0010486961856255076   -0.002853633601268584   -1.287463205808003e-05
-0.0011295298302087362   -0.0014439751139943152   1.7885385620312204e-05
-0.0003068582084875264   -0.002840584563164165   1.3489044384223075e-05
-0.001059262217145674   -0.0028437040038214547   -6.3514209019561174e-06
-0.0011295298302087362   -0.0014439751139943152   1.7885385620312204e-05
-0.0010486961856255076   -0.002853633601268584   -1.287463205808003e-05
-0.0003068582084875264   -0.002840584563164165   1.3489044384223075e-05
-0.0011295298302087362   -0.0014439751139943152   1.7885385620312204e-05
-0.00041675209279557813   -0.001424482635351929   3.833808903160178e-05
-0.0004041999495379284   -0.0014348638533772157   2.984262372121384e-05
-0.0003068582084875264   -0.002840584563164165   1.3489044384223075e-05
-0.0011295298302087362   -0.0014439751139943152   1.7885385620312204e-05
-0.0004041999495379284   -0.0014348638533772157   2.984262372121384e-05
-0.0010486961856255076   -0.002853633601268584   -1.287463205808003e-05
-0.0010289265033299924   -0.0028730844573454624   -2.395998867297832e-05
-0.0010972612092017629   -0.0014725551090912863   -1.078742264856162e-06
-0.0017771519938923474   -0.002872110137699612   -4.033275904118826e-05
-0.0010386112479600282   -0.0028635170021164133   -1.871008657720374e-05
-0.0010972612092017629   -0.0014725551090912863   -1.078742264856162e-06
-0.0018301361211160263   -0.0014907263360539754   -1.6800491096308332e-05
-0.0017771519938923474   -0.002872110137699612   -4.033275904118826e-05
-0.001839661312503672   -0.0014821345675992536   -1.2163210241940025e-05
-0.0010386112479600282   -0.0028635170021164133   -1.871008657720374e-05
-0.0017865414952977518   -0.002864002649742817   -3.503488768631549e-05
-0.001839661312503672   -0.0014821345675992536   -1.2163210241940025e-05
-0.0017771519938923474   -0.002872110137699612   -4.033275904118826e-05
-0.0010386112479600282   -0.0028635170021164133   -1.871008657720374e-05
-0.001839661312503672   -0.0014821345675992536   -1.2163210241940025e-05
-0.0011076182749918718   -0.0014642862208011503   4.684804385948239e-06
-0.0010972612092017629   -0.0014725551090912863   -1.078742264856162e-06
-0.0010386112479600282   -0.0028635170021164133   -1.871008657720374e-05
-0.001839661312503672   -0.0014821345675992536   -1.2163210241940025e-05
-0.0010972612092017629   -0.0014725551090912863   -1.078742264856162e-06
-0.0017771519938923474   -0.002872110137699612   -4.033275904118826e-05
-0.0010386112479600282   -0.0028635170021164133   -1.871008657720374e-05
-0.0011076182749918718   -0.0014642862208011503   4.684804385948239e-06
-0.0017865414952977518   -0.002864002649742817   -3.503488768631549e-05
-0.0010486961856255076   -0.002853633601268584   -1.287463205808003e-05
-0.0011076182749918718   -0.0014642862208011503   4.684804385948239e-06
-0.001839661312503672   -0.0014821345675992536   -1.2163210241940025e-05
-0.0017865414952977518   -0.002864002649742817   -3.503488768631549e-05
-0.0018489351746827935   -0.0014729042864571474   -7.441673988381056e-06
-0.0010486961856255076   -0.002853633601268584   -1.287463205808003e-05
-0.001795493698246833   -0.0028558603209108313   -2.9214086066801962e-05
-0.0018489351746827935   -0.0014729042864571474   -7.441673988381056e-06
-0.0017865414952977518   -0.002864002649742817   -3.503488768631549e-05
-0.0010486961856255076   -0.002853633601268584   -1.287463205808003e-05
-0.0018489351746827935   -0.0014729042864571474   -7.441673988381056e-06
-0.0011187349169232252   -0.0014545977900968531   1.0923079465517906e-05
-0.0011076182749918718   -0.0014642862208011503   4.684804385948239e-06
-0.0010486961856255076   -0.002853633601268584   -1.287463205808003e-05
-0.0018489351746827935   -0.0014729042864571474   -7.441673988381056e-06
-0.0011076182749918718   -0.0014642862208011503   4.684804385948239e-06
-0.0017865414952977518   -0.002864002649742817   -3.503488768631549e-05
-0.0010486961856255076   -0.002853633601268584   -1.287463205808003e-05
-0.0011187349169232252   -0.0014545977900968531   1.0923079465517906e-05
-0.001795493698246833   -0.0028558603209108313   -2.9214086066801962e-05
-0.001059262217145674   -0.0028437040038214547   -6.3514209019561174e-06
-0.0011187349169232252   -0.0014545977900968531   1.0923079465517906e-05
-0.0018489351746827935   -0.0014729042864571474   -7.441673988381056e-06
-0.001795493698246833   -0.0028558603209108313   -2.9214086066801962e-05
-0.0018576118514434209   -0.0014627886885550422   -2.1960880080034256e-06
-0.001059262217145674   -0.0028437040038214547   -6.3514209019561174e-06
-0.0018043631114707805   -0.0028476192886723642   -2.2889792628104506e-05
-0.0018576118514434209   -0.0014627886885550422   -2.1960880080034256e-06
-0.001795493698246833   -0.0028558603209108313   -2.9214086066801962e-05
-0.001059262217145674   -0.0028437040038214547   -6.3514209019561174e-06
-0.0018576118514434209   -0.0014627886885550422   -2.1960880080034256e-06
-0.0011295298302087362   -0.0014439751139943152   1.7885385620312204e-05
-0.0011187349169232252   -0.0014545977900968531   1.0923079465517906e-05
-0.001059262217145674   -0.0028437040038214547   -6.3514209019561174e-06
-0.0018576118514434209   -0.0014627886885550422   -2.1960880080034256e-06
-0.0011187349169232252   -0.0014545977900968531   1.0923079465517906e-05
-0.001795493698246833   -0.0028558603209108313   -2.9214086066801962e-05
-0.0017771519938923474   -0.002872110137699612   -4.033275904118826e-05
-0.0018301361211160263   -0.0014907263360539754   -1.6800491096308332e-05
-0.0025414838031484165   -0.0028673581635809122   -5.345198466104591e-05
-0.0017865414952977518   -0.002864002649742817   -3.503488768631549e-05
-0.0018301361211160263   -0.0014907263360539754   -1.6800491096308332e-05
-0.002588846599363946   -0.0014983467215397288   -3.110530777198577e-05
-0.0025414838031484165   -0.0028673581635809122   -5.345198466104591e-05
-0.002597476982903142   -0.0014909013334780225   -2.7582910108597027e-05
-0.0017865414952977518   -0.002864002649742817   -3.503488768631549e-05
-0.0025504303197723876   -0.0028612066685183637   -4.81695593748129e-05
-0.002597476982903142   -0.0014909013334780225   -2.7582910108597027e-05
-0.0025414838031484165   -0.0028673581635809122   -5.345198466104591e-05
-0.0017865414952977518   -0.002864002649742817   -3.503488768631549e-05
-0.002597476982903142   -0.0014909013334780225   -2.7582910108597027e-05
-0.001839661312503672   -0.0014821345675992536   -1.2163210241940025e-05
-0.0018301361211160263   -0.0014907263360539754   -1.6800491096308332e-05
-0.0017865414952977518   -0.002864002649742817   -3.503488768631549e-05
-0.002597476982903142   -0.0014909013334780225   -2.7582910108597027e-05
-0.0018301361211160263   -0.0014907263360539754   -1.6800491096308332e-05
-0.0025414838031484165   -0.0028673581635809122   -5.345198466104591e-05
-0.0017865414952977518   -0.002864002649742817   -3.503488768631549e-05
-0.001839661312503672   -0.0014821345675992536   -1.2163210241940025e-05
-0.0025504303197723876   -0.0028612066685183637   -4.81695593748129e-05
-0.001795493698246833   -0.0028558603209108313   -2.9214086066801962e-05
-0.001839661312503672   -0.0014821345675992536   -1.2163210241940025e-05
-0.002597476982903142   -0.0014909013334780225   -2.7582910108597027e-05
-0.0025504303197723876   -0.0028612066685183637   -4.81695593748129e-05
-0.002605177458623739   -0.0014825797694158025   -2.4069582711312053e-05
-0.001795493698246833   -0.0028558603209108313   -2.9214086066801962e-05
-0.0025578663414043516   -0.002854757427122096   -4.248391775611458e-05
-0.002605177458623739   -0.0014825797694158025   -2.4069582711312053e-05
-0.0025504303197723876   -0.0028612066685183637   -4.81695593748129e-05
-0.001795493698246833   -0.0028558603209108313   -2.9214086066801962e-05
-0.002605177458623739   -0.0014825797694158025   -2.4069582711312053e-05
-0.0018489351746827935   -0.0014729042864571474   -7.441673988381056e-06
-0.001839661312503672   -0.0014821345675992536   -1.2163210241940025e-05
-0.001795493698246833   -0.0028558603209108313   -2.9214086066801962e-05
-0.002605177458623739   -0.0014825797694158025   -2.4069582711312053e-05
-0.001839661312503672   -0.0014821345675992536   -1.2163210241940025e-05
-0.0025504303197723876   -0.0028612066685183637   -4.81695593748129e-05
-0.001795493698246833   -0.0028558603209108313   -2.9214086066801962e-05
-0.0018489351746827935   -0.0014729042864571474   -7.441673988381056e-06
-0.0025578663414043516   -0.002854757427122096   -4.248391775611458e-05
-0.0018043631114707805   -0.0028476192886723642   -2.2889792628104506e-05
-0.0018489351746827935   -0.0014729042864571474   -7.441673988381056e-06
-0.002605177458623739   -0.0014825797694158025   -2.4069582711312053e-05
-0.0025578663414043516   -0.002854757427122096   -4.248391775611458e-05
-0.0026121890816066026   -0.0014736174188962976   -2.0345178916670588e-05
-0.0018043631114707805   -0.0028476192886723642   -2.2889792628104506e-05
-0.002564886208810489   -0.002848235066707416   -3.624980403709614e-05
-0.0026121890816066026   -0.0014736174188962976   -2.0345178916670588e-05
-0.0025578663414043516   -0.002854757427122096   -4.248391775611458e-05
-0.0018043631114707805   -0.0028476192886723642   -2.2889792628104506e-05
-0.0026121890816066026   -0.0014736174188962976   -2.0345178916670588e-05
-0.0018576118514434209   -0.0014627886885550422   -2.1960880080034256e-06
-0.0018489351746827935   -0.0014729042864571474   -7.441673988381056e-06
-0.0018043631114707805   -0.0028476192886723642   -2.2889792628104506e-05
-0.0026121890816066026   -0.0014736174188962976   -2.0345178916670588e-05
-0.0018489351746827935   -0.0014729042864571474   -7.441673988381056e-06
-0.0025578663414043516   -0.002854757427122096   -4.248391775611458e-05
-0.0025414838031484165   -0.0028673581635809122   -5.345198466104591e-05
-0.002588846599363946   -0.0014983467215397288   -3.110530777198577e-05
-0.0033452238768001703   -0.0028591143660460176   -6.213256102514337e-05
-0.0025504303197723876   -0.0028612066685183637   -4.81695593748129e-05
-0.002588846599363946   -0.0014983467215397288   -3.110530777198577e-05
-0.0033775487340796974   -0.0014989335174867139   -4.227455073680533e-05
-0.0033452238768001703   -0.0028591143660460176   -6.213256102514337e-05
-0.003384725822660113   -0.0014918308210958105   -4.048799941780227e-05
-0.0025504303197723876   -0.0028612066685183637   -4.81695593748129e-05
-0.0033500144144193726   -0.0028543992575767846   -5.7708182926353654e-05
-0.003384725822660113   -0.0014918308210958105   -4.048799941780227e-05
-0.0033452238768001703   -0.0028591143660460176   -6.213256102514337e-05
-0.0025504303197723876   -0.0028612066685183637   -4.81695593748129e-05
-0.003384725822660113   -0.0014918308210958105   -4.048799941780227e-05
-0.002597476982903142   -0.0014909013334780225   -2.7582910108597027e-05
-0.002588846599363946   -0.0014983467215397288   -3.110530777198577e-05
-0.0025504303197723876   -0.0028612066685183637   -4.81695593748129e-05
-0.003384725822660113   -0.0014918308210958105   -4.048799941780227e-05
-0.002588846599363946   -0.0014983467215397288   -3.110530777198577e-05
-0.0033452238768001703   -0.0028591143660460176   -6.213256102514337e-05
-0.0025504303197723876   -0.0028612066685183637   -4.81695593748129e-05
-0.002597476982903142   -0.0014909013334780225   -2.7582910108597027e-05
-0.0033500144144193726   -0.0028543992575767846   -5.7708182926353654e-05
-0.0025578663414043516   -0.002854757427122096   -4.248391775611458e-05
-0.002597476982903142   -0.0014909013334780225   -2.7582910108597027e-05
-0.003384725822660113   -0.0014918308210958105   -4.048799941780227e-05
-0.0033500144144193726   -0.0028543992575767846   -5.7708182926353654e-05
-0.003391156164449443   -0.0014839361843308715   -3.834767813472143e-05
-0.0025578663414043516   -0.002854757427122096   -4.248391775611458e-05
-0.0033543953231118125   -0.0028488761143815513   -5.2359638416016976e-05
-0.003391156164449443   -0.0014839361843308715   -3.834767813472143e-05
-0.0033500144144193726   -0.0028543992575767846   -5.7708182926353654e-05
-0.0025578663414043516   -0.002854757427122096   -4.248391775611458e-05
-0.003391156164449443   -0.0014839361843308715   -3.834767813472143e-05
-0.002605177458623739   -0.0014825797694158025   -2.4069582711312053e-05
-0.002597476982903142   -0.0014909013334780225   -2.7582910108597027e-05
-0.0025578663414043516   -0.002854757427122096   -4.248391775611458e-05
-0.003391156164449443   -0.0014839361843308715   -3.834767813472143e-05
-0.002597476982903142   -0.0014909013334780225   -2.7582910108597027e-05
-0.0033500144144193726   -0.0028543992575767846   -5.7708182926353654e-05
-0.0025578663414043516   -0.002854757427122096   -4.248391775611458e-05
-0.002605177458623739   -0.0014825797694158025   -2.4069582711312053e-05
-0.0033543953231118125   -0.0028488761143815513   -5.2359638416016976e-05
-0.002564886208810489   -0.002848235066707416   -3.624980403709614e-05
-0.002605177458623739   -0.0014825797694158025   -2.4069582711312053e-05
-0.003391156164449443   -0.0014839361843308715   -3.834767813472143e-05
-0.0033543953231118125   -0.0028488761143815513   -5.2359638416016976e-05
-0.0033962567786713286   -0.0014756173905828083   -3.618247472497348e-05
-0.002564886208810489   -0.002848235066707416   -3.624980403709614e-05
-0.0033556546906877175   -0.00284436850049121   -4.628171746547798e-05
-0.0033962567786713286   -0.0014756173905828083   -3.618247472497348e-05
-0.0033543953231118125   -0.0028488761143815513   -5.2359638416016976e-05
-0.002564886208810489   -0.002848235066707416   -3.624980403709614e-05
-0.0033962567786713286   -0.0014756173905828083   -3.618247472497348e-05
-0.0026121890816066026   -0.0014736174188962976   -2.0345178916670588e-05
-0.002605177458623739   -0.0014825797694158025   -2.4069582711312053e-05
-0.002564886208810489   -0.002848235066707416   -3.624980403709614e-05
-0.0033962567786713286   -0.0014756173905828083   -3.618247472497348e-05
-0.002605177458623739   -0.0014825797694158025   -2.4069582711312053e-05
-0.0033543953231118125   -0.0028488761143815513   -5.2359638416016976e-05
0.00038351315611590247   -0.0014658857349448607   1.6188459979895653e-05
0.0   0.0   0.0
-0.00037887334350025385   -0.0014493573616674849   1.2308322887349942e-05
0.0003498000397916408   -0.0014501288043787175   3.511332894468091e-05
0.0   0.0   0.0
-0.00046547421693991813   -0.00013516912637264434   1.3895875619060913e-07
-0.00037887334350025385   -0.0014493573616674849   1.2308322887349942e-05
-0.0004936517583107514   -0.00010849269604171482   1.791690194898376e-05
0.0003498000397916408   -0.0014501288043787175   3.511332894468091e-05
-0.0003895695377691136   -0.0014448428046117275   2.0152527130990794e-05
-0.0004936517583107514   -0.00010849269604171482   1.791690194898376e-05
-0.00037887334350025385   -0.0014493573616674849   1.2308322887349942e-05
0.0003498000397916408   -0.0014501288043787175   3.511332894468091e-05
-0.0004936517583107514   -0.00010849269604171482   1.791690194898376e-05
0.0   0.0   0.0
0.0   0.0   0.0
0.0003498000397916408   -0.0014501288043787175   3.511332894468091e-05
-0.0004936517583107514   -0.00010849269604171482   1.791690194898376e-05
0.0   0.0   0.0
-0.00037887334350025385   -0.0014493573616674849   1.2308322887349942e-05
0.0003498000397916408   -0.0014501288043787175   3.511332894468091e-05
0.0   0.0   0.0
-0.0003895695377691136   -0.0014448428046117275   2.0152527130990794e-05
0.00033031432600025295   -0.001438156534297324   4.891715115691638e-05
0.0   0.0   0.0
-0.0004936517583107514   -0.00010849269604171482   1.791690194898376e-05
-0.0003895695377691136   -0.0014448428046117275   2.0152527130990794e-05
-0.0005118527584940678   -9.60964135855041e-05   2.8753324761138484e-05
0.00033031432600025295   -0.001438156534297324   4.891715115691638e-05
-0.0004041999495379284   -0.0014348638533772157   2.984262372121384e-05
-0.0005118527584940678   -9.60964135855041e-05   2.8753324761138484e-05
-0.0003895695377691136   -0.0014448428046117275   2.0152527130990794e-05
0.00033031432600025295   -0.001438156534297324   4.891715115691638e-05
-0.0005118527584940678   -9.60964135855041e-05   2.8753324761138484e-05
0.0   0.0   0.0
0.0   0.0   0.0
0.00033031432600025295   -0.001438156534297324   4.891715115691638e-05
-0.0005118527584940678   -9.60964135855041e-05   2.8753324761138484e-05
0.0   0.0   0.0
-0.0003895695377691136   -0.0014448428046117275   2.0152527130990794e-05
0.00033031432600025295   -0.001438156534297324   4.891715115691638e-05
0.0   0.0   0.0
-0.0004041999495379284   -0.0014348638533772157   2.984262372121384e-05
0.00030492944983310507   -0.0014190027412668714   6.487283891721796e-05
0.0   0.0   0.0
-0.0005118527584940678   -9.60964135855041e-05   2.8753324761138484e-05
-0.0004041999495379284   -0.0014348638533772157   2.984262372121384e-05
-0.0005371573524488303   -7.934057155076595e-05   4.1301748029891375e-05
0.00030492944983310507   -0.0014190027412668714   6.487283891721796e-05
-0.00041675209279557813   -0.001424482635351929   3.833808903160178e-05
-0.0005371573524488303   -7.934057155076595e-05   4.1301748029891375e-05
-0.0004041999495379284   -0.0014348638533772157   2.984262372121384e-05
0.00030492944983310507   -0.0014190027412668714   6.487283891721796e-05
-0.0005371573524488303   -7.934057155076595e-05   4.1301748029891375e-05
0.0   0.0   0.0
0.0   0.0   0.0
0.00030492944983310507   -0.0014190027412668714   6.487283891721796e-05
-0.0005371573524488303   -7.934057155076595e-05   4.1301748029891375e-05
0.0   0.0   0.0
-0.0004041999495379284   -0.0014348638533772157   2.984262372121384e-05
-0.00037887334350025385   -0.0014493573616674849   1.2308322887349942e-05
-0.00046547421693991813   -0.00013516912637264434   1.3895875619060913e-07
-0.0010972612092017629   -0.0014725551090912863   -1.078742264856162e-06
-0.0003895695377691136   -0.0014448428046117275   2.0152527130990794e-05
-0.00046547421693991813   -0.00013516912637264434   1.3895875619060913e-07
-0.0011263867268196553   -0.00018334922979666767   6.050101709303363e-06
-0.0010972612092017629   -0.0014725551090912863   -1.078742264856162e-06
-0.0011415859621079511   -0.0001697477047782376   1.139288696861941e-05
-0.0003895695377691136   -0.0014448428046117275   2.0152527130990794e-05
-0.0011076182749918718   -0.0014642862208011503   4.684804385948239e-06
-0.0011415859621079511   -0.0001697477047782376   1.139288696861941e-05
-0.0010972612092017629   -0.0014725551090912863   -1.078742264856162e-06
-0.0003895695377691136   -0.0014448428046117275   2.0152527130990794e-05
-0.0011415859621079511   -0.0001697477047782376   1.139288696861941e-05
-0.0004936517583107514   -0.00010849269604171482   1.791690194898376e-05
-0.00046547421693991813   -0.00013516912637264434   1.3895875619060913e-07
-0.0003895695377691136   -0.0014448428046117275   2.0152527130990794e-05
-0.0011415859621079511   -0.0001697477047782376   1.139288696861941e-05
-0.00046547421693991813   -0.00013516912637264434   1.3895875619060913e-07
-0.0010972612092017629   -0.0014725551090912863   -1.078742264856162e-06
-0.0003895695377691136   -0.0014448428046117275   2.0152527130990794e-05
-0.0004936517583107514   -0.00010849269604171482   1.791690194898376e-05
-0.0011076182749918718   -0.0014642862208011503   4.684804385948239e-06
-0.0004041999495379284   -0.0014348638533772157   2.984262372121384e-05
-0.0004936517583107514   -0.00010849269604171482   1.791690194898376e-05
-0.0011415859621079511   -0.0001697477047782376   1.139288696861941e-05
-0.0011076182749918718   -0.0014642862208011503   4.684804385948239e-06
-0.0011569610628719437   -0.0001535729042568297   2.0367439281712866e-05
-0.0004041999495379284   -0.0014348638533772157   2.984262372121384e-05
-0.0011187349169232252   -0.0014545977900968531   1.0923079465517906e-05
-0.0011569610628719437   -0.0001535729042568297   2.0367439281712866e-05
-0.0011076182749918718   -0.0014642862208011503   4.684804385948239e-06
-0.0004041999495379284   -0.0014348638533772157   2.984262372121384e-05
-0.0011569610628719437   -0.0001535729042568297   2.0367439281712866e-05
-0.0005118527584940678   -9.60964135855041e-05   2.8753324761138484e-05
-0.0004936517583107514   -0.00010849269604171482   1.791690194898376e-05
-0.0004041999495379284   -0.0014348638533772157   2.984262372121384e-05
-0.0011569610628719437   -0.0001535729042568297   2.0367439281712866e-05
-0.0004936517583107514   -0.00010849269604171482   1.791690194898376e-05
-0.0011076182749918718   -0.0014642862208011503   4.684804385948239e-06
-0.0004041999495379284   -0.0014348638533772157   2.984262372121384e-05
-0.0005118527584940678   -9.60964135855041e-05   2.8753324761138484e-05
-0.0011187349169232252   -0.0014545977900968531   1.0923079465517906e-05
-0.00041675209279557813   -0.001424482635351929   3.833808903160178e-05
-0.0005118527584940678   -9.60964135855041e-05   2.8753324761138484e-05
-0.0011569610628719437   -0.0001535729042568297   2.0367439281712866e-05
-0.0011187349169232252   -0.0014545977900968531   1.0923079465517906e-05
-0.0011749225532960716   -0.00013427947244166563   2.9332599580596774e-05
-0.00041675209279557813   -0.001424482635351929   3.833808903160178e-05
-0.0011295298302087362   -0.0014439751139943152   1.7885385620312204e-05
-0.0011749225532960716   -0.00013427947244166563   2.9332599580596774e-05
-0.0011187349169232252   -0.0014545977900968531   1.0923079465517906e-05
-0.00041675209279557813   -0.001424482635351929   3.833808903160178e-05
-0.0011749225532960716   -0.00013427947244166563   2.9332599580596774e-05
-0.0005371573524488303   -7.934057155076595e-05   4.1301748029891375e-05
-0.0005118527584940678   -9.60964135855041e-05   2.8753324761138484e-05
-0.00041675209279557813   -0.001424482635351929   3.833808903160178e-05
-0.0011749225532960716   -0.00013427947244166563   2.9332599580596774e-05
-0.0005118527584940678   -9.60964135855041e-05   2.8753324761138484e-05
-0.0011187349169232252   -0.0014545977900968531   1.0923079465517906e-05
-0.0010972612092017629   -0.0014725551090912863   -1.078742264856162e-06
-0.0011263867268196553   -0.00018334922979666767   6.050101709303363e-06
-0.0018301361211160263   -0.0014907263360539754   -1.6800491096308332e-05
-0.0011076182749918718   -0.0014642862208011503   4.684804385948239e-06
-0.0011263867268196553   -0.00018334922979666767   6.050101709303363e-06
-0.0018470301338353624   -0.00020036006553217632   -1.711310025475826e-06
-0.0018301361211160263   -0.0014907263360539754   -1.6800491096308332e-05
-0.0018566433079652675   -0.00019084827214047468   1.295177904908771e-07
-0.0011076182749918718   -0.0014642862208011503   4.684804385948239e-06
-0.001839661312503672   -0.0014821345675992536   -1.2163210241940025e-05
-0.0018566433079652675   -0.00019084827214047468   1.295177904908771e-07
-0.0018301361211160263   -0.0014907263360539754   -1.6800491096308332e-05
-0.0011076182749918718   -0.0014642862208011503   4.684804385948239e-06
-0.0018566433079652675   -0.00019084827214047468   1.295177904908771e-07
-0.0011415859621079511   -0.0001697477047782376   1.139288696861941e-05
-0.0011263867268196553   -0.00018334922979666767   6.050101709303363e-06
-0.0011076182749918718   -0.0014642862208011503   4.684804385948239e-06
-0.0018566433079652675   -0.00019084827214047468   1.295177904908771e-07
-0.0011263867268196553   -0.00018334922979666767   6.050101709303363e-06
-0.0018301361211160263   -0.0014907263360539754   -1.6800491096308332e-05
-0.0011076182749918718   -0.0014642862208011503   4.684804385948239e-06
-0.0011415859621079511   -0.0001697477047782376   1.139288696861941e-05
-0.001839661312503672   -0.0014821345675992536   -1.2163210241940025e-05
-0.0011187349169232252   -0.0014545977900968531   1.0923079465517906e-05
-0.0011415859621079511   -0.0001697477047782376   1.139288696861941e-05
-0.0018566433079652675   -0.00019084827214047468   1.295177904908771e-07
-0.001839661312503672   -0.0014821345675992536   -1.2163210241940025e-05
-0.001866709349309038   -0.00017926340357944879   3.153136349243983e-06
-0.0011187349169232252   -0.0014545977900968531   1.0923079465517906e-05
-0.0018489351746827935   -0.0014729042864571474   -7.441673988381056e-06
-0.001866709349309038   -0.00017926340357944879   3.153136349243983e-06
-0.001839661312503672   -0.0014821345675992536   -1.2163210241940025e-05
-0.0011187349169232252   -0.0014545977900968531   1.0923079465517906e-05
-0.001866709349309038   -0.00017926340357944879   3.153136349243983e-06
-0.0011569610628719437   -0.0001535729042568297   2.0367439281712866e-05
-0.0011415859621079511   -0.0001697477047782376   1.139288696861941e-05
-0.0011187349169232252   -0.0014545977900968531   1.0923079465517906e-05
-0.001866709349309038   -0.00017926340357944879   3.153136349243983e-06
-0.0011415859621079511   -0.0001697477047782376   1.139288696861941e-05
-0.001839661312503672   -0.0014821345675992536   -1.2163210241940025e-05
-0.0011187349169232252   -0.0014545977900968531   1.0923079465517906e-05
-0.0011569610628719437   -0.0001535729042568297   2.0367439281712866e-05
-0.0018489351746827935   -0.0014729042864571474   -7.441673988381056e-06
-0.0011295298302087362   -0.0014439751139943152   1.7885385620312204e-05
-0.0011569610628719437   -0.0001535729042568297   2.0367439281712866e-05
-0.001866709349309038   -0.00017926340357944879   3.153136349243983e-06
-0.0018489351746827935   -0.0014729042864571474   -7.441673988381056e-06
-0.0018770346851808351   -0.00016426303461296586   7.156290872796952e-06
-0.0011295298302087362   -0.0014439751139943152   1.7885385620312204e-05
-0.0018576118514434209   -0.0014627886885550422   -2.1960880080034256e-06
-0.0018770346851808351   -0.00016426303461296586   7.156290872796952e-06
-0.0018489351746827935   -0.0014729042864571474   -7.441673988381056e-06
-0.0011295298302087362   -0.0014439751139943152   1.7885385620312204e-05
-0.0018770346851808351   -0.00016426303461296586   7.156290872796952e-06
-0.0011749225532960716   -0.00013427947244166563   2.9332599580596774e-05
-0.0011569610628719437   -0.0001535729042568297   2.0367439281712866e-05
-0.0011295298302087362   -0.0014439751139943152   1.7885385620312204e-05
-0.0018770346851808351   -0.00016426303461296586   7.156290872796952e-06
-0.0011569610628719437   -0.0001535729042568297   2.0367439281712866e-05
-0.0018489351746827935   -0.0014729042864571474   -7.441673988381056e-06
-0.0018301361211160263   -0.0014907263360539754   -1.6800491096308332e-05
-0.0018470301338353624   -0.00020036006553217632   -1.711310025475826e-06
-0.002588846599363946   -0.0014983467215397288   -3.110530777198577e-05
-0.001839661312503672   -0.0014821345675992536   -1.2163210241940025e-05
-0.0018470301338353624   -0.00020036006553217632   -1.711310025475826e-06
-0.0026028431758493525   -0.00020148672850802324   -1.568558260415158e-05
-0.002588846599363946   -0.0014983467215397288   -3.110530777198577e-05
-0.002609437545306696   -0.00019375664277833255   -1.4842944333569483e-05
-0.001839661312503672   -0.0014821345675992536   -1.2163210241940025e-05
-0.002597476982903142   -0.0014909013334780225   -2.7582910108597027e-05
-0.002609437545306696   -0.00019375664277833255   -1.4842944333569483e-05
-0.002588846599363946   -0.0014983467215397288   -3.110530777198577e-05
-0.001839661312503672   -0.0014821345675992536   -1.2163210241940025e-05
-0.002609437545306696   -0.00019375664277833255   -1.4842944333569483e-05
-0.0018566433079652675   -0.00019084827214047468   1.295177904908771e-07
-0.0018470301338353624   -0.00020036006553217632   -1.711310025475826e-06
-0.001839661312503672   -0.0014821345675992536   -1.2163210241940025e-05
-0.002609437545306696   -0.00019375664277833255   -1.4842944333569483e-05
-0.0018470301338353624   -0.00020036006553217632   -1.711310025475826e-06
-0.002588846599363946   -0.0014983467215397288   -3.110530777198577e-05
-0.001839661312503672   -0.0014821345675992536   -1.2163210241940025e-05
-0.0018566433079652675   -0.00019084827214047468   1.295177904908771e-07
-0.002597476982903142   -0.0014909013334780225   -2.7582910108597027e-05
-0.0018489351746827935   -0.0014729042864571474   -7.441673988381056e-06
-0.0018566433079652675   -0.00019084827214047468   1.295177904908771e-07
-0.002609437545306696   -0.00019375664277833255   -1.4842944333569483e-05
-0.002597476982903142   -0.0014909013334780225   -2.7582910108597027e-05
-0.002616293529307916   -0.00018462734867380048   -1.3952236533589473e-05
-0.0018489351746827935   -0.0014729042864571474   -7.441673988381056e-06
-0.002605177458623739   -0.0014825797694158025   -2.4069582711312053e-05
-0.002616293529307916   -0.00018462734867380048   -1.3952236533589473e-05
-0.002597476982903142   -0.0014909013334780225   -2.7582910108597027e-05
-0.0018489351746827935   -0.0014729042864571474   -7.441673988381056e-06
-0.002616293529307916   -0.00018462734867380048   -1.3952236533589473e-05
-0.001866709349309038   -0.00017926340357944879   3.153136349243983e-06
-0.0018566433079652675   -0.00019084827214047468   1.295177904908771e-07
-0.0018489351746827935   -0.0014729042864571474   -7.441673988381056e-06
-0.002616293529307916   -0.00018462734867380048   -1.3952236533589473e-05
-0.0018566433079652675   -0.00019084827214047468   1.295177904908771e-07
-0.002597476982903142   -0.0014909013334780225   -2.7582910108597027e-05
-0.0018489351746827935   -0.0014729042864571474   -7.441673988381056e-06
-0.001866709349309038   -0.00017926340357944879   3.153136349243983e-06
-0.002605177458623739   -0.0014825797694158025   -2.4069582711312053e-05
-0.0018576118514434209   -0.0014627886885550422   -2.1960880080034256e-06
-0.001866709349309038   -0.00017926340357944879   3.153136349243983e-06
-0.002616293529307916   -0.00018462734867380048   -1.3952236533589473e-05
-0.002605177458623739   -0.0014825797694158025   -2.4069582711312053e-05
-0.0026220491454022107   -0.00017420852740253288   -1.3013837601597841e-05
-0.0018576118514434209   -0.0014627886885550422   -2.1960880080034256e-06
-0.0026121890816066026   -0.0014736174188962976   -2.0345178916670588e-05
-0.0026220491454022107   -0.00017420852740253288   -1.3013837601597841e-05
-0.002605177458623739   -0.0014825797694158025   -2.4069582711312053e-05
-0.0018576118514434209   -0.0014627886885550422   -2.1960880080034256e-06
-0.0026220491454022107   -0.00017420852740253288   -1.3013837601597841e-05
-0.0018770346851808351   -0.00016426303461296586   7.156290872796952e-06
-0.001866709349309038   -0.00017926340357944879   3.153136349243983e-06
-0.0018576118514434209   -0.0014627886885550422   -2.1960880080034256e-06
-0.0026220491454022107   -0.00017420852740253288   -1.3013837601597841e-05
-0.001866709349309038   -0.00017926340357944879   3.153136349243983e-06
-0.002605177458623739   -0.0014825797694158025   -2.4069582711312053e-05
-0.002588846599363946   -0.0014983467215397288   -3.110530777198577e-05
-0.0026028431758493525   -0.00020148672850802324   -1.568558260415158e-05
-0.0033775487340796974   -0.0014989335174867139   -4.227455073680533e-05
-0.002597476982903142   -0.0014909013334780225   -2.7582910108597027e-05
-0.0026028431758493525   -0.00020148672850802324   -1.568558260415158e-05
-0.0033816860686453946   -0.00020065431802365185   -2.9703859642750067e-05
-0.0033775487340796974   -0.0014989335174867139   -4.227455073680533e-05
-0.0033869203338878764   -0.00019246277822247769   -2.9521113665718667e-05
-0.002597476982903142   -0.0014909013334780225   -2.7582910108597027e-05
-0.003384725822660113   -0.0014918308210958105   -4.048799941780227e-05
-0.0033869203338878764   -0.00019246277822247769   -2.9521113665718667e-05
-0.0033775487340796974   -0.0014989335174867139   -4.227455073680533e-05
-0.002597476982903142   -0.0014909013334780225   -2.7582910108597027e-05
-0.0033869203338878764   -0.00019246277822247769   -2.9521113665718667e-05
-0.002609437545306696   -0.00019375664277833255   -1.4842944333569483e-05
-0.0026028431758493525   -0.00020148672850802324   -1.568558260415158e-05
-0.002597476982903142   -0.0014909013334780225   -2.7582910108597027e-05
-0.0033869203338878764   -0.00019246277822247769   -2.9521113665718667e-05
-0.0026028431758493525   -0.00020148672850802324   -1.568558260415158e-05
-0.0033775487340796974   -0.0014989335174867139   -4.227455073680533e-05
-0.002597476982903142   -0.0014909013334780225   -2.7582910108597027e-05
-0.002609437545306696   -0.00019375664277833255   -1.4842944333569483e-05
-0.003384725822660113   -0.0014918308210958105   -4.048799941780227e-05
-0.002605177458623739   -0.0014825797694158025   -2.4069582711312053e-05
-0.002609437545306696   -0.00019375664277833255   -1.4842944333569483e-05
-0.0033869203338878764   -0.00019246277822247769   -2.9521113665718667e-05
-0.003384725822660113   -0.0014918308210958105   -4.048799941780227e-05
-0.0033926185372263272   -0.00018392380135344235   -2.9996326087538762e-05
-0.002605177458623739   -0.0014825797694158025   -2.4069582711312053e-05
-0.003391156164449443   -0.0014839361843308715   -3.834767813472143e-05
-0.0033926185372263272   -0.00018392380135344235   -2.9996326087538762e-05
-0.003384725822660113   -0.0014918308210958105   -4.048799941780227e-05
-0.002605177458623739   -0.0014825797694158025   -2.4069582711312053e-05
-0.0033926185372263272   -0.00018392380135344235   -2.9996326087538762e-05
-0.002616293529307916   -0.00018462734867380048   -1.3952236533589473e-05
-0.002609437545306696   -0.00019375664277833255   -1.4842944333569483e-05
-0.002605177458623739   -0.0014825797694158025   -2.4069582711312053e-05
-0.0033926185372263272   -0.00018392380135344235   -2.9996326087538762e-05
-0.002609437545306696   -0.00019375664277833255   -1.4842944333569483e-05
-0.003384725822660113   -0.0014918308210958105   -4.048799941780227e-05
-0.002605177458623739   -0.0014825797694158025   -2.4069582711312053e-05
-0.002616293529307916   -0.00018462734867380048   -1.3952236533589473e-05
-0.003391156164449443   -0.0014839361843308715   -3.834767813472143e-05
-0.0026121890816066026   -0.0014736174188962976   -2.0345178916670588e-05
-0.002616293529307916   -0.00018462734867380048   -1.3952236533589473e-05
-0.0033926185372263272   -0.00018392380135344235   -2.9996326087538762e-05
-0.003391156164449443   -0.0014839361843308715   -3.834767813472143e-05
-0.00339699634854674   -0.00017437864182914665   -3.041788752044843e-05
-0.0026121890816066026   -0.0014736174188962976   -2.0345178916670588e-05
-0.0033962567786713286   -0.0014756173905828083   -3.618247472497348e-05
-0.00339699634854674   -0.00017437864182914665   -3.041788752044843e-05
-0.003391156164449443   -0.0014839361843308715   -3.834767813472143e-05
-0.0026121890816066026   -0.0014736174188962976   -2.0345178916670588e-05
-0.00339699634854674   -0.00017437864182914665   -3.041788752044843e-05
-0.0026220491454022107   -0.00017420852740253288   -1.3013837601597841e-05
-0.002616293529307916   -0.00018462734867380048   -1.3952236533589473e-05
-0.0026121890816066026   -0.0014736174188962976   -2.0345178916670588e-05
-0.00339699634854674   -0.00017437864182914665   -3.041788752044843e-05
-0.002616293529307916   -0.00018462734867380048   -1.3952236533589473e-05
-0.003391156164449443   -0.0014839361843308715   -3.834767813472143e-05
              </DataArray>   
          </PointData>  
       </Piece>  
   </UnstructuredGrid> 
</VTKFile> 
