<?xml version="1.0"?> 
<VTKFile type="UnstructuredGrid"> 
   <UnstructuredGrid> 
      <Piece NumberOfPoints="6000"  NumberOfCells="1500">  
          <Points>  
             <DataArray type="Float64" NumberOfComponents="3" format="ascii">   
-500.0   0.0   0.0
-450.0   0.0   0.0
-500.0   30.0   0.0
-500.0   0.0   16.666666666666668
-450.0   0.0   0.0
-450.0   30.0   0.0
-500.0   30.0   0.0
-450.0   30.0   16.666666666666668
-500.0   0.0   16.666666666666668
-500.0   30.0   16.666666666666668
-450.0   30.0   16.666666666666668
-500.0   30.0   0.0
-500.0   0.0   16.666666666666668
-450.0   30.0   16.666666666666668
-450.0   0.0   16.666666666666668
-450.0   0.0   0.0
-500.0   0.0   16.666666666666668
-450.0   30.0   16.666666666666668
-450.0   0.0   0.0
-500.0   30.0   0.0
-500.0   0.0   16.666666666666668
-450.0   0.0   16.666666666666668
-500.0   30.0   16.666666666666668
-500.0   0.0   33.333333333333336
-450.0   0.0   16.666666666666668
-450.0   30.0   16.666666666666668
-500.0   30.0   16.666666666666668
-450.0   30.0   33.333333333333336
-500.0   0.0   33.333333333333336
-500.0   30.0   33.333333333333336
-450.0   30.0   33.333333333333336
-500.0   30.0   16.666666666666668
-500.0   0.0   33.333333333333336
-450.0   30.0   33.333333333333336
-450.0   0.0   33.333333333333336
-450.0   0.0   16.666666666666668
-500.0   0.0   33.333333333333336
-450.0   30.0   33.333333333333336
-450.0   0.0   16.666666666666668
-500.0   30.0   16.666666666666668
-500.0   0.0   33.333333333333336
-450.0   0.0   33.333333333333336
-500.0   30.0   33.333333333333336
-500.0   0.0   50.0
-450.0   0.0   33.333333333333336
-450.0   30.0   33.333333333333336
-500.0   30.0   33.333333333333336
-450.0   30.0   50.0
-500.0   0.0   50.0
-500.0   30.0   50.0
-450.0   30.0   50.0
-500.0   30.0   33.333333333333336
-500.0   0.0   50.0
-450.0   30.0   50.0
-450.0   0.0   50.0
-450.0   0.0   33.333333333333336
-500.0   0.0   50.0
-450.0   30.0   50.0
-450.0   0.0   33.333333333333336
-500.0   30.0   33.333333333333336
-500.0   30.0   0.0
-450.0   30.0   0.0
-500.0   60.0   0.0
-500.0   30.0   16.666666666666668
-450.0   30.0   0.0
-450.0   60.0   0.0
-500.0   60.0   0.0
-450.0   60.0   16.666666666666668
-500.0   30.0   16.666666666666668
-500.0   60.0   16.666666666666668
-450.0   60.0   16.666666666666668
-500.0   60.0   0.0
-500.0   30.0   16.666666666666668
-450.0   60.0   16.666666666666668
-450.0   30.0   16.666666666666668
-450.0   30.0   0.0
-500.0   30.0   16.666666666666668
-450.0   60.0   16.666666666666668
-450.0   30.0   0.0
-500.0   60.0   0.0
-500.0   30.0   16.666666666666668
-450.0   30.0   16.666666666666668
-500.0   60.0   16.666666666666668
-500.0   30.0   33.333333333333336
-450.0   30.0   16.666666666666668
-450.0   60.0   16.666666666666668
-500.0   60.0   16.666666666666668
-450.0   60.0   33.333333333333336
-500.0   30.0   33.333333333333336
-500.0   60.0   33.333333333333336
-450.0   60.0   33.333333333333336
-500.0   60.0   16.666666666666668
-500.0   30.0   33.333333333333336
-450.0   60.0   33.333333333333336
-450.0   30.0   33.333333333333336
-450.0   30.0   16.666666666666668
-500.0   30.0   33.333333333333336
-450.0   60.0   33.333333333333336
-450.0   30.0   16.666666666666668
-500.0   60.0   16.666666666666668
-500.0   30.0   33.333333333333336
-450.0   30.0   33.333333333333336
-500.0   60.0   33.333333333333336
-500.0   30.0   50.0
-450.0   30.0   33.333333333333336
-450.0   60.0   33.333333333333336
-500.0   60.0   33.333333333333336
-450.0   60.0   50.0
-500.0   30.0   50.0
-500.0   60.0   50.0
-450.0   60.0   50.0
-500.0   60.0   33.333333333333336
-500.0   30.0   50.0
-450.0   60.0   50.0
-450.0   30.0   50.0
-450.0   30.0   33.333333333333336
-500.0   30.0   50.0
-450.0   60.0   50.0
-450.0   30.0   33.333333333333336
-500.0   60.0   33.333333333333336
-500.0   60.0   0.0
-450.0   60.0   0.0
-500.0   90.0   0.0
-500.0   60.0   16.666666666666668
-450.0   60.0   0.0
-450.0   90.0   0.0
-500.0   90.0   0.0
-450.0   90.0   16.666666666666668
-500.0   60.0   16.666666666666668
-500.0   90.0   16.666666666666668
-450.0   90.0   16.666666666666668
-500.0   90.0   0.0
-500.0   60.0   16.666666666666668
-450.0   90.0   16.666666666666668
-450.0   60.0   16.666666666666668
-450.0   60.0   0.0
-500.0   60.0   16.666666666666668
-450.0   90.0   16.666666666666668
-450.0   60.0   0.0
-500.0   90.0   0.0
-500.0   60.0   16.666666666666668
-450.0   60.0   16.666666666666668
-500.0   90.0   16.666666666666668
-500.0   60.0   33.333333333333336
-450.0   60.0   16.666666666666668
-450.0   90.0   16.666666666666668
-500.0   90.0   16.666666666666668
-450.0   90.0   33.333333333333336
-500.0   60.0   33.333333333333336
-500.0   90.0   33.333333333333336
-450.0   90.0   33.333333333333336
-500.0   90.0   16.666666666666668
-500.0   60.0   33.333333333333336
-450.0   90.0   33.333333333333336
-450.0   60.0   33.333333333333336
-450.0   60.0   16.666666666666668
-500.0   60.0   33.333333333333336
-450.0   90.0   33.333333333333336
-450.0   60.0   16.666666666666668
-500.0   90.0   16.666666666666668
-500.0   60.0   33.333333333333336
-450.0   60.0   33.333333333333336
-500.0   90.0   33.333333333333336
-500.0   60.0   50.0
-450.0   60.0   33.333333333333336
-450.0   90.0   33.333333333333336
-500.0   90.0   33.333333333333336
-450.0   90.0   50.0
-500.0   60.0   50.0
-500.0   90.0   50.0
-450.0   90.0   50.0
-500.0   90.0   33.333333333333336
-500.0   60.0   50.0
-450.0   90.0   50.0
-450.0   60.0   50.0
-450.0   60.0   33.333333333333336
-500.0   60.0   50.0
-450.0   90.0   50.0
-450.0   60.0   33.333333333333336
-500.0   90.0   33.333333333333336
-500.0   90.0   0.0
-450.0   90.0   0.0
-500.0   120.0   0.0
-500.0   90.0   16.666666666666668
-450.0   90.0   0.0
-450.0   120.0   0.0
-500.0   120.0   0.0
-450.0   120.0   16.666666666666668
-500.0   90.0   16.666666666666668
-500.0   120.0   16.666666666666668
-450.0   120.0   16.666666666666668
-500.0   120.0   0.0
-500.0   90.0   16.666666666666668
-450.0   120.0   16.666666666666668
-450.0   90.0   16.666666666666668
-450.0   90.0   0.0
-500.0   90.0   16.666666666666668
-450.0   120.0   16.666666666666668
-450.0   90.0   0.0
-500.0   120.0   0.0
-500.0   90.0   16.666666666666668
-450.0   90.0   16.666666666666668
-500.0   120.0   16.666666666666668
-500.0   90.0   33.333333333333336
-450.0   90.0   16.666666666666668
-450.0   120.0   16.666666666666668
-500.0   120.0   16.666666666666668
-450.0   120.0   33.333333333333336
-500.0   90.0   33.333333333333336
-500.0   120.0   33.333333333333336
-450.0   120.0   33.333333333333336
-500.0   120.0   16.666666666666668
-500.0   90.0   33.333333333333336
-450.0   120.0   33.333333333333336
-450.0   90.0   33.333333333333336
-450.0   90.0   16.666666666666668
-500.0   90.0   33.333333333333336
-450.0   120.0   33.333333333333336
-450.0   90.0   16.666666666666668
-500.0   120.0   16.666666666666668
-500.0   90.0   33.333333333333336
-450.0   90.0   33.333333333333336
-500.0   120.0   33.333333333333336
-500.0   90.0   50.0
-450.0   90.0   33.333333333333336
-450.0   120.0   33.333333333333336
-500.0   120.0   33.333333333333336
-450.0   120.0   50.0
-500.0   90.0   50.0
-500.0   120.0   50.0
-450.0   120.0   50.0
-500.0   120.0   33.333333333333336
-500.0   90.0   50.0
-450.0   120.0   50.0
-450.0   90.0   50.0
-450.0   90.0   33.333333333333336
-500.0   90.0   50.0
-450.0   120.0   50.0
-450.0   90.0   33.333333333333336
-500.0   120.0   33.333333333333336
-500.0   120.0   0.0
-450.0   120.0   0.0
-500.0   150.0   0.0
-500.0   120.0   16.666666666666668
-450.0   120.0   0.0
-450.0   150.0   0.0
-500.0   150.0   0.0
-450.0   150.0   16.666666666666668
-500.0   120.0   16.666666666666668
-500.0   150.0   16.666666666666668
-450.0   150.0   16.666666666666668
-500.0   150.0   0.0
-500.0   120.0   16.666666666666668
-450.0   150.0   16.666666666666668
-450.0   120.0   16.666666666666668
-450.0   120.0   0.0
-500.0   120.0   16.666666666666668
-450.0   150.0   16.666666666666668
-450.0   120.0   0.0
-500.0   150.0   0.0
-500.0   120.0   16.666666666666668
-450.0   120.0   16.666666666666668
-500.0   150.0   16.666666666666668
-500.0   120.0   33.333333333333336
-450.0   120.0   16.666666666666668
-450.0   150.0   16.666666666666668
-500.0   150.0   16.666666666666668
-450.0   150.0   33.333333333333336
-500.0   120.0   33.333333333333336
-500.0   150.0   33.333333333333336
-450.0   150.0   33.333333333333336
-500.0   150.0   16.666666666666668
-500.0   120.0   33.333333333333336
-450.0   150.0   33.333333333333336
-450.0   120.0   33.333333333333336
-450.0   120.0   16.666666666666668
-500.0   120.0   33.333333333333336
-450.0   150.0   33.333333333333336
-450.0   120.0   16.666666666666668
-500.0   150.0   16.666666666666668
-500.0   120.0   33.333333333333336
-450.0   120.0   33.333333333333336
-500.0   150.0   33.333333333333336
-500.0   120.0   50.0
-450.0   120.0   33.333333333333336
-450.0   150.0   33.333333333333336
-500.0   150.0   33.333333333333336
-450.0   150.0   50.0
-500.0   120.0   50.0
-500.0   150.0   50.0
-450.0   150.0   50.0
-500.0   150.0   33.333333333333336
-500.0   120.0   50.0
-450.0   150.0   50.0
-450.0   120.0   50.0
-450.0   120.0   33.333333333333336
-500.0   120.0   50.0
-450.0   150.0   50.0
-450.0   120.0   33.333333333333336
-500.0   150.0   33.333333333333336
-450.0   0.0   0.0
-400.0   0.0   0.0
-450.0   30.0   0.0
-450.0   0.0   16.666666666666668
-400.0   0.0   0.0
-400.0   30.0   0.0
-450.0   30.0   0.0
-400.0   30.0   16.666666666666668
-450.0   0.0   16.666666666666668
-450.0   30.0   16.666666666666668
-400.0   30.0   16.666666666666668
-450.0   30.0   0.0
-450.0   0.0   16.666666666666668
-400.0   30.0   16.666666666666668
-400.0   0.0   16.666666666666668
-400.0   0.0   0.0
-450.0   0.0   16.666666666666668
-400.0   30.0   16.666666666666668
-400.0   0.0   0.0
-450.0   30.0   0.0
-450.0   0.0   16.666666666666668
-400.0   0.0   16.666666666666668
-450.0   30.0   16.666666666666668
-450.0   0.0   33.333333333333336
-400.0   0.0   16.666666666666668
-400.0   30.0   16.666666666666668
-450.0   30.0   16.666666666666668
-400.0   30.0   33.333333333333336
-450.0   0.0   33.333333333333336
-450.0   30.0   33.333333333333336
-400.0   30.0   33.333333333333336
-450.0   30.0   16.666666666666668
-450.0   0.0   33.333333333333336
-400.0   30.0   33.333333333333336
-400.0   0.0   33.333333333333336
-400.0   0.0   16.666666666666668
-450.0   0.0   33.333333333333336
-400.0   30.0   33.333333333333336
-400.0   0.0   16.666666666666668
-450.0   30.0   16.666666666666668
-450.0   0.0   33.333333333333336
-400.0   0.0   33.333333333333336
-450.0   30.0   33.333333333333336
-450.0   0.0   50.0
-400.0   0.0   33.333333333333336
-400.0   30.0   33.333333333333336
-450.0   30.0   33.333333333333336
-400.0   30.0   50.0
-450.0   0.0   50.0
-450.0   30.0   50.0
-400.0   30.0   50.0
-450.0   30.0   33.333333333333336
-450.0   0.0   50.0
-400.0   30.0   50.0
-400.0   0.0   50.0
-400.0   0.0   33.333333333333336
-450.0   0.0   50.0
-400.0   30.0   50.0
-400.0   0.0   33.333333333333336
-450.0   30.0   33.333333333333336
-450.0   30.0   0.0
-400.0   30.0   0.0
-450.0   60.0   0.0
-450.0   30.0   16.666666666666668
-400.0   30.0   0.0
-400.0   60.0   0.0
-450.0   60.0   0.0
-400.0   60.0   16.666666666666668
-450.0   30.0   16.666666666666668
-450.0   60.0   16.666666666666668
-400.0   60.0   16.666666666666668
-450.0   60.0   0.0
-450.0   30.0   16.666666666666668
-400.0   60.0   16.666666666666668
-400.0   30.0   16.666666666666668
-400.0   30.0   0.0
-450.0   30.0   16.666666666666668
-400.0   60.0   16.666666666666668
-400.0   30.0   0.0
-450.0   60.0   0.0
-450.0   30.0   16.666666666666668
-400.0   30.0   16.666666666666668
-450.0   60.0   16.666666666666668
-450.0   30.0   33.333333333333336
-400.0   30.0   16.666666666666668
-400.0   60.0   16.666666666666668
-450.0   60.0   16.666666666666668
-400.0   60.0   33.333333333333336
-450.0   30.0   33.333333333333336
-450.0   60.0   33.333333333333336
-400.0   60.0   33.333333333333336
-450.0   60.0   16.666666666666668
-450.0   30.0   33.333333333333336
-400.0   60.0   33.333333333333336
-400.0   30.0   33.333333333333336
-400.0   30.0   16.666666666666668
-450.0   30.0   33.333333333333336
-400.0   60.0   33.333333333333336
-400.0   30.0   16.666666666666668
-450.0   60.0   16.666666666666668
-450.0   30.0   33.333333333333336
-400.0   30.0   33.333333333333336
-450.0   60.0   33.333333333333336
-450.0   30.0   50.0
-400.0   30.0   33.333333333333336
-400.0   60.0   33.333333333333336
-450.0   60.0   33.333333333333336
-400.0   60.0   50.0
-450.0   30.0   50.0
-450.0   60.0   50.0
-400.0   60.0   50.0
-450.0   60.0   33.333333333333336
-450.0   30.0   50.0
-400.0   60.0   50.0
-400.0   30.0   50.0
-400.0   30.0   33.333333333333336
-450.0   30.0   50.0
-400.0   60.0   50.0
-400.0   30.0   33.333333333333336
-450.0   60.0   33.333333333333336
-450.0   60.0   0.0
-400.0   60.0   0.0
-450.0   90.0   0.0
-450.0   60.0   16.666666666666668
-400.0   60.0   0.0
-400.0   90.0   0.0
-450.0   90.0   0.0
-400.0   90.0   16.666666666666668
-450.0   60.0   16.666666666666668
-450.0   90.0   16.666666666666668
-400.0   90.0   16.666666666666668
-450.0   90.0   0.0
-450.0   60.0   16.666666666666668
-400.0   90.0   16.666666666666668
-400.0   60.0   16.666666666666668
-400.0   60.0   0.0
-450.0   60.0   16.666666666666668
-400.0   90.0   16.666666666666668
-400.0   60.0   0.0
-450.0   90.0   0.0
-450.0   60.0   16.666666666666668
-400.0   60.0   16.666666666666668
-450.0   90.0   16.666666666666668
-450.0   60.0   33.333333333333336
-400.0   60.0   16.666666666666668
-400.0   90.0   16.666666666666668
-450.0   90.0   16.666666666666668
-400.0   90.0   33.333333333333336
-450.0   60.0   33.333333333333336
-450.0   90.0   33.333333333333336
-400.0   90.0   33.333333333333336
-450.0   90.0   16.666666666666668
-450.0   60.0   33.333333333333336
-400.0   90.0   33.333333333333336
-400.0   60.0   33.333333333333336
-400.0   60.0   16.666666666666668
-450.0   60.0   33.333333333333336
-400.0   90.0   33.333333333333336
-400.0   60.0   16.666666666666668
-450.0   90.0   16.666666666666668
-450.0   60.0   33.333333333333336
-400.0   60.0   33.333333333333336
-450.0   90.0   33.333333333333336
-450.0   60.0   50.0
-400.0   60.0   33.333333333333336
-400.0   90.0   33.333333333333336
-450.0   90.0   33.333333333333336
-400.0   90.0   50.0
-450.0   60.0   50.0
-450.0   90.0   50.0
-400.0   90.0   50.0
-450.0   90.0   33.333333333333336
-450.0   60.0   50.0
-400.0   90.0   50.0
-400.0   60.0   50.0
-400.0   60.0   33.333333333333336
-450.0   60.0   50.0
-400.0   90.0   50.0
-400.0   60.0   33.333333333333336
-450.0   90.0   33.333333333333336
-450.0   90.0   0.0
-400.0   90.0   0.0
-450.0   120.0   0.0
-450.0   90.0   16.666666666666668
-400.0   90.0   0.0
-400.0   120.0   0.0
-450.0   120.0   0.0
-400.0   120.0   16.666666666666668
-450.0   90.0   16.666666666666668
-450.0   120.0   16.666666666666668
-400.0   120.0   16.666666666666668
-450.0   120.0   0.0
-450.0   90.0   16.666666666666668
-400.0   120.0   16.666666666666668
-400.0   90.0   16.666666666666668
-400.0   90.0   0.0
-450.0   90.0   16.666666666666668
-400.0   120.0   16.666666666666668
-400.0   90.0   0.0
-450.0   120.0   0.0
-450.0   90.0   16.666666666666668
-400.0   90.0   16.666666666666668
-450.0   120.0   16.666666666666668
-450.0   90.0   33.333333333333336
-400.0   90.0   16.666666666666668
-400.0   120.0   16.666666666666668
-450.0   120.0   16.666666666666668
-400.0   120.0   33.333333333333336
-450.0   90.0   33.333333333333336
-450.0   120.0   33.333333333333336
-400.0   120.0   33.333333333333336
-450.0   120.0   16.666666666666668
-450.0   90.0   33.333333333333336
-400.0   120.0   33.333333333333336
-400.0   90.0   33.333333333333336
-400.0   90.0   16.666666666666668
-450.0   90.0   33.333333333333336
-400.0   120.0   33.333333333333336
-400.0   90.0   16.666666666666668
-450.0   120.0   16.666666666666668
-450.0   90.0   33.333333333333336
-400.0   90.0   33.333333333333336
-450.0   120.0   33.333333333333336
-450.0   90.0   50.0
-400.0   90.0   33.333333333333336
-400.0   120.0   33.333333333333336
-450.0   120.0   33.333333333333336
-400.0   120.0   50.0
-450.0   90.0   50.0
-450.0   120.0   50.0
-400.0   120.0   50.0
-450.0   120.0   33.333333333333336
-450.0   90.0   50.0
-400.0   120.0   50.0
-400.0   90.0   50.0
-400.0   90.0   33.333333333333336
-450.0   90.0   50.0
-400.0   120.0   50.0
-400.0   90.0   33.333333333333336
-450.0   120.0   33.333333333333336
-450.0   120.0   0.0
-400.0   120.0   0.0
-450.0   150.0   0.0
-450.0   120.0   16.666666666666668
-400.0   120.0   0.0
-400.0   150.0   0.0
-450.0   150.0   0.0
-400.0   150.0   16.666666666666668
-450.0   120.0   16.666666666666668
-450.0   150.0   16.666666666666668
-400.0   150.0   16.666666666666668
-450.0   150.0   0.0
-450.0   120.0   16.666666666666668
-400.0   150.0   16.666666666666668
-400.0   120.0   16.666666666666668
-400.0   120.0   0.0
-450.0   120.0   16.666666666666668
-400.0   150.0   16.666666666666668
-400.0   120.0   0.0
-450.0   150.0   0.0
-450.0   120.0   16.666666666666668
-400.0   120.0   16.666666666666668
-450.0   150.0   16.666666666666668
-450.0   120.0   33.333333333333336
-400.0   120.0   16.666666666666668
-400.0   150.0   16.666666666666668
-450.0   150.0   16.666666666666668
-400.0   150.0   33.333333333333336
-450.0   120.0   33.333333333333336
-450.0   150.0   33.333333333333336
-400.0   150.0   33.333333333333336
-450.0   150.0   16.666666666666668
-450.0   120.0   33.333333333333336
-400.0   150.0   33.333333333333336
-400.0   120.0   33.333333333333336
-400.0   120.0   16.666666666666668
-450.0   120.0   33.333333333333336
-400.0   150.0   33.333333333333336
-400.0   120.0   16.666666666666668
-450.0   150.0   16.666666666666668
-450.0   120.0   33.333333333333336
-400.0   120.0   33.333333333333336
-450.0   150.0   33.333333333333336
-450.0   120.0   50.0
-400.0   120.0   33.333333333333336
-400.0   150.0   33.333333333333336
-450.0   150.0   33.333333333333336
-400.0   150.0   50.0
-450.0   120.0   50.0
-450.0   150.0   50.0
-400.0   150.0   50.0
-450.0   150.0   33.333333333333336
-450.0   120.0   50.0
-400.0   150.0   50.0
-400.0   120.0   50.0
-400.0   120.0   33.333333333333336
-450.0   120.0   50.0
-400.0   150.0   50.0
-400.0   120.0   33.333333333333336
-450.0   150.0   33.333333333333336
-400.0   0.0   0.0
-350.0   0.0   0.0
-400.0   30.0   0.0
-400.0   0.0   16.666666666666668
-350.0   0.0   0.0
-350.0   30.0   0.0
-400.0   30.0   0.0
-350.0   30.0   16.666666666666668
-400.0   0.0   16.666666666666668
-400.0   30.0   16.666666666666668
-350.0   30.0   16.666666666666668
-400.0   30.0   0.0
-400.0   0.0   16.666666666666668
-350.0   30.0   16.666666666666668
-350.0   0.0   16.666666666666668
-350.0   0.0   0.0
-400.0   0.0   16.666666666666668
-350.0   30.0   16.666666666666668
-350.0   0.0   0.0
-400.0   30.0   0.0
-400.0   0.0   16.666666666666668
-350.0   0.0   16.666666666666668
-400.0   30.0   16.666666666666668
-400.0   0.0   33.333333333333336
-350.0   0.0   16.666666666666668
-350.0   30.0   16.666666666666668
-400.0   30.0   16.666666666666668
-350.0   30.0   33.333333333333336
-400.0   0.0   33.333333333333336
-400.0   30.0   33.333333333333336
-350.0   30.0   33.333333333333336
-400.0   30.0   16.666666666666668
-400.0   0.0   33.333333333333336
-350.0   30.0   33.333333333333336
-350.0   0.0   33.333333333333336
-350.0   0.0   16.666666666666668
-400.0   0.0   33.333333333333336
-350.0   30.0   33.333333333333336
-350.0   0.0   16.666666666666668
-400.0   30.0   16.666666666666668
-400.0   0.0   33.333333333333336
-350.0   0.0   33.333333333333336
-400.0   30.0   33.333333333333336
-400.0   0.0   50.0
-350.0   0.0   33.333333333333336
-350.0   30.0   33.333333333333336
-400.0   30.0   33.333333333333336
-350.0   30.0   50.0
-400.0   0.0   50.0
-400.0   30.0   50.0
-350.0   30.0   50.0
-400.0   30.0   33.333333333333336
-400.0   0.0   50.0
-350.0   30.0   50.0
-350.0   0.0   50.0
-350.0   0.0   33.333333333333336
-400.0   0.0   50.0
-350.0   30.0   50.0
-350.0   0.0   33.333333333333336
-400.0   30.0   33.333333333333336
-400.0   30.0   0.0
-350.0   30.0   0.0
-400.0   60.0   0.0
-400.0   30.0   16.666666666666668
-350.0   30.0   0.0
-350.0   60.0   0.0
-400.0   60.0   0.0
-350.0   60.0   16.666666666666668
-400.0   30.0   16.666666666666668
-400.0   60.0   16.666666666666668
-350.0   60.0   16.666666666666668
-400.0   60.0   0.0
-400.0   30.0   16.666666666666668
-350.0   60.0   16.666666666666668
-350.0   30.0   16.666666666666668
-350.0   30.0   0.0
-400.0   30.0   16.666666666666668
-350.0   60.0   16.666666666666668
-350.0   30.0   0.0
-400.0   60.0   0.0
-400.0   30.0   16.666666666666668
-350.0   30.0   16.666666666666668
-400.0   60.0   16.666666666666668
-400.0   30.0   33.333333333333336
-350.0   30.0   16.666666666666668
-350.0   60.0   16.666666666666668
-400.0   60.0   16.666666666666668
-350.0   60.0   33.333333333333336
-400.0   30.0   33.333333333333336
-400.0   60.0   33.333333333333336
-350.0   60.0   33.333333333333336
-400.0   60.0   16.666666666666668
-400.0   30.0   33.333333333333336
-350.0   60.0   33.333333333333336
-350.0   30.0   33.333333333333336
-350.0   30.0   16.666666666666668
-400.0   30.0   33.333333333333336
-350.0   60.0   33.333333333333336
-350.0   30.0   16.666666666666668
-400.0   60.0   16.666666666666668
-400.0   30.0   33.333333333333336
-350.0   30.0   33.333333333333336
-400.0   60.0   33.333333333333336
-400.0   30.0   50.0
-350.0   30.0   33.333333333333336
-350.0   60.0   33.333333333333336
-400.0   60.0   33.333333333333336
-350.0   60.0   50.0
-400.0   30.0   50.0
-400.0   60.0   50.0
-350.0   60.0   50.0
-400.0   60.0   33.333333333333336
-400.0   30.0   50.0
-350.0   60.0   50.0
-350.0   30.0   50.0
-350.0   30.0   33.333333333333336
-400.0   30.0   50.0
-350.0   60.0   50.0
-350.0   30.0   33.333333333333336
-400.0   60.0   33.333333333333336
-400.0   60.0   0.0
-350.0   60.0   0.0
-400.0   90.0   0.0
-400.0   60.0   16.666666666666668
-350.0   60.0   0.0
-350.0   90.0   0.0
-400.0   90.0   0.0
-350.0   90.0   16.666666666666668
-400.0   60.0   16.666666666666668
-400.0   90.0   16.666666666666668
-350.0   90.0   16.666666666666668
-400.0   90.0   0.0
-400.0   60.0   16.666666666666668
-350.0   90.0   16.666666666666668
-350.0   60.0   16.666666666666668
-350.0   60.0   0.0
-400.0   60.0   16.666666666666668
-350.0   90.0   16.666666666666668
-350.0   60.0   0.0
-400.0   90.0   0.0
-400.0   60.0   16.666666666666668
-350.0   60.0   16.666666666666668
-400.0   90.0   16.666666666666668
-400.0   60.0   33.333333333333336
-350.0   60.0   16.666666666666668
-350.0   90.0   16.666666666666668
-400.0   90.0   16.666666666666668
-350.0   90.0   33.333333333333336
-400.0   60.0   33.333333333333336
-400.0   90.0   33.333333333333336
-350.0   90.0   33.333333333333336
-400.0   90.0   16.666666666666668
-400.0   60.0   33.333333333333336
-350.0   90.0   33.333333333333336
-350.0   60.0   33.333333333333336
-350.0   60.0   16.666666666666668
-400.0   60.0   33.333333333333336
-350.0   90.0   33.333333333333336
-350.0   60.0   16.666666666666668
-400.0   90.0   16.666666666666668
-400.0   60.0   33.333333333333336
-350.0   60.0   33.333333333333336
-400.0   90.0   33.333333333333336
-400.0   60.0   50.0
-350.0   60.0   33.333333333333336
-350.0   90.0   33.333333333333336
-400.0   90.0   33.333333333333336
-350.0   90.0   50.0
-400.0   60.0   50.0
-400.0   90.0   50.0
-350.0   90.0   50.0
-400.0   90.0   33.333333333333336
-400.0   60.0   50.0
-350.0   90.0   50.0
-350.0   60.0   50.0
-350.0   60.0   33.333333333333336
-400.0   60.0   50.0
-350.0   90.0   50.0
-350.0   60.0   33.333333333333336
-400.0   90.0   33.333333333333336
-400.0   90.0   0.0
-350.0   90.0   0.0
-400.0   120.0   0.0
-400.0   90.0   16.666666666666668
-350.0   90.0   0.0
-350.0   120.0   0.0
-400.0   120.0   0.0
-350.0   120.0   16.666666666666668
-400.0   90.0   16.666666666666668
-400.0   120.0   16.666666666666668
-350.0   120.0   16.666666666666668
-400.0   120.0   0.0
-400.0   90.0   16.666666666666668
-350.0   120.0   16.666666666666668
-350.0   90.0   16.666666666666668
-350.0   90.0   0.0
-400.0   90.0   16.666666666666668
-350.0   120.0   16.666666666666668
-350.0   90.0   0.0
-400.0   120.0   0.0
-400.0   90.0   16.666666666666668
-350.0   90.0   16.666666666666668
-400.0   120.0   16.666666666666668
-400.0   90.0   33.333333333333336
-350.0   90.0   16.666666666666668
-350.0   120.0   16.666666666666668
-400.0   120.0   16.666666666666668
-350.0   120.0   33.333333333333336
-400.0   90.0   33.333333333333336
-400.0   120.0   33.333333333333336
-350.0   120.0   33.333333333333336
-400.0   120.0   16.666666666666668
-400.0   90.0   33.333333333333336
-350.0   120.0   33.333333333333336
-350.0   90.0   33.333333333333336
-350.0   90.0   16.666666666666668
-400.0   90.0   33.333333333333336
-350.0   120.0   33.333333333333336
-350.0   90.0   16.666666666666668
-400.0   120.0   16.666666666666668
-400.0   90.0   33.333333333333336
-350.0   90.0   33.333333333333336
-400.0   120.0   33.333333333333336
-400.0   90.0   50.0
-350.0   90.0   33.333333333333336
-350.0   120.0   33.333333333333336
-400.0   120.0   33.333333333333336
-350.0   120.0   50.0
-400.0   90.0   50.0
-400.0   120.0   50.0
-350.0   120.0   50.0
-400.0   120.0   33.333333333333336
-400.0   90.0   50.0
-350.0   120.0   50.0
-350.0   90.0   50.0
-350.0   90.0   33.333333333333336
-400.0   90.0   50.0
-350.0   120.0   50.0
-350.0   90.0   33.333333333333336
-400.0   120.0   33.333333333333336
-400.0   120.0   0.0
-350.0   120.0   0.0
-400.0   150.0   0.0
-400.0   120.0   16.666666666666668
-350.0   120.0   0.0
-350.0   150.0   0.0
-400.0   150.0   0.0
-350.0   150.0   16.666666666666668
-400.0   120.0   16.666666666666668
-400.0   150.0   16.666666666666668
-350.0   150.0   16.666666666666668
-400.0   150.0   0.0
-400.0   120.0   16.666666666666668
-350.0   150.0   16.666666666666668
-350.0   120.0   16.666666666666668
-350.0   120.0   0.0
-400.0   120.0   16.666666666666668
-350.0   150.0   16.666666666666668
-350.0   120.0   0.0
-400.0   150.0   0.0
-400.0   120.0   16.666666666666668
-350.0   120.0   16.666666666666668
-400.0   150.0   16.666666666666668
-400.0   120.0   33.333333333333336
-350.0   120.0   16.666666666666668
-350.0   150.0   16.666666666666668
-400.0   150.0   16.666666666666668
-350.0   150.0   33.333333333333336
-400.0   120.0   33.333333333333336
-400.0   150.0   33.333333333333336
-350.0   150.0   33.333333333333336
-400.0   150.0   16.666666666666668
-400.0   120.0   33.333333333333336
-350.0   150.0   33.333333333333336
-350.0   120.0   33.333333333333336
-350.0   120.0   16.666666666666668
-400.0   120.0   33.333333333333336
-350.0   150.0   33.333333333333336
-350.0   120.0   16.666666666666668
-400.0   150.0   16.666666666666668
-400.0   120.0   33.333333333333336
-350.0   120.0   33.333333333333336
-400.0   150.0   33.333333333333336
-400.0   120.0   50.0
-350.0   120.0   33.333333333333336
-350.0   150.0   33.333333333333336
-400.0   150.0   33.333333333333336
-350.0   150.0   50.0
-400.0   120.0   50.0
-400.0   150.0   50.0
-350.0   150.0   50.0
-400.0   150.0   33.333333333333336
-400.0   120.0   50.0
-350.0   150.0   50.0
-350.0   120.0   50.0
-350.0   120.0   33.333333333333336
-400.0   120.0   50.0
-350.0   150.0   50.0
-350.0   120.0   33.333333333333336
-400.0   150.0   33.333333333333336
-350.0   0.0   0.0
-300.0   0.0   0.0
-350.0   30.0   0.0
-350.0   0.0   16.666666666666668
-300.0   0.0   0.0
-300.0   30.0   0.0
-350.0   30.0   0.0
-300.0   30.0   16.666666666666668
-350.0   0.0   16.666666666666668
-350.0   30.0   16.666666666666668
-300.0   30.0   16.666666666666668
-350.0   30.0   0.0
-350.0   0.0   16.666666666666668
-300.0   30.0   16.666666666666668
-300.0   0.0   16.666666666666668
-300.0   0.0   0.0
-350.0   0.0   16.666666666666668
-300.0   30.0   16.666666666666668
-300.0   0.0   0.0
-350.0   30.0   0.0
-350.0   0.0   16.666666666666668
-300.0   0.0   16.666666666666668
-350.0   30.0   16.666666666666668
-350.0   0.0   33.333333333333336
-300.0   0.0   16.666666666666668
-300.0   30.0   16.666666666666668
-350.0   30.0   16.666666666666668
-300.0   30.0   33.333333333333336
-350.0   0.0   33.333333333333336
-350.0   30.0   33.333333333333336
-300.0   30.0   33.333333333333336
-350.0   30.0   16.666666666666668
-350.0   0.0   33.333333333333336
-300.0   30.0   33.333333333333336
-300.0   0.0   33.333333333333336
-300.0   0.0   16.666666666666668
-350.0   0.0   33.333333333333336
-300.0   30.0   33.333333333333336
-300.0   0.0   16.666666666666668
-350.0   30.0   16.666666666666668
-350.0   0.0   33.333333333333336
-300.0   0.0   33.333333333333336
-350.0   30.0   33.333333333333336
-350.0   0.0   50.0
-300.0   0.0   33.333333333333336
-300.0   30.0   33.333333333333336
-350.0   30.0   33.333333333333336
-300.0   30.0   50.0
-350.0   0.0   50.0
-350.0   30.0   50.0
-300.0   30.0   50.0
-350.0   30.0   33.333333333333336
-350.0   0.0   50.0
-300.0   30.0   50.0
-300.0   0.0   50.0
-300.0   0.0   33.333333333333336
-350.0   0.0   50.0
-300.0   30.0   50.0
-300.0   0.0   33.333333333333336
-350.0   30.0   33.333333333333336
-350.0   30.0   0.0
-300.0   30.0   0.0
-350.0   60.0   0.0
-350.0   30.0   16.666666666666668
-300.0   30.0   0.0
-300.0   60.0   0.0
-350.0   60.0   0.0
-300.0   60.0   16.666666666666668
-350.0   30.0   16.666666666666668
-350.0   60.0   16.666666666666668
-300.0   60.0   16.666666666666668
-350.0   60.0   0.0
-350.0   30.0   16.666666666666668
-300.0   60.0   16.666666666666668
-300.0   30.0   16.666666666666668
-300.0   30.0   0.0
-350.0   30.0   16.666666666666668
-300.0   60.0   16.666666666666668
-300.0   30.0   0.0
-350.0   60.0   0.0
-350.0   30.0   16.666666666666668
-300.0   30.0   16.666666666666668
-350.0   60.0   16.666666666666668
-350.0   30.0   33.333333333333336
-300.0   30.0   16.666666666666668
-300.0   60.0   16.666666666666668
-350.0   60.0   16.666666666666668
-300.0   60.0   33.333333333333336
-350.0   30.0   33.333333333333336
-350.0   60.0   33.333333333333336
-300.0   60.0   33.333333333333336
-350.0   60.0   16.666666666666668
-350.0   30.0   33.333333333333336
-300.0   60.0   33.333333333333336
-300.0   30.0   33.333333333333336
-300.0   30.0   16.666666666666668
-350.0   30.0   33.333333333333336
-300.0   60.0   33.333333333333336
-300.0   30.0   16.666666666666668
-350.0   60.0   16.666666666666668
-350.0   30.0   33.333333333333336
-300.0   30.0   33.333333333333336
-350.0   60.0   33.333333333333336
-350.0   30.0   50.0
-300.0   30.0   33.333333333333336
-300.0   60.0   33.333333333333336
-350.0   60.0   33.333333333333336
-300.0   60.0   50.0
-350.0   30.0   50.0
-350.0   60.0   50.0
-300.0   60.0   50.0
-350.0   60.0   33.333333333333336
-350.0   30.0   50.0
-300.0   60.0   50.0
-300.0   30.0   50.0
-300.0   30.0   33.333333333333336
-350.0   30.0   50.0
-300.0   60.0   50.0
-300.0   30.0   33.333333333333336
-350.0   60.0   33.333333333333336
-350.0   60.0   0.0
-300.0   60.0   0.0
-350.0   90.0   0.0
-350.0   60.0   16.666666666666668
-300.0   60.0   0.0
-300.0   90.0   0.0
-350.0   90.0   0.0
-300.0   90.0   16.666666666666668
-350.0   60.0   16.666666666666668
-350.0   90.0   16.666666666666668
-300.0   90.0   16.666666666666668
-350.0   90.0   0.0
-350.0   60.0   16.666666666666668
-300.0   90.0   16.666666666666668
-300.0   60.0   16.666666666666668
-300.0   60.0   0.0
-350.0   60.0   16.666666666666668
-300.0   90.0   16.666666666666668
-300.0   60.0   0.0
-350.0   90.0   0.0
-350.0   60.0   16.666666666666668
-300.0   60.0   16.666666666666668
-350.0   90.0   16.666666666666668
-350.0   60.0   33.333333333333336
-300.0   60.0   16.666666666666668
-300.0   90.0   16.666666666666668
-350.0   90.0   16.666666666666668
-300.0   90.0   33.333333333333336
-350.0   60.0   33.333333333333336
-350.0   90.0   33.333333333333336
-300.0   90.0   33.333333333333336
-350.0   90.0   16.666666666666668
-350.0   60.0   33.333333333333336
-300.0   90.0   33.333333333333336
-300.0   60.0   33.333333333333336
-300.0   60.0   16.666666666666668
-350.0   60.0   33.333333333333336
-300.0   90.0   33.333333333333336
-300.0   60.0   16.666666666666668
-350.0   90.0   16.666666666666668
-350.0   60.0   33.333333333333336
-300.0   60.0   33.333333333333336
-350.0   90.0   33.333333333333336
-350.0   60.0   50.0
-300.0   60.0   33.333333333333336
-300.0   90.0   33.333333333333336
-350.0   90.0   33.333333333333336
-300.0   90.0   50.0
-350.0   60.0   50.0
-350.0   90.0   50.0
-300.0   90.0   50.0
-350.0   90.0   33.333333333333336
-350.0   60.0   50.0
-300.0   90.0   50.0
-300.0   60.0   50.0
-300.0   60.0   33.333333333333336
-350.0   60.0   50.0
-300.0   90.0   50.0
-300.0   60.0   33.333333333333336
-350.0   90.0   33.333333333333336
-350.0   90.0   0.0
-300.0   90.0   0.0
-350.0   120.0   0.0
-350.0   90.0   16.666666666666668
-300.0   90.0   0.0
-300.0   120.0   0.0
-350.0   120.0   0.0
-300.0   120.0   16.666666666666668
-350.0   90.0   16.666666666666668
-350.0   120.0   16.666666666666668
-300.0   120.0   16.666666666666668
-350.0   120.0   0.0
-350.0   90.0   16.666666666666668
-300.0   120.0   16.666666666666668
-300.0   90.0   16.666666666666668
-300.0   90.0   0.0
-350.0   90.0   16.666666666666668
-300.0   120.0   16.666666666666668
-300.0   90.0   0.0
-350.0   120.0   0.0
-350.0   90.0   16.666666666666668
-300.0   90.0   16.666666666666668
-350.0   120.0   16.666666666666668
-350.0   90.0   33.333333333333336
-300.0   90.0   16.666666666666668
-300.0   120.0   16.666666666666668
-350.0   120.0   16.666666666666668
-300.0   120.0   33.333333333333336
-350.0   90.0   33.333333333333336
-350.0   120.0   33.333333333333336
-300.0   120.0   33.333333333333336
-350.0   120.0   16.666666666666668
-350.0   90.0   33.333333333333336
-300.0   120.0   33.333333333333336
-300.0   90.0   33.333333333333336
-300.0   90.0   16.666666666666668
-350.0   90.0   33.333333333333336
-300.0   120.0   33.333333333333336
-300.0   90.0   16.666666666666668
-350.0   120.0   16.666666666666668
-350.0   90.0   33.333333333333336
-300.0   90.0   33.333333333333336
-350.0   120.0   33.333333333333336
-350.0   90.0   50.0
-300.0   90.0   33.333333333333336
-300.0   120.0   33.333333333333336
-350.0   120.0   33.333333333333336
-300.0   120.0   50.0
-350.0   90.0   50.0
-350.0   120.0   50.0
-300.0   120.0   50.0
-350.0   120.0   33.333333333333336
-350.0   90.0   50.0
-300.0   120.0   50.0
-300.0   90.0   50.0
-300.0   90.0   33.333333333333336
-350.0   90.0   50.0
-300.0   120.0   50.0
-300.0   90.0   33.333333333333336
-350.0   120.0   33.333333333333336
-350.0   120.0   0.0
-300.0   120.0   0.0
-350.0   150.0   0.0
-350.0   120.0   16.666666666666668
-300.0   120.0   0.0
-300.0   150.0   0.0
-350.0   150.0   0.0
-300.0   150.0   16.666666666666668
-350.0   120.0   16.666666666666668
-350.0   150.0   16.666666666666668
-300.0   150.0   16.666666666666668
-350.0   150.0   0.0
-350.0   120.0   16.666666666666668
-300.0   150.0   16.666666666666668
-300.0   120.0   16.666666666666668
-300.0   120.0   0.0
-350.0   120.0   16.666666666666668
-300.0   150.0   16.666666666666668
-300.0   120.0   0.0
-350.0   150.0   0.0
-350.0   120.0   16.666666666666668
-300.0   120.0   16.666666666666668
-350.0   150.0   16.666666666666668
-350.0   120.0   33.333333333333336
-300.0   120.0   16.666666666666668
-300.0   150.0   16.666666666666668
-350.0   150.0   16.666666666666668
-300.0   150.0   33.333333333333336
-350.0   120.0   33.333333333333336
-350.0   150.0   33.333333333333336
-300.0   150.0   33.333333333333336
-350.0   150.0   16.666666666666668
-350.0   120.0   33.333333333333336
-300.0   150.0   33.333333333333336
-300.0   120.0   33.333333333333336
-300.0   120.0   16.666666666666668
-350.0   120.0   33.333333333333336
-300.0   150.0   33.333333333333336
-300.0   120.0   16.666666666666668
-350.0   150.0   16.666666666666668
-350.0   120.0   33.333333333333336
-300.0   120.0   33.333333333333336
-350.0   150.0   33.333333333333336
-350.0   120.0   50.0
-300.0   120.0   33.333333333333336
-300.0   150.0   33.333333333333336
-350.0   150.0   33.333333333333336
-300.0   150.0   50.0
-350.0   120.0   50.0
-350.0   150.0   50.0
-300.0   150.0   50.0
-350.0   150.0   33.333333333333336
-350.0   120.0   50.0
-300.0   150.0   50.0
-300.0   120.0   50.0
-300.0   120.0   33.333333333333336
-350.0   120.0   50.0
-300.0   150.0   50.0
-300.0   120.0   33.333333333333336
-350.0   150.0   33.333333333333336
-300.0   0.0   0.0
-250.0   0.0   0.0
-300.0   30.0   0.0
-300.0   0.0   16.666666666666668
-250.0   0.0   0.0
-250.0   30.0   0.0
-300.0   30.0   0.0
-250.0   30.0   16.666666666666668
-300.0   0.0   16.666666666666668
-300.0   30.0   16.666666666666668
-250.0   30.0   16.666666666666668
-300.0   30.0   0.0
-300.0   0.0   16.666666666666668
-250.0   30.0   16.666666666666668
-250.0   0.0   16.666666666666668
-250.0   0.0   0.0
-300.0   0.0   16.666666666666668
-250.0   30.0   16.666666666666668
-250.0   0.0   0.0
-300.0   30.0   0.0
-300.0   0.0   16.666666666666668
-250.0   0.0   16.666666666666668
-300.0   30.0   16.666666666666668
-300.0   0.0   33.333333333333336
-250.0   0.0   16.666666666666668
-250.0   30.0   16.666666666666668
-300.0   30.0   16.666666666666668
-250.0   30.0   33.333333333333336
-300.0   0.0   33.333333333333336
-300.0   30.0   33.333333333333336
-250.0   30.0   33.333333333333336
-300.0   30.0   16.666666666666668
-300.0   0.0   33.333333333333336
-250.0   30.0   33.333333333333336
-250.0   0.0   33.333333333333336
-250.0   0.0   16.666666666666668
-300.0   0.0   33.333333333333336
-250.0   30.0   33.333333333333336
-250.0   0.0   16.666666666666668
-300.0   30.0   16.666666666666668
-300.0   0.0   33.333333333333336
-250.0   0.0   33.333333333333336
-300.0   30.0   33.333333333333336
-300.0   0.0   50.0
-250.0   0.0   33.333333333333336
-250.0   30.0   33.333333333333336
-300.0   30.0   33.333333333333336
-250.0   30.0   50.0
-300.0   0.0   50.0
-300.0   30.0   50.0
-250.0   30.0   50.0
-300.0   30.0   33.333333333333336
-300.0   0.0   50.0
-250.0   30.0   50.0
-250.0   0.0   50.0
-250.0   0.0   33.333333333333336
-300.0   0.0   50.0
-250.0   30.0   50.0
-250.0   0.0   33.333333333333336
-300.0   30.0   33.333333333333336
-300.0   30.0   0.0
-250.0   30.0   0.0
-300.0   60.0   0.0
-300.0   30.0   16.666666666666668
-250.0   30.0   0.0
-250.0   60.0   0.0
-300.0   60.0   0.0
-250.0   60.0   16.666666666666668
-300.0   30.0   16.666666666666668
-300.0   60.0   16.666666666666668
-250.0   60.0   16.666666666666668
-300.0   60.0   0.0
-300.0   30.0   16.666666666666668
-250.0   60.0   16.666666666666668
-250.0   30.0   16.666666666666668
-250.0   30.0   0.0
-300.0   30.0   16.666666666666668
-250.0   60.0   16.666666666666668
-250.0   30.0   0.0
-300.0   60.0   0.0
-300.0   30.0   16.666666666666668
-250.0   30.0   16.666666666666668
-300.0   60.0   16.666666666666668
-300.0   30.0   33.333333333333336
-250.0   30.0   16.666666666666668
-250.0   60.0   16.666666666666668
-300.0   60.0   16.666666666666668
-250.0   60.0   33.333333333333336
-300.0   30.0   33.333333333333336
-300.0   60.0   33.333333333333336
-250.0   60.0   33.333333333333336
-300.0   60.0   16.666666666666668
-300.0   30.0   33.333333333333336
-250.0   60.0   33.333333333333336
-250.0   30.0   33.333333333333336
-250.0   30.0   16.666666666666668
-300.0   30.0   33.333333333333336
-250.0   60.0   33.333333333333336
-250.0   30.0   16.666666666666668
-300.0   60.0   16.666666666666668
-300.0   30.0   33.333333333333336
-250.0   30.0   33.333333333333336
-300.0   60.0   33.333333333333336
-300.0   30.0   50.0
-250.0   30.0   33.333333333333336
-250.0   60.0   33.333333333333336
-300.0   60.0   33.333333333333336
-250.0   60.0   50.0
-300.0   30.0   50.0
-300.0   60.0   50.0
-250.0   60.0   50.0
-300.0   60.0   33.333333333333336
-300.0   30.0   50.0
-250.0   60.0   50.0
-250.0   30.0   50.0
-250.0   30.0   33.333333333333336
-300.0   30.0   50.0
-250.0   60.0   50.0
-250.0   30.0   33.333333333333336
-300.0   60.0   33.333333333333336
-300.0   60.0   0.0
-250.0   60.0   0.0
-300.0   90.0   0.0
-300.0   60.0   16.666666666666668
-250.0   60.0   0.0
-250.0   90.0   0.0
-300.0   90.0   0.0
-250.0   90.0   16.666666666666668
-300.0   60.0   16.666666666666668
-300.0   90.0   16.666666666666668
-250.0   90.0   16.666666666666668
-300.0   90.0   0.0
-300.0   60.0   16.666666666666668
-250.0   90.0   16.666666666666668
-250.0   60.0   16.666666666666668
-250.0   60.0   0.0
-300.0   60.0   16.666666666666668
-250.0   90.0   16.666666666666668
-250.0   60.0   0.0
-300.0   90.0   0.0
-300.0   60.0   16.666666666666668
-250.0   60.0   16.666666666666668
-300.0   90.0   16.666666666666668
-300.0   60.0   33.333333333333336
-250.0   60.0   16.666666666666668
-250.0   90.0   16.666666666666668
-300.0   90.0   16.666666666666668
-250.0   90.0   33.333333333333336
-300.0   60.0   33.333333333333336
-300.0   90.0   33.333333333333336
-250.0   90.0   33.333333333333336
-300.0   90.0   16.666666666666668
-300.0   60.0   33.333333333333336
-250.0   90.0   33.333333333333336
-250.0   60.0   33.333333333333336
-250.0   60.0   16.666666666666668
-300.0   60.0   33.333333333333336
-250.0   90.0   33.333333333333336
-250.0   60.0   16.666666666666668
-300.0   90.0   16.666666666666668
-300.0   60.0   33.333333333333336
-250.0   60.0   33.333333333333336
-300.0   90.0   33.333333333333336
-300.0   60.0   50.0
-250.0   60.0   33.333333333333336
-250.0   90.0   33.333333333333336
-300.0   90.0   33.333333333333336
-250.0   90.0   50.0
-300.0   60.0   50.0
-300.0   90.0   50.0
-250.0   90.0   50.0
-300.0   90.0   33.333333333333336
-300.0   60.0   50.0
-250.0   90.0   50.0
-250.0   60.0   50.0
-250.0   60.0   33.333333333333336
-300.0   60.0   50.0
-250.0   90.0   50.0
-250.0   60.0   33.333333333333336
-300.0   90.0   33.333333333333336
-300.0   90.0   0.0
-250.0   90.0   0.0
-300.0   120.0   0.0
-300.0   90.0   16.666666666666668
-250.0   90.0   0.0
-250.0   120.0   0.0
-300.0   120.0   0.0
-250.0   120.0   16.666666666666668
-300.0   90.0   16.666666666666668
-300.0   120.0   16.666666666666668
-250.0   120.0   16.666666666666668
-300.0   120.0   0.0
-300.0   90.0   16.666666666666668
-250.0   120.0   16.666666666666668
-250.0   90.0   16.666666666666668
-250.0   90.0   0.0
-300.0   90.0   16.666666666666668
-250.0   120.0   16.666666666666668
-250.0   90.0   0.0
-300.0   120.0   0.0
-300.0   90.0   16.666666666666668
-250.0   90.0   16.666666666666668
-300.0   120.0   16.666666666666668
-300.0   90.0   33.333333333333336
-250.0   90.0   16.666666666666668
-250.0   120.0   16.666666666666668
-300.0   120.0   16.666666666666668
-250.0   120.0   33.333333333333336
-300.0   90.0   33.333333333333336
-300.0   120.0   33.333333333333336
-250.0   120.0   33.333333333333336
-300.0   120.0   16.666666666666668
-300.0   90.0   33.333333333333336
-250.0   120.0   33.333333333333336
-250.0   90.0   33.333333333333336
-250.0   90.0   16.666666666666668
-300.0   90.0   33.333333333333336
-250.0   120.0   33.333333333333336
-250.0   90.0   16.666666666666668
-300.0   120.0   16.666666666666668
-300.0   90.0   33.333333333333336
-250.0   90.0   33.333333333333336
-300.0   120.0   33.333333333333336
-300.0   90.0   50.0
-250.0   90.0   33.333333333333336
-250.0   120.0   33.333333333333336
-300.0   120.0   33.333333333333336
-250.0   120.0   50.0
-300.0   90.0   50.0
-300.0   120.0   50.0
-250.0   120.0   50.0
-300.0   120.0   33.333333333333336
-300.0   90.0   50.0
-250.0   120.0   50.0
-250.0   90.0   50.0
-250.0   90.0   33.333333333333336
-300.0   90.0   50.0
-250.0   120.0   50.0
-250.0   90.0   33.333333333333336
-300.0   120.0   33.333333333333336
-300.0   120.0   0.0
-250.0   120.0   0.0
-300.0   150.0   0.0
-300.0   120.0   16.666666666666668
-250.0   120.0   0.0
-250.0   150.0   0.0
-300.0   150.0   0.0
-250.0   150.0   16.666666666666668
-300.0   120.0   16.666666666666668
-300.0   150.0   16.666666666666668
-250.0   150.0   16.666666666666668
-300.0   150.0   0.0
-300.0   120.0   16.666666666666668
-250.0   150.0   16.666666666666668
-250.0   120.0   16.666666666666668
-250.0   120.0   0.0
-300.0   120.0   16.666666666666668
-250.0   150.0   16.666666666666668
-250.0   120.0   0.0
-300.0   150.0   0.0
-300.0   120.0   16.666666666666668
-250.0   120.0   16.666666666666668
-300.0   150.0   16.666666666666668
-300.0   120.0   33.333333333333336
-250.0   120.0   16.666666666666668
-250.0   150.0   16.666666666666668
-300.0   150.0   16.666666666666668
-250.0   150.0   33.333333333333336
-300.0   120.0   33.333333333333336
-300.0   150.0   33.333333333333336
-250.0   150.0   33.333333333333336
-300.0   150.0   16.666666666666668
-300.0   120.0   33.333333333333336
-250.0   150.0   33.333333333333336
-250.0   120.0   33.333333333333336
-250.0   120.0   16.666666666666668
-300.0   120.0   33.333333333333336
-250.0   150.0   33.333333333333336
-250.0   120.0   16.666666666666668
-300.0   150.0   16.666666666666668
-300.0   120.0   33.333333333333336
-250.0   120.0   33.333333333333336
-300.0   150.0   33.333333333333336
-300.0   120.0   50.0
-250.0   120.0   33.333333333333336
-250.0   150.0   33.333333333333336
-300.0   150.0   33.333333333333336
-250.0   150.0   50.0
-300.0   120.0   50.0
-300.0   150.0   50.0
-250.0   150.0   50.0
-300.0   150.0   33.333333333333336
-300.0   120.0   50.0
-250.0   150.0   50.0
-250.0   120.0   50.0
-250.0   120.0   33.333333333333336
-300.0   120.0   50.0
-250.0   150.0   50.0
-250.0   120.0   33.333333333333336
-300.0   150.0   33.333333333333336
-250.0   0.0   0.0
-200.0   0.0   0.0
-250.0   30.0   0.0
-250.0   0.0   16.666666666666668
-200.0   0.0   0.0
-200.0   30.0   0.0
-250.0   30.0   0.0
-200.0   30.0   16.666666666666668
-250.0   0.0   16.666666666666668
-250.0   30.0   16.666666666666668
-200.0   30.0   16.666666666666668
-250.0   30.0   0.0
-250.0   0.0   16.666666666666668
-200.0   30.0   16.666666666666668
-200.0   0.0   16.666666666666668
-200.0   0.0   0.0
-250.0   0.0   16.666666666666668
-200.0   30.0   16.666666666666668
-200.0   0.0   0.0
-250.0   30.0   0.0
-250.0   0.0   16.666666666666668
-200.0   0.0   16.666666666666668
-250.0   30.0   16.666666666666668
-250.0   0.0   33.333333333333336
-200.0   0.0   16.666666666666668
-200.0   30.0   16.666666666666668
-250.0   30.0   16.666666666666668
-200.0   30.0   33.333333333333336
-250.0   0.0   33.333333333333336
-250.0   30.0   33.333333333333336
-200.0   30.0   33.333333333333336
-250.0   30.0   16.666666666666668
-250.0   0.0   33.333333333333336
-200.0   30.0   33.333333333333336
-200.0   0.0   33.333333333333336
-200.0   0.0   16.666666666666668
-250.0   0.0   33.333333333333336
-200.0   30.0   33.333333333333336
-200.0   0.0   16.666666666666668
-250.0   30.0   16.666666666666668
-250.0   0.0   33.333333333333336
-200.0   0.0   33.333333333333336
-250.0   30.0   33.333333333333336
-250.0   0.0   50.0
-200.0   0.0   33.333333333333336
-200.0   30.0   33.333333333333336
-250.0   30.0   33.333333333333336
-200.0   30.0   50.0
-250.0   0.0   50.0
-250.0   30.0   50.0
-200.0   30.0   50.0
-250.0   30.0   33.333333333333336
-250.0   0.0   50.0
-200.0   30.0   50.0
-200.0   0.0   50.0
-200.0   0.0   33.333333333333336
-250.0   0.0   50.0
-200.0   30.0   50.0
-200.0   0.0   33.333333333333336
-250.0   30.0   33.333333333333336
-250.0   30.0   0.0
-200.0   30.0   0.0
-250.0   60.0   0.0
-250.0   30.0   16.666666666666668
-200.0   30.0   0.0
-200.0   60.0   0.0
-250.0   60.0   0.0
-200.0   60.0   16.666666666666668
-250.0   30.0   16.666666666666668
-250.0   60.0   16.666666666666668
-200.0   60.0   16.666666666666668
-250.0   60.0   0.0
-250.0   30.0   16.666666666666668
-200.0   60.0   16.666666666666668
-200.0   30.0   16.666666666666668
-200.0   30.0   0.0
-250.0   30.0   16.666666666666668
-200.0   60.0   16.666666666666668
-200.0   30.0   0.0
-250.0   60.0   0.0
-250.0   30.0   16.666666666666668
-200.0   30.0   16.666666666666668
-250.0   60.0   16.666666666666668
-250.0   30.0   33.333333333333336
-200.0   30.0   16.666666666666668
-200.0   60.0   16.666666666666668
-250.0   60.0   16.666666666666668
-200.0   60.0   33.333333333333336
-250.0   30.0   33.333333333333336
-250.0   60.0   33.333333333333336
-200.0   60.0   33.333333333333336
-250.0   60.0   16.666666666666668
-250.0   30.0   33.333333333333336
-200.0   60.0   33.333333333333336
-200.0   30.0   33.333333333333336
-200.0   30.0   16.666666666666668
-250.0   30.0   33.333333333333336
-200.0   60.0   33.333333333333336
-200.0   30.0   16.666666666666668
-250.0   60.0   16.666666666666668
-250.0   30.0   33.333333333333336
-200.0   30.0   33.333333333333336
-250.0   60.0   33.333333333333336
-250.0   30.0   50.0
-200.0   30.0   33.333333333333336
-200.0   60.0   33.333333333333336
-250.0   60.0   33.333333333333336
-200.0   60.0   50.0
-250.0   30.0   50.0
-250.0   60.0   50.0
-200.0   60.0   50.0
-250.0   60.0   33.333333333333336
-250.0   30.0   50.0
-200.0   60.0   50.0
-200.0   30.0   50.0
-200.0   30.0   33.333333333333336
-250.0   30.0   50.0
-200.0   60.0   50.0
-200.0   30.0   33.333333333333336
-250.0   60.0   33.333333333333336
-250.0   60.0   0.0
-200.0   60.0   0.0
-250.0   90.0   0.0
-250.0   60.0   16.666666666666668
-200.0   60.0   0.0
-200.0   90.0   0.0
-250.0   90.0   0.0
-200.0   90.0   16.666666666666668
-250.0   60.0   16.666666666666668
-250.0   90.0   16.666666666666668
-200.0   90.0   16.666666666666668
-250.0   90.0   0.0
-250.0   60.0   16.666666666666668
-200.0   90.0   16.666666666666668
-200.0   60.0   16.666666666666668
-200.0   60.0   0.0
-250.0   60.0   16.666666666666668
-200.0   90.0   16.666666666666668
-200.0   60.0   0.0
-250.0   90.0   0.0
-250.0   60.0   16.666666666666668
-200.0   60.0   16.666666666666668
-250.0   90.0   16.666666666666668
-250.0   60.0   33.333333333333336
-200.0   60.0   16.666666666666668
-200.0   90.0   16.666666666666668
-250.0   90.0   16.666666666666668
-200.0   90.0   33.333333333333336
-250.0   60.0   33.333333333333336
-250.0   90.0   33.333333333333336
-200.0   90.0   33.333333333333336
-250.0   90.0   16.666666666666668
-250.0   60.0   33.333333333333336
-200.0   90.0   33.333333333333336
-200.0   60.0   33.333333333333336
-200.0   60.0   16.666666666666668
-250.0   60.0   33.333333333333336
-200.0   90.0   33.333333333333336
-200.0   60.0   16.666666666666668
-250.0   90.0   16.666666666666668
-250.0   60.0   33.333333333333336
-200.0   60.0   33.333333333333336
-250.0   90.0   33.333333333333336
-250.0   60.0   50.0
-200.0   60.0   33.333333333333336
-200.0   90.0   33.333333333333336
-250.0   90.0   33.333333333333336
-200.0   90.0   50.0
-250.0   60.0   50.0
-250.0   90.0   50.0
-200.0   90.0   50.0
-250.0   90.0   33.333333333333336
-250.0   60.0   50.0
-200.0   90.0   50.0
-200.0   60.0   50.0
-200.0   60.0   33.333333333333336
-250.0   60.0   50.0
-200.0   90.0   50.0
-200.0   60.0   33.333333333333336
-250.0   90.0   33.333333333333336
-250.0   90.0   0.0
-200.0   90.0   0.0
-250.0   120.0   0.0
-250.0   90.0   16.666666666666668
-200.0   90.0   0.0
-200.0   120.0   0.0
-250.0   120.0   0.0
-200.0   120.0   16.666666666666668
-250.0   90.0   16.666666666666668
-250.0   120.0   16.666666666666668
-200.0   120.0   16.666666666666668
-250.0   120.0   0.0
-250.0   90.0   16.666666666666668
-200.0   120.0   16.666666666666668
-200.0   90.0   16.666666666666668
-200.0   90.0   0.0
-250.0   90.0   16.666666666666668
-200.0   120.0   16.666666666666668
-200.0   90.0   0.0
-250.0   120.0   0.0
-250.0   90.0   16.666666666666668
-200.0   90.0   16.666666666666668
-250.0   120.0   16.666666666666668
-250.0   90.0   33.333333333333336
-200.0   90.0   16.666666666666668
-200.0   120.0   16.666666666666668
-250.0   120.0   16.666666666666668
-200.0   120.0   33.333333333333336
-250.0   90.0   33.333333333333336
-250.0   120.0   33.333333333333336
-200.0   120.0   33.333333333333336
-250.0   120.0   16.666666666666668
-250.0   90.0   33.333333333333336
-200.0   120.0   33.333333333333336
-200.0   90.0   33.333333333333336
-200.0   90.0   16.666666666666668
-250.0   90.0   33.333333333333336
-200.0   120.0   33.333333333333336
-200.0   90.0   16.666666666666668
-250.0   120.0   16.666666666666668
-250.0   90.0   33.333333333333336
-200.0   90.0   33.333333333333336
-250.0   120.0   33.333333333333336
-250.0   90.0   50.0
-200.0   90.0   33.333333333333336
-200.0   120.0   33.333333333333336
-250.0   120.0   33.333333333333336
-200.0   120.0   50.0
-250.0   90.0   50.0
-250.0   120.0   50.0
-200.0   120.0   50.0
-250.0   120.0   33.333333333333336
-250.0   90.0   50.0
-200.0   120.0   50.0
-200.0   90.0   50.0
-200.0   90.0   33.333333333333336
-250.0   90.0   50.0
-200.0   120.0   50.0
-200.0   90.0   33.333333333333336
-250.0   120.0   33.333333333333336
-250.0   120.0   0.0
-200.0   120.0   0.0
-250.0   150.0   0.0
-250.0   120.0   16.666666666666668
-200.0   120.0   0.0
-200.0   150.0   0.0
-250.0   150.0   0.0
-200.0   150.0   16.666666666666668
-250.0   120.0   16.666666666666668
-250.0   150.0   16.666666666666668
-200.0   150.0   16.666666666666668
-250.0   150.0   0.0
-250.0   120.0   16.666666666666668
-200.0   150.0   16.666666666666668
-200.0   120.0   16.666666666666668
-200.0   120.0   0.0
-250.0   120.0   16.666666666666668
-200.0   150.0   16.666666666666668
-200.0   120.0   0.0
-250.0   150.0   0.0
-250.0   120.0   16.666666666666668
-200.0   120.0   16.666666666666668
-250.0   150.0   16.666666666666668
-250.0   120.0   33.333333333333336
-200.0   120.0   16.666666666666668
-200.0   150.0   16.666666666666668
-250.0   150.0   16.666666666666668
-200.0   150.0   33.333333333333336
-250.0   120.0   33.333333333333336
-250.0   150.0   33.333333333333336
-200.0   150.0   33.333333333333336
-250.0   150.0   16.666666666666668
-250.0   120.0   33.333333333333336
-200.0   150.0   33.333333333333336
-200.0   120.0   33.333333333333336
-200.0   120.0   16.666666666666668
-250.0   120.0   33.333333333333336
-200.0   150.0   33.333333333333336
-200.0   120.0   16.666666666666668
-250.0   150.0   16.666666666666668
-250.0   120.0   33.333333333333336
-200.0   120.0   33.333333333333336
-250.0   150.0   33.333333333333336
-250.0   120.0   50.0
-200.0   120.0   33.333333333333336
-200.0   150.0   33.333333333333336
-250.0   150.0   33.333333333333336
-200.0   150.0   50.0
-250.0   120.0   50.0
-250.0   150.0   50.0
-200.0   150.0   50.0
-250.0   150.0   33.333333333333336
-250.0   120.0   50.0
-200.0   150.0   50.0
-200.0   120.0   50.0
-200.0   120.0   33.333333333333336
-250.0   120.0   50.0
-200.0   150.0   50.0
-200.0   120.0   33.333333333333336
-250.0   150.0   33.333333333333336
-200.0   0.0   0.0
-150.0   0.0   0.0
-200.0   30.0   0.0
-200.0   0.0   16.666666666666668
-150.0   0.0   0.0
-150.0   30.0   0.0
-200.0   30.0   0.0
-150.0   30.0   16.666666666666668
-200.0   0.0   16.666666666666668
-200.0   30.0   16.666666666666668
-150.0   30.0   16.666666666666668
-200.0   30.0   0.0
-200.0   0.0   16.666666666666668
-150.0   30.0   16.666666666666668
-150.0   0.0   16.666666666666668
-150.0   0.0   0.0
-200.0   0.0   16.666666666666668
-150.0   30.0   16.666666666666668
-150.0   0.0   0.0
-200.0   30.0   0.0
-200.0   0.0   16.666666666666668
-150.0   0.0   16.666666666666668
-200.0   30.0   16.666666666666668
-200.0   0.0   33.333333333333336
-150.0   0.0   16.666666666666668
-150.0   30.0   16.666666666666668
-200.0   30.0   16.666666666666668
-150.0   30.0   33.333333333333336
-200.0   0.0   33.333333333333336
-200.0   30.0   33.333333333333336
-150.0   30.0   33.333333333333336
-200.0   30.0   16.666666666666668
-200.0   0.0   33.333333333333336
-150.0   30.0   33.333333333333336
-150.0   0.0   33.333333333333336
-150.0   0.0   16.666666666666668
-200.0   0.0   33.333333333333336
-150.0   30.0   33.333333333333336
-150.0   0.0   16.666666666666668
-200.0   30.0   16.666666666666668
-200.0   0.0   33.333333333333336
-150.0   0.0   33.333333333333336
-200.0   30.0   33.333333333333336
-200.0   0.0   50.0
-150.0   0.0   33.333333333333336
-150.0   30.0   33.333333333333336
-200.0   30.0   33.333333333333336
-150.0   30.0   50.0
-200.0   0.0   50.0
-200.0   30.0   50.0
-150.0   30.0   50.0
-200.0   30.0   33.333333333333336
-200.0   0.0   50.0
-150.0   30.0   50.0
-150.0   0.0   50.0
-150.0   0.0   33.333333333333336
-200.0   0.0   50.0
-150.0   30.0   50.0
-150.0   0.0   33.333333333333336
-200.0   30.0   33.333333333333336
-200.0   30.0   0.0
-150.0   30.0   0.0
-200.0   60.0   0.0
-200.0   30.0   16.666666666666668
-150.0   30.0   0.0
-150.0   60.0   0.0
-200.0   60.0   0.0
-150.0   60.0   16.666666666666668
-200.0   30.0   16.666666666666668
-200.0   60.0   16.666666666666668
-150.0   60.0   16.666666666666668
-200.0   60.0   0.0
-200.0   30.0   16.666666666666668
-150.0   60.0   16.666666666666668
-150.0   30.0   16.666666666666668
-150.0   30.0   0.0
-200.0   30.0   16.666666666666668
-150.0   60.0   16.666666666666668
-150.0   30.0   0.0
-200.0   60.0   0.0
-200.0   30.0   16.666666666666668
-150.0   30.0   16.666666666666668
-200.0   60.0   16.666666666666668
-200.0   30.0   33.333333333333336
-150.0   30.0   16.666666666666668
-150.0   60.0   16.666666666666668
-200.0   60.0   16.666666666666668
-150.0   60.0   33.333333333333336
-200.0   30.0   33.333333333333336
-200.0   60.0   33.333333333333336
-150.0   60.0   33.333333333333336
-200.0   60.0   16.666666666666668
-200.0   30.0   33.333333333333336
-150.0   60.0   33.333333333333336
-150.0   30.0   33.333333333333336
-150.0   30.0   16.666666666666668
-200.0   30.0   33.333333333333336
-150.0   60.0   33.333333333333336
-150.0   30.0   16.666666666666668
-200.0   60.0   16.666666666666668
-200.0   30.0   33.333333333333336
-150.0   30.0   33.333333333333336
-200.0   60.0   33.333333333333336
-200.0   30.0   50.0
-150.0   30.0   33.333333333333336
-150.0   60.0   33.333333333333336
-200.0   60.0   33.333333333333336
-150.0   60.0   50.0
-200.0   30.0   50.0
-200.0   60.0   50.0
-150.0   60.0   50.0
-200.0   60.0   33.333333333333336
-200.0   30.0   50.0
-150.0   60.0   50.0
-150.0   30.0   50.0
-150.0   30.0   33.333333333333336
-200.0   30.0   50.0
-150.0   60.0   50.0
-150.0   30.0   33.333333333333336
-200.0   60.0   33.333333333333336
-200.0   60.0   0.0
-150.0   60.0   0.0
-200.0   90.0   0.0
-200.0   60.0   16.666666666666668
-150.0   60.0   0.0
-150.0   90.0   0.0
-200.0   90.0   0.0
-150.0   90.0   16.666666666666668
-200.0   60.0   16.666666666666668
-200.0   90.0   16.666666666666668
-150.0   90.0   16.666666666666668
-200.0   90.0   0.0
-200.0   60.0   16.666666666666668
-150.0   90.0   16.666666666666668
-150.0   60.0   16.666666666666668
-150.0   60.0   0.0
-200.0   60.0   16.666666666666668
-150.0   90.0   16.666666666666668
-150.0   60.0   0.0
-200.0   90.0   0.0
-200.0   60.0   16.666666666666668
-150.0   60.0   16.666666666666668
-200.0   90.0   16.666666666666668
-200.0   60.0   33.333333333333336
-150.0   60.0   16.666666666666668
-150.0   90.0   16.666666666666668
-200.0   90.0   16.666666666666668
-150.0   90.0   33.333333333333336
-200.0   60.0   33.333333333333336
-200.0   90.0   33.333333333333336
-150.0   90.0   33.333333333333336
-200.0   90.0   16.666666666666668
-200.0   60.0   33.333333333333336
-150.0   90.0   33.333333333333336
-150.0   60.0   33.333333333333336
-150.0   60.0   16.666666666666668
-200.0   60.0   33.333333333333336
-150.0   90.0   33.333333333333336
-150.0   60.0   16.666666666666668
-200.0   90.0   16.666666666666668
-200.0   60.0   33.333333333333336
-150.0   60.0   33.333333333333336
-200.0   90.0   33.333333333333336
-200.0   60.0   50.0
-150.0   60.0   33.333333333333336
-150.0   90.0   33.333333333333336
-200.0   90.0   33.333333333333336
-150.0   90.0   50.0
-200.0   60.0   50.0
-200.0   90.0   50.0
-150.0   90.0   50.0
-200.0   90.0   33.333333333333336
-200.0   60.0   50.0
-150.0   90.0   50.0
-150.0   60.0   50.0
-150.0   60.0   33.333333333333336
-200.0   60.0   50.0
-150.0   90.0   50.0
-150.0   60.0   33.333333333333336
-200.0   90.0   33.333333333333336
-200.0   90.0   0.0
-150.0   90.0   0.0
-200.0   120.0   0.0
-200.0   90.0   16.666666666666668
-150.0   90.0   0.0
-150.0   120.0   0.0
-200.0   120.0   0.0
-150.0   120.0   16.666666666666668
-200.0   90.0   16.666666666666668
-200.0   120.0   16.666666666666668
-150.0   120.0   16.666666666666668
-200.0   120.0   0.0
-200.0   90.0   16.666666666666668
-150.0   120.0   16.666666666666668
-150.0   90.0   16.666666666666668
-150.0   90.0   0.0
-200.0   90.0   16.666666666666668
-150.0   120.0   16.666666666666668
-150.0   90.0   0.0
-200.0   120.0   0.0
-200.0   90.0   16.666666666666668
-150.0   90.0   16.666666666666668
-200.0   120.0   16.666666666666668
-200.0   90.0   33.333333333333336
-150.0   90.0   16.666666666666668
-150.0   120.0   16.666666666666668
-200.0   120.0   16.666666666666668
-150.0   120.0   33.333333333333336
-200.0   90.0   33.333333333333336
-200.0   120.0   33.333333333333336
-150.0   120.0   33.333333333333336
-200.0   120.0   16.666666666666668
-200.0   90.0   33.333333333333336
-150.0   120.0   33.333333333333336
-150.0   90.0   33.333333333333336
-150.0   90.0   16.666666666666668
-200.0   90.0   33.333333333333336
-150.0   120.0   33.333333333333336
-150.0   90.0   16.666666666666668
-200.0   120.0   16.666666666666668
-200.0   90.0   33.333333333333336
-150.0   90.0   33.333333333333336
-200.0   120.0   33.333333333333336
-200.0   90.0   50.0
-150.0   90.0   33.333333333333336
-150.0   120.0   33.333333333333336
-200.0   120.0   33.333333333333336
-150.0   120.0   50.0
-200.0   90.0   50.0
-200.0   120.0   50.0
-150.0   120.0   50.0
-200.0   120.0   33.333333333333336
-200.0   90.0   50.0
-150.0   120.0   50.0
-150.0   90.0   50.0
-150.0   90.0   33.333333333333336
-200.0   90.0   50.0
-150.0   120.0   50.0
-150.0   90.0   33.333333333333336
-200.0   120.0   33.333333333333336
-200.0   120.0   0.0
-150.0   120.0   0.0
-200.0   150.0   0.0
-200.0   120.0   16.666666666666668
-150.0   120.0   0.0
-150.0   150.0   0.0
-200.0   150.0   0.0
-150.0   150.0   16.666666666666668
-200.0   120.0   16.666666666666668
-200.0   150.0   16.666666666666668
-150.0   150.0   16.666666666666668
-200.0   150.0   0.0
-200.0   120.0   16.666666666666668
-150.0   150.0   16.666666666666668
-150.0   120.0   16.666666666666668
-150.0   120.0   0.0
-200.0   120.0   16.666666666666668
-150.0   150.0   16.666666666666668
-150.0   120.0   0.0
-200.0   150.0   0.0
-200.0   120.0   16.666666666666668
-150.0   120.0   16.666666666666668
-200.0   150.0   16.666666666666668
-200.0   120.0   33.333333333333336
-150.0   120.0   16.666666666666668
-150.0   150.0   16.666666666666668
-200.0   150.0   16.666666666666668
-150.0   150.0   33.333333333333336
-200.0   120.0   33.333333333333336
-200.0   150.0   33.333333333333336
-150.0   150.0   33.333333333333336
-200.0   150.0   16.666666666666668
-200.0   120.0   33.333333333333336
-150.0   150.0   33.333333333333336
-150.0   120.0   33.333333333333336
-150.0   120.0   16.666666666666668
-200.0   120.0   33.333333333333336
-150.0   150.0   33.333333333333336
-150.0   120.0   16.666666666666668
-200.0   150.0   16.666666666666668
-200.0   120.0   33.333333333333336
-150.0   120.0   33.333333333333336
-200.0   150.0   33.333333333333336
-200.0   120.0   50.0
-150.0   120.0   33.333333333333336
-150.0   150.0   33.333333333333336
-200.0   150.0   33.333333333333336
-150.0   150.0   50.0
-200.0   120.0   50.0
-200.0   150.0   50.0
-150.0   150.0   50.0
-200.0   150.0   33.333333333333336
-200.0   120.0   50.0
-150.0   150.0   50.0
-150.0   120.0   50.0
-150.0   120.0   33.333333333333336
-200.0   120.0   50.0
-150.0   150.0   50.0
-150.0   120.0   33.333333333333336
-200.0   150.0   33.333333333333336
-150.0   0.0   0.0
-100.0   0.0   0.0
-150.0   30.0   0.0
-150.0   0.0   16.666666666666668
-100.0   0.0   0.0
-100.0   30.0   0.0
-150.0   30.0   0.0
-100.0   30.0   16.666666666666668
-150.0   0.0   16.666666666666668
-150.0   30.0   16.666666666666668
-100.0   30.0   16.666666666666668
-150.0   30.0   0.0
-150.0   0.0   16.666666666666668
-100.0   30.0   16.666666666666668
-100.0   0.0   16.666666666666668
-100.0   0.0   0.0
-150.0   0.0   16.666666666666668
-100.0   30.0   16.666666666666668
-100.0   0.0   0.0
-150.0   30.0   0.0
-150.0   0.0   16.666666666666668
-100.0   0.0   16.666666666666668
-150.0   30.0   16.666666666666668
-150.0   0.0   33.333333333333336
-100.0   0.0   16.666666666666668
-100.0   30.0   16.666666666666668
-150.0   30.0   16.666666666666668
-100.0   30.0   33.333333333333336
-150.0   0.0   33.333333333333336
-150.0   30.0   33.333333333333336
-100.0   30.0   33.333333333333336
-150.0   30.0   16.666666666666668
-150.0   0.0   33.333333333333336
-100.0   30.0   33.333333333333336
-100.0   0.0   33.333333333333336
-100.0   0.0   16.666666666666668
-150.0   0.0   33.333333333333336
-100.0   30.0   33.333333333333336
-100.0   0.0   16.666666666666668
-150.0   30.0   16.666666666666668
-150.0   0.0   33.333333333333336
-100.0   0.0   33.333333333333336
-150.0   30.0   33.333333333333336
-150.0   0.0   50.0
-100.0   0.0   33.333333333333336
-100.0   30.0   33.333333333333336
-150.0   30.0   33.333333333333336
-100.0   30.0   50.0
-150.0   0.0   50.0
-150.0   30.0   50.0
-100.0   30.0   50.0
-150.0   30.0   33.333333333333336
-150.0   0.0   50.0
-100.0   30.0   50.0
-100.0   0.0   50.0
-100.0   0.0   33.333333333333336
-150.0   0.0   50.0
-100.0   30.0   50.0
-100.0   0.0   33.333333333333336
-150.0   30.0   33.333333333333336
-150.0   30.0   0.0
-100.0   30.0   0.0
-150.0   60.0   0.0
-150.0   30.0   16.666666666666668
-100.0   30.0   0.0
-100.0   60.0   0.0
-150.0   60.0   0.0
-100.0   60.0   16.666666666666668
-150.0   30.0   16.666666666666668
-150.0   60.0   16.666666666666668
-100.0   60.0   16.666666666666668
-150.0   60.0   0.0
-150.0   30.0   16.666666666666668
-100.0   60.0   16.666666666666668
-100.0   30.0   16.666666666666668
-100.0   30.0   0.0
-150.0   30.0   16.666666666666668
-100.0   60.0   16.666666666666668
-100.0   30.0   0.0
-150.0   60.0   0.0
-150.0   30.0   16.666666666666668
-100.0   30.0   16.666666666666668
-150.0   60.0   16.666666666666668
-150.0   30.0   33.333333333333336
-100.0   30.0   16.666666666666668
-100.0   60.0   16.666666666666668
-150.0   60.0   16.666666666666668
-100.0   60.0   33.333333333333336
-150.0   30.0   33.333333333333336
-150.0   60.0   33.333333333333336
-100.0   60.0   33.333333333333336
-150.0   60.0   16.666666666666668
-150.0   30.0   33.333333333333336
-100.0   60.0   33.333333333333336
-100.0   30.0   33.333333333333336
-100.0   30.0   16.666666666666668
-150.0   30.0   33.333333333333336
-100.0   60.0   33.333333333333336
-100.0   30.0   16.666666666666668
-150.0   60.0   16.666666666666668
-150.0   30.0   33.333333333333336
-100.0   30.0   33.333333333333336
-150.0   60.0   33.333333333333336
-150.0   30.0   50.0
-100.0   30.0   33.333333333333336
-100.0   60.0   33.333333333333336
-150.0   60.0   33.333333333333336
-100.0   60.0   50.0
-150.0   30.0   50.0
-150.0   60.0   50.0
-100.0   60.0   50.0
-150.0   60.0   33.333333333333336
-150.0   30.0   50.0
-100.0   60.0   50.0
-100.0   30.0   50.0
-100.0   30.0   33.333333333333336
-150.0   30.0   50.0
-100.0   60.0   50.0
-100.0   30.0   33.333333333333336
-150.0   60.0   33.333333333333336
-150.0   60.0   0.0
-100.0   60.0   0.0
-150.0   90.0   0.0
-150.0   60.0   16.666666666666668
-100.0   60.0   0.0
-100.0   90.0   0.0
-150.0   90.0   0.0
-100.0   90.0   16.666666666666668
-150.0   60.0   16.666666666666668
-150.0   90.0   16.666666666666668
-100.0   90.0   16.666666666666668
-150.0   90.0   0.0
-150.0   60.0   16.666666666666668
-100.0   90.0   16.666666666666668
-100.0   60.0   16.666666666666668
-100.0   60.0   0.0
-150.0   60.0   16.666666666666668
-100.0   90.0   16.666666666666668
-100.0   60.0   0.0
-150.0   90.0   0.0
-150.0   60.0   16.666666666666668
-100.0   60.0   16.666666666666668
-150.0   90.0   16.666666666666668
-150.0   60.0   33.333333333333336
-100.0   60.0   16.666666666666668
-100.0   90.0   16.666666666666668
-150.0   90.0   16.666666666666668
-100.0   90.0   33.333333333333336
-150.0   60.0   33.333333333333336
-150.0   90.0   33.333333333333336
-100.0   90.0   33.333333333333336
-150.0   90.0   16.666666666666668
-150.0   60.0   33.333333333333336
-100.0   90.0   33.333333333333336
-100.0   60.0   33.333333333333336
-100.0   60.0   16.666666666666668
-150.0   60.0   33.333333333333336
-100.0   90.0   33.333333333333336
-100.0   60.0   16.666666666666668
-150.0   90.0   16.666666666666668
-150.0   60.0   33.333333333333336
-100.0   60.0   33.333333333333336
-150.0   90.0   33.333333333333336
-150.0   60.0   50.0
-100.0   60.0   33.333333333333336
-100.0   90.0   33.333333333333336
-150.0   90.0   33.333333333333336
-100.0   90.0   50.0
-150.0   60.0   50.0
-150.0   90.0   50.0
-100.0   90.0   50.0
-150.0   90.0   33.333333333333336
-150.0   60.0   50.0
-100.0   90.0   50.0
-100.0   60.0   50.0
-100.0   60.0   33.333333333333336
-150.0   60.0   50.0
-100.0   90.0   50.0
-100.0   60.0   33.333333333333336
-150.0   90.0   33.333333333333336
-150.0   90.0   0.0
-100.0   90.0   0.0
-150.0   120.0   0.0
-150.0   90.0   16.666666666666668
-100.0   90.0   0.0
-100.0   120.0   0.0
-150.0   120.0   0.0
-100.0   120.0   16.666666666666668
-150.0   90.0   16.666666666666668
-150.0   120.0   16.666666666666668
-100.0   120.0   16.666666666666668
-150.0   120.0   0.0
-150.0   90.0   16.666666666666668
-100.0   120.0   16.666666666666668
-100.0   90.0   16.666666666666668
-100.0   90.0   0.0
-150.0   90.0   16.666666666666668
-100.0   120.0   16.666666666666668
-100.0   90.0   0.0
-150.0   120.0   0.0
-150.0   90.0   16.666666666666668
-100.0   90.0   16.666666666666668
-150.0   120.0   16.666666666666668
-150.0   90.0   33.333333333333336
-100.0   90.0   16.666666666666668
-100.0   120.0   16.666666666666668
-150.0   120.0   16.666666666666668
-100.0   120.0   33.333333333333336
-150.0   90.0   33.333333333333336
-150.0   120.0   33.333333333333336
-100.0   120.0   33.333333333333336
-150.0   120.0   16.666666666666668
-150.0   90.0   33.333333333333336
-100.0   120.0   33.333333333333336
-100.0   90.0   33.333333333333336
-100.0   90.0   16.666666666666668
-150.0   90.0   33.333333333333336
-100.0   120.0   33.333333333333336
-100.0   90.0   16.666666666666668
-150.0   120.0   16.666666666666668
-150.0   90.0   33.333333333333336
-100.0   90.0   33.333333333333336
-150.0   120.0   33.333333333333336
-150.0   90.0   50.0
-100.0   90.0   33.333333333333336
-100.0   120.0   33.333333333333336
-150.0   120.0   33.333333333333336
-100.0   120.0   50.0
-150.0   90.0   50.0
-150.0   120.0   50.0
-100.0   120.0   50.0
-150.0   120.0   33.333333333333336
-150.0   90.0   50.0
-100.0   120.0   50.0
-100.0   90.0   50.0
-100.0   90.0   33.333333333333336
-150.0   90.0   50.0
-100.0   120.0   50.0
-100.0   90.0   33.333333333333336
-150.0   120.0   33.333333333333336
-150.0   120.0   0.0
-100.0   120.0   0.0
-150.0   150.0   0.0
-150.0   120.0   16.666666666666668
-100.0   120.0   0.0
-100.0   150.0   0.0
-150.0   150.0   0.0
-100.0   150.0   16.666666666666668
-150.0   120.0   16.666666666666668
-150.0   150.0   16.666666666666668
-100.0   150.0   16.666666666666668
-150.0   150.0   0.0
-150.0   120.0   16.666666666666668
-100.0   150.0   16.666666666666668
-100.0   120.0   16.666666666666668
-100.0   120.0   0.0
-150.0   120.0   16.666666666666668
-100.0   150.0   16.666666666666668
-100.0   120.0   0.0
-150.0   150.0   0.0
-150.0   120.0   16.666666666666668
-100.0   120.0   16.666666666666668
-150.0   150.0   16.666666666666668
-150.0   120.0   33.333333333333336
-100.0   120.0   16.666666666666668
-100.0   150.0   16.666666666666668
-150.0   150.0   16.666666666666668
-100.0   150.0   33.333333333333336
-150.0   120.0   33.333333333333336
-150.0   150.0   33.333333333333336
-100.0   150.0   33.333333333333336
-150.0   150.0   16.666666666666668
-150.0   120.0   33.333333333333336
-100.0   150.0   33.333333333333336
-100.0   120.0   33.333333333333336
-100.0   120.0   16.666666666666668
-150.0   120.0   33.333333333333336
-100.0   150.0   33.333333333333336
-100.0   120.0   16.666666666666668
-150.0   150.0   16.666666666666668
-150.0   120.0   33.333333333333336
-100.0   120.0   33.333333333333336
-150.0   150.0   33.333333333333336
-150.0   120.0   50.0
-100.0   120.0   33.333333333333336
-100.0   150.0   33.333333333333336
-150.0   150.0   33.333333333333336
-100.0   150.0   50.0
-150.0   120.0   50.0
-150.0   150.0   50.0
-100.0   150.0   50.0
-150.0   150.0   33.333333333333336
-150.0   120.0   50.0
-100.0   150.0   50.0
-100.0   120.0   50.0
-100.0   120.0   33.333333333333336
-150.0   120.0   50.0
-100.0   150.0   50.0
-100.0   120.0   33.333333333333336
-150.0   150.0   33.333333333333336
-100.0   0.0   0.0
-50.0   0.0   0.0
-100.0   30.0   0.0
-100.0   0.0   16.666666666666668
-50.0   0.0   0.0
-50.0   30.0   0.0
-100.0   30.0   0.0
-50.0   30.0   16.666666666666668
-100.0   0.0   16.666666666666668
-100.0   30.0   16.666666666666668
-50.0   30.0   16.666666666666668
-100.0   30.0   0.0
-100.0   0.0   16.666666666666668
-50.0   30.0   16.666666666666668
-50.0   0.0   16.666666666666668
-50.0   0.0   0.0
-100.0   0.0   16.666666666666668
-50.0   30.0   16.666666666666668
-50.0   0.0   0.0
-100.0   30.0   0.0
-100.0   0.0   16.666666666666668
-50.0   0.0   16.666666666666668
-100.0   30.0   16.666666666666668
-100.0   0.0   33.333333333333336
-50.0   0.0   16.666666666666668
-50.0   30.0   16.666666666666668
-100.0   30.0   16.666666666666668
-50.0   30.0   33.333333333333336
-100.0   0.0   33.333333333333336
-100.0   30.0   33.333333333333336
-50.0   30.0   33.333333333333336
-100.0   30.0   16.666666666666668
-100.0   0.0   33.333333333333336
-50.0   30.0   33.333333333333336
-50.0   0.0   33.333333333333336
-50.0   0.0   16.666666666666668
-100.0   0.0   33.333333333333336
-50.0   30.0   33.333333333333336
-50.0   0.0   16.666666666666668
-100.0   30.0   16.666666666666668
-100.0   0.0   33.333333333333336
-50.0   0.0   33.333333333333336
-100.0   30.0   33.333333333333336
-100.0   0.0   50.0
-50.0   0.0   33.333333333333336
-50.0   30.0   33.333333333333336
-100.0   30.0   33.333333333333336
-50.0   30.0   50.0
-100.0   0.0   50.0
-100.0   30.0   50.0
-50.0   30.0   50.0
-100.0   30.0   33.333333333333336
-100.0   0.0   50.0
-50.0   30.0   50.0
-50.0   0.0   50.0
-50.0   0.0   33.333333333333336
-100.0   0.0   50.0
-50.0   30.0   50.0
-50.0   0.0   33.333333333333336
-100.0   30.0   33.333333333333336
-100.0   30.0   0.0
-50.0   30.0   0.0
-100.0   60.0   0.0
-100.0   30.0   16.666666666666668
-50.0   30.0   0.0
-50.0   60.0   0.0
-100.0   60.0   0.0
-50.0   60.0   16.666666666666668
-100.0   30.0   16.666666666666668
-100.0   60.0   16.666666666666668
-50.0   60.0   16.666666666666668
-100.0   60.0   0.0
-100.0   30.0   16.666666666666668
-50.0   60.0   16.666666666666668
-50.0   30.0   16.666666666666668
-50.0   30.0   0.0
-100.0   30.0   16.666666666666668
-50.0   60.0   16.666666666666668
-50.0   30.0   0.0
-100.0   60.0   0.0
-100.0   30.0   16.666666666666668
-50.0   30.0   16.666666666666668
-100.0   60.0   16.666666666666668
-100.0   30.0   33.333333333333336
-50.0   30.0   16.666666666666668
-50.0   60.0   16.666666666666668
-100.0   60.0   16.666666666666668
-50.0   60.0   33.333333333333336
-100.0   30.0   33.333333333333336
-100.0   60.0   33.333333333333336
-50.0   60.0   33.333333333333336
-100.0   60.0   16.666666666666668
-100.0   30.0   33.333333333333336
-50.0   60.0   33.333333333333336
-50.0   30.0   33.333333333333336
-50.0   30.0   16.666666666666668
-100.0   30.0   33.333333333333336
-50.0   60.0   33.333333333333336
-50.0   30.0   16.666666666666668
-100.0   60.0   16.666666666666668
-100.0   30.0   33.333333333333336
-50.0   30.0   33.333333333333336
-100.0   60.0   33.333333333333336
-100.0   30.0   50.0
-50.0   30.0   33.333333333333336
-50.0   60.0   33.333333333333336
-100.0   60.0   33.333333333333336
-50.0   60.0   50.0
-100.0   30.0   50.0
-100.0   60.0   50.0
-50.0   60.0   50.0
-100.0   60.0   33.333333333333336
-100.0   30.0   50.0
-50.0   60.0   50.0
-50.0   30.0   50.0
-50.0   30.0   33.333333333333336
-100.0   30.0   50.0
-50.0   60.0   50.0
-50.0   30.0   33.333333333333336
-100.0   60.0   33.333333333333336
-100.0   60.0   0.0
-50.0   60.0   0.0
-100.0   90.0   0.0
-100.0   60.0   16.666666666666668
-50.0   60.0   0.0
-50.0   90.0   0.0
-100.0   90.0   0.0
-50.0   90.0   16.666666666666668
-100.0   60.0   16.666666666666668
-100.0   90.0   16.666666666666668
-50.0   90.0   16.666666666666668
-100.0   90.0   0.0
-100.0   60.0   16.666666666666668
-50.0   90.0   16.666666666666668
-50.0   60.0   16.666666666666668
-50.0   60.0   0.0
-100.0   60.0   16.666666666666668
-50.0   90.0   16.666666666666668
-50.0   60.0   0.0
-100.0   90.0   0.0
-100.0   60.0   16.666666666666668
-50.0   60.0   16.666666666666668
-100.0   90.0   16.666666666666668
-100.0   60.0   33.333333333333336
-50.0   60.0   16.666666666666668
-50.0   90.0   16.666666666666668
-100.0   90.0   16.666666666666668
-50.0   90.0   33.333333333333336
-100.0   60.0   33.333333333333336
-100.0   90.0   33.333333333333336
-50.0   90.0   33.333333333333336
-100.0   90.0   16.666666666666668
-100.0   60.0   33.333333333333336
-50.0   90.0   33.333333333333336
-50.0   60.0   33.333333333333336
-50.0   60.0   16.666666666666668
-100.0   60.0   33.333333333333336
-50.0   90.0   33.333333333333336
-50.0   60.0   16.666666666666668
-100.0   90.0   16.666666666666668
-100.0   60.0   33.333333333333336
-50.0   60.0   33.333333333333336
-100.0   90.0   33.333333333333336
-100.0   60.0   50.0
-50.0   60.0   33.333333333333336
-50.0   90.0   33.333333333333336
-100.0   90.0   33.333333333333336
-50.0   90.0   50.0
-100.0   60.0   50.0
-100.0   90.0   50.0
-50.0   90.0   50.0
-100.0   90.0   33.333333333333336
-100.0   60.0   50.0
-50.0   90.0   50.0
-50.0   60.0   50.0
-50.0   60.0   33.333333333333336
-100.0   60.0   50.0
-50.0   90.0   50.0
-50.0   60.0   33.333333333333336
-100.0   90.0   33.333333333333336
-100.0   90.0   0.0
-50.0   90.0   0.0
-100.0   120.0   0.0
-100.0   90.0   16.666666666666668
-50.0   90.0   0.0
-50.0   120.0   0.0
-100.0   120.0   0.0
-50.0   120.0   16.666666666666668
-100.0   90.0   16.666666666666668
-100.0   120.0   16.666666666666668
-50.0   120.0   16.666666666666668
-100.0   120.0   0.0
-100.0   90.0   16.666666666666668
-50.0   120.0   16.666666666666668
-50.0   90.0   16.666666666666668
-50.0   90.0   0.0
-100.0   90.0   16.666666666666668
-50.0   120.0   16.666666666666668
-50.0   90.0   0.0
-100.0   120.0   0.0
-100.0   90.0   16.666666666666668
-50.0   90.0   16.666666666666668
-100.0   120.0   16.666666666666668
-100.0   90.0   33.333333333333336
-50.0   90.0   16.666666666666668
-50.0   120.0   16.666666666666668
-100.0   120.0   16.666666666666668
-50.0   120.0   33.333333333333336
-100.0   90.0   33.333333333333336
-100.0   120.0   33.333333333333336
-50.0   120.0   33.333333333333336
-100.0   120.0   16.666666666666668
-100.0   90.0   33.333333333333336
-50.0   120.0   33.333333333333336
-50.0   90.0   33.333333333333336
-50.0   90.0   16.666666666666668
-100.0   90.0   33.333333333333336
-50.0   120.0   33.333333333333336
-50.0   90.0   16.666666666666668
-100.0   120.0   16.666666666666668
-100.0   90.0   33.333333333333336
-50.0   90.0   33.333333333333336
-100.0   120.0   33.333333333333336
-100.0   90.0   50.0
-50.0   90.0   33.333333333333336
-50.0   120.0   33.333333333333336
-100.0   120.0   33.333333333333336
-50.0   120.0   50.0
-100.0   90.0   50.0
-100.0   120.0   50.0
-50.0   120.0   50.0
-100.0   120.0   33.333333333333336
-100.0   90.0   50.0
-50.0   120.0   50.0
-50.0   90.0   50.0
-50.0   90.0   33.333333333333336
-100.0   90.0   50.0
-50.0   120.0   50.0
-50.0   90.0   33.333333333333336
-100.0   120.0   33.333333333333336
-100.0   120.0   0.0
-50.0   120.0   0.0
-100.0   150.0   0.0
-100.0   120.0   16.666666666666668
-50.0   120.0   0.0
-50.0   150.0   0.0
-100.0   150.0   0.0
-50.0   150.0   16.666666666666668
-100.0   120.0   16.666666666666668
-100.0   150.0   16.666666666666668
-50.0   150.0   16.666666666666668
-100.0   150.0   0.0
-100.0   120.0   16.666666666666668
-50.0   150.0   16.666666666666668
-50.0   120.0   16.666666666666668
-50.0   120.0   0.0
-100.0   120.0   16.666666666666668
-50.0   150.0   16.666666666666668
-50.0   120.0   0.0
-100.0   150.0   0.0
-100.0   120.0   16.666666666666668
-50.0   120.0   16.666666666666668
-100.0   150.0   16.666666666666668
-100.0   120.0   33.333333333333336
-50.0   120.0   16.666666666666668
-50.0   150.0   16.666666666666668
-100.0   150.0   16.666666666666668
-50.0   150.0   33.333333333333336
-100.0   120.0   33.333333333333336
-100.0   150.0   33.333333333333336
-50.0   150.0   33.333333333333336
-100.0   150.0   16.666666666666668
-100.0   120.0   33.333333333333336
-50.0   150.0   33.333333333333336
-50.0   120.0   33.333333333333336
-50.0   120.0   16.666666666666668
-100.0   120.0   33.333333333333336
-50.0   150.0   33.333333333333336
-50.0   120.0   16.666666666666668
-100.0   150.0   16.666666666666668
-100.0   120.0   33.333333333333336
-50.0   120.0   33.333333333333336
-100.0   150.0   33.333333333333336
-100.0   120.0   50.0
-50.0   120.0   33.333333333333336
-50.0   150.0   33.333333333333336
-100.0   150.0   33.333333333333336
-50.0   150.0   50.0
-100.0   120.0   50.0
-100.0   150.0   50.0
-50.0   150.0   50.0
-100.0   150.0   33.333333333333336
-100.0   120.0   50.0
-50.0   150.0   50.0
-50.0   120.0   50.0
-50.0   120.0   33.333333333333336
-100.0   120.0   50.0
-50.0   150.0   50.0
-50.0   120.0   33.333333333333336
-100.0   150.0   33.333333333333336
-50.0   0.0   0.0
0.0   0.0   0.0
-50.0   30.0   0.0
-50.0   0.0   16.666666666666668
0.0   0.0   0.0
0.0   30.0   0.0
-50.0   30.0   0.0
0.0   30.0   16.666666666666668
-50.0   0.0   16.666666666666668
-50.0   30.0   16.666666666666668
0.0   30.0   16.666666666666668
-50.0   30.0   0.0
-50.0   0.0   16.666666666666668
0.0   30.0   16.666666666666668
0.0   0.0   16.666666666666668
0.0   0.0   0.0
-50.0   0.0   16.666666666666668
0.0   30.0   16.666666666666668
0.0   0.0   0.0
-50.0   30.0   0.0
-50.0   0.0   16.666666666666668
0.0   0.0   16.666666666666668
-50.0   30.0   16.666666666666668
-50.0   0.0   33.333333333333336
0.0   0.0   16.666666666666668
0.0   30.0   16.666666666666668
-50.0   30.0   16.666666666666668
0.0   30.0   33.333333333333336
-50.0   0.0   33.333333333333336
-50.0   30.0   33.333333333333336
0.0   30.0   33.333333333333336
-50.0   30.0   16.666666666666668
-50.0   0.0   33.333333333333336
0.0   30.0   33.333333333333336
0.0   0.0   33.333333333333336
0.0   0.0   16.666666666666668
-50.0   0.0   33.333333333333336
0.0   30.0   33.333333333333336
0.0   0.0   16.666666666666668
-50.0   30.0   16.666666666666668
-50.0   0.0   33.333333333333336
0.0   0.0   33.333333333333336
-50.0   30.0   33.333333333333336
-50.0   0.0   50.0
0.0   0.0   33.333333333333336
0.0   30.0   33.333333333333336
-50.0   30.0   33.333333333333336
0.0   30.0   50.0
-50.0   0.0   50.0
-50.0   30.0   50.0
0.0   30.0   50.0
-50.0   30.0   33.333333333333336
-50.0   0.0   50.0
0.0   30.0   50.0
0.0   0.0   50.0
0.0   0.0   33.333333333333336
-50.0   0.0   50.0
0.0   30.0   50.0
0.0   0.0   33.333333333333336
-50.0   30.0   33.333333333333336
-50.0   30.0   0.0
0.0   30.0   0.0
-50.0   60.0   0.0
-50.0   30.0   16.666666666666668
0.0   30.0   0.0
0.0   60.0   0.0
-50.0   60.0   0.0
0.0   60.0   16.666666666666668
-50.0   30.0   16.666666666666668
-50.0   60.0   16.666666666666668
0.0   60.0   16.666666666666668
-50.0   60.0   0.0
-50.0   30.0   16.666666666666668
0.0   60.0   16.666666666666668
0.0   30.0   16.666666666666668
0.0   30.0   0.0
-50.0   30.0   16.666666666666668
0.0   60.0   16.666666666666668
0.0   30.0   0.0
-50.0   60.0   0.0
-50.0   30.0   16.666666666666668
0.0   30.0   16.666666666666668
-50.0   60.0   16.666666666666668
-50.0   30.0   33.333333333333336
0.0   30.0   16.666666666666668
0.0   60.0   16.666666666666668
-50.0   60.0   16.666666666666668
0.0   60.0   33.333333333333336
-50.0   30.0   33.333333333333336
-50.0   60.0   33.333333333333336
0.0   60.0   33.333333333333336
-50.0   60.0   16.666666666666668
-50.0   30.0   33.333333333333336
0.0   60.0   33.333333333333336
0.0   30.0   33.333333333333336
0.0   30.0   16.666666666666668
-50.0   30.0   33.333333333333336
0.0   60.0   33.333333333333336
0.0   30.0   16.666666666666668
-50.0   60.0   16.666666666666668
-50.0   30.0   33.333333333333336
0.0   30.0   33.333333333333336
-50.0   60.0   33.333333333333336
-50.0   30.0   50.0
0.0   30.0   33.333333333333336
0.0   60.0   33.333333333333336
-50.0   60.0   33.333333333333336
0.0   60.0   50.0
-50.0   30.0   50.0
-50.0   60.0   50.0
0.0   60.0   50.0
-50.0   60.0   33.333333333333336
-50.0   30.0   50.0
0.0   60.0   50.0
0.0   30.0   50.0
0.0   30.0   33.333333333333336
-50.0   30.0   50.0
0.0   60.0   50.0
0.0   30.0   33.333333333333336
-50.0   60.0   33.333333333333336
-50.0   60.0   0.0
0.0   60.0   0.0
-50.0   90.0   0.0
-50.0   60.0   16.666666666666668
0.0   60.0   0.0
0.0   90.0   0.0
-50.0   90.0   0.0
0.0   90.0   16.666666666666668
-50.0   60.0   16.666666666666668
-50.0   90.0   16.666666666666668
0.0   90.0   16.666666666666668
-50.0   90.0   0.0
-50.0   60.0   16.666666666666668
0.0   90.0   16.666666666666668
0.0   60.0   16.666666666666668
0.0   60.0   0.0
-50.0   60.0   16.666666666666668
0.0   90.0   16.666666666666668
0.0   60.0   0.0
-50.0   90.0   0.0
-50.0   60.0   16.666666666666668
0.0   60.0   16.666666666666668
-50.0   90.0   16.666666666666668
-50.0   60.0   33.333333333333336
0.0   60.0   16.666666666666668
0.0   90.0   16.666666666666668
-50.0   90.0   16.666666666666668
0.0   90.0   33.333333333333336
-50.0   60.0   33.333333333333336
-50.0   90.0   33.333333333333336
0.0   90.0   33.333333333333336
-50.0   90.0   16.666666666666668
-50.0   60.0   33.333333333333336
0.0   90.0   33.333333333333336
0.0   60.0   33.333333333333336
0.0   60.0   16.666666666666668
-50.0   60.0   33.333333333333336
0.0   90.0   33.333333333333336
0.0   60.0   16.666666666666668
-50.0   90.0   16.666666666666668
-50.0   60.0   33.333333333333336
0.0   60.0   33.333333333333336
-50.0   90.0   33.333333333333336
-50.0   60.0   50.0
0.0   60.0   33.333333333333336
0.0   90.0   33.333333333333336
-50.0   90.0   33.333333333333336
0.0   90.0   50.0
-50.0   60.0   50.0
-50.0   90.0   50.0
0.0   90.0   50.0
-50.0   90.0   33.333333333333336
-50.0   60.0   50.0
0.0   90.0   50.0
0.0   60.0   50.0
0.0   60.0   33.333333333333336
-50.0   60.0   50.0
0.0   90.0   50.0
0.0   60.0   33.333333333333336
-50.0   90.0   33.333333333333336
-50.0   90.0   0.0
0.0   90.0   0.0
-50.0   120.0   0.0
-50.0   90.0   16.666666666666668
0.0   90.0   0.0
0.0   120.0   0.0
-50.0   120.0   0.0
0.0   120.0   16.666666666666668
-50.0   90.0   16.666666666666668
-50.0   120.0   16.666666666666668
0.0   120.0   16.666666666666668
-50.0   120.0   0.0
-50.0   90.0   16.666666666666668
0.0   120.0   16.666666666666668
0.0   90.0   16.666666666666668
0.0   90.0   0.0
-50.0   90.0   16.666666666666668
0.0   120.0   16.666666666666668
0.0   90.0   0.0
-50.0   120.0   0.0
-50.0   90.0   16.666666666666668
0.0   90.0   16.666666666666668
-50.0   120.0   16.666666666666668
-50.0   90.0   33.333333333333336
0.0   90.0   16.666666666666668
0.0   120.0   16.666666666666668
-50.0   120.0   16.666666666666668
0.0   120.0   33.333333333333336
-50.0   90.0   33.333333333333336
-50.0   120.0   33.333333333333336
0.0   120.0   33.333333333333336
-50.0   120.0   16.666666666666668
-50.0   90.0   33.333333333333336
0.0   120.0   33.333333333333336
0.0   90.0   33.333333333333336
0.0   90.0   16.666666666666668
-50.0   90.0   33.333333333333336
0.0   120.0   33.333333333333336
0.0   90.0   16.666666666666668
-50.0   120.0   16.666666666666668
-50.0   90.0   33.333333333333336
0.0   90.0   33.333333333333336
-50.0   120.0   33.333333333333336
-50.0   90.0   50.0
0.0   90.0   33.333333333333336
0.0   120.0   33.333333333333336
-50.0   120.0   33.333333333333336
0.0   120.0   50.0
-50.0   90.0   50.0
-50.0   120.0   50.0
0.0   120.0   50.0
-50.0   120.0   33.333333333333336
-50.0   90.0   50.0
0.0   120.0   50.0
0.0   90.0   50.0
0.0   90.0   33.333333333333336
-50.0   90.0   50.0
0.0   120.0   50.0
0.0   90.0   33.333333333333336
-50.0   120.0   33.333333333333336
-50.0   120.0   0.0
0.0   120.0   0.0
-50.0   150.0   0.0
-50.0   120.0   16.666666666666668
0.0   120.0   0.0
0.0   150.0   0.0
-50.0   150.0   0.0
0.0   150.0   16.666666666666668
-50.0   120.0   16.666666666666668
-50.0   150.0   16.666666666666668
0.0   150.0   16.666666666666668
-50.0   150.0   0.0
-50.0   120.0   16.666666666666668
0.0   150.0   16.666666666666668
0.0   120.0   16.666666666666668
0.0   120.0   0.0
-50.0   120.0   16.666666666666668
0.0   150.0   16.666666666666668
0.0   120.0   0.0
-50.0   150.0   0.0
-50.0   120.0   16.666666666666668
0.0   120.0   16.666666666666668
-50.0   150.0   16.666666666666668
-50.0   120.0   33.333333333333336
0.0   120.0   16.666666666666668
0.0   150.0   16.666666666666668
-50.0   150.0   16.666666666666668
0.0   150.0   33.333333333333336
-50.0   120.0   33.333333333333336
-50.0   150.0   33.333333333333336
0.0   150.0   33.333333333333336
-50.0   150.0   16.666666666666668
-50.0   120.0   33.333333333333336
0.0   150.0   33.333333333333336
0.0   120.0   33.333333333333336
0.0   120.0   16.666666666666668
-50.0   120.0   33.333333333333336
0.0   150.0   33.333333333333336
0.0   120.0   16.666666666666668
-50.0   150.0   16.666666666666668
-50.0   120.0   33.333333333333336
0.0   120.0   33.333333333333336
-50.0   150.0   33.333333333333336
-50.0   120.0   50.0
0.0   120.0   33.333333333333336
0.0   150.0   33.333333333333336
-50.0   150.0   33.333333333333336
0.0   150.0   50.0
-50.0   120.0   50.0
-50.0   150.0   50.0
0.0   150.0   50.0
-50.0   150.0   33.333333333333336
-50.0   120.0   50.0
0.0   150.0   50.0
0.0   120.0   50.0
0.0   120.0   33.333333333333336
-50.0   120.0   50.0
0.0   150.0   50.0
0.0   120.0   33.333333333333336
-50.0   150.0   33.333333333333336
0.0   0.0   0.0
50.0   0.0   0.0
0.0   30.0   0.0
0.0   0.0   16.666666666666668
50.0   0.0   0.0
50.0   30.0   0.0
0.0   30.0   0.0
50.0   30.0   16.666666666666668
0.0   0.0   16.666666666666668
0.0   30.0   16.666666666666668
50.0   30.0   16.666666666666668
0.0   30.0   0.0
0.0   0.0   16.666666666666668
50.0   30.0   16.666666666666668
50.0   0.0   16.666666666666668
50.0   0.0   0.0
0.0   0.0   16.666666666666668
50.0   30.0   16.666666666666668
50.0   0.0   0.0
0.0   30.0   0.0
0.0   0.0   16.666666666666668
50.0   0.0   16.666666666666668
0.0   30.0   16.666666666666668
0.0   0.0   33.333333333333336
50.0   0.0   16.666666666666668
50.0   30.0   16.666666666666668
0.0   30.0   16.666666666666668
50.0   30.0   33.333333333333336
0.0   0.0   33.333333333333336
0.0   30.0   33.333333333333336
50.0   30.0   33.333333333333336
0.0   30.0   16.666666666666668
0.0   0.0   33.333333333333336
50.0   30.0   33.333333333333336
50.0   0.0   33.333333333333336
50.0   0.0   16.666666666666668
0.0   0.0   33.333333333333336
50.0   30.0   33.333333333333336
50.0   0.0   16.666666666666668
0.0   30.0   16.666666666666668
0.0   0.0   33.333333333333336
50.0   0.0   33.333333333333336
0.0   30.0   33.333333333333336
0.0   0.0   50.0
50.0   0.0   33.333333333333336
50.0   30.0   33.333333333333336
0.0   30.0   33.333333333333336
50.0   30.0   50.0
0.0   0.0   50.0
0.0   30.0   50.0
50.0   30.0   50.0
0.0   30.0   33.333333333333336
0.0   0.0   50.0
50.0   30.0   50.0
50.0   0.0   50.0
50.0   0.0   33.333333333333336
0.0   0.0   50.0
50.0   30.0   50.0
50.0   0.0   33.333333333333336
0.0   30.0   33.333333333333336
0.0   30.0   0.0
50.0   30.0   0.0
0.0   60.0   0.0
0.0   30.0   16.666666666666668
50.0   30.0   0.0
50.0   60.0   0.0
0.0   60.0   0.0
50.0   60.0   16.666666666666668
0.0   30.0   16.666666666666668
0.0   60.0   16.666666666666668
50.0   60.0   16.666666666666668
0.0   60.0   0.0
0.0   30.0   16.666666666666668
50.0   60.0   16.666666666666668
50.0   30.0   16.666666666666668
50.0   30.0   0.0
0.0   30.0   16.666666666666668
50.0   60.0   16.666666666666668
50.0   30.0   0.0
0.0   60.0   0.0
0.0   30.0   16.666666666666668
50.0   30.0   16.666666666666668
0.0   60.0   16.666666666666668
0.0   30.0   33.333333333333336
50.0   30.0   16.666666666666668
50.0   60.0   16.666666666666668
0.0   60.0   16.666666666666668
50.0   60.0   33.333333333333336
0.0   30.0   33.333333333333336
0.0   60.0   33.333333333333336
50.0   60.0   33.333333333333336
0.0   60.0   16.666666666666668
0.0   30.0   33.333333333333336
50.0   60.0   33.333333333333336
50.0   30.0   33.333333333333336
50.0   30.0   16.666666666666668
0.0   30.0   33.333333333333336
50.0   60.0   33.333333333333336
50.0   30.0   16.666666666666668
0.0   60.0   16.666666666666668
0.0   30.0   33.333333333333336
50.0   30.0   33.333333333333336
0.0   60.0   33.333333333333336
0.0   30.0   50.0
50.0   30.0   33.333333333333336
50.0   60.0   33.333333333333336
0.0   60.0   33.333333333333336
50.0   60.0   50.0
0.0   30.0   50.0
0.0   60.0   50.0
50.0   60.0   50.0
0.0   60.0   33.333333333333336
0.0   30.0   50.0
50.0   60.0   50.0
50.0   30.0   50.0
50.0   30.0   33.333333333333336
0.0   30.0   50.0
50.0   60.0   50.0
50.0   30.0   33.333333333333336
0.0   60.0   33.333333333333336
0.0   60.0   0.0
50.0   60.0   0.0
0.0   90.0   0.0
0.0   60.0   16.666666666666668
50.0   60.0   0.0
50.0   90.0   0.0
0.0   90.0   0.0
50.0   90.0   16.666666666666668
0.0   60.0   16.666666666666668
0.0   90.0   16.666666666666668
50.0   90.0   16.666666666666668
0.0   90.0   0.0
0.0   60.0   16.666666666666668
50.0   90.0   16.666666666666668
50.0   60.0   16.666666666666668
50.0   60.0   0.0
0.0   60.0   16.666666666666668
50.0   90.0   16.666666666666668
50.0   60.0   0.0
0.0   90.0   0.0
0.0   60.0   16.666666666666668
50.0   60.0   16.666666666666668
0.0   90.0   16.666666666666668
0.0   60.0   33.333333333333336
50.0   60.0   16.666666666666668
50.0   90.0   16.666666666666668
0.0   90.0   16.666666666666668
50.0   90.0   33.333333333333336
0.0   60.0   33.333333333333336
0.0   90.0   33.333333333333336
50.0   90.0   33.333333333333336
0.0   90.0   16.666666666666668
0.0   60.0   33.333333333333336
50.0   90.0   33.333333333333336
50.0   60.0   33.333333333333336
50.0   60.0   16.666666666666668
0.0   60.0   33.333333333333336
50.0   90.0   33.333333333333336
50.0   60.0   16.666666666666668
0.0   90.0   16.666666666666668
0.0   60.0   33.333333333333336
50.0   60.0   33.333333333333336
0.0   90.0   33.333333333333336
0.0   60.0   50.0
50.0   60.0   33.333333333333336
50.0   90.0   33.333333333333336
0.0   90.0   33.333333333333336
50.0   90.0   50.0
0.0   60.0   50.0
0.0   90.0   50.0
50.0   90.0   50.0
0.0   90.0   33.333333333333336
0.0   60.0   50.0
50.0   90.0   50.0
50.0   60.0   50.0
50.0   60.0   33.333333333333336
0.0   60.0   50.0
50.0   90.0   50.0
50.0   60.0   33.333333333333336
0.0   90.0   33.333333333333336
0.0   90.0   0.0
50.0   90.0   0.0
0.0   120.0   0.0
0.0   90.0   16.666666666666668
50.0   90.0   0.0
50.0   120.0   0.0
0.0   120.0   0.0
50.0   120.0   16.666666666666668
0.0   90.0   16.666666666666668
0.0   120.0   16.666666666666668
50.0   120.0   16.666666666666668
0.0   120.0   0.0
0.0   90.0   16.666666666666668
50.0   120.0   16.666666666666668
50.0   90.0   16.666666666666668
50.0   90.0   0.0
0.0   90.0   16.666666666666668
50.0   120.0   16.666666666666668
50.0   90.0   0.0
0.0   120.0   0.0
0.0   90.0   16.666666666666668
50.0   90.0   16.666666666666668
0.0   120.0   16.666666666666668
0.0   90.0   33.333333333333336
50.0   90.0   16.666666666666668
50.0   120.0   16.666666666666668
0.0   120.0   16.666666666666668
50.0   120.0   33.333333333333336
0.0   90.0   33.333333333333336
0.0   120.0   33.333333333333336
50.0   120.0   33.333333333333336
0.0   120.0   16.666666666666668
0.0   90.0   33.333333333333336
50.0   120.0   33.333333333333336
50.0   90.0   33.333333333333336
50.0   90.0   16.666666666666668
0.0   90.0   33.333333333333336
50.0   120.0   33.333333333333336
50.0   90.0   16.666666666666668
0.0   120.0   16.666666666666668
0.0   90.0   33.333333333333336
50.0   90.0   33.333333333333336
0.0   120.0   33.333333333333336
0.0   90.0   50.0
50.0   90.0   33.333333333333336
50.0   120.0   33.333333333333336
0.0   120.0   33.333333333333336
50.0   120.0   50.0
0.0   90.0   50.0
0.0   120.0   50.0
50.0   120.0   50.0
0.0   120.0   33.333333333333336
0.0   90.0   50.0
50.0   120.0   50.0
50.0   90.0   50.0
50.0   90.0   33.333333333333336
0.0   90.0   50.0
50.0   120.0   50.0
50.0   90.0   33.333333333333336
0.0   120.0   33.333333333333336
0.0   120.0   0.0
50.0   120.0   0.0
0.0   150.0   0.0
0.0   120.0   16.666666666666668
50.0   120.0   0.0
50.0   150.0   0.0
0.0   150.0   0.0
50.0   150.0   16.666666666666668
0.0   120.0   16.666666666666668
0.0   150.0   16.666666666666668
50.0   150.0   16.666666666666668
0.0   150.0   0.0
0.0   120.0   16.666666666666668
50.0   150.0   16.666666666666668
50.0   120.0   16.666666666666668
50.0   120.0   0.0
0.0   120.0   16.666666666666668
50.0   150.0   16.666666666666668
50.0   120.0   0.0
0.0   150.0   0.0
0.0   120.0   16.666666666666668
50.0   120.0   16.666666666666668
0.0   150.0   16.666666666666668
0.0   120.0   33.333333333333336
50.0   120.0   16.666666666666668
50.0   150.0   16.666666666666668
0.0   150.0   16.666666666666668
50.0   150.0   33.333333333333336
0.0   120.0   33.333333333333336
0.0   150.0   33.333333333333336
50.0   150.0   33.333333333333336
0.0   150.0   16.666666666666668
0.0   120.0   33.333333333333336
50.0   150.0   33.333333333333336
50.0   120.0   33.333333333333336
50.0   120.0   16.666666666666668
0.0   120.0   33.333333333333336
50.0   150.0   33.333333333333336
50.0   120.0   16.666666666666668
0.0   150.0   16.666666666666668
0.0   120.0   33.333333333333336
50.0   120.0   33.333333333333336
0.0   150.0   33.333333333333336
0.0   120.0   50.0
50.0   120.0   33.333333333333336
50.0   150.0   33.333333333333336
0.0   150.0   33.333333333333336
50.0   150.0   50.0
0.0   120.0   50.0
0.0   150.0   50.0
50.0   150.0   50.0
0.0   150.0   33.333333333333336
0.0   120.0   50.0
50.0   150.0   50.0
50.0   120.0   50.0
50.0   120.0   33.333333333333336
0.0   120.0   50.0
50.0   150.0   50.0
50.0   120.0   33.333333333333336
0.0   150.0   33.333333333333336
50.0   0.0   0.0
100.0   0.0   0.0
50.0   30.0   0.0
50.0   0.0   16.666666666666668
100.0   0.0   0.0
100.0   30.0   0.0
50.0   30.0   0.0
100.0   30.0   16.666666666666668
50.0   0.0   16.666666666666668
50.0   30.0   16.666666666666668
100.0   30.0   16.666666666666668
50.0   30.0   0.0
50.0   0.0   16.666666666666668
100.0   30.0   16.666666666666668
100.0   0.0   16.666666666666668
100.0   0.0   0.0
50.0   0.0   16.666666666666668
100.0   30.0   16.666666666666668
100.0   0.0   0.0
50.0   30.0   0.0
50.0   0.0   16.666666666666668
100.0   0.0   16.666666666666668
50.0   30.0   16.666666666666668
50.0   0.0   33.333333333333336
100.0   0.0   16.666666666666668
100.0   30.0   16.666666666666668
50.0   30.0   16.666666666666668
100.0   30.0   33.333333333333336
50.0   0.0   33.333333333333336
50.0   30.0   33.333333333333336
100.0   30.0   33.333333333333336
50.0   30.0   16.666666666666668
50.0   0.0   33.333333333333336
100.0   30.0   33.333333333333336
100.0   0.0   33.333333333333336
100.0   0.0   16.666666666666668
50.0   0.0   33.333333333333336
100.0   30.0   33.333333333333336
100.0   0.0   16.666666666666668
50.0   30.0   16.666666666666668
50.0   0.0   33.333333333333336
100.0   0.0   33.333333333333336
50.0   30.0   33.333333333333336
50.0   0.0   50.0
100.0   0.0   33.333333333333336
100.0   30.0   33.333333333333336
50.0   30.0   33.333333333333336
100.0   30.0   50.0
50.0   0.0   50.0
50.0   30.0   50.0
100.0   30.0   50.0
50.0   30.0   33.333333333333336
50.0   0.0   50.0
100.0   30.0   50.0
100.0   0.0   50.0
100.0   0.0   33.333333333333336
50.0   0.0   50.0
100.0   30.0   50.0
100.0   0.0   33.333333333333336
50.0   30.0   33.333333333333336
50.0   30.0   0.0
100.0   30.0   0.0
50.0   60.0   0.0
50.0   30.0   16.666666666666668
100.0   30.0   0.0
100.0   60.0   0.0
50.0   60.0   0.0
100.0   60.0   16.666666666666668
50.0   30.0   16.666666666666668
50.0   60.0   16.666666666666668
100.0   60.0   16.666666666666668
50.0   60.0   0.0
50.0   30.0   16.666666666666668
100.0   60.0   16.666666666666668
100.0   30.0   16.666666666666668
100.0   30.0   0.0
50.0   30.0   16.666666666666668
100.0   60.0   16.666666666666668
100.0   30.0   0.0
50.0   60.0   0.0
50.0   30.0   16.666666666666668
100.0   30.0   16.666666666666668
50.0   60.0   16.666666666666668
50.0   30.0   33.333333333333336
100.0   30.0   16.666666666666668
100.0   60.0   16.666666666666668
50.0   60.0   16.666666666666668
100.0   60.0   33.333333333333336
50.0   30.0   33.333333333333336
50.0   60.0   33.333333333333336
100.0   60.0   33.333333333333336
50.0   60.0   16.666666666666668
50.0   30.0   33.333333333333336
100.0   60.0   33.333333333333336
100.0   30.0   33.333333333333336
100.0   30.0   16.666666666666668
50.0   30.0   33.333333333333336
100.0   60.0   33.333333333333336
100.0   30.0   16.666666666666668
50.0   60.0   16.666666666666668
50.0   30.0   33.333333333333336
100.0   30.0   33.333333333333336
50.0   60.0   33.333333333333336
50.0   30.0   50.0
100.0   30.0   33.333333333333336
100.0   60.0   33.333333333333336
50.0   60.0   33.333333333333336
100.0   60.0   50.0
50.0   30.0   50.0
50.0   60.0   50.0
100.0   60.0   50.0
50.0   60.0   33.333333333333336
50.0   30.0   50.0
100.0   60.0   50.0
100.0   30.0   50.0
100.0   30.0   33.333333333333336
50.0   30.0   50.0
100.0   60.0   50.0
100.0   30.0   33.333333333333336
50.0   60.0   33.333333333333336
50.0   60.0   0.0
100.0   60.0   0.0
50.0   90.0   0.0
50.0   60.0   16.666666666666668
100.0   60.0   0.0
100.0   90.0   0.0
50.0   90.0   0.0
100.0   90.0   16.666666666666668
50.0   60.0   16.666666666666668
50.0   90.0   16.666666666666668
100.0   90.0   16.666666666666668
50.0   90.0   0.0
50.0   60.0   16.666666666666668
100.0   90.0   16.666666666666668
100.0   60.0   16.666666666666668
100.0   60.0   0.0
50.0   60.0   16.666666666666668
100.0   90.0   16.666666666666668
100.0   60.0   0.0
50.0   90.0   0.0
50.0   60.0   16.666666666666668
100.0   60.0   16.666666666666668
50.0   90.0   16.666666666666668
50.0   60.0   33.333333333333336
100.0   60.0   16.666666666666668
100.0   90.0   16.666666666666668
50.0   90.0   16.666666666666668
100.0   90.0   33.333333333333336
50.0   60.0   33.333333333333336
50.0   90.0   33.333333333333336
100.0   90.0   33.333333333333336
50.0   90.0   16.666666666666668
50.0   60.0   33.333333333333336
100.0   90.0   33.333333333333336
100.0   60.0   33.333333333333336
100.0   60.0   16.666666666666668
50.0   60.0   33.333333333333336
100.0   90.0   33.333333333333336
100.0   60.0   16.666666666666668
50.0   90.0   16.666666666666668
50.0   60.0   33.333333333333336
100.0   60.0   33.333333333333336
50.0   90.0   33.333333333333336
50.0   60.0   50.0
100.0   60.0   33.333333333333336
100.0   90.0   33.333333333333336
50.0   90.0   33.333333333333336
100.0   90.0   50.0
50.0   60.0   50.0
50.0   90.0   50.0
100.0   90.0   50.0
50.0   90.0   33.333333333333336
50.0   60.0   50.0
100.0   90.0   50.0
100.0   60.0   50.0
100.0   60.0   33.333333333333336
50.0   60.0   50.0
100.0   90.0   50.0
100.0   60.0   33.333333333333336
50.0   90.0   33.333333333333336
50.0   90.0   0.0
100.0   90.0   0.0
50.0   120.0   0.0
50.0   90.0   16.666666666666668
100.0   90.0   0.0
100.0   120.0   0.0
50.0   120.0   0.0
100.0   120.0   16.666666666666668
50.0   90.0   16.666666666666668
50.0   120.0   16.666666666666668
100.0   120.0   16.666666666666668
50.0   120.0   0.0
50.0   90.0   16.666666666666668
100.0   120.0   16.666666666666668
100.0   90.0   16.666666666666668
100.0   90.0   0.0
50.0   90.0   16.666666666666668
100.0   120.0   16.666666666666668
100.0   90.0   0.0
50.0   120.0   0.0
50.0   90.0   16.666666666666668
100.0   90.0   16.666666666666668
50.0   120.0   16.666666666666668
50.0   90.0   33.333333333333336
100.0   90.0   16.666666666666668
100.0   120.0   16.666666666666668
50.0   120.0   16.666666666666668
100.0   120.0   33.333333333333336
50.0   90.0   33.333333333333336
50.0   120.0   33.333333333333336
100.0   120.0   33.333333333333336
50.0   120.0   16.666666666666668
50.0   90.0   33.333333333333336
100.0   120.0   33.333333333333336
100.0   90.0   33.333333333333336
100.0   90.0   16.666666666666668
50.0   90.0   33.333333333333336
100.0   120.0   33.333333333333336
100.0   90.0   16.666666666666668
50.0   120.0   16.666666666666668
50.0   90.0   33.333333333333336
100.0   90.0   33.333333333333336
50.0   120.0   33.333333333333336
50.0   90.0   50.0
100.0   90.0   33.333333333333336
100.0   120.0   33.333333333333336
50.0   120.0   33.333333333333336
100.0   120.0   50.0
50.0   90.0   50.0
50.0   120.0   50.0
100.0   120.0   50.0
50.0   120.0   33.333333333333336
50.0   90.0   50.0
100.0   120.0   50.0
100.0   90.0   50.0
100.0   90.0   33.333333333333336
50.0   90.0   50.0
100.0   120.0   50.0
100.0   90.0   33.333333333333336
50.0   120.0   33.333333333333336
50.0   120.0   0.0
100.0   120.0   0.0
50.0   150.0   0.0
50.0   120.0   16.666666666666668
100.0   120.0   0.0
100.0   150.0   0.0
50.0   150.0   0.0
100.0   150.0   16.666666666666668
50.0   120.0   16.666666666666668
50.0   150.0   16.666666666666668
100.0   150.0   16.666666666666668
50.0   150.0   0.0
50.0   120.0   16.666666666666668
100.0   150.0   16.666666666666668
100.0   120.0   16.666666666666668
100.0   120.0   0.0
50.0   120.0   16.666666666666668
100.0   150.0   16.666666666666668
100.0   120.0   0.0
50.0   150.0   0.0
50.0   120.0   16.666666666666668
100.0   120.0   16.666666666666668
50.0   150.0   16.666666666666668
50.0   120.0   33.333333333333336
100.0   120.0   16.666666666666668
100.0   150.0   16.666666666666668
50.0   150.0   16.666666666666668
100.0   150.0   33.333333333333336
50.0   120.0   33.333333333333336
50.0   150.0   33.333333333333336
100.0   150.0   33.333333333333336
50.0   150.0   16.666666666666668
50.0   120.0   33.333333333333336
100.0   150.0   33.333333333333336
100.0   120.0   33.333333333333336
100.0   120.0   16.666666666666668
50.0   120.0   33.333333333333336
100.0   150.0   33.333333333333336
100.0   120.0   16.666666666666668
50.0   150.0   16.666666666666668
50.0   120.0   33.333333333333336
100.0   120.0   33.333333333333336
50.0   150.0   33.333333333333336
50.0   120.0   50.0
100.0   120.0   33.333333333333336
100.0   150.0   33.333333333333336
50.0   150.0   33.333333333333336
100.0   150.0   50.0
50.0   120.0   50.0
50.0   150.0   50.0
100.0   150.0   50.0
50.0   150.0   33.333333333333336
50.0   120.0   50.0
100.0   150.0   50.0
100.0   120.0   50.0
100.0   120.0   33.333333333333336
50.0   120.0   50.0
100.0   150.0   50.0
100.0   120.0   33.333333333333336
50.0   150.0   33.333333333333336
100.0   0.0   0.0
150.0   0.0   0.0
100.0   30.0   0.0
100.0   0.0   16.666666666666668
150.0   0.0   0.0
150.0   30.0   0.0
100.0   30.0   0.0
150.0   30.0   16.666666666666668
100.0   0.0   16.666666666666668
100.0   30.0   16.666666666666668
150.0   30.0   16.666666666666668
100.0   30.0   0.0
100.0   0.0   16.666666666666668
150.0   30.0   16.666666666666668
150.0   0.0   16.666666666666668
150.0   0.0   0.0
100.0   0.0   16.666666666666668
150.0   30.0   16.666666666666668
150.0   0.0   0.0
100.0   30.0   0.0
100.0   0.0   16.666666666666668
150.0   0.0   16.666666666666668
100.0   30.0   16.666666666666668
100.0   0.0   33.333333333333336
150.0   0.0   16.666666666666668
150.0   30.0   16.666666666666668
100.0   30.0   16.666666666666668
150.0   30.0   33.333333333333336
100.0   0.0   33.333333333333336
100.0   30.0   33.333333333333336
150.0   30.0   33.333333333333336
100.0   30.0   16.666666666666668
100.0   0.0   33.333333333333336
150.0   30.0   33.333333333333336
150.0   0.0   33.333333333333336
150.0   0.0   16.666666666666668
100.0   0.0   33.333333333333336
150.0   30.0   33.333333333333336
150.0   0.0   16.666666666666668
100.0   30.0   16.666666666666668
100.0   0.0   33.333333333333336
150.0   0.0   33.333333333333336
100.0   30.0   33.333333333333336
100.0   0.0   50.0
150.0   0.0   33.333333333333336
150.0   30.0   33.333333333333336
100.0   30.0   33.333333333333336
150.0   30.0   50.0
100.0   0.0   50.0
100.0   30.0   50.0
150.0   30.0   50.0
100.0   30.0   33.333333333333336
100.0   0.0   50.0
150.0   30.0   50.0
150.0   0.0   50.0
150.0   0.0   33.333333333333336
100.0   0.0   50.0
150.0   30.0   50.0
150.0   0.0   33.333333333333336
100.0   30.0   33.333333333333336
100.0   30.0   0.0
150.0   30.0   0.0
100.0   60.0   0.0
100.0   30.0   16.666666666666668
150.0   30.0   0.0
150.0   60.0   0.0
100.0   60.0   0.0
150.0   60.0   16.666666666666668
100.0   30.0   16.666666666666668
100.0   60.0   16.666666666666668
150.0   60.0   16.666666666666668
100.0   60.0   0.0
100.0   30.0   16.666666666666668
150.0   60.0   16.666666666666668
150.0   30.0   16.666666666666668
150.0   30.0   0.0
100.0   30.0   16.666666666666668
150.0   60.0   16.666666666666668
150.0   30.0   0.0
100.0   60.0   0.0
100.0   30.0   16.666666666666668
150.0   30.0   16.666666666666668
100.0   60.0   16.666666666666668
100.0   30.0   33.333333333333336
150.0   30.0   16.666666666666668
150.0   60.0   16.666666666666668
100.0   60.0   16.666666666666668
150.0   60.0   33.333333333333336
100.0   30.0   33.333333333333336
100.0   60.0   33.333333333333336
150.0   60.0   33.333333333333336
100.0   60.0   16.666666666666668
100.0   30.0   33.333333333333336
150.0   60.0   33.333333333333336
150.0   30.0   33.333333333333336
150.0   30.0   16.666666666666668
100.0   30.0   33.333333333333336
150.0   60.0   33.333333333333336
150.0   30.0   16.666666666666668
100.0   60.0   16.666666666666668
100.0   30.0   33.333333333333336
150.0   30.0   33.333333333333336
100.0   60.0   33.333333333333336
100.0   30.0   50.0
150.0   30.0   33.333333333333336
150.0   60.0   33.333333333333336
100.0   60.0   33.333333333333336
150.0   60.0   50.0
100.0   30.0   50.0
100.0   60.0   50.0
150.0   60.0   50.0
100.0   60.0   33.333333333333336
100.0   30.0   50.0
150.0   60.0   50.0
150.0   30.0   50.0
150.0   30.0   33.333333333333336
100.0   30.0   50.0
150.0   60.0   50.0
150.0   30.0   33.333333333333336
100.0   60.0   33.333333333333336
100.0   60.0   0.0
150.0   60.0   0.0
100.0   90.0   0.0
100.0   60.0   16.666666666666668
150.0   60.0   0.0
150.0   90.0   0.0
100.0   90.0   0.0
150.0   90.0   16.666666666666668
100.0   60.0   16.666666666666668
100.0   90.0   16.666666666666668
150.0   90.0   16.666666666666668
100.0   90.0   0.0
100.0   60.0   16.666666666666668
150.0   90.0   16.666666666666668
150.0   60.0   16.666666666666668
150.0   60.0   0.0
100.0   60.0   16.666666666666668
150.0   90.0   16.666666666666668
150.0   60.0   0.0
100.0   90.0   0.0
100.0   60.0   16.666666666666668
150.0   60.0   16.666666666666668
100.0   90.0   16.666666666666668
100.0   60.0   33.333333333333336
150.0   60.0   16.666666666666668
150.0   90.0   16.666666666666668
100.0   90.0   16.666666666666668
150.0   90.0   33.333333333333336
100.0   60.0   33.333333333333336
100.0   90.0   33.333333333333336
150.0   90.0   33.333333333333336
100.0   90.0   16.666666666666668
100.0   60.0   33.333333333333336
150.0   90.0   33.333333333333336
150.0   60.0   33.333333333333336
150.0   60.0   16.666666666666668
100.0   60.0   33.333333333333336
150.0   90.0   33.333333333333336
150.0   60.0   16.666666666666668
100.0   90.0   16.666666666666668
100.0   60.0   33.333333333333336
150.0   60.0   33.333333333333336
100.0   90.0   33.333333333333336
100.0   60.0   50.0
150.0   60.0   33.333333333333336
150.0   90.0   33.333333333333336
100.0   90.0   33.333333333333336
150.0   90.0   50.0
100.0   60.0   50.0
100.0   90.0   50.0
150.0   90.0   50.0
100.0   90.0   33.333333333333336
100.0   60.0   50.0
150.0   90.0   50.0
150.0   60.0   50.0
150.0   60.0   33.333333333333336
100.0   60.0   50.0
150.0   90.0   50.0
150.0   60.0   33.333333333333336
100.0   90.0   33.333333333333336
100.0   90.0   0.0
150.0   90.0   0.0
100.0   120.0   0.0
100.0   90.0   16.666666666666668
150.0   90.0   0.0
150.0   120.0   0.0
100.0   120.0   0.0
150.0   120.0   16.666666666666668
100.0   90.0   16.666666666666668
100.0   120.0   16.666666666666668
150.0   120.0   16.666666666666668
100.0   120.0   0.0
100.0   90.0   16.666666666666668
150.0   120.0   16.666666666666668
150.0   90.0   16.666666666666668
150.0   90.0   0.0
100.0   90.0   16.666666666666668
150.0   120.0   16.666666666666668
150.0   90.0   0.0
100.0   120.0   0.0
100.0   90.0   16.666666666666668
150.0   90.0   16.666666666666668
100.0   120.0   16.666666666666668
100.0   90.0   33.333333333333336
150.0   90.0   16.666666666666668
150.0   120.0   16.666666666666668
100.0   120.0   16.666666666666668
150.0   120.0   33.333333333333336
100.0   90.0   33.333333333333336
100.0   120.0   33.333333333333336
150.0   120.0   33.333333333333336
100.0   120.0   16.666666666666668
100.0   90.0   33.333333333333336
150.0   120.0   33.333333333333336
150.0   90.0   33.333333333333336
150.0   90.0   16.666666666666668
100.0   90.0   33.333333333333336
150.0   120.0   33.333333333333336
150.0   90.0   16.666666666666668
100.0   120.0   16.666666666666668
100.0   90.0   33.333333333333336
150.0   90.0   33.333333333333336
100.0   120.0   33.333333333333336
100.0   90.0   50.0
150.0   90.0   33.333333333333336
150.0   120.0   33.333333333333336
100.0   120.0   33.333333333333336
150.0   120.0   50.0
100.0   90.0   50.0
100.0   120.0   50.0
150.0   120.0   50.0
100.0   120.0   33.333333333333336
100.0   90.0   50.0
150.0   120.0   50.0
150.0   90.0   50.0
150.0   90.0   33.333333333333336
100.0   90.0   50.0
150.0   120.0   50.0
150.0   90.0   33.333333333333336
100.0   120.0   33.333333333333336
100.0   120.0   0.0
150.0   120.0   0.0
100.0   150.0   0.0
100.0   120.0   16.666666666666668
150.0   120.0   0.0
150.0   150.0   0.0
100.0   150.0   0.0
150.0   150.0   16.666666666666668
100.0   120.0   16.666666666666668
100.0   150.0   16.666666666666668
150.0   150.0   16.666666666666668
100.0   150.0   0.0
100.0   120.0   16.666666666666668
150.0   150.0   16.666666666666668
150.0   120.0   16.666666666666668
150.0   120.0   0.0
100.0   120.0   16.666666666666668
150.0   150.0   16.666666666666668
150.0   120.0   0.0
100.0   150.0   0.0
100.0   120.0   16.666666666666668
150.0   120.0   16.666666666666668
100.0   150.0   16.666666666666668
100.0   120.0   33.333333333333336
150.0   120.0   16.666666666666668
150.0   150.0   16.666666666666668
100.0   150.0   16.666666666666668
150.0   150.0   33.333333333333336
100.0   120.0   33.333333333333336
100.0   150.0   33.333333333333336
150.0   150.0   33.333333333333336
100.0   150.0   16.666666666666668
100.0   120.0   33.333333333333336
150.0   150.0   33.333333333333336
150.0   120.0   33.333333333333336
150.0   120.0   16.666666666666668
100.0   120.0   33.333333333333336
150.0   150.0   33.333333333333336
150.0   120.0   16.666666666666668
100.0   150.0   16.666666666666668
100.0   120.0   33.333333333333336
150.0   120.0   33.333333333333336
100.0   150.0   33.333333333333336
100.0   120.0   50.0
150.0   120.0   33.333333333333336
150.0   150.0   33.333333333333336
100.0   150.0   33.333333333333336
150.0   150.0   50.0
100.0   120.0   50.0
100.0   150.0   50.0
150.0   150.0   50.0
100.0   150.0   33.333333333333336
100.0   120.0   50.0
150.0   150.0   50.0
150.0   120.0   50.0
150.0   120.0   33.333333333333336
100.0   120.0   50.0
150.0   150.0   50.0
150.0   120.0   33.333333333333336
100.0   150.0   33.333333333333336
150.0   0.0   0.0
200.0   0.0   0.0
150.0   30.0   0.0
150.0   0.0   16.666666666666668
200.0   0.0   0.0
200.0   30.0   0.0
150.0   30.0   0.0
200.0   30.0   16.666666666666668
150.0   0.0   16.666666666666668
150.0   30.0   16.666666666666668
200.0   30.0   16.666666666666668
150.0   30.0   0.0
150.0   0.0   16.666666666666668
200.0   30.0   16.666666666666668
200.0   0.0   16.666666666666668
200.0   0.0   0.0
150.0   0.0   16.666666666666668
200.0   30.0   16.666666666666668
200.0   0.0   0.0
150.0   30.0   0.0
150.0   0.0   16.666666666666668
200.0   0.0   16.666666666666668
150.0   30.0   16.666666666666668
150.0   0.0   33.333333333333336
200.0   0.0   16.666666666666668
200.0   30.0   16.666666666666668
150.0   30.0   16.666666666666668
200.0   30.0   33.333333333333336
150.0   0.0   33.333333333333336
150.0   30.0   33.333333333333336
200.0   30.0   33.333333333333336
150.0   30.0   16.666666666666668
150.0   0.0   33.333333333333336
200.0   30.0   33.333333333333336
200.0   0.0   33.333333333333336
200.0   0.0   16.666666666666668
150.0   0.0   33.333333333333336
200.0   30.0   33.333333333333336
200.0   0.0   16.666666666666668
150.0   30.0   16.666666666666668
150.0   0.0   33.333333333333336
200.0   0.0   33.333333333333336
150.0   30.0   33.333333333333336
150.0   0.0   50.0
200.0   0.0   33.333333333333336
200.0   30.0   33.333333333333336
150.0   30.0   33.333333333333336
200.0   30.0   50.0
150.0   0.0   50.0
150.0   30.0   50.0
200.0   30.0   50.0
150.0   30.0   33.333333333333336
150.0   0.0   50.0
200.0   30.0   50.0
200.0   0.0   50.0
200.0   0.0   33.333333333333336
150.0   0.0   50.0
200.0   30.0   50.0
200.0   0.0   33.333333333333336
150.0   30.0   33.333333333333336
150.0   30.0   0.0
200.0   30.0   0.0
150.0   60.0   0.0
150.0   30.0   16.666666666666668
200.0   30.0   0.0
200.0   60.0   0.0
150.0   60.0   0.0
200.0   60.0   16.666666666666668
150.0   30.0   16.666666666666668
150.0   60.0   16.666666666666668
200.0   60.0   16.666666666666668
150.0   60.0   0.0
150.0   30.0   16.666666666666668
200.0   60.0   16.666666666666668
200.0   30.0   16.666666666666668
200.0   30.0   0.0
150.0   30.0   16.666666666666668
200.0   60.0   16.666666666666668
200.0   30.0   0.0
150.0   60.0   0.0
150.0   30.0   16.666666666666668
200.0   30.0   16.666666666666668
150.0   60.0   16.666666666666668
150.0   30.0   33.333333333333336
200.0   30.0   16.666666666666668
200.0   60.0   16.666666666666668
150.0   60.0   16.666666666666668
200.0   60.0   33.333333333333336
150.0   30.0   33.333333333333336
150.0   60.0   33.333333333333336
200.0   60.0   33.333333333333336
150.0   60.0   16.666666666666668
150.0   30.0   33.333333333333336
200.0   60.0   33.333333333333336
200.0   30.0   33.333333333333336
200.0   30.0   16.666666666666668
150.0   30.0   33.333333333333336
200.0   60.0   33.333333333333336
200.0   30.0   16.666666666666668
150.0   60.0   16.666666666666668
150.0   30.0   33.333333333333336
200.0   30.0   33.333333333333336
150.0   60.0   33.333333333333336
150.0   30.0   50.0
200.0   30.0   33.333333333333336
200.0   60.0   33.333333333333336
150.0   60.0   33.333333333333336
200.0   60.0   50.0
150.0   30.0   50.0
150.0   60.0   50.0
200.0   60.0   50.0
150.0   60.0   33.333333333333336
150.0   30.0   50.0
200.0   60.0   50.0
200.0   30.0   50.0
200.0   30.0   33.333333333333336
150.0   30.0   50.0
200.0   60.0   50.0
200.0   30.0   33.333333333333336
150.0   60.0   33.333333333333336
150.0   60.0   0.0
200.0   60.0   0.0
150.0   90.0   0.0
150.0   60.0   16.666666666666668
200.0   60.0   0.0
200.0   90.0   0.0
150.0   90.0   0.0
200.0   90.0   16.666666666666668
150.0   60.0   16.666666666666668
150.0   90.0   16.666666666666668
200.0   90.0   16.666666666666668
150.0   90.0   0.0
150.0   60.0   16.666666666666668
200.0   90.0   16.666666666666668
200.0   60.0   16.666666666666668
200.0   60.0   0.0
150.0   60.0   16.666666666666668
200.0   90.0   16.666666666666668
200.0   60.0   0.0
150.0   90.0   0.0
150.0   60.0   16.666666666666668
200.0   60.0   16.666666666666668
150.0   90.0   16.666666666666668
150.0   60.0   33.333333333333336
200.0   60.0   16.666666666666668
200.0   90.0   16.666666666666668
150.0   90.0   16.666666666666668
200.0   90.0   33.333333333333336
150.0   60.0   33.333333333333336
150.0   90.0   33.333333333333336
200.0   90.0   33.333333333333336
150.0   90.0   16.666666666666668
150.0   60.0   33.333333333333336
200.0   90.0   33.333333333333336
200.0   60.0   33.333333333333336
200.0   60.0   16.666666666666668
150.0   60.0   33.333333333333336
200.0   90.0   33.333333333333336
200.0   60.0   16.666666666666668
150.0   90.0   16.666666666666668
150.0   60.0   33.333333333333336
200.0   60.0   33.333333333333336
150.0   90.0   33.333333333333336
150.0   60.0   50.0
200.0   60.0   33.333333333333336
200.0   90.0   33.333333333333336
150.0   90.0   33.333333333333336
200.0   90.0   50.0
150.0   60.0   50.0
150.0   90.0   50.0
200.0   90.0   50.0
150.0   90.0   33.333333333333336
150.0   60.0   50.0
200.0   90.0   50.0
200.0   60.0   50.0
200.0   60.0   33.333333333333336
150.0   60.0   50.0
200.0   90.0   50.0
200.0   60.0   33.333333333333336
150.0   90.0   33.333333333333336
150.0   90.0   0.0
200.0   90.0   0.0
150.0   120.0   0.0
150.0   90.0   16.666666666666668
200.0   90.0   0.0
200.0   120.0   0.0
150.0   120.0   0.0
200.0   120.0   16.666666666666668
150.0   90.0   16.666666666666668
150.0   120.0   16.666666666666668
200.0   120.0   16.666666666666668
150.0   120.0   0.0
150.0   90.0   16.666666666666668
200.0   120.0   16.666666666666668
200.0   90.0   16.666666666666668
200.0   90.0   0.0
150.0   90.0   16.666666666666668
200.0   120.0   16.666666666666668
200.0   90.0   0.0
150.0   120.0   0.0
150.0   90.0   16.666666666666668
200.0   90.0   16.666666666666668
150.0   120.0   16.666666666666668
150.0   90.0   33.333333333333336
200.0   90.0   16.666666666666668
200.0   120.0   16.666666666666668
150.0   120.0   16.666666666666668
200.0   120.0   33.333333333333336
150.0   90.0   33.333333333333336
150.0   120.0   33.333333333333336
200.0   120.0   33.333333333333336
150.0   120.0   16.666666666666668
150.0   90.0   33.333333333333336
200.0   120.0   33.333333333333336
200.0   90.0   33.333333333333336
200.0   90.0   16.666666666666668
150.0   90.0   33.333333333333336
200.0   120.0   33.333333333333336
200.0   90.0   16.666666666666668
150.0   120.0   16.666666666666668
150.0   90.0   33.333333333333336
200.0   90.0   33.333333333333336
150.0   120.0   33.333333333333336
150.0   90.0   50.0
200.0   90.0   33.333333333333336
200.0   120.0   33.333333333333336
150.0   120.0   33.333333333333336
200.0   120.0   50.0
150.0   90.0   50.0
150.0   120.0   50.0
200.0   120.0   50.0
150.0   120.0   33.333333333333336
150.0   90.0   50.0
200.0   120.0   50.0
200.0   90.0   50.0
200.0   90.0   33.333333333333336
150.0   90.0   50.0
200.0   120.0   50.0
200.0   90.0   33.333333333333336
150.0   120.0   33.333333333333336
150.0   120.0   0.0
200.0   120.0   0.0
150.0   150.0   0.0
150.0   120.0   16.666666666666668
200.0   120.0   0.0
200.0   150.0   0.0
150.0   150.0   0.0
200.0   150.0   16.666666666666668
150.0   120.0   16.666666666666668
150.0   150.0   16.666666666666668
200.0   150.0   16.666666666666668
150.0   150.0   0.0
150.0   120.0   16.666666666666668
200.0   150.0   16.666666666666668
200.0   120.0   16.666666666666668
200.0   120.0   0.0
150.0   120.0   16.666666666666668
200.0   150.0   16.666666666666668
200.0   120.0   0.0
150.0   150.0   0.0
150.0   120.0   16.666666666666668
200.0   120.0   16.666666666666668
150.0   150.0   16.666666666666668
150.0   120.0   33.333333333333336
200.0   120.0   16.666666666666668
200.0   150.0   16.666666666666668
150.0   150.0   16.666666666666668
200.0   150.0   33.333333333333336
150.0   120.0   33.333333333333336
150.0   150.0   33.333333333333336
200.0   150.0   33.333333333333336
150.0   150.0   16.666666666666668
150.0   120.0   33.333333333333336
200.0   150.0   33.333333333333336
200.0   120.0   33.333333333333336
200.0   120.0   16.666666666666668
150.0   120.0   33.333333333333336
200.0   150.0   33.333333333333336
200.0   120.0   16.666666666666668
150.0   150.0   16.666666666666668
150.0   120.0   33.333333333333336
200.0   120.0   33.333333333333336
150.0   150.0   33.333333333333336
150.0   120.0   50.0
200.0   120.0   33.333333333333336
200.0   150.0   33.333333333333336
150.0   150.0   33.333333333333336
200.0   150.0   50.0
150.0   120.0   50.0
150.0   150.0   50.0
200.0   150.0   50.0
150.0   150.0   33.333333333333336
150.0   120.0   50.0
200.0   150.0   50.0
200.0   120.0   50.0
200.0   120.0   33.333333333333336
150.0   120.0   50.0
200.0   150.0   50.0
200.0   120.0   33.333333333333336
150.0   150.0   33.333333333333336
200.0   0.0   0.0
250.0   0.0   0.0
200.0   30.0   0.0
200.0   0.0   16.666666666666668
250.0   0.0   0.0
250.0   30.0   0.0
200.0   30.0   0.0
250.0   30.0   16.666666666666668
200.0   0.0   16.666666666666668
200.0   30.0   16.666666666666668
250.0   30.0   16.666666666666668
200.0   30.0   0.0
200.0   0.0   16.666666666666668
250.0   30.0   16.666666666666668
250.0   0.0   16.666666666666668
250.0   0.0   0.0
200.0   0.0   16.666666666666668
250.0   30.0   16.666666666666668
250.0   0.0   0.0
200.0   30.0   0.0
200.0   0.0   16.666666666666668
250.0   0.0   16.666666666666668
200.0   30.0   16.666666666666668
200.0   0.0   33.333333333333336
250.0   0.0   16.666666666666668
250.0   30.0   16.666666666666668
200.0   30.0   16.666666666666668
250.0   30.0   33.333333333333336
200.0   0.0   33.333333333333336
200.0   30.0   33.333333333333336
250.0   30.0   33.333333333333336
200.0   30.0   16.666666666666668
200.0   0.0   33.333333333333336
250.0   30.0   33.333333333333336
250.0   0.0   33.333333333333336
250.0   0.0   16.666666666666668
200.0   0.0   33.333333333333336
250.0   30.0   33.333333333333336
250.0   0.0   16.666666666666668
200.0   30.0   16.666666666666668
200.0   0.0   33.333333333333336
250.0   0.0   33.333333333333336
200.0   30.0   33.333333333333336
200.0   0.0   50.0
250.0   0.0   33.333333333333336
250.0   30.0   33.333333333333336
200.0   30.0   33.333333333333336
250.0   30.0   50.0
200.0   0.0   50.0
200.0   30.0   50.0
250.0   30.0   50.0
200.0   30.0   33.333333333333336
200.0   0.0   50.0
250.0   30.0   50.0
250.0   0.0   50.0
250.0   0.0   33.333333333333336
200.0   0.0   50.0
250.0   30.0   50.0
250.0   0.0   33.333333333333336
200.0   30.0   33.333333333333336
200.0   30.0   0.0
250.0   30.0   0.0
200.0   60.0   0.0
200.0   30.0   16.666666666666668
250.0   30.0   0.0
250.0   60.0   0.0
200.0   60.0   0.0
250.0   60.0   16.666666666666668
200.0   30.0   16.666666666666668
200.0   60.0   16.666666666666668
250.0   60.0   16.666666666666668
200.0   60.0   0.0
200.0   30.0   16.666666666666668
250.0   60.0   16.666666666666668
250.0   30.0   16.666666666666668
250.0   30.0   0.0
200.0   30.0   16.666666666666668
250.0   60.0   16.666666666666668
250.0   30.0   0.0
200.0   60.0   0.0
200.0   30.0   16.666666666666668
250.0   30.0   16.666666666666668
200.0   60.0   16.666666666666668
200.0   30.0   33.333333333333336
250.0   30.0   16.666666666666668
250.0   60.0   16.666666666666668
200.0   60.0   16.666666666666668
250.0   60.0   33.333333333333336
200.0   30.0   33.333333333333336
200.0   60.0   33.333333333333336
250.0   60.0   33.333333333333336
200.0   60.0   16.666666666666668
200.0   30.0   33.333333333333336
250.0   60.0   33.333333333333336
250.0   30.0   33.333333333333336
250.0   30.0   16.666666666666668
200.0   30.0   33.333333333333336
250.0   60.0   33.333333333333336
250.0   30.0   16.666666666666668
200.0   60.0   16.666666666666668
200.0   30.0   33.333333333333336
250.0   30.0   33.333333333333336
200.0   60.0   33.333333333333336
200.0   30.0   50.0
250.0   30.0   33.333333333333336
250.0   60.0   33.333333333333336
200.0   60.0   33.333333333333336
250.0   60.0   50.0
200.0   30.0   50.0
200.0   60.0   50.0
250.0   60.0   50.0
200.0   60.0   33.333333333333336
200.0   30.0   50.0
250.0   60.0   50.0
250.0   30.0   50.0
250.0   30.0   33.333333333333336
200.0   30.0   50.0
250.0   60.0   50.0
250.0   30.0   33.333333333333336
200.0   60.0   33.333333333333336
200.0   60.0   0.0
250.0   60.0   0.0
200.0   90.0   0.0
200.0   60.0   16.666666666666668
250.0   60.0   0.0
250.0   90.0   0.0
200.0   90.0   0.0
250.0   90.0   16.666666666666668
200.0   60.0   16.666666666666668
200.0   90.0   16.666666666666668
250.0   90.0   16.666666666666668
200.0   90.0   0.0
200.0   60.0   16.666666666666668
250.0   90.0   16.666666666666668
250.0   60.0   16.666666666666668
250.0   60.0   0.0
200.0   60.0   16.666666666666668
250.0   90.0   16.666666666666668
250.0   60.0   0.0
200.0   90.0   0.0
200.0   60.0   16.666666666666668
250.0   60.0   16.666666666666668
200.0   90.0   16.666666666666668
200.0   60.0   33.333333333333336
250.0   60.0   16.666666666666668
250.0   90.0   16.666666666666668
200.0   90.0   16.666666666666668
250.0   90.0   33.333333333333336
200.0   60.0   33.333333333333336
200.0   90.0   33.333333333333336
250.0   90.0   33.333333333333336
200.0   90.0   16.666666666666668
200.0   60.0   33.333333333333336
250.0   90.0   33.333333333333336
250.0   60.0   33.333333333333336
250.0   60.0   16.666666666666668
200.0   60.0   33.333333333333336
250.0   90.0   33.333333333333336
250.0   60.0   16.666666666666668
200.0   90.0   16.666666666666668
200.0   60.0   33.333333333333336
250.0   60.0   33.333333333333336
200.0   90.0   33.333333333333336
200.0   60.0   50.0
250.0   60.0   33.333333333333336
250.0   90.0   33.333333333333336
200.0   90.0   33.333333333333336
250.0   90.0   50.0
200.0   60.0   50.0
200.0   90.0   50.0
250.0   90.0   50.0
200.0   90.0   33.333333333333336
200.0   60.0   50.0
250.0   90.0   50.0
250.0   60.0   50.0
250.0   60.0   33.333333333333336
200.0   60.0   50.0
250.0   90.0   50.0
250.0   60.0   33.333333333333336
200.0   90.0   33.333333333333336
200.0   90.0   0.0
250.0   90.0   0.0
200.0   120.0   0.0
200.0   90.0   16.666666666666668
250.0   90.0   0.0
250.0   120.0   0.0
200.0   120.0   0.0
250.0   120.0   16.666666666666668
200.0   90.0   16.666666666666668
200.0   120.0   16.666666666666668
250.0   120.0   16.666666666666668
200.0   120.0   0.0
200.0   90.0   16.666666666666668
250.0   120.0   16.666666666666668
250.0   90.0   16.666666666666668
250.0   90.0   0.0
200.0   90.0   16.666666666666668
250.0   120.0   16.666666666666668
250.0   90.0   0.0
200.0   120.0   0.0
200.0   90.0   16.666666666666668
250.0   90.0   16.666666666666668
200.0   120.0   16.666666666666668
200.0   90.0   33.333333333333336
250.0   90.0   16.666666666666668
250.0   120.0   16.666666666666668
200.0   120.0   16.666666666666668
250.0   120.0   33.333333333333336
200.0   90.0   33.333333333333336
200.0   120.0   33.333333333333336
250.0   120.0   33.333333333333336
200.0   120.0   16.666666666666668
200.0   90.0   33.333333333333336
250.0   120.0   33.333333333333336
250.0   90.0   33.333333333333336
250.0   90.0   16.666666666666668
200.0   90.0   33.333333333333336
250.0   120.0   33.333333333333336
250.0   90.0   16.666666666666668
200.0   120.0   16.666666666666668
200.0   90.0   33.333333333333336
250.0   90.0   33.333333333333336
200.0   120.0   33.333333333333336
200.0   90.0   50.0
250.0   90.0   33.333333333333336
250.0   120.0   33.333333333333336
200.0   120.0   33.333333333333336
250.0   120.0   50.0
200.0   90.0   50.0
200.0   120.0   50.0
250.0   120.0   50.0
200.0   120.0   33.333333333333336
200.0   90.0   50.0
250.0   120.0   50.0
250.0   90.0   50.0
250.0   90.0   33.333333333333336
200.0   90.0   50.0
250.0   120.0   50.0
250.0   90.0   33.333333333333336
200.0   120.0   33.333333333333336
200.0   120.0   0.0
250.0   120.0   0.0
200.0   150.0   0.0
200.0   120.0   16.666666666666668
250.0   120.0   0.0
250.0   150.0   0.0
200.0   150.0   0.0
250.0   150.0   16.666666666666668
200.0   120.0   16.666666666666668
200.0   150.0   16.666666666666668
250.0   150.0   16.666666666666668
200.0   150.0   0.0
200.0   120.0   16.666666666666668
250.0   150.0   16.666666666666668
250.0   120.0   16.666666666666668
250.0   120.0   0.0
200.0   120.0   16.666666666666668
250.0   150.0   16.666666666666668
250.0   120.0   0.0
200.0   150.0   0.0
200.0   120.0   16.666666666666668
250.0   120.0   16.666666666666668
200.0   150.0   16.666666666666668
200.0   120.0   33.333333333333336
250.0   120.0   16.666666666666668
250.0   150.0   16.666666666666668
200.0   150.0   16.666666666666668
250.0   150.0   33.333333333333336
200.0   120.0   33.333333333333336
200.0   150.0   33.333333333333336
250.0   150.0   33.333333333333336
200.0   150.0   16.666666666666668
200.0   120.0   33.333333333333336
250.0   150.0   33.333333333333336
250.0   120.0   33.333333333333336
250.0   120.0   16.666666666666668
200.0   120.0   33.333333333333336
250.0   150.0   33.333333333333336
250.0   120.0   16.666666666666668
200.0   150.0   16.666666666666668
200.0   120.0   33.333333333333336
250.0   120.0   33.333333333333336
200.0   150.0   33.333333333333336
200.0   120.0   50.0
250.0   120.0   33.333333333333336
250.0   150.0   33.333333333333336
200.0   150.0   33.333333333333336
250.0   150.0   50.0
200.0   120.0   50.0
200.0   150.0   50.0
250.0   150.0   50.0
200.0   150.0   33.333333333333336
200.0   120.0   50.0
250.0   150.0   50.0
250.0   120.0   50.0
250.0   120.0   33.333333333333336
200.0   120.0   50.0
250.0   150.0   50.0
250.0   120.0   33.333333333333336
200.0   150.0   33.333333333333336
250.0   0.0   0.0
300.0   0.0   0.0
250.0   30.0   0.0
250.0   0.0   16.666666666666668
300.0   0.0   0.0
300.0   30.0   0.0
250.0   30.0   0.0
300.0   30.0   16.666666666666668
250.0   0.0   16.666666666666668
250.0   30.0   16.666666666666668
300.0   30.0   16.666666666666668
250.0   30.0   0.0
250.0   0.0   16.666666666666668
300.0   30.0   16.666666666666668
300.0   0.0   16.666666666666668
300.0   0.0   0.0
250.0   0.0   16.666666666666668
300.0   30.0   16.666666666666668
300.0   0.0   0.0
250.0   30.0   0.0
250.0   0.0   16.666666666666668
300.0   0.0   16.666666666666668
250.0   30.0   16.666666666666668
250.0   0.0   33.333333333333336
300.0   0.0   16.666666666666668
300.0   30.0   16.666666666666668
250.0   30.0   16.666666666666668
300.0   30.0   33.333333333333336
250.0   0.0   33.333333333333336
250.0   30.0   33.333333333333336
300.0   30.0   33.333333333333336
250.0   30.0   16.666666666666668
250.0   0.0   33.333333333333336
300.0   30.0   33.333333333333336
300.0   0.0   33.333333333333336
300.0   0.0   16.666666666666668
250.0   0.0   33.333333333333336
300.0   30.0   33.333333333333336
300.0   0.0   16.666666666666668
250.0   30.0   16.666666666666668
250.0   0.0   33.333333333333336
300.0   0.0   33.333333333333336
250.0   30.0   33.333333333333336
250.0   0.0   50.0
300.0   0.0   33.333333333333336
300.0   30.0   33.333333333333336
250.0   30.0   33.333333333333336
300.0   30.0   50.0
250.0   0.0   50.0
250.0   30.0   50.0
300.0   30.0   50.0
250.0   30.0   33.333333333333336
250.0   0.0   50.0
300.0   30.0   50.0
300.0   0.0   50.0
300.0   0.0   33.333333333333336
250.0   0.0   50.0
300.0   30.0   50.0
300.0   0.0   33.333333333333336
250.0   30.0   33.333333333333336
250.0   30.0   0.0
300.0   30.0   0.0
250.0   60.0   0.0
250.0   30.0   16.666666666666668
300.0   30.0   0.0
300.0   60.0   0.0
250.0   60.0   0.0
300.0   60.0   16.666666666666668
250.0   30.0   16.666666666666668
250.0   60.0   16.666666666666668
300.0   60.0   16.666666666666668
250.0   60.0   0.0
250.0   30.0   16.666666666666668
300.0   60.0   16.666666666666668
300.0   30.0   16.666666666666668
300.0   30.0   0.0
250.0   30.0   16.666666666666668
300.0   60.0   16.666666666666668
300.0   30.0   0.0
250.0   60.0   0.0
250.0   30.0   16.666666666666668
300.0   30.0   16.666666666666668
250.0   60.0   16.666666666666668
250.0   30.0   33.333333333333336
300.0   30.0   16.666666666666668
300.0   60.0   16.666666666666668
250.0   60.0   16.666666666666668
300.0   60.0   33.333333333333336
250.0   30.0   33.333333333333336
250.0   60.0   33.333333333333336
300.0   60.0   33.333333333333336
250.0   60.0   16.666666666666668
250.0   30.0   33.333333333333336
300.0   60.0   33.333333333333336
300.0   30.0   33.333333333333336
300.0   30.0   16.666666666666668
250.0   30.0   33.333333333333336
300.0   60.0   33.333333333333336
300.0   30.0   16.666666666666668
250.0   60.0   16.666666666666668
250.0   30.0   33.333333333333336
300.0   30.0   33.333333333333336
250.0   60.0   33.333333333333336
250.0   30.0   50.0
300.0   30.0   33.333333333333336
300.0   60.0   33.333333333333336
250.0   60.0   33.333333333333336
300.0   60.0   50.0
250.0   30.0   50.0
250.0   60.0   50.0
300.0   60.0   50.0
250.0   60.0   33.333333333333336
250.0   30.0   50.0
300.0   60.0   50.0
300.0   30.0   50.0
300.0   30.0   33.333333333333336
250.0   30.0   50.0
300.0   60.0   50.0
300.0   30.0   33.333333333333336
250.0   60.0   33.333333333333336
250.0   60.0   0.0
300.0   60.0   0.0
250.0   90.0   0.0
250.0   60.0   16.666666666666668
300.0   60.0   0.0
300.0   90.0   0.0
250.0   90.0   0.0
300.0   90.0   16.666666666666668
250.0   60.0   16.666666666666668
250.0   90.0   16.666666666666668
300.0   90.0   16.666666666666668
250.0   90.0   0.0
250.0   60.0   16.666666666666668
300.0   90.0   16.666666666666668
300.0   60.0   16.666666666666668
300.0   60.0   0.0
250.0   60.0   16.666666666666668
300.0   90.0   16.666666666666668
300.0   60.0   0.0
250.0   90.0   0.0
250.0   60.0   16.666666666666668
300.0   60.0   16.666666666666668
250.0   90.0   16.666666666666668
250.0   60.0   33.333333333333336
300.0   60.0   16.666666666666668
300.0   90.0   16.666666666666668
250.0   90.0   16.666666666666668
300.0   90.0   33.333333333333336
250.0   60.0   33.333333333333336
250.0   90.0   33.333333333333336
300.0   90.0   33.333333333333336
250.0   90.0   16.666666666666668
250.0   60.0   33.333333333333336
300.0   90.0   33.333333333333336
300.0   60.0   33.333333333333336
300.0   60.0   16.666666666666668
250.0   60.0   33.333333333333336
300.0   90.0   33.333333333333336
300.0   60.0   16.666666666666668
250.0   90.0   16.666666666666668
250.0   60.0   33.333333333333336
300.0   60.0   33.333333333333336
250.0   90.0   33.333333333333336
250.0   60.0   50.0
300.0   60.0   33.333333333333336
300.0   90.0   33.333333333333336
250.0   90.0   33.333333333333336
300.0   90.0   50.0
250.0   60.0   50.0
250.0   90.0   50.0
300.0   90.0   50.0
250.0   90.0   33.333333333333336
250.0   60.0   50.0
300.0   90.0   50.0
300.0   60.0   50.0
300.0   60.0   33.333333333333336
250.0   60.0   50.0
300.0   90.0   50.0
300.0   60.0   33.333333333333336
250.0   90.0   33.333333333333336
250.0   90.0   0.0
300.0   90.0   0.0
250.0   120.0   0.0
250.0   90.0   16.666666666666668
300.0   90.0   0.0
300.0   120.0   0.0
250.0   120.0   0.0
300.0   120.0   16.666666666666668
250.0   90.0   16.666666666666668
250.0   120.0   16.666666666666668
300.0   120.0   16.666666666666668
250.0   120.0   0.0
250.0   90.0   16.666666666666668
300.0   120.0   16.666666666666668
300.0   90.0   16.666666666666668
300.0   90.0   0.0
250.0   90.0   16.666666666666668
300.0   120.0   16.666666666666668
300.0   90.0   0.0
250.0   120.0   0.0
250.0   90.0   16.666666666666668
300.0   90.0   16.666666666666668
250.0   120.0   16.666666666666668
250.0   90.0   33.333333333333336
300.0   90.0   16.666666666666668
300.0   120.0   16.666666666666668
250.0   120.0   16.666666666666668
300.0   120.0   33.333333333333336
250.0   90.0   33.333333333333336
250.0   120.0   33.333333333333336
300.0   120.0   33.333333333333336
250.0   120.0   16.666666666666668
250.0   90.0   33.333333333333336
300.0   120.0   33.333333333333336
300.0   90.0   33.333333333333336
300.0   90.0   16.666666666666668
250.0   90.0   33.333333333333336
300.0   120.0   33.333333333333336
300.0   90.0   16.666666666666668
250.0   120.0   16.666666666666668
250.0   90.0   33.333333333333336
300.0   90.0   33.333333333333336
250.0   120.0   33.333333333333336
250.0   90.0   50.0
300.0   90.0   33.333333333333336
300.0   120.0   33.333333333333336
250.0   120.0   33.333333333333336
300.0   120.0   50.0
250.0   90.0   50.0
250.0   120.0   50.0
300.0   120.0   50.0
250.0   120.0   33.333333333333336
250.0   90.0   50.0
300.0   120.0   50.0
300.0   90.0   50.0
300.0   90.0   33.333333333333336
250.0   90.0   50.0
300.0   120.0   50.0
300.0   90.0   33.333333333333336
250.0   120.0   33.333333333333336
250.0   120.0   0.0
300.0   120.0   0.0
250.0   150.0   0.0
250.0   120.0   16.666666666666668
300.0   120.0   0.0
300.0   150.0   0.0
250.0   150.0   0.0
300.0   150.0   16.666666666666668
250.0   120.0   16.666666666666668
250.0   150.0   16.666666666666668
300.0   150.0   16.666666666666668
250.0   150.0   0.0
250.0   120.0   16.666666666666668
300.0   150.0   16.666666666666668
300.0   120.0   16.666666666666668
300.0   120.0   0.0
250.0   120.0   16.666666666666668
300.0   150.0   16.666666666666668
300.0   120.0   0.0
250.0   150.0   0.0
250.0   120.0   16.666666666666668
300.0   120.0   16.666666666666668
250.0   150.0   16.666666666666668
250.0   120.0   33.333333333333336
300.0   120.0   16.666666666666668
300.0   150.0   16.666666666666668
250.0   150.0   16.666666666666668
300.0   150.0   33.333333333333336
250.0   120.0   33.333333333333336
250.0   150.0   33.333333333333336
300.0   150.0   33.333333333333336
250.0   150.0   16.666666666666668
250.0   120.0   33.333333333333336
300.0   150.0   33.333333333333336
300.0   120.0   33.333333333333336
300.0   120.0   16.666666666666668
250.0   120.0   33.333333333333336
300.0   150.0   33.333333333333336
300.0   120.0   16.666666666666668
250.0   150.0   16.666666666666668
250.0   120.0   33.333333333333336
300.0   120.0   33.333333333333336
250.0   150.0   33.333333333333336
250.0   120.0   50.0
300.0   120.0   33.333333333333336
300.0   150.0   33.333333333333336
250.0   150.0   33.333333333333336
300.0   150.0   50.0
250.0   120.0   50.0
250.0   150.0   50.0
300.0   150.0   50.0
250.0   150.0   33.333333333333336
250.0   120.0   50.0
300.0   150.0   50.0
300.0   120.0   50.0
300.0   120.0   33.333333333333336
250.0   120.0   50.0
300.0   150.0   50.0
300.0   120.0   33.333333333333336
250.0   150.0   33.333333333333336
300.0   0.0   0.0
350.0   0.0   0.0
300.0   30.0   0.0
300.0   0.0   16.666666666666668
350.0   0.0   0.0
350.0   30.0   0.0
300.0   30.0   0.0
350.0   30.0   16.666666666666668
300.0   0.0   16.666666666666668
300.0   30.0   16.666666666666668
350.0   30.0   16.666666666666668
300.0   30.0   0.0
300.0   0.0   16.666666666666668
350.0   30.0   16.666666666666668
350.0   0.0   16.666666666666668
350.0   0.0   0.0
300.0   0.0   16.666666666666668
350.0   30.0   16.666666666666668
350.0   0.0   0.0
300.0   30.0   0.0
300.0   0.0   16.666666666666668
350.0   0.0   16.666666666666668
300.0   30.0   16.666666666666668
300.0   0.0   33.333333333333336
350.0   0.0   16.666666666666668
350.0   30.0   16.666666666666668
300.0   30.0   16.666666666666668
350.0   30.0   33.333333333333336
300.0   0.0   33.333333333333336
300.0   30.0   33.333333333333336
350.0   30.0   33.333333333333336
300.0   30.0   16.666666666666668
300.0   0.0   33.333333333333336
350.0   30.0   33.333333333333336
350.0   0.0   33.333333333333336
350.0   0.0   16.666666666666668
300.0   0.0   33.333333333333336
350.0   30.0   33.333333333333336
350.0   0.0   16.666666666666668
300.0   30.0   16.666666666666668
300.0   0.0   33.333333333333336
350.0   0.0   33.333333333333336
300.0   30.0   33.333333333333336
300.0   0.0   50.0
350.0   0.0   33.333333333333336
350.0   30.0   33.333333333333336
300.0   30.0   33.333333333333336
350.0   30.0   50.0
300.0   0.0   50.0
300.0   30.0   50.0
350.0   30.0   50.0
300.0   30.0   33.333333333333336
300.0   0.0   50.0
350.0   30.0   50.0
350.0   0.0   50.0
350.0   0.0   33.333333333333336
300.0   0.0   50.0
350.0   30.0   50.0
350.0   0.0   33.333333333333336
300.0   30.0   33.333333333333336
300.0   30.0   0.0
350.0   30.0   0.0
300.0   60.0   0.0
300.0   30.0   16.666666666666668
350.0   30.0   0.0
350.0   60.0   0.0
300.0   60.0   0.0
350.0   60.0   16.666666666666668
300.0   30.0   16.666666666666668
300.0   60.0   16.666666666666668
350.0   60.0   16.666666666666668
300.0   60.0   0.0
300.0   30.0   16.666666666666668
350.0   60.0   16.666666666666668
350.0   30.0   16.666666666666668
350.0   30.0   0.0
300.0   30.0   16.666666666666668
350.0   60.0   16.666666666666668
350.0   30.0   0.0
300.0   60.0   0.0
300.0   30.0   16.666666666666668
350.0   30.0   16.666666666666668
300.0   60.0   16.666666666666668
300.0   30.0   33.333333333333336
350.0   30.0   16.666666666666668
350.0   60.0   16.666666666666668
300.0   60.0   16.666666666666668
350.0   60.0   33.333333333333336
300.0   30.0   33.333333333333336
300.0   60.0   33.333333333333336
350.0   60.0   33.333333333333336
300.0   60.0   16.666666666666668
300.0   30.0   33.333333333333336
350.0   60.0   33.333333333333336
350.0   30.0   33.333333333333336
350.0   30.0   16.666666666666668
300.0   30.0   33.333333333333336
350.0   60.0   33.333333333333336
350.0   30.0   16.666666666666668
300.0   60.0   16.666666666666668
300.0   30.0   33.333333333333336
350.0   30.0   33.333333333333336
300.0   60.0   33.333333333333336
300.0   30.0   50.0
350.0   30.0   33.333333333333336
350.0   60.0   33.333333333333336
300.0   60.0   33.333333333333336
350.0   60.0   50.0
300.0   30.0   50.0
300.0   60.0   50.0
350.0   60.0   50.0
300.0   60.0   33.333333333333336
300.0   30.0   50.0
350.0   60.0   50.0
350.0   30.0   50.0
350.0   30.0   33.333333333333336
300.0   30.0   50.0
350.0   60.0   50.0
350.0   30.0   33.333333333333336
300.0   60.0   33.333333333333336
300.0   60.0   0.0
350.0   60.0   0.0
300.0   90.0   0.0
300.0   60.0   16.666666666666668
350.0   60.0   0.0
350.0   90.0   0.0
300.0   90.0   0.0
350.0   90.0   16.666666666666668
300.0   60.0   16.666666666666668
300.0   90.0   16.666666666666668
350.0   90.0   16.666666666666668
300.0   90.0   0.0
300.0   60.0   16.666666666666668
350.0   90.0   16.666666666666668
350.0   60.0   16.666666666666668
350.0   60.0   0.0
300.0   60.0   16.666666666666668
350.0   90.0   16.666666666666668
350.0   60.0   0.0
300.0   90.0   0.0
300.0   60.0   16.666666666666668
350.0   60.0   16.666666666666668
300.0   90.0   16.666666666666668
300.0   60.0   33.333333333333336
350.0   60.0   16.666666666666668
350.0   90.0   16.666666666666668
300.0   90.0   16.666666666666668
350.0   90.0   33.333333333333336
300.0   60.0   33.333333333333336
300.0   90.0   33.333333333333336
350.0   90.0   33.333333333333336
300.0   90.0   16.666666666666668
300.0   60.0   33.333333333333336
350.0   90.0   33.333333333333336
350.0   60.0   33.333333333333336
350.0   60.0   16.666666666666668
300.0   60.0   33.333333333333336
350.0   90.0   33.333333333333336
350.0   60.0   16.666666666666668
300.0   90.0   16.666666666666668
300.0   60.0   33.333333333333336
350.0   60.0   33.333333333333336
300.0   90.0   33.333333333333336
300.0   60.0   50.0
350.0   60.0   33.333333333333336
350.0   90.0   33.333333333333336
300.0   90.0   33.333333333333336
350.0   90.0   50.0
300.0   60.0   50.0
300.0   90.0   50.0
350.0   90.0   50.0
300.0   90.0   33.333333333333336
300.0   60.0   50.0
350.0   90.0   50.0
350.0   60.0   50.0
350.0   60.0   33.333333333333336
300.0   60.0   50.0
350.0   90.0   50.0
350.0   60.0   33.333333333333336
300.0   90.0   33.333333333333336
300.0   90.0   0.0
350.0   90.0   0.0
300.0   120.0   0.0
300.0   90.0   16.666666666666668
350.0   90.0   0.0
350.0   120.0   0.0
300.0   120.0   0.0
350.0   120.0   16.666666666666668
300.0   90.0   16.666666666666668
300.0   120.0   16.666666666666668
350.0   120.0   16.666666666666668
300.0   120.0   0.0
300.0   90.0   16.666666666666668
350.0   120.0   16.666666666666668
350.0   90.0   16.666666666666668
350.0   90.0   0.0
300.0   90.0   16.666666666666668
350.0   120.0   16.666666666666668
350.0   90.0   0.0
300.0   120.0   0.0
300.0   90.0   16.666666666666668
350.0   90.0   16.666666666666668
300.0   120.0   16.666666666666668
300.0   90.0   33.333333333333336
350.0   90.0   16.666666666666668
350.0   120.0   16.666666666666668
300.0   120.0   16.666666666666668
350.0   120.0   33.333333333333336
300.0   90.0   33.333333333333336
300.0   120.0   33.333333333333336
350.0   120.0   33.333333333333336
300.0   120.0   16.666666666666668
300.0   90.0   33.333333333333336
350.0   120.0   33.333333333333336
350.0   90.0   33.333333333333336
350.0   90.0   16.666666666666668
300.0   90.0   33.333333333333336
350.0   120.0   33.333333333333336
350.0   90.0   16.666666666666668
300.0   120.0   16.666666666666668
300.0   90.0   33.333333333333336
350.0   90.0   33.333333333333336
300.0   120.0   33.333333333333336
300.0   90.0   50.0
350.0   90.0   33.333333333333336
350.0   120.0   33.333333333333336
300.0   120.0   33.333333333333336
350.0   120.0   50.0
300.0   90.0   50.0
300.0   120.0   50.0
350.0   120.0   50.0
300.0   120.0   33.333333333333336
300.0   90.0   50.0
350.0   120.0   50.0
350.0   90.0   50.0
350.0   90.0   33.333333333333336
300.0   90.0   50.0
350.0   120.0   50.0
350.0   90.0   33.333333333333336
300.0   120.0   33.333333333333336
300.0   120.0   0.0
350.0   120.0   0.0
300.0   150.0   0.0
300.0   120.0   16.666666666666668
350.0   120.0   0.0
350.0   150.0   0.0
300.0   150.0   0.0
350.0   150.0   16.666666666666668
300.0   120.0   16.666666666666668
300.0   150.0   16.666666666666668
350.0   150.0   16.666666666666668
300.0   150.0   0.0
300.0   120.0   16.666666666666668
350.0   150.0   16.666666666666668
350.0   120.0   16.666666666666668
350.0   120.0   0.0
300.0   120.0   16.666666666666668
350.0   150.0   16.666666666666668
350.0   120.0   0.0
300.0   150.0   0.0
300.0   120.0   16.666666666666668
350.0   120.0   16.666666666666668
300.0   150.0   16.666666666666668
300.0   120.0   33.333333333333336
350.0   120.0   16.666666666666668
350.0   150.0   16.666666666666668
300.0   150.0   16.666666666666668
350.0   150.0   33.333333333333336
300.0   120.0   33.333333333333336
300.0   150.0   33.333333333333336
350.0   150.0   33.333333333333336
300.0   150.0   16.666666666666668
300.0   120.0   33.333333333333336
350.0   150.0   33.333333333333336
350.0   120.0   33.333333333333336
350.0   120.0   16.666666666666668
300.0   120.0   33.333333333333336
350.0   150.0   33.333333333333336
350.0   120.0   16.666666666666668
300.0   150.0   16.666666666666668
300.0   120.0   33.333333333333336
350.0   120.0   33.333333333333336
300.0   150.0   33.333333333333336
300.0   120.0   50.0
350.0   120.0   33.333333333333336
350.0   150.0   33.333333333333336
300.0   150.0   33.333333333333336
350.0   150.0   50.0
300.0   120.0   50.0
300.0   150.0   50.0
350.0   150.0   50.0
300.0   150.0   33.333333333333336
300.0   120.0   50.0
350.0   150.0   50.0
350.0   120.0   50.0
350.0   120.0   33.333333333333336
300.0   120.0   50.0
350.0   150.0   50.0
350.0   120.0   33.333333333333336
300.0   150.0   33.333333333333336
350.0   0.0   0.0
400.0   0.0   0.0
350.0   30.0   0.0
350.0   0.0   16.666666666666668
400.0   0.0   0.0
400.0   30.0   0.0
350.0   30.0   0.0
400.0   30.0   16.666666666666668
350.0   0.0   16.666666666666668
350.0   30.0   16.666666666666668
400.0   30.0   16.666666666666668
350.0   30.0   0.0
350.0   0.0   16.666666666666668
400.0   30.0   16.666666666666668
400.0   0.0   16.666666666666668
400.0   0.0   0.0
350.0   0.0   16.666666666666668
400.0   30.0   16.666666666666668
400.0   0.0   0.0
350.0   30.0   0.0
350.0   0.0   16.666666666666668
400.0   0.0   16.666666666666668
350.0   30.0   16.666666666666668
350.0   0.0   33.333333333333336
400.0   0.0   16.666666666666668
400.0   30.0   16.666666666666668
350.0   30.0   16.666666666666668
400.0   30.0   33.333333333333336
350.0   0.0   33.333333333333336
350.0   30.0   33.333333333333336
400.0   30.0   33.333333333333336
350.0   30.0   16.666666666666668
350.0   0.0   33.333333333333336
400.0   30.0   33.333333333333336
400.0   0.0   33.333333333333336
400.0   0.0   16.666666666666668
350.0   0.0   33.333333333333336
400.0   30.0   33.333333333333336
400.0   0.0   16.666666666666668
350.0   30.0   16.666666666666668
350.0   0.0   33.333333333333336
400.0   0.0   33.333333333333336
350.0   30.0   33.333333333333336
350.0   0.0   50.0
400.0   0.0   33.333333333333336
400.0   30.0   33.333333333333336
350.0   30.0   33.333333333333336
400.0   30.0   50.0
350.0   0.0   50.0
350.0   30.0   50.0
400.0   30.0   50.0
350.0   30.0   33.333333333333336
350.0   0.0   50.0
400.0   30.0   50.0
400.0   0.0   50.0
400.0   0.0   33.333333333333336
350.0   0.0   50.0
400.0   30.0   50.0
400.0   0.0   33.333333333333336
350.0   30.0   33.333333333333336
350.0   30.0   0.0
400.0   30.0   0.0
350.0   60.0   0.0
350.0   30.0   16.666666666666668
400.0   30.0   0.0
400.0   60.0   0.0
350.0   60.0   0.0
400.0   60.0   16.666666666666668
350.0   30.0   16.666666666666668
350.0   60.0   16.666666666666668
400.0   60.0   16.666666666666668
350.0   60.0   0.0
350.0   30.0   16.666666666666668
400.0   60.0   16.666666666666668
400.0   30.0   16.666666666666668
400.0   30.0   0.0
350.0   30.0   16.666666666666668
400.0   60.0   16.666666666666668
400.0   30.0   0.0
350.0   60.0   0.0
350.0   30.0   16.666666666666668
400.0   30.0   16.666666666666668
350.0   60.0   16.666666666666668
350.0   30.0   33.333333333333336
400.0   30.0   16.666666666666668
400.0   60.0   16.666666666666668
350.0   60.0   16.666666666666668
400.0   60.0   33.333333333333336
350.0   30.0   33.333333333333336
350.0   60.0   33.333333333333336
400.0   60.0   33.333333333333336
350.0   60.0   16.666666666666668
350.0   30.0   33.333333333333336
400.0   60.0   33.333333333333336
400.0   30.0   33.333333333333336
400.0   30.0   16.666666666666668
350.0   30.0   33.333333333333336
400.0   60.0   33.333333333333336
400.0   30.0   16.666666666666668
350.0   60.0   16.666666666666668
350.0   30.0   33.333333333333336
400.0   30.0   33.333333333333336
350.0   60.0   33.333333333333336
350.0   30.0   50.0
400.0   30.0   33.333333333333336
400.0   60.0   33.333333333333336
350.0   60.0   33.333333333333336
400.0   60.0   50.0
350.0   30.0   50.0
350.0   60.0   50.0
400.0   60.0   50.0
350.0   60.0   33.333333333333336
350.0   30.0   50.0
400.0   60.0   50.0
400.0   30.0   50.0
400.0   30.0   33.333333333333336
350.0   30.0   50.0
400.0   60.0   50.0
400.0   30.0   33.333333333333336
350.0   60.0   33.333333333333336
350.0   60.0   0.0
400.0   60.0   0.0
350.0   90.0   0.0
350.0   60.0   16.666666666666668
400.0   60.0   0.0
400.0   90.0   0.0
350.0   90.0   0.0
400.0   90.0   16.666666666666668
350.0   60.0   16.666666666666668
350.0   90.0   16.666666666666668
400.0   90.0   16.666666666666668
350.0   90.0   0.0
350.0   60.0   16.666666666666668
400.0   90.0   16.666666666666668
400.0   60.0   16.666666666666668
400.0   60.0   0.0
350.0   60.0   16.666666666666668
400.0   90.0   16.666666666666668
400.0   60.0   0.0
350.0   90.0   0.0
350.0   60.0   16.666666666666668
400.0   60.0   16.666666666666668
350.0   90.0   16.666666666666668
350.0   60.0   33.333333333333336
400.0   60.0   16.666666666666668
400.0   90.0   16.666666666666668
350.0   90.0   16.666666666666668
400.0   90.0   33.333333333333336
350.0   60.0   33.333333333333336
350.0   90.0   33.333333333333336
400.0   90.0   33.333333333333336
350.0   90.0   16.666666666666668
350.0   60.0   33.333333333333336
400.0   90.0   33.333333333333336
400.0   60.0   33.333333333333336
400.0   60.0   16.666666666666668
350.0   60.0   33.333333333333336
400.0   90.0   33.333333333333336
400.0   60.0   16.666666666666668
350.0   90.0   16.666666666666668
350.0   60.0   33.333333333333336
400.0   60.0   33.333333333333336
350.0   90.0   33.333333333333336
350.0   60.0   50.0
400.0   60.0   33.333333333333336
400.0   90.0   33.333333333333336
350.0   90.0   33.333333333333336
400.0   90.0   50.0
350.0   60.0   50.0
350.0   90.0   50.0
400.0   90.0   50.0
350.0   90.0   33.333333333333336
350.0   60.0   50.0
400.0   90.0   50.0
400.0   60.0   50.0
400.0   60.0   33.333333333333336
350.0   60.0   50.0
400.0   90.0   50.0
400.0   60.0   33.333333333333336
350.0   90.0   33.333333333333336
350.0   90.0   0.0
400.0   90.0   0.0
350.0   120.0   0.0
350.0   90.0   16.666666666666668
400.0   90.0   0.0
400.0   120.0   0.0
350.0   120.0   0.0
400.0   120.0   16.666666666666668
350.0   90.0   16.666666666666668
350.0   120.0   16.666666666666668
400.0   120.0   16.666666666666668
350.0   120.0   0.0
350.0   90.0   16.666666666666668
400.0   120.0   16.666666666666668
400.0   90.0   16.666666666666668
400.0   90.0   0.0
350.0   90.0   16.666666666666668
400.0   120.0   16.666666666666668
400.0   90.0   0.0
350.0   120.0   0.0
350.0   90.0   16.666666666666668
400.0   90.0   16.666666666666668
350.0   120.0   16.666666666666668
350.0   90.0   33.333333333333336
400.0   90.0   16.666666666666668
400.0   120.0   16.666666666666668
350.0   120.0   16.666666666666668
400.0   120.0   33.333333333333336
350.0   90.0   33.333333333333336
350.0   120.0   33.333333333333336
400.0   120.0   33.333333333333336
350.0   120.0   16.666666666666668
350.0   90.0   33.333333333333336
400.0   120.0   33.333333333333336
400.0   90.0   33.333333333333336
400.0   90.0   16.666666666666668
350.0   90.0   33.333333333333336
400.0   120.0   33.333333333333336
400.0   90.0   16.666666666666668
350.0   120.0   16.666666666666668
350.0   90.0   33.333333333333336
400.0   90.0   33.333333333333336
350.0   120.0   33.333333333333336
350.0   90.0   50.0
400.0   90.0   33.333333333333336
400.0   120.0   33.333333333333336
350.0   120.0   33.333333333333336
400.0   120.0   50.0
350.0   90.0   50.0
350.0   120.0   50.0
400.0   120.0   50.0
350.0   120.0   33.333333333333336
350.0   90.0   50.0
400.0   120.0   50.0
400.0   90.0   50.0
400.0   90.0   33.333333333333336
350.0   90.0   50.0
400.0   120.0   50.0
400.0   90.0   33.333333333333336
350.0   120.0   33.333333333333336
350.0   120.0   0.0
400.0   120.0   0.0
350.0   150.0   0.0
350.0   120.0   16.666666666666668
400.0   120.0   0.0
400.0   150.0   0.0
350.0   150.0   0.0
400.0   150.0   16.666666666666668
350.0   120.0   16.666666666666668
350.0   150.0   16.666666666666668
400.0   150.0   16.666666666666668
350.0   150.0   0.0
350.0   120.0   16.666666666666668
400.0   150.0   16.666666666666668
400.0   120.0   16.666666666666668
400.0   120.0   0.0
350.0   120.0   16.666666666666668
400.0   150.0   16.666666666666668
400.0   120.0   0.0
350.0   150.0   0.0
350.0   120.0   16.666666666666668
400.0   120.0   16.666666666666668
350.0   150.0   16.666666666666668
350.0   120.0   33.333333333333336
400.0   120.0   16.666666666666668
400.0   150.0   16.666666666666668
350.0   150.0   16.666666666666668
400.0   150.0   33.333333333333336
350.0   120.0   33.333333333333336
350.0   150.0   33.333333333333336
400.0   150.0   33.333333333333336
350.0   150.0   16.666666666666668
350.0   120.0   33.333333333333336
400.0   150.0   33.333333333333336
400.0   120.0   33.333333333333336
400.0   120.0   16.666666666666668
350.0   120.0   33.333333333333336
400.0   150.0   33.333333333333336
400.0   120.0   16.666666666666668
350.0   150.0   16.666666666666668
350.0   120.0   33.333333333333336
400.0   120.0   33.333333333333336
350.0   150.0   33.333333333333336
350.0   120.0   50.0
400.0   120.0   33.333333333333336
400.0   150.0   33.333333333333336
350.0   150.0   33.333333333333336
400.0   150.0   50.0
350.0   120.0   50.0
350.0   150.0   50.0
400.0   150.0   50.0
350.0   150.0   33.333333333333336
350.0   120.0   50.0
400.0   150.0   50.0
400.0   120.0   50.0
400.0   120.0   33.333333333333336
350.0   120.0   50.0
400.0   150.0   50.0
400.0   120.0   33.333333333333336
350.0   150.0   33.333333333333336
400.0   0.0   0.0
450.0   0.0   0.0
400.0   30.0   0.0
400.0   0.0   16.666666666666668
450.0   0.0   0.0
450.0   30.0   0.0
400.0   30.0   0.0
450.0   30.0   16.666666666666668
400.0   0.0   16.666666666666668
400.0   30.0   16.666666666666668
450.0   30.0   16.666666666666668
400.0   30.0   0.0
400.0   0.0   16.666666666666668
450.0   30.0   16.666666666666668
450.0   0.0   16.666666666666668
450.0   0.0   0.0
400.0   0.0   16.666666666666668
450.0   30.0   16.666666666666668
450.0   0.0   0.0
400.0   30.0   0.0
400.0   0.0   16.666666666666668
450.0   0.0   16.666666666666668
400.0   30.0   16.666666666666668
400.0   0.0   33.333333333333336
450.0   0.0   16.666666666666668
450.0   30.0   16.666666666666668
400.0   30.0   16.666666666666668
450.0   30.0   33.333333333333336
400.0   0.0   33.333333333333336
400.0   30.0   33.333333333333336
450.0   30.0   33.333333333333336
400.0   30.0   16.666666666666668
400.0   0.0   33.333333333333336
450.0   30.0   33.333333333333336
450.0   0.0   33.333333333333336
450.0   0.0   16.666666666666668
400.0   0.0   33.333333333333336
450.0   30.0   33.333333333333336
450.0   0.0   16.666666666666668
400.0   30.0   16.666666666666668
400.0   0.0   33.333333333333336
450.0   0.0   33.333333333333336
400.0   30.0   33.333333333333336
400.0   0.0   50.0
450.0   0.0   33.333333333333336
450.0   30.0   33.333333333333336
400.0   30.0   33.333333333333336
450.0   30.0   50.0
400.0   0.0   50.0
400.0   30.0   50.0
450.0   30.0   50.0
400.0   30.0   33.333333333333336
400.0   0.0   50.0
450.0   30.0   50.0
450.0   0.0   50.0
450.0   0.0   33.333333333333336
400.0   0.0   50.0
450.0   30.0   50.0
450.0   0.0   33.333333333333336
400.0   30.0   33.333333333333336
400.0   30.0   0.0
450.0   30.0   0.0
400.0   60.0   0.0
400.0   30.0   16.666666666666668
450.0   30.0   0.0
450.0   60.0   0.0
400.0   60.0   0.0
450.0   60.0   16.666666666666668
400.0   30.0   16.666666666666668
400.0   60.0   16.666666666666668
450.0   60.0   16.666666666666668
400.0   60.0   0.0
400.0   30.0   16.666666666666668
450.0   60.0   16.666666666666668
450.0   30.0   16.666666666666668
450.0   30.0   0.0
400.0   30.0   16.666666666666668
450.0   60.0   16.666666666666668
450.0   30.0   0.0
400.0   60.0   0.0
400.0   30.0   16.666666666666668
450.0   30.0   16.666666666666668
400.0   60.0   16.666666666666668
400.0   30.0   33.333333333333336
450.0   30.0   16.666666666666668
450.0   60.0   16.666666666666668
400.0   60.0   16.666666666666668
450.0   60.0   33.333333333333336
400.0   30.0   33.333333333333336
400.0   60.0   33.333333333333336
450.0   60.0   33.333333333333336
400.0   60.0   16.666666666666668
400.0   30.0   33.333333333333336
450.0   60.0   33.333333333333336
450.0   30.0   33.333333333333336
450.0   30.0   16.666666666666668
400.0   30.0   33.333333333333336
450.0   60.0   33.333333333333336
450.0   30.0   16.666666666666668
400.0   60.0   16.666666666666668
400.0   30.0   33.333333333333336
450.0   30.0   33.333333333333336
400.0   60.0   33.333333333333336
400.0   30.0   50.0
450.0   30.0   33.333333333333336
450.0   60.0   33.333333333333336
400.0   60.0   33.333333333333336
450.0   60.0   50.0
400.0   30.0   50.0
400.0   60.0   50.0
450.0   60.0   50.0
400.0   60.0   33.333333333333336
400.0   30.0   50.0
450.0   60.0   50.0
450.0   30.0   50.0
450.0   30.0   33.333333333333336
400.0   30.0   50.0
450.0   60.0   50.0
450.0   30.0   33.333333333333336
400.0   60.0   33.333333333333336
400.0   60.0   0.0
450.0   60.0   0.0
400.0   90.0   0.0
400.0   60.0   16.666666666666668
450.0   60.0   0.0
450.0   90.0   0.0
400.0   90.0   0.0
450.0   90.0   16.666666666666668
400.0   60.0   16.666666666666668
400.0   90.0   16.666666666666668
450.0   90.0   16.666666666666668
400.0   90.0   0.0
400.0   60.0   16.666666666666668
450.0   90.0   16.666666666666668
450.0   60.0   16.666666666666668
450.0   60.0   0.0
400.0   60.0   16.666666666666668
450.0   90.0   16.666666666666668
450.0   60.0   0.0
400.0   90.0   0.0
400.0   60.0   16.666666666666668
450.0   60.0   16.666666666666668
400.0   90.0   16.666666666666668
400.0   60.0   33.333333333333336
450.0   60.0   16.666666666666668
450.0   90.0   16.666666666666668
400.0   90.0   16.666666666666668
450.0   90.0   33.333333333333336
400.0   60.0   33.333333333333336
400.0   90.0   33.333333333333336
450.0   90.0   33.333333333333336
400.0   90.0   16.666666666666668
400.0   60.0   33.333333333333336
450.0   90.0   33.333333333333336
450.0   60.0   33.333333333333336
450.0   60.0   16.666666666666668
400.0   60.0   33.333333333333336
450.0   90.0   33.333333333333336
450.0   60.0   16.666666666666668
400.0   90.0   16.666666666666668
400.0   60.0   33.333333333333336
450.0   60.0   33.333333333333336
400.0   90.0   33.333333333333336
400.0   60.0   50.0
450.0   60.0   33.333333333333336
450.0   90.0   33.333333333333336
400.0   90.0   33.333333333333336
450.0   90.0   50.0
400.0   60.0   50.0
400.0   90.0   50.0
450.0   90.0   50.0
400.0   90.0   33.333333333333336
400.0   60.0   50.0
450.0   90.0   50.0
450.0   60.0   50.0
450.0   60.0   33.333333333333336
400.0   60.0   50.0
450.0   90.0   50.0
450.0   60.0   33.333333333333336
400.0   90.0   33.333333333333336
400.0   90.0   0.0
450.0   90.0   0.0
400.0   120.0   0.0
400.0   90.0   16.666666666666668
450.0   90.0   0.0
450.0   120.0   0.0
400.0   120.0   0.0
450.0   120.0   16.666666666666668
400.0   90.0   16.666666666666668
400.0   120.0   16.666666666666668
450.0   120.0   16.666666666666668
400.0   120.0   0.0
400.0   90.0   16.666666666666668
450.0   120.0   16.666666666666668
450.0   90.0   16.666666666666668
450.0   90.0   0.0
400.0   90.0   16.666666666666668
450.0   120.0   16.666666666666668
450.0   90.0   0.0
400.0   120.0   0.0
400.0   90.0   16.666666666666668
450.0   90.0   16.666666666666668
400.0   120.0   16.666666666666668
400.0   90.0   33.333333333333336
450.0   90.0   16.666666666666668
450.0   120.0   16.666666666666668
400.0   120.0   16.666666666666668
450.0   120.0   33.333333333333336
400.0   90.0   33.333333333333336
400.0   120.0   33.333333333333336
450.0   120.0   33.333333333333336
400.0   120.0   16.666666666666668
400.0   90.0   33.333333333333336
450.0   120.0   33.333333333333336
450.0   90.0   33.333333333333336
450.0   90.0   16.666666666666668
400.0   90.0   33.333333333333336
450.0   120.0   33.333333333333336
450.0   90.0   16.666666666666668
400.0   120.0   16.666666666666668
400.0   90.0   33.333333333333336
450.0   90.0   33.333333333333336
400.0   120.0   33.333333333333336
400.0   90.0   50.0
450.0   90.0   33.333333333333336
450.0   120.0   33.333333333333336
400.0   120.0   33.333333333333336
450.0   120.0   50.0
400.0   90.0   50.0
400.0   120.0   50.0
450.0   120.0   50.0
400.0   120.0   33.333333333333336
400.0   90.0   50.0
450.0   120.0   50.0
450.0   90.0   50.0
450.0   90.0   33.333333333333336
400.0   90.0   50.0
450.0   120.0   50.0
450.0   90.0   33.333333333333336
400.0   120.0   33.333333333333336
400.0   120.0   0.0
450.0   120.0   0.0
400.0   150.0   0.0
400.0   120.0   16.666666666666668
450.0   120.0   0.0
450.0   150.0   0.0
400.0   150.0   0.0
450.0   150.0   16.666666666666668
400.0   120.0   16.666666666666668
400.0   150.0   16.666666666666668
450.0   150.0   16.666666666666668
400.0   150.0   0.0
400.0   120.0   16.666666666666668
450.0   150.0   16.666666666666668
450.0   120.0   16.666666666666668
450.0   120.0   0.0
400.0   120.0   16.666666666666668
450.0   150.0   16.666666666666668
450.0   120.0   0.0
400.0   150.0   0.0
400.0   120.0   16.666666666666668
450.0   120.0   16.666666666666668
400.0   150.0   16.666666666666668
400.0   120.0   33.333333333333336
450.0   120.0   16.666666666666668
450.0   150.0   16.666666666666668
400.0   150.0   16.666666666666668
450.0   150.0   33.333333333333336
400.0   120.0   33.333333333333336
400.0   150.0   33.333333333333336
450.0   150.0   33.333333333333336
400.0   150.0   16.666666666666668
400.0   120.0   33.333333333333336
450.0   150.0   33.333333333333336
450.0   120.0   33.333333333333336
450.0   120.0   16.666666666666668
400.0   120.0   33.333333333333336
450.0   150.0   33.333333333333336
450.0   120.0   16.666666666666668
400.0   150.0   16.666666666666668
400.0   120.0   33.333333333333336
450.0   120.0   33.333333333333336
400.0   150.0   33.333333333333336
400.0   120.0   50.0
450.0   120.0   33.333333333333336
450.0   150.0   33.333333333333336
400.0   150.0   33.333333333333336
450.0   150.0   50.0
400.0   120.0   50.0
400.0   150.0   50.0
450.0   150.0   50.0
400.0   150.0   33.333333333333336
400.0   120.0   50.0
450.0   150.0   50.0
450.0   120.0   50.0
450.0   120.0   33.333333333333336
400.0   120.0   50.0
450.0   150.0   50.0
450.0   120.0   33.333333333333336
400.0   150.0   33.333333333333336
450.0   0.0   0.0
500.0   0.0   0.0
450.0   30.0   0.0
450.0   0.0   16.666666666666668
500.0   0.0   0.0
500.0   30.0   0.0
450.0   30.0   0.0
500.0   30.0   16.666666666666668
450.0   0.0   16.666666666666668
450.0   30.0   16.666666666666668
500.0   30.0   16.666666666666668
450.0   30.0   0.0
450.0   0.0   16.666666666666668
500.0   30.0   16.666666666666668
500.0   0.0   16.666666666666668
500.0   0.0   0.0
450.0   0.0   16.666666666666668
500.0   30.0   16.666666666666668
500.0   0.0   0.0
450.0   30.0   0.0
450.0   0.0   16.666666666666668
500.0   0.0   16.666666666666668
450.0   30.0   16.666666666666668
450.0   0.0   33.333333333333336
500.0   0.0   16.666666666666668
500.0   30.0   16.666666666666668
450.0   30.0   16.666666666666668
500.0   30.0   33.333333333333336
450.0   0.0   33.333333333333336
450.0   30.0   33.333333333333336
500.0   30.0   33.333333333333336
450.0   30.0   16.666666666666668
450.0   0.0   33.333333333333336
500.0   30.0   33.333333333333336
500.0   0.0   33.333333333333336
500.0   0.0   16.666666666666668
450.0   0.0   33.333333333333336
500.0   30.0   33.333333333333336
500.0   0.0   16.666666666666668
450.0   30.0   16.666666666666668
450.0   0.0   33.333333333333336
500.0   0.0   33.333333333333336
450.0   30.0   33.333333333333336
450.0   0.0   50.0
500.0   0.0   33.333333333333336
500.0   30.0   33.333333333333336
450.0   30.0   33.333333333333336
500.0   30.0   50.0
450.0   0.0   50.0
450.0   30.0   50.0
500.0   30.0   50.0
450.0   30.0   33.333333333333336
450.0   0.0   50.0
500.0   30.0   50.0
500.0   0.0   50.0
500.0   0.0   33.333333333333336
450.0   0.0   50.0
500.0   30.0   50.0
500.0   0.0   33.333333333333336
450.0   30.0   33.333333333333336
450.0   30.0   0.0
500.0   30.0   0.0
450.0   60.0   0.0
450.0   30.0   16.666666666666668
500.0   30.0   0.0
500.0   60.0   0.0
450.0   60.0   0.0
500.0   60.0   16.666666666666668
450.0   30.0   16.666666666666668
450.0   60.0   16.666666666666668
500.0   60.0   16.666666666666668
450.0   60.0   0.0
450.0   30.0   16.666666666666668
500.0   60.0   16.666666666666668
500.0   30.0   16.666666666666668
500.0   30.0   0.0
450.0   30.0   16.666666666666668
500.0   60.0   16.666666666666668
500.0   30.0   0.0
450.0   60.0   0.0
450.0   30.0   16.666666666666668
500.0   30.0   16.666666666666668
450.0   60.0   16.666666666666668
450.0   30.0   33.333333333333336
500.0   30.0   16.666666666666668
500.0   60.0   16.666666666666668
450.0   60.0   16.666666666666668
500.0   60.0   33.333333333333336
450.0   30.0   33.333333333333336
450.0   60.0   33.333333333333336
500.0   60.0   33.333333333333336
450.0   60.0   16.666666666666668
450.0   30.0   33.333333333333336
500.0   60.0   33.333333333333336
500.0   30.0   33.333333333333336
500.0   30.0   16.666666666666668
450.0   30.0   33.333333333333336
500.0   60.0   33.333333333333336
500.0   30.0   16.666666666666668
450.0   60.0   16.666666666666668
450.0   30.0   33.333333333333336
500.0   30.0   33.333333333333336
450.0   60.0   33.333333333333336
450.0   30.0   50.0
500.0   30.0   33.333333333333336
500.0   60.0   33.333333333333336
450.0   60.0   33.333333333333336
500.0   60.0   50.0
450.0   30.0   50.0
450.0   60.0   50.0
500.0   60.0   50.0
450.0   60.0   33.333333333333336
450.0   30.0   50.0
500.0   60.0   50.0
500.0   30.0   50.0
500.0   30.0   33.333333333333336
450.0   30.0   50.0
500.0   60.0   50.0
500.0   30.0   33.333333333333336
450.0   60.0   33.333333333333336
450.0   60.0   0.0
500.0   60.0   0.0
450.0   90.0   0.0
450.0   60.0   16.666666666666668
500.0   60.0   0.0
500.0   90.0   0.0
450.0   90.0   0.0
500.0   90.0   16.666666666666668
450.0   60.0   16.666666666666668
450.0   90.0   16.666666666666668
500.0   90.0   16.666666666666668
450.0   90.0   0.0
450.0   60.0   16.666666666666668
500.0   90.0   16.666666666666668
500.0   60.0   16.666666666666668
500.0   60.0   0.0
450.0   60.0   16.666666666666668
500.0   90.0   16.666666666666668
500.0   60.0   0.0
450.0   90.0   0.0
450.0   60.0   16.666666666666668
500.0   60.0   16.666666666666668
450.0   90.0   16.666666666666668
450.0   60.0   33.333333333333336
500.0   60.0   16.666666666666668
500.0   90.0   16.666666666666668
450.0   90.0   16.666666666666668
500.0   90.0   33.333333333333336
450.0   60.0   33.333333333333336
450.0   90.0   33.333333333333336
500.0   90.0   33.333333333333336
450.0   90.0   16.666666666666668
450.0   60.0   33.333333333333336
500.0   90.0   33.333333333333336
500.0   60.0   33.333333333333336
500.0   60.0   16.666666666666668
450.0   60.0   33.333333333333336
500.0   90.0   33.333333333333336
500.0   60.0   16.666666666666668
450.0   90.0   16.666666666666668
450.0   60.0   33.333333333333336
500.0   60.0   33.333333333333336
450.0   90.0   33.333333333333336
450.0   60.0   50.0
500.0   60.0   33.333333333333336
500.0   90.0   33.333333333333336
450.0   90.0   33.333333333333336
500.0   90.0   50.0
450.0   60.0   50.0
450.0   90.0   50.0
500.0   90.0   50.0
450.0   90.0   33.333333333333336
450.0   60.0   50.0
500.0   90.0   50.0
500.0   60.0   50.0
500.0   60.0   33.333333333333336
450.0   60.0   50.0
500.0   90.0   50.0
500.0   60.0   33.333333333333336
450.0   90.0   33.333333333333336
450.0   90.0   0.0
500.0   90.0   0.0
450.0   120.0   0.0
450.0   90.0   16.666666666666668
500.0   90.0   0.0
500.0   120.0   0.0
450.0   120.0   0.0
500.0   120.0   16.666666666666668
450.0   90.0   16.666666666666668
450.0   120.0   16.666666666666668
500.0   120.0   16.666666666666668
450.0   120.0   0.0
450.0   90.0   16.666666666666668
500.0   120.0   16.666666666666668
500.0   90.0   16.666666666666668
500.0   90.0   0.0
450.0   90.0   16.666666666666668
500.0   120.0   16.666666666666668
500.0   90.0   0.0
450.0   120.0   0.0
450.0   90.0   16.666666666666668
500.0   90.0   16.666666666666668
450.0   120.0   16.666666666666668
450.0   90.0   33.333333333333336
500.0   90.0   16.666666666666668
500.0   120.0   16.666666666666668
450.0   120.0   16.666666666666668
500.0   120.0   33.333333333333336
450.0   90.0   33.333333333333336
450.0   120.0   33.333333333333336
500.0   120.0   33.333333333333336
450.0   120.0   16.666666666666668
450.0   90.0   33.333333333333336
500.0   120.0   33.333333333333336
500.0   90.0   33.333333333333336
500.0   90.0   16.666666666666668
450.0   90.0   33.333333333333336
500.0   120.0   33.333333333333336
500.0   90.0   16.666666666666668
450.0   120.0   16.666666666666668
450.0   90.0   33.333333333333336
500.0   90.0   33.333333333333336
450.0   120.0   33.333333333333336
450.0   90.0   50.0
500.0   90.0   33.333333333333336
500.0   120.0   33.333333333333336
450.0   120.0   33.333333333333336
500.0   120.0   50.0
450.0   90.0   50.0
450.0   120.0   50.0
500.0   120.0   50.0
450.0   120.0   33.333333333333336
450.0   90.0   50.0
500.0   120.0   50.0
500.0   90.0   50.0
500.0   90.0   33.333333333333336
450.0   90.0   50.0
500.0   120.0   50.0
500.0   90.0   33.333333333333336
450.0   120.0   33.333333333333336
450.0   120.0   0.0
500.0   120.0   0.0
450.0   150.0   0.0
450.0   120.0   16.666666666666668
500.0   120.0   0.0
500.0   150.0   0.0
450.0   150.0   0.0
500.0   150.0   16.666666666666668
450.0   120.0   16.666666666666668
450.0   150.0   16.666666666666668
500.0   150.0   16.666666666666668
450.0   150.0   0.0
450.0   120.0   16.666666666666668
500.0   150.0   16.666666666666668
500.0   120.0   16.666666666666668
500.0   120.0   0.0
450.0   120.0   16.666666666666668
500.0   150.0   16.666666666666668
500.0   120.0   0.0
450.0   150.0   0.0
450.0   120.0   16.666666666666668
500.0   120.0   16.666666666666668
450.0   150.0   16.666666666666668
450.0   120.0   33.333333333333336
500.0   120.0   16.666666666666668
500.0   150.0   16.666666666666668
450.0   150.0   16.666666666666668
500.0   150.0   33.333333333333336
450.0   120.0   33.333333333333336
450.0   150.0   33.333333333333336
500.0   150.0   33.333333333333336
450.0   150.0   16.666666666666668
450.0   120.0   33.333333333333336
500.0   150.0   33.333333333333336
500.0   120.0   33.333333333333336
500.0   120.0   16.666666666666668
450.0   120.0   33.333333333333336
500.0   150.0   33.333333333333336
500.0   120.0   16.666666666666668
450.0   150.0   16.666666666666668
450.0   120.0   33.333333333333336
500.0   120.0   33.333333333333336
450.0   150.0   33.333333333333336
450.0   120.0   50.0
500.0   120.0   33.333333333333336
500.0   150.0   33.333333333333336
450.0   150.0   33.333333333333336
500.0   150.0   50.0
450.0   120.0   50.0
450.0   150.0   50.0
500.0   150.0   50.0
450.0   150.0   33.333333333333336
450.0   120.0   50.0
500.0   150.0   50.0
500.0   120.0   50.0
500.0   120.0   33.333333333333336
450.0   120.0   50.0
500.0   150.0   50.0
500.0   120.0   33.333333333333336
450.0   150.0   33.333333333333336
             </DataArray>   
          </Points>  
          <Cells>  
             <DataArray type="Int32" Name="connectivity" format="ascii">   
0   1   2   3
4   5   6   7
8   9   10   11
12   13   14   15
16   17   18   19
20   21   22   23
24   25   26   27
28   29   30   31
32   33   34   35
36   37   38   39
40   41   42   43
44   45   46   47
48   49   50   51
52   53   54   55
56   57   58   59
60   61   62   63
64   65   66   67
68   69   70   71
72   73   74   75
76   77   78   79
80   81   82   83
84   85   86   87
88   89   90   91
92   93   94   95
96   97   98   99
100   101   102   103
104   105   106   107
108   109   110   111
112   113   114   115
116   117   118   119
120   121   122   123
124   125   126   127
128   129   130   131
132   133   134   135
136   137   138   139
140   141   142   143
144   145   146   147
148   149   150   151
152   153   154   155
156   157   158   159
160   161   162   163
164   165   166   167
168   169   170   171
172   173   174   175
176   177   178   179
180   181   182   183
184   185   186   187
188   189   190   191
192   193   194   195
196   197   198   199
200   201   202   203
204   205   206   207
208   209   210   211
212   213   214   215
216   217   218   219
220   221   222   223
224   225   226   227
228   229   230   231
232   233   234   235
236   237   238   239
240   241   242   243
244   245   246   247
248   249   250   251
252   253   254   255
256   257   258   259
260   261   262   263
264   265   266   267
268   269   270   271
272   273   274   275
276   277   278   279
280   281   282   283
284   285   286   287
288   289   290   291
292   293   294   295
296   297   298   299
300   301   302   303
304   305   306   307
308   309   310   311
312   313   314   315
316   317   318   319
320   321   322   323
324   325   326   327
328   329   330   331
332   333   334   335
336   337   338   339
340   341   342   343
344   345   346   347
348   349   350   351
352   353   354   355
356   357   358   359
360   361   362   363
364   365   366   367
368   369   370   371
372   373   374   375
376   377   378   379
380   381   382   383
384   385   386   387
388   389   390   391
392   393   394   395
396   397   398   399
400   401   402   403
404   405   406   407
408   409   410   411
412   413   414   415
416   417   418   419
420   421   422   423
424   425   426   427
428   429   430   431
432   433   434   435
436   437   438   439
440   441   442   443
444   445   446   447
448   449   450   451
452   453   454   455
456   457   458   459
460   461   462   463
464   465   466   467
468   469   470   471
472   473   474   475
476   477   478   479
480   481   482   483
484   485   486   487
488   489   490   491
492   493   494   495
496   497   498   499
500   501   502   503
504   505   506   507
508   509   510   511
512   513   514   515
516   517   518   519
520   521   522   523
524   525   526   527
528   529   530   531
532   533   534   535
536   537   538   539
540   541   542   543
544   545   546   547
548   549   550   551
552   553   554   555
556   557   558   559
560   561   562   563
564   565   566   567
568   569   570   571
572   573   574   575
576   577   578   579
580   581   582   583
584   585   586   587
588   589   590   591
592   593   594   595
596   597   598   599
600   601   602   603
604   605   606   607
608   609   610   611
612   613   614   615
616   617   618   619
620   621   622   623
624   625   626   627
628   629   630   631
632   633   634   635
636   637   638   639
640   641   642   643
644   645   646   647
648   649   650   651
652   653   654   655
656   657   658   659
660   661   662   663
664   665   666   667
668   669   670   671
672   673   674   675
676   677   678   679
680   681   682   683
684   685   686   687
688   689   690   691
692   693   694   695
696   697   698   699
700   701   702   703
704   705   706   707
708   709   710   711
712   713   714   715
716   717   718   719
720   721   722   723
724   725   726   727
728   729   730   731
732   733   734   735
736   737   738   739
740   741   742   743
744   745   746   747
748   749   750   751
752   753   754   755
756   757   758   759
760   761   762   763
764   765   766   767
768   769   770   771
772   773   774   775
776   777   778   779
780   781   782   783
784   785   786   787
788   789   790   791
792   793   794   795
796   797   798   799
800   801   802   803
804   805   806   807
808   809   810   811
812   813   814   815
816   817   818   819
820   821   822   823
824   825   826   827
828   829   830   831
832   833   834   835
836   837   838   839
840   841   842   843
844   845   846   847
848   849   850   851
852   853   854   855
856   857   858   859
860   861   862   863
864   865   866   867
868   869   870   871
872   873   874   875
876   877   878   879
880   881   882   883
884   885   886   887
888   889   890   891
892   893   894   895
896   897   898   899
900   901   902   903
904   905   906   907
908   909   910   911
912   913   914   915
916   917   918   919
920   921   922   923
924   925   926   927
928   929   930   931
932   933   934   935
936   937   938   939
940   941   942   943
944   945   946   947
948   949   950   951
952   953   954   955
956   957   958   959
960   961   962   963
964   965   966   967
968   969   970   971
972   973   974   975
976   977   978   979
980   981   982   983
984   985   986   987
988   989   990   991
992   993   994   995
996   997   998   999
1000   1001   1002   1003
1004   1005   1006   1007
1008   1009   1010   1011
1012   1013   1014   1015
1016   1017   1018   1019
1020   1021   1022   1023
1024   1025   1026   1027
1028   1029   1030   1031
1032   1033   1034   1035
1036   1037   1038   1039
1040   1041   1042   1043
1044   1045   1046   1047
1048   1049   1050   1051
1052   1053   1054   1055
1056   1057   1058   1059
1060   1061   1062   1063
1064   1065   1066   1067
1068   1069   1070   1071
1072   1073   1074   1075
1076   1077   1078   1079
1080   1081   1082   1083
1084   1085   1086   1087
1088   1089   1090   1091
1092   1093   1094   1095
1096   1097   1098   1099
1100   1101   1102   1103
1104   1105   1106   1107
1108   1109   1110   1111
1112   1113   1114   1115
1116   1117   1118   1119
1120   1121   1122   1123
1124   1125   1126   1127
1128   1129   1130   1131
1132   1133   1134   1135
1136   1137   1138   1139
1140   1141   1142   1143
1144   1145   1146   1147
1148   1149   1150   1151
1152   1153   1154   1155
1156   1157   1158   1159
1160   1161   1162   1163
1164   1165   1166   1167
1168   1169   1170   1171
1172   1173   1174   1175
1176   1177   1178   1179
1180   1181   1182   1183
1184   1185   1186   1187
1188   1189   1190   1191
1192   1193   1194   1195
1196   1197   1198   1199
1200   1201   1202   1203
1204   1205   1206   1207
1208   1209   1210   1211
1212   1213   1214   1215
1216   1217   1218   1219
1220   1221   1222   1223
1224   1225   1226   1227
1228   1229   1230   1231
1232   1233   1234   1235
1236   1237   1238   1239
1240   1241   1242   1243
1244   1245   1246   1247
1248   1249   1250   1251
1252   1253   1254   1255
1256   1257   1258   1259
1260   1261   1262   1263
1264   1265   1266   1267
1268   1269   1270   1271
1272   1273   1274   1275
1276   1277   1278   1279
1280   1281   1282   1283
1284   1285   1286   1287
1288   1289   1290   1291
1292   1293   1294   1295
1296   1297   1298   1299
1300   1301   1302   1303
1304   1305   1306   1307
1308   1309   1310   1311
1312   1313   1314   1315
1316   1317   1318   1319
1320   1321   1322   1323
1324   1325   1326   1327
1328   1329   1330   1331
1332   1333   1334   1335
1336   1337   1338   1339
1340   1341   1342   1343
1344   1345   1346   1347
1348   1349   1350   1351
1352   1353   1354   1355
1356   1357   1358   1359
1360   1361   1362   1363
1364   1365   1366   1367
1368   1369   1370   1371
1372   1373   1374   1375
1376   1377   1378   1379
1380   1381   1382   1383
1384   1385   1386   1387
1388   1389   1390   1391
1392   1393   1394   1395
1396   1397   1398   1399
1400   1401   1402   1403
1404   1405   1406   1407
1408   1409   1410   1411
1412   1413   1414   1415
1416   1417   1418   1419
1420   1421   1422   1423
1424   1425   1426   1427
1428   1429   1430   1431
1432   1433   1434   1435
1436   1437   1438   1439
1440   1441   1442   1443
1444   1445   1446   1447
1448   1449   1450   1451
1452   1453   1454   1455
1456   1457   1458   1459
1460   1461   1462   1463
1464   1465   1466   1467
1468   1469   1470   1471
1472   1473   1474   1475
1476   1477   1478   1479
1480   1481   1482   1483
1484   1485   1486   1487
1488   1489   1490   1491
1492   1493   1494   1495
1496   1497   1498   1499
1500   1501   1502   1503
1504   1505   1506   1507
1508   1509   1510   1511
1512   1513   1514   1515
1516   1517   1518   1519
1520   1521   1522   1523
1524   1525   1526   1527
1528   1529   1530   1531
1532   1533   1534   1535
1536   1537   1538   1539
1540   1541   1542   1543
1544   1545   1546   1547
1548   1549   1550   1551
1552   1553   1554   1555
1556   1557   1558   1559
1560   1561   1562   1563
1564   1565   1566   1567
1568   1569   1570   1571
1572   1573   1574   1575
1576   1577   1578   1579
1580   1581   1582   1583
1584   1585   1586   1587
1588   1589   1590   1591
1592   1593   1594   1595
1596   1597   1598   1599
1600   1601   1602   1603
1604   1605   1606   1607
1608   1609   1610   1611
1612   1613   1614   1615
1616   1617   1618   1619
1620   1621   1622   1623
1624   1625   1626   1627
1628   1629   1630   1631
1632   1633   1634   1635
1636   1637   1638   1639
1640   1641   1642   1643
1644   1645   1646   1647
1648   1649   1650   1651
1652   1653   1654   1655
1656   1657   1658   1659
1660   1661   1662   1663
1664   1665   1666   1667
1668   1669   1670   1671
1672   1673   1674   1675
1676   1677   1678   1679
1680   1681   1682   1683
1684   1685   1686   1687
1688   1689   1690   1691
1692   1693   1694   1695
1696   1697   1698   1699
1700   1701   1702   1703
1704   1705   1706   1707
1708   1709   1710   1711
1712   1713   1714   1715
1716   1717   1718   1719
1720   1721   1722   1723
1724   1725   1726   1727
1728   1729   1730   1731
1732   1733   1734   1735
1736   1737   1738   1739
1740   1741   1742   1743
1744   1745   1746   1747
1748   1749   1750   1751
1752   1753   1754   1755
1756   1757   1758   1759
1760   1761   1762   1763
1764   1765   1766   1767
1768   1769   1770   1771
1772   1773   1774   1775
1776   1777   1778   1779
1780   1781   1782   1783
1784   1785   1786   1787
1788   1789   1790   1791
1792   1793   1794   1795
1796   1797   1798   1799
1800   1801   1802   1803
1804   1805   1806   1807
1808   1809   1810   1811
1812   1813   1814   1815
1816   1817   1818   1819
1820   1821   1822   1823
1824   1825   1826   1827
1828   1829   1830   1831
1832   1833   1834   1835
1836   1837   1838   1839
1840   1841   1842   1843
1844   1845   1846   1847
1848   1849   1850   1851
1852   1853   1854   1855
1856   1857   1858   1859
1860   1861   1862   1863
1864   1865   1866   1867
1868   1869   1870   1871
1872   1873   1874   1875
1876   1877   1878   1879
1880   1881   1882   1883
1884   1885   1886   1887
1888   1889   1890   1891
1892   1893   1894   1895
1896   1897   1898   1899
1900   1901   1902   1903
1904   1905   1906   1907
1908   1909   1910   1911
1912   1913   1914   1915
1916   1917   1918   1919
1920   1921   1922   1923
1924   1925   1926   1927
1928   1929   1930   1931
1932   1933   1934   1935
1936   1937   1938   1939
1940   1941   1942   1943
1944   1945   1946   1947
1948   1949   1950   1951
1952   1953   1954   1955
1956   1957   1958   1959
1960   1961   1962   1963
1964   1965   1966   1967
1968   1969   1970   1971
1972   1973   1974   1975
1976   1977   1978   1979
1980   1981   1982   1983
1984   1985   1986   1987
1988   1989   1990   1991
1992   1993   1994   1995
1996   1997   1998   1999
2000   2001   2002   2003
2004   2005   2006   2007
2008   2009   2010   2011
2012   2013   2014   2015
2016   2017   2018   2019
2020   2021   2022   2023
2024   2025   2026   2027
2028   2029   2030   2031
2032   2033   2034   2035
2036   2037   2038   2039
2040   2041   2042   2043
2044   2045   2046   2047
2048   2049   2050   2051
2052   2053   2054   2055
2056   2057   2058   2059
2060   2061   2062   2063
2064   2065   2066   2067
2068   2069   2070   2071
2072   2073   2074   2075
2076   2077   2078   2079
2080   2081   2082   2083
2084   2085   2086   2087
2088   2089   2090   2091
2092   2093   2094   2095
2096   2097   2098   2099
2100   2101   2102   2103
2104   2105   2106   2107
2108   2109   2110   2111
2112   2113   2114   2115
2116   2117   2118   2119
2120   2121   2122   2123
2124   2125   2126   2127
2128   2129   2130   2131
2132   2133   2134   2135
2136   2137   2138   2139
2140   2141   2142   2143
2144   2145   2146   2147
2148   2149   2150   2151
2152   2153   2154   2155
2156   2157   2158   2159
2160   2161   2162   2163
2164   2165   2166   2167
2168   2169   2170   2171
2172   2173   2174   2175
2176   2177   2178   2179
2180   2181   2182   2183
2184   2185   2186   2187
2188   2189   2190   2191
2192   2193   2194   2195
2196   2197   2198   2199
2200   2201   2202   2203
2204   2205   2206   2207
2208   2209   2210   2211
2212   2213   2214   2215
2216   2217   2218   2219
2220   2221   2222   2223
2224   2225   2226   2227
2228   2229   2230   2231
2232   2233   2234   2235
2236   2237   2238   2239
2240   2241   2242   2243
2244   2245   2246   2247
2248   2249   2250   2251
2252   2253   2254   2255
2256   2257   2258   2259
2260   2261   2262   2263
2264   2265   2266   2267
2268   2269   2270   2271
2272   2273   2274   2275
2276   2277   2278   2279
2280   2281   2282   2283
2284   2285   2286   2287
2288   2289   2290   2291
2292   2293   2294   2295
2296   2297   2298   2299
2300   2301   2302   2303
2304   2305   2306   2307
2308   2309   2310   2311
2312   2313   2314   2315
2316   2317   2318   2319
2320   2321   2322   2323
2324   2325   2326   2327
2328   2329   2330   2331
2332   2333   2334   2335
2336   2337   2338   2339
2340   2341   2342   2343
2344   2345   2346   2347
2348   2349   2350   2351
2352   2353   2354   2355
2356   2357   2358   2359
2360   2361   2362   2363
2364   2365   2366   2367
2368   2369   2370   2371
2372   2373   2374   2375
2376   2377   2378   2379
2380   2381   2382   2383
2384   2385   2386   2387
2388   2389   2390   2391
2392   2393   2394   2395
2396   2397   2398   2399
2400   2401   2402   2403
2404   2405   2406   2407
2408   2409   2410   2411
2412   2413   2414   2415
2416   2417   2418   2419
2420   2421   2422   2423
2424   2425   2426   2427
2428   2429   2430   2431
2432   2433   2434   2435
2436   2437   2438   2439
2440   2441   2442   2443
2444   2445   2446   2447
2448   2449   2450   2451
2452   2453   2454   2455
2456   2457   2458   2459
2460   2461   2462   2463
2464   2465   2466   2467
2468   2469   2470   2471
2472   2473   2474   2475
2476   2477   2478   2479
2480   2481   2482   2483
2484   2485   2486   2487
2488   2489   2490   2491
2492   2493   2494   2495
2496   2497   2498   2499
2500   2501   2502   2503
2504   2505   2506   2507
2508   2509   2510   2511
2512   2513   2514   2515
2516   2517   2518   2519
2520   2521   2522   2523
2524   2525   2526   2527
2528   2529   2530   2531
2532   2533   2534   2535
2536   2537   2538   2539
2540   2541   2542   2543
2544   2545   2546   2547
2548   2549   2550   2551
2552   2553   2554   2555
2556   2557   2558   2559
2560   2561   2562   2563
2564   2565   2566   2567
2568   2569   2570   2571
2572   2573   2574   2575
2576   2577   2578   2579
2580   2581   2582   2583
2584   2585   2586   2587
2588   2589   2590   2591
2592   2593   2594   2595
2596   2597   2598   2599
2600   2601   2602   2603
2604   2605   2606   2607
2608   2609   2610   2611
2612   2613   2614   2615
2616   2617   2618   2619
2620   2621   2622   2623
2624   2625   2626   2627
2628   2629   2630   2631
2632   2633   2634   2635
2636   2637   2638   2639
2640   2641   2642   2643
2644   2645   2646   2647
2648   2649   2650   2651
2652   2653   2654   2655
2656   2657   2658   2659
2660   2661   2662   2663
2664   2665   2666   2667
2668   2669   2670   2671
2672   2673   2674   2675
2676   2677   2678   2679
2680   2681   2682   2683
2684   2685   2686   2687
2688   2689   2690   2691
2692   2693   2694   2695
2696   2697   2698   2699
2700   2701   2702   2703
2704   2705   2706   2707
2708   2709   2710   2711
2712   2713   2714   2715
2716   2717   2718   2719
2720   2721   2722   2723
2724   2725   2726   2727
2728   2729   2730   2731
2732   2733   2734   2735
2736   2737   2738   2739
2740   2741   2742   2743
2744   2745   2746   2747
2748   2749   2750   2751
2752   2753   2754   2755
2756   2757   2758   2759
2760   2761   2762   2763
2764   2765   2766   2767
2768   2769   2770   2771
2772   2773   2774   2775
2776   2777   2778   2779
2780   2781   2782   2783
2784   2785   2786   2787
2788   2789   2790   2791
2792   2793   2794   2795
2796   2797   2798   2799
2800   2801   2802   2803
2804   2805   2806   2807
2808   2809   2810   2811
2812   2813   2814   2815
2816   2817   2818   2819
2820   2821   2822   2823
2824   2825   2826   2827
2828   2829   2830   2831
2832   2833   2834   2835
2836   2837   2838   2839
2840   2841   2842   2843
2844   2845   2846   2847
2848   2849   2850   2851
2852   2853   2854   2855
2856   2857   2858   2859
2860   2861   2862   2863
2864   2865   2866   2867
2868   2869   2870   2871
2872   2873   2874   2875
2876   2877   2878   2879
2880   2881   2882   2883
2884   2885   2886   2887
2888   2889   2890   2891
2892   2893   2894   2895
2896   2897   2898   2899
2900   2901   2902   2903
2904   2905   2906   2907
2908   2909   2910   2911
2912   2913   2914   2915
2916   2917   2918   2919
2920   2921   2922   2923
2924   2925   2926   2927
2928   2929   2930   2931
2932   2933   2934   2935
2936   2937   2938   2939
2940   2941   2942   2943
2944   2945   2946   2947
2948   2949   2950   2951
2952   2953   2954   2955
2956   2957   2958   2959
2960   2961   2962   2963
2964   2965   2966   2967
2968   2969   2970   2971
2972   2973   2974   2975
2976   2977   2978   2979
2980   2981   2982   2983
2984   2985   2986   2987
2988   2989   2990   2991
2992   2993   2994   2995
2996   2997   2998   2999
3000   3001   3002   3003
3004   3005   3006   3007
3008   3009   3010   3011
3012   3013   3014   3015
3016   3017   3018   3019
3020   3021   3022   3023
3024   3025   3026   3027
3028   3029   3030   3031
3032   3033   3034   3035
3036   3037   3038   3039
3040   3041   3042   3043
3044   3045   3046   3047
3048   3049   3050   3051
3052   3053   3054   3055
3056   3057   3058   3059
3060   3061   3062   3063
3064   3065   3066   3067
3068   3069   3070   3071
3072   3073   3074   3075
3076   3077   3078   3079
3080   3081   3082   3083
3084   3085   3086   3087
3088   3089   3090   3091
3092   3093   3094   3095
3096   3097   3098   3099
3100   3101   3102   3103
3104   3105   3106   3107
3108   3109   3110   3111
3112   3113   3114   3115
3116   3117   3118   3119
3120   3121   3122   3123
3124   3125   3126   3127
3128   3129   3130   3131
3132   3133   3134   3135
3136   3137   3138   3139
3140   3141   3142   3143
3144   3145   3146   3147
3148   3149   3150   3151
3152   3153   3154   3155
3156   3157   3158   3159
3160   3161   3162   3163
3164   3165   3166   3167
3168   3169   3170   3171
3172   3173   3174   3175
3176   3177   3178   3179
3180   3181   3182   3183
3184   3185   3186   3187
3188   3189   3190   3191
3192   3193   3194   3195
3196   3197   3198   3199
3200   3201   3202   3203
3204   3205   3206   3207
3208   3209   3210   3211
3212   3213   3214   3215
3216   3217   3218   3219
3220   3221   3222   3223
3224   3225   3226   3227
3228   3229   3230   3231
3232   3233   3234   3235
3236   3237   3238   3239
3240   3241   3242   3243
3244   3245   3246   3247
3248   3249   3250   3251
3252   3253   3254   3255
3256   3257   3258   3259
3260   3261   3262   3263
3264   3265   3266   3267
3268   3269   3270   3271
3272   3273   3274   3275
3276   3277   3278   3279
3280   3281   3282   3283
3284   3285   3286   3287
3288   3289   3290   3291
3292   3293   3294   3295
3296   3297   3298   3299
3300   3301   3302   3303
3304   3305   3306   3307
3308   3309   3310   3311
3312   3313   3314   3315
3316   3317   3318   3319
3320   3321   3322   3323
3324   3325   3326   3327
3328   3329   3330   3331
3332   3333   3334   3335
3336   3337   3338   3339
3340   3341   3342   3343
3344   3345   3346   3347
3348   3349   3350   3351
3352   3353   3354   3355
3356   3357   3358   3359
3360   3361   3362   3363
3364   3365   3366   3367
3368   3369   3370   3371
3372   3373   3374   3375
3376   3377   3378   3379
3380   3381   3382   3383
3384   3385   3386   3387
3388   3389   3390   3391
3392   3393   3394   3395
3396   3397   3398   3399
3400   3401   3402   3403
3404   3405   3406   3407
3408   3409   3410   3411
3412   3413   3414   3415
3416   3417   3418   3419
3420   3421   3422   3423
3424   3425   3426   3427
3428   3429   3430   3431
3432   3433   3434   3435
3436   3437   3438   3439
3440   3441   3442   3443
3444   3445   3446   3447
3448   3449   3450   3451
3452   3453   3454   3455
3456   3457   3458   3459
3460   3461   3462   3463
3464   3465   3466   3467
3468   3469   3470   3471
3472   3473   3474   3475
3476   3477   3478   3479
3480   3481   3482   3483
3484   3485   3486   3487
3488   3489   3490   3491
3492   3493   3494   3495
3496   3497   3498   3499
3500   3501   3502   3503
3504   3505   3506   3507
3508   3509   3510   3511
3512   3513   3514   3515
3516   3517   3518   3519
3520   3521   3522   3523
3524   3525   3526   3527
3528   3529   3530   3531
3532   3533   3534   3535
3536   3537   3538   3539
3540   3541   3542   3543
3544   3545   3546   3547
3548   3549   3550   3551
3552   3553   3554   3555
3556   3557   3558   3559
3560   3561   3562   3563
3564   3565   3566   3567
3568   3569   3570   3571
3572   3573   3574   3575
3576   3577   3578   3579
3580   3581   3582   3583
3584   3585   3586   3587
3588   3589   3590   3591
3592   3593   3594   3595
3596   3597   3598   3599
3600   3601   3602   3603
3604   3605   3606   3607
3608   3609   3610   3611
3612   3613   3614   3615
3616   3617   3618   3619
3620   3621   3622   3623
3624   3625   3626   3627
3628   3629   3630   3631
3632   3633   3634   3635
3636   3637   3638   3639
3640   3641   3642   3643
3644   3645   3646   3647
3648   3649   3650   3651
3652   3653   3654   3655
3656   3657   3658   3659
3660   3661   3662   3663
3664   3665   3666   3667
3668   3669   3670   3671
3672   3673   3674   3675
3676   3677   3678   3679
3680   3681   3682   3683
3684   3685   3686   3687
3688   3689   3690   3691
3692   3693   3694   3695
3696   3697   3698   3699
3700   3701   3702   3703
3704   3705   3706   3707
3708   3709   3710   3711
3712   3713   3714   3715
3716   3717   3718   3719
3720   3721   3722   3723
3724   3725   3726   3727
3728   3729   3730   3731
3732   3733   3734   3735
3736   3737   3738   3739
3740   3741   3742   3743
3744   3745   3746   3747
3748   3749   3750   3751
3752   3753   3754   3755
3756   3757   3758   3759
3760   3761   3762   3763
3764   3765   3766   3767
3768   3769   3770   3771
3772   3773   3774   3775
3776   3777   3778   3779
3780   3781   3782   3783
3784   3785   3786   3787
3788   3789   3790   3791
3792   3793   3794   3795
3796   3797   3798   3799
3800   3801   3802   3803
3804   3805   3806   3807
3808   3809   3810   3811
3812   3813   3814   3815
3816   3817   3818   3819
3820   3821   3822   3823
3824   3825   3826   3827
3828   3829   3830   3831
3832   3833   3834   3835
3836   3837   3838   3839
3840   3841   3842   3843
3844   3845   3846   3847
3848   3849   3850   3851
3852   3853   3854   3855
3856   3857   3858   3859
3860   3861   3862   3863
3864   3865   3866   3867
3868   3869   3870   3871
3872   3873   3874   3875
3876   3877   3878   3879
3880   3881   3882   3883
3884   3885   3886   3887
3888   3889   3890   3891
3892   3893   3894   3895
3896   3897   3898   3899
3900   3901   3902   3903
3904   3905   3906   3907
3908   3909   3910   3911
3912   3913   3914   3915
3916   3917   3918   3919
3920   3921   3922   3923
3924   3925   3926   3927
3928   3929   3930   3931
3932   3933   3934   3935
3936   3937   3938   3939
3940   3941   3942   3943
3944   3945   3946   3947
3948   3949   3950   3951
3952   3953   3954   3955
3956   3957   3958   3959
3960   3961   3962   3963
3964   3965   3966   3967
3968   3969   3970   3971
3972   3973   3974   3975
3976   3977   3978   3979
3980   3981   3982   3983
3984   3985   3986   3987
3988   3989   3990   3991
3992   3993   3994   3995
3996   3997   3998   3999
4000   4001   4002   4003
4004   4005   4006   4007
4008   4009   4010   4011
4012   4013   4014   4015
4016   4017   4018   4019
4020   4021   4022   4023
4024   4025   4026   4027
4028   4029   4030   4031
4032   4033   4034   4035
4036   4037   4038   4039
4040   4041   4042   4043
4044   4045   4046   4047
4048   4049   4050   4051
4052   4053   4054   4055
4056   4057   4058   4059
4060   4061   4062   4063
4064   4065   4066   4067
4068   4069   4070   4071
4072   4073   4074   4075
4076   4077   4078   4079
4080   4081   4082   4083
4084   4085   4086   4087
4088   4089   4090   4091
4092   4093   4094   4095
4096   4097   4098   4099
4100   4101   4102   4103
4104   4105   4106   4107
4108   4109   4110   4111
4112   4113   4114   4115
4116   4117   4118   4119
4120   4121   4122   4123
4124   4125   4126   4127
4128   4129   4130   4131
4132   4133   4134   4135
4136   4137   4138   4139
4140   4141   4142   4143
4144   4145   4146   4147
4148   4149   4150   4151
4152   4153   4154   4155
4156   4157   4158   4159
4160   4161   4162   4163
4164   4165   4166   4167
4168   4169   4170   4171
4172   4173   4174   4175
4176   4177   4178   4179
4180   4181   4182   4183
4184   4185   4186   4187
4188   4189   4190   4191
4192   4193   4194   4195
4196   4197   4198   4199
4200   4201   4202   4203
4204   4205   4206   4207
4208   4209   4210   4211
4212   4213   4214   4215
4216   4217   4218   4219
4220   4221   4222   4223
4224   4225   4226   4227
4228   4229   4230   4231
4232   4233   4234   4235
4236   4237   4238   4239
4240   4241   4242   4243
4244   4245   4246   4247
4248   4249   4250   4251
4252   4253   4254   4255
4256   4257   4258   4259
4260   4261   4262   4263
4264   4265   4266   4267
4268   4269   4270   4271
4272   4273   4274   4275
4276   4277   4278   4279
4280   4281   4282   4283
4284   4285   4286   4287
4288   4289   4290   4291
4292   4293   4294   4295
4296   4297   4298   4299
4300   4301   4302   4303
4304   4305   4306   4307
4308   4309   4310   4311
4312   4313   4314   4315
4316   4317   4318   4319
4320   4321   4322   4323
4324   4325   4326   4327
4328   4329   4330   4331
4332   4333   4334   4335
4336   4337   4338   4339
4340   4341   4342   4343
4344   4345   4346   4347
4348   4349   4350   4351
4352   4353   4354   4355
4356   4357   4358   4359
4360   4361   4362   4363
4364   4365   4366   4367
4368   4369   4370   4371
4372   4373   4374   4375
4376   4377   4378   4379
4380   4381   4382   4383
4384   4385   4386   4387
4388   4389   4390   4391
4392   4393   4394   4395
4396   4397   4398   4399
4400   4401   4402   4403
4404   4405   4406   4407
4408   4409   4410   4411
4412   4413   4414   4415
4416   4417   4418   4419
4420   4421   4422   4423
4424   4425   4426   4427
4428   4429   4430   4431
4432   4433   4434   4435
4436   4437   4438   4439
4440   4441   4442   4443
4444   4445   4446   4447
4448   4449   4450   4451
4452   4453   4454   4455
4456   4457   4458   4459
4460   4461   4462   4463
4464   4465   4466   4467
4468   4469   4470   4471
4472   4473   4474   4475
4476   4477   4478   4479
4480   4481   4482   4483
4484   4485   4486   4487
4488   4489   4490   4491
4492   4493   4494   4495
4496   4497   4498   4499
4500   4501   4502   4503
4504   4505   4506   4507
4508   4509   4510   4511
4512   4513   4514   4515
4516   4517   4518   4519
4520   4521   4522   4523
4524   4525   4526   4527
4528   4529   4530   4531
4532   4533   4534   4535
4536   4537   4538   4539
4540   4541   4542   4543
4544   4545   4546   4547
4548   4549   4550   4551
4552   4553   4554   4555
4556   4557   4558   4559
4560   4561   4562   4563
4564   4565   4566   4567
4568   4569   4570   4571
4572   4573   4574   4575
4576   4577   4578   4579
4580   4581   4582   4583
4584   4585   4586   4587
4588   4589   4590   4591
4592   4593   4594   4595
4596   4597   4598   4599
4600   4601   4602   4603
4604   4605   4606   4607
4608   4609   4610   4611
4612   4613   4614   4615
4616   4617   4618   4619
4620   4621   4622   4623
4624   4625   4626   4627
4628   4629   4630   4631
4632   4633   4634   4635
4636   4637   4638   4639
4640   4641   4642   4643
4644   4645   4646   4647
4648   4649   4650   4651
4652   4653   4654   4655
4656   4657   4658   4659
4660   4661   4662   4663
4664   4665   4666   4667
4668   4669   4670   4671
4672   4673   4674   4675
4676   4677   4678   4679
4680   4681   4682   4683
4684   4685   4686   4687
4688   4689   4690   4691
4692   4693   4694   4695
4696   4697   4698   4699
4700   4701   4702   4703
4704   4705   4706   4707
4708   4709   4710   4711
4712   4713   4714   4715
4716   4717   4718   4719
4720   4721   4722   4723
4724   4725   4726   4727
4728   4729   4730   4731
4732   4733   4734   4735
4736   4737   4738   4739
4740   4741   4742   4743
4744   4745   4746   4747
4748   4749   4750   4751
4752   4753   4754   4755
4756   4757   4758   4759
4760   4761   4762   4763
4764   4765   4766   4767
4768   4769   4770   4771
4772   4773   4774   4775
4776   4777   4778   4779
4780   4781   4782   4783
4784   4785   4786   4787
4788   4789   4790   4791
4792   4793   4794   4795
4796   4797   4798   4799
4800   4801   4802   4803
4804   4805   4806   4807
4808   4809   4810   4811
4812   4813   4814   4815
4816   4817   4818   4819
4820   4821   4822   4823
4824   4825   4826   4827
4828   4829   4830   4831
4832   4833   4834   4835
4836   4837   4838   4839
4840   4841   4842   4843
4844   4845   4846   4847
4848   4849   4850   4851
4852   4853   4854   4855
4856   4857   4858   4859
4860   4861   4862   4863
4864   4865   4866   4867
4868   4869   4870   4871
4872   4873   4874   4875
4876   4877   4878   4879
4880   4881   4882   4883
4884   4885   4886   4887
4888   4889   4890   4891
4892   4893   4894   4895
4896   4897   4898   4899
4900   4901   4902   4903
4904   4905   4906   4907
4908   4909   4910   4911
4912   4913   4914   4915
4916   4917   4918   4919
4920   4921   4922   4923
4924   4925   4926   4927
4928   4929   4930   4931
4932   4933   4934   4935
4936   4937   4938   4939
4940   4941   4942   4943
4944   4945   4946   4947
4948   4949   4950   4951
4952   4953   4954   4955
4956   4957   4958   4959
4960   4961   4962   4963
4964   4965   4966   4967
4968   4969   4970   4971
4972   4973   4974   4975
4976   4977   4978   4979
4980   4981   4982   4983
4984   4985   4986   4987
4988   4989   4990   4991
4992   4993   4994   4995
4996   4997   4998   4999
5000   5001   5002   5003
5004   5005   5006   5007
5008   5009   5010   5011
5012   5013   5014   5015
5016   5017   5018   5019
5020   5021   5022   5023
5024   5025   5026   5027
5028   5029   5030   5031
5032   5033   5034   5035
5036   5037   5038   5039
5040   5041   5042   5043
5044   5045   5046   5047
5048   5049   5050   5051
5052   5053   5054   5055
5056   5057   5058   5059
5060   5061   5062   5063
5064   5065   5066   5067
5068   5069   5070   5071
5072   5073   5074   5075
5076   5077   5078   5079
5080   5081   5082   5083
5084   5085   5086   5087
5088   5089   5090   5091
5092   5093   5094   5095
5096   5097   5098   5099
5100   5101   5102   5103
5104   5105   5106   5107
5108   5109   5110   5111
5112   5113   5114   5115
5116   5117   5118   5119
5120   5121   5122   5123
5124   5125   5126   5127
5128   5129   5130   5131
5132   5133   5134   5135
5136   5137   5138   5139
5140   5141   5142   5143
5144   5145   5146   5147
5148   5149   5150   5151
5152   5153   5154   5155
5156   5157   5158   5159
5160   5161   5162   5163
5164   5165   5166   5167
5168   5169   5170   5171
5172   5173   5174   5175
5176   5177   5178   5179
5180   5181   5182   5183
5184   5185   5186   5187
5188   5189   5190   5191
5192   5193   5194   5195
5196   5197   5198   5199
5200   5201   5202   5203
5204   5205   5206   5207
5208   5209   5210   5211
5212   5213   5214   5215
5216   5217   5218   5219
5220   5221   5222   5223
5224   5225   5226   5227
5228   5229   5230   5231
5232   5233   5234   5235
5236   5237   5238   5239
5240   5241   5242   5243
5244   5245   5246   5247
5248   5249   5250   5251
5252   5253   5254   5255
5256   5257   5258   5259
5260   5261   5262   5263
5264   5265   5266   5267
5268   5269   5270   5271
5272   5273   5274   5275
5276   5277   5278   5279
5280   5281   5282   5283
5284   5285   5286   5287
5288   5289   5290   5291
5292   5293   5294   5295
5296   5297   5298   5299
5300   5301   5302   5303
5304   5305   5306   5307
5308   5309   5310   5311
5312   5313   5314   5315
5316   5317   5318   5319
5320   5321   5322   5323
5324   5325   5326   5327
5328   5329   5330   5331
5332   5333   5334   5335
5336   5337   5338   5339
5340   5341   5342   5343
5344   5345   5346   5347
5348   5349   5350   5351
5352   5353   5354   5355
5356   5357   5358   5359
5360   5361   5362   5363
5364   5365   5366   5367
5368   5369   5370   5371
5372   5373   5374   5375
5376   5377   5378   5379
5380   5381   5382   5383
5384   5385   5386   5387
5388   5389   5390   5391
5392   5393   5394   5395
5396   5397   5398   5399
5400   5401   5402   5403
5404   5405   5406   5407
5408   5409   5410   5411
5412   5413   5414   5415
5416   5417   5418   5419
5420   5421   5422   5423
5424   5425   5426   5427
5428   5429   5430   5431
5432   5433   5434   5435
5436   5437   5438   5439
5440   5441   5442   5443
5444   5445   5446   5447
5448   5449   5450   5451
5452   5453   5454   5455
5456   5457   5458   5459
5460   5461   5462   5463
5464   5465   5466   5467
5468   5469   5470   5471
5472   5473   5474   5475
5476   5477   5478   5479
5480   5481   5482   5483
5484   5485   5486   5487
5488   5489   5490   5491
5492   5493   5494   5495
5496   5497   5498   5499
5500   5501   5502   5503
5504   5505   5506   5507
5508   5509   5510   5511
5512   5513   5514   5515
5516   5517   5518   5519
5520   5521   5522   5523
5524   5525   5526   5527
5528   5529   5530   5531
5532   5533   5534   5535
5536   5537   5538   5539
5540   5541   5542   5543
5544   5545   5546   5547
5548   5549   5550   5551
5552   5553   5554   5555
5556   5557   5558   5559
5560   5561   5562   5563
5564   5565   5566   5567
5568   5569   5570   5571
5572   5573   5574   5575
5576   5577   5578   5579
5580   5581   5582   5583
5584   5585   5586   5587
5588   5589   5590   5591
5592   5593   5594   5595
5596   5597   5598   5599
5600   5601   5602   5603
5604   5605   5606   5607
5608   5609   5610   5611
5612   5613   5614   5615
5616   5617   5618   5619
5620   5621   5622   5623
5624   5625   5626   5627
5628   5629   5630   5631
5632   5633   5634   5635
5636   5637   5638   5639
5640   5641   5642   5643
5644   5645   5646   5647
5648   5649   5650   5651
5652   5653   5654   5655
5656   5657   5658   5659
5660   5661   5662   5663
5664   5665   5666   5667
5668   5669   5670   5671
5672   5673   5674   5675
5676   5677   5678   5679
5680   5681   5682   5683
5684   5685   5686   5687
5688   5689   5690   5691
5692   5693   5694   5695
5696   5697   5698   5699
5700   5701   5702   5703
5704   5705   5706   5707
5708   5709   5710   5711
5712   5713   5714   5715
5716   5717   5718   5719
5720   5721   5722   5723
5724   5725   5726   5727
5728   5729   5730   5731
5732   5733   5734   5735
5736   5737   5738   5739
5740   5741   5742   5743
5744   5745   5746   5747
5748   5749   5750   5751
5752   5753   5754   5755
5756   5757   5758   5759
5760   5761   5762   5763
5764   5765   5766   5767
5768   5769   5770   5771
5772   5773   5774   5775
5776   5777   5778   5779
5780   5781   5782   5783
5784   5785   5786   5787
5788   5789   5790   5791
5792   5793   5794   5795
5796   5797   5798   5799
5800   5801   5802   5803
5804   5805   5806   5807
5808   5809   5810   5811
5812   5813   5814   5815
5816   5817   5818   5819
5820   5821   5822   5823
5824   5825   5826   5827
5828   5829   5830   5831
5832   5833   5834   5835
5836   5837   5838   5839
5840   5841   5842   5843
5844   5845   5846   5847
5848   5849   5850   5851
5852   5853   5854   5855
5856   5857   5858   5859
5860   5861   5862   5863
5864   5865   5866   5867
5868   5869   5870   5871
5872   5873   5874   5875
5876   5877   5878   5879
5880   5881   5882   5883
5884   5885   5886   5887
5888   5889   5890   5891
5892   5893   5894   5895
5896   5897   5898   5899
5900   5901   5902   5903
5904   5905   5906   5907
5908   5909   5910   5911
5912   5913   5914   5915
5916   5917   5918   5919
5920   5921   5922   5923
5924   5925   5926   5927
5928   5929   5930   5931
5932   5933   5934   5935
5936   5937   5938   5939
5940   5941   5942   5943
5944   5945   5946   5947
5948   5949   5950   5951
5952   5953   5954   5955
5956   5957   5958   5959
5960   5961   5962   5963
5964   5965   5966   5967
5968   5969   5970   5971
5972   5973   5974   5975
5976   5977   5978   5979
5980   5981   5982   5983
5984   5985   5986   5987
5988   5989   5990   5991
5992   5993   5994   5995
5996   5997   5998   5999
              </DataArray>   
              <DataArray type="Int32" Name="offsets" format="ascii">   
4
8
12
16
20
24
28
32
36
40
44
48
52
56
60
64
68
72
76
80
84
88
92
96
100
104
108
112
116
120
124
128
132
136
140
144
148
152
156
160
164
168
172
176
180
184
188
192
196
200
204
208
212
216
220
224
228
232
236
240
244
248
252
256
260
264
268
272
276
280
284
288
292
296
300
304
308
312
316
320
324
328
332
336
340
344
348
352
356
360
364
368
372
376
380
384
388
392
396
400
404
408
412
416
420
424
428
432
436
440
444
448
452
456
460
464
468
472
476
480
484
488
492
496
500
504
508
512
516
520
524
528
532
536
540
544
548
552
556
560
564
568
572
576
580
584
588
592
596
600
604
608
612
616
620
624
628
632
636
640
644
648
652
656
660
664
668
672
676
680
684
688
692
696
700
704
708
712
716
720
724
728
732
736
740
744
748
752
756
760
764
768
772
776
780
784
788
792
796
800
804
808
812
816
820
824
828
832
836
840
844
848
852
856
860
864
868
872
876
880
884
888
892
896
900
904
908
912
916
920
924
928
932
936
940
944
948
952
956
960
964
968
972
976
980
984
988
992
996
1000
1004
1008
1012
1016
1020
1024
1028
1032
1036
1040
1044
1048
1052
1056
1060
1064
1068
1072
1076
1080
1084
1088
1092
1096
1100
1104
1108
1112
1116
1120
1124
1128
1132
1136
1140
1144
1148
1152
1156
1160
1164
1168
1172
1176
1180
1184
1188
1192
1196
1200
1204
1208
1212
1216
1220
1224
1228
1232
1236
1240
1244
1248
1252
1256
1260
1264
1268
1272
1276
1280
1284
1288
1292
1296
1300
1304
1308
1312
1316
1320
1324
1328
1332
1336
1340
1344
1348
1352
1356
1360
1364
1368
1372
1376
1380
1384
1388
1392
1396
1400
1404
1408
1412
1416
1420
1424
1428
1432
1436
1440
1444
1448
1452
1456
1460
1464
1468
1472
1476
1480
1484
1488
1492
1496
1500
1504
1508
1512
1516
1520
1524
1528
1532
1536
1540
1544
1548
1552
1556
1560
1564
1568
1572
1576
1580
1584
1588
1592
1596
1600
1604
1608
1612
1616
1620
1624
1628
1632
1636
1640
1644
1648
1652
1656
1660
1664
1668
1672
1676
1680
1684
1688
1692
1696
1700
1704
1708
1712
1716
1720
1724
1728
1732
1736
1740
1744
1748
1752
1756
1760
1764
1768
1772
1776
1780
1784
1788
1792
1796
1800
1804
1808
1812
1816
1820
1824
1828
1832
1836
1840
1844
1848
1852
1856
1860
1864
1868
1872
1876
1880
1884
1888
1892
1896
1900
1904
1908
1912
1916
1920
1924
1928
1932
1936
1940
1944
1948
1952
1956
1960
1964
1968
1972
1976
1980
1984
1988
1992
1996
2000
2004
2008
2012
2016
2020
2024
2028
2032
2036
2040
2044
2048
2052
2056
2060
2064
2068
2072
2076
2080
2084
2088
2092
2096
2100
2104
2108
2112
2116
2120
2124
2128
2132
2136
2140
2144
2148
2152
2156
2160
2164
2168
2172
2176
2180
2184
2188
2192
2196
2200
2204
2208
2212
2216
2220
2224
2228
2232
2236
2240
2244
2248
2252
2256
2260
2264
2268
2272
2276
2280
2284
2288
2292
2296
2300
2304
2308
2312
2316
2320
2324
2328
2332
2336
2340
2344
2348
2352
2356
2360
2364
2368
2372
2376
2380
2384
2388
2392
2396
2400
2404
2408
2412
2416
2420
2424
2428
2432
2436
2440
2444
2448
2452
2456
2460
2464
2468
2472
2476
2480
2484
2488
2492
2496
2500
2504
2508
2512
2516
2520
2524
2528
2532
2536
2540
2544
2548
2552
2556
2560
2564
2568
2572
2576
2580
2584
2588
2592
2596
2600
2604
2608
2612
2616
2620
2624
2628
2632
2636
2640
2644
2648
2652
2656
2660
2664
2668
2672
2676
2680
2684
2688
2692
2696
2700
2704
2708
2712
2716
2720
2724
2728
2732
2736
2740
2744
2748
2752
2756
2760
2764
2768
2772
2776
2780
2784
2788
2792
2796
2800
2804
2808
2812
2816
2820
2824
2828
2832
2836
2840
2844
2848
2852
2856
2860
2864
2868
2872
2876
2880
2884
2888
2892
2896
2900
2904
2908
2912
2916
2920
2924
2928
2932
2936
2940
2944
2948
2952
2956
2960
2964
2968
2972
2976
2980
2984
2988
2992
2996
3000
3004
3008
3012
3016
3020
3024
3028
3032
3036
3040
3044
3048
3052
3056
3060
3064
3068
3072
3076
3080
3084
3088
3092
3096
3100
3104
3108
3112
3116
3120
3124
3128
3132
3136
3140
3144
3148
3152
3156
3160
3164
3168
3172
3176
3180
3184
3188
3192
3196
3200
3204
3208
3212
3216
3220
3224
3228
3232
3236
3240
3244
3248
3252
3256
3260
3264
3268
3272
3276
3280
3284
3288
3292
3296
3300
3304
3308
3312
3316
3320
3324
3328
3332
3336
3340
3344
3348
3352
3356
3360
3364
3368
3372
3376
3380
3384
3388
3392
3396
3400
3404
3408
3412
3416
3420
3424
3428
3432
3436
3440
3444
3448
3452
3456
3460
3464
3468
3472
3476
3480
3484
3488
3492
3496
3500
3504
3508
3512
3516
3520
3524
3528
3532
3536
3540
3544
3548
3552
3556
3560
3564
3568
3572
3576
3580
3584
3588
3592
3596
3600
3604
3608
3612
3616
3620
3624
3628
3632
3636
3640
3644
3648
3652
3656
3660
3664
3668
3672
3676
3680
3684
3688
3692
3696
3700
3704
3708
3712
3716
3720
3724
3728
3732
3736
3740
3744
3748
3752
3756
3760
3764
3768
3772
3776
3780
3784
3788
3792
3796
3800
3804
3808
3812
3816
3820
3824
3828
3832
3836
3840
3844
3848
3852
3856
3860
3864
3868
3872
3876
3880
3884
3888
3892
3896
3900
3904
3908
3912
3916
3920
3924
3928
3932
3936
3940
3944
3948
3952
3956
3960
3964
3968
3972
3976
3980
3984
3988
3992
3996
4000
4004
4008
4012
4016
4020
4024
4028
4032
4036
4040
4044
4048
4052
4056
4060
4064
4068
4072
4076
4080
4084
4088
4092
4096
4100
4104
4108
4112
4116
4120
4124
4128
4132
4136
4140
4144
4148
4152
4156
4160
4164
4168
4172
4176
4180
4184
4188
4192
4196
4200
4204
4208
4212
4216
4220
4224
4228
4232
4236
4240
4244
4248
4252
4256
4260
4264
4268
4272
4276
4280
4284
4288
4292
4296
4300
4304
4308
4312
4316
4320
4324
4328
4332
4336
4340
4344
4348
4352
4356
4360
4364
4368
4372
4376
4380
4384
4388
4392
4396
4400
4404
4408
4412
4416
4420
4424
4428
4432
4436
4440
4444
4448
4452
4456
4460
4464
4468
4472
4476
4480
4484
4488
4492
4496
4500
4504
4508
4512
4516
4520
4524
4528
4532
4536
4540
4544
4548
4552
4556
4560
4564
4568
4572
4576
4580
4584
4588
4592
4596
4600
4604
4608
4612
4616
4620
4624
4628
4632
4636
4640
4644
4648
4652
4656
4660
4664
4668
4672
4676
4680
4684
4688
4692
4696
4700
4704
4708
4712
4716
4720
4724
4728
4732
4736
4740
4744
4748
4752
4756
4760
4764
4768
4772
4776
4780
4784
4788
4792
4796
4800
4804
4808
4812
4816
4820
4824
4828
4832
4836
4840
4844
4848
4852
4856
4860
4864
4868
4872
4876
4880
4884
4888
4892
4896
4900
4904
4908
4912
4916
4920
4924
4928
4932
4936
4940
4944
4948
4952
4956
4960
4964
4968
4972
4976
4980
4984
4988
4992
4996
5000
5004
5008
5012
5016
5020
5024
5028
5032
5036
5040
5044
5048
5052
5056
5060
5064
5068
5072
5076
5080
5084
5088
5092
5096
5100
5104
5108
5112
5116
5120
5124
5128
5132
5136
5140
5144
5148
5152
5156
5160
5164
5168
5172
5176
5180
5184
5188
5192
5196
5200
5204
5208
5212
5216
5220
5224
5228
5232
5236
5240
5244
5248
5252
5256
5260
5264
5268
5272
5276
5280
5284
5288
5292
5296
5300
5304
5308
5312
5316
5320
5324
5328
5332
5336
5340
5344
5348
5352
5356
5360
5364
5368
5372
5376
5380
5384
5388
5392
5396
5400
5404
5408
5412
5416
5420
5424
5428
5432
5436
5440
5444
5448
5452
5456
5460
5464
5468
5472
5476
5480
5484
5488
5492
5496
5500
5504
5508
5512
5516
5520
5524
5528
5532
5536
5540
5544
5548
5552
5556
5560
5564
5568
5572
5576
5580
5584
5588
5592
5596
5600
5604
5608
5612
5616
5620
5624
5628
5632
5636
5640
5644
5648
5652
5656
5660
5664
5668
5672
5676
5680
5684
5688
5692
5696
5700
5704
5708
5712
5716
5720
5724
5728
5732
5736
5740
5744
5748
5752
5756
5760
5764
5768
5772
5776
5780
5784
5788
5792
5796
5800
5804
5808
5812
5816
5820
5824
5828
5832
5836
5840
5844
5848
5852
5856
5860
5864
5868
5872
5876
5880
5884
5888
5892
5896
5900
5904
5908
5912
5916
5920
5924
5928
5932
5936
5940
5944
5948
5952
5956
5960
5964
5968
5972
5976
5980
5984
5988
5992
5996
6000
              </DataArray>   
              <DataArray type="UInt8" Name="types" format="ascii">   
10
10
10
10
10
10
10
10
10
10
10
10
10
10
10
10
10
10
10
10
10
10
10
10
10
10
10
10
10
10
10
10
10
10
10
10
10
10
10
10
10
10
10
10
10
10
10
10
10
10
10
10
10
10
10
10
10
10
10
10
10
10
10
10
10
10
10
10
10
10
10
10
10
10
10
10
10
10
10
10
10
10
10
10
10
10
10
10
10
10
10
10
10
10
10
10
10
10
10
10
10
10
10
10
10
10
10
10
10
10
10
10
10
10
10
10
10
10
10
10
10
10
10
10
10
10
10
10
10
10
10
10
10
10
10
10
10
10
10
10
10
10
10
10
10
10
10
10
10
10
10
10
10
10
10
10
10
10
10
10
10
10
10
10
10
10
10
10
10
10
10
10
10
10
10
10
10
10
10
10
10
10
10
10
10
10
10
10
10
10
10
10
10
10
10
10
10
10
10
10
10
10
10
10
10
10
10
10
10
10
10
10
10
10
10
10
10
10
10
10
10
10
10
10
10
10
10
10
10
10
10
10
10
10
10
10
10
10
10
10
10
10
10
10
10
10
10
10
10
10
10
10
10
10
10
10
10
10
10
10
10
10
10
10
10
10
10
10
10
10
10
10
10
10
10
10
10
10
10
10
10
10
10
10
10
10
10
10
10
10
10
10
10
10
10
10
10
10
10
10
10
10
10
10
10
10
10
10
10
10
10
10
10
10
10
10
10
10
10
10
10
10
10
10
10
10
10
10
10
10
10
10
10
10
10
10
10
10
10
10
10
10
10
10
10
10
10
10
10
10
10
10
10
10
10
10
10
10
10
10
10
10
10
10
10
10
10
10
10
10
10
10
10
10
10
10
10
10
10
10
10
10
10
10
10
10
10
10
10
10
10
10
10
10
10
10
10
10
10
10
10
10
10
10
10
10
10
10
10
10
10
10
10
10
10
10
10
10
10
10
10
10
10
10
10
10
10
10
10
10
10
10
10
10
10
10
10
10
10
10
10
10
10
10
10
10
10
10
10
10
10
10
10
10
10
10
10
10
10
10
10
10
10
10
10
10
10
10
10
10
10
10
10
10
10
10
10
10
10
10
10
10
10
10
10
10
10
10
10
10
10
10
10
10
10
10
10
10
10
10
10
10
10
10
10
10
10
10
10
10
10
10
10
10
10
10
10
10
10
10
10
10
10
10
10
10
10
10
10
10
10
10
10
10
10
10
10
10
10
10
10
10
10
10
10
10
10
10
10
10
10
10
10
10
10
10
10
10
10
10
10
10
10
10
10
10
10
10
10
10
10
10
10
10
10
10
10
10
10
10
10
10
10
10
10
10
10
10
10
10
10
10
10
10
10
10
10
10
10
10
10
10
10
10
10
10
10
10
10
10
10
10
10
10
10
10
10
10
10
10
10
10
10
10
10
10
10
10
10
10
10
10
10
10
10
10
10
10
10
10
10
10
10
10
10
10
10
10
10
10
10
10
10
10
10
10
10
10
10
10
10
10
10
10
10
10
10
10
10
10
10
10
10
10
10
10
10
10
10
10
10
10
10
10
10
10
10
10
10
10
10
10
10
10
10
10
10
10
10
10
10
10
10
10
10
10
10
10
10
10
10
10
10
10
10
10
10
10
10
10
10
10
10
10
10
10
10
10
10
10
10
10
10
10
10
10
10
10
10
10
10
10
10
10
10
10
10
10
10
10
10
10
10
10
10
10
10
10
10
10
10
10
10
10
10
10
10
10
10
10
10
10
10
10
10
10
10
10
10
10
10
10
10
10
10
10
10
10
10
10
10
10
10
10
10
10
10
10
10
10
10
10
10
10
10
10
10
10
10
10
10
10
10
10
10
10
10
10
10
10
10
10
10
10
10
10
10
10
10
10
10
10
10
10
10
10
10
10
10
10
10
10
10
10
10
10
10
10
10
10
10
10
10
10
10
10
10
10
10
10
10
10
10
10
10
10
10
10
10
10
10
10
10
10
10
10
10
10
10
10
10
10
10
10
10
10
10
10
10
10
10
10
10
10
10
10
10
10
10
10
10
10
10
10
10
10
10
10
10
10
10
10
10
10
10
10
10
10
10
10
10
10
10
10
10
10
10
10
10
10
10
10
10
10
10
10
10
10
10
10
10
10
10
10
10
10
10
10
10
10
10
10
10
10
10
10
10
10
10
10
10
10
10
10
10
10
10
10
10
10
10
10
10
10
10
10
10
10
10
10
10
10
10
10
10
10
10
10
10
10
10
10
10
10
10
10
10
10
10
10
10
10
10
10
10
10
10
10
10
10
10
10
10
10
10
10
10
10
10
10
10
10
10
10
10
10
10
10
10
10
10
10
10
10
10
10
10
10
10
10
10
10
10
10
10
10
10
10
10
10
10
10
10
10
10
10
10
10
10
10
10
10
10
10
10
10
10
10
10
10
10
10
10
10
10
10
10
10
10
10
10
10
10
10
10
10
10
10
10
10
10
10
10
10
10
10
10
10
10
10
10
10
10
10
10
10
10
10
10
10
10
10
10
10
10
10
10
10
10
10
10
10
10
10
10
10
10
10
10
10
10
10
10
10
10
10
10
10
10
10
10
10
10
10
10
10
10
10
10
10
10
10
10
10
10
10
10
10
10
10
10
10
10
10
10
10
10
10
10
10
10
10
10
10
10
10
10
10
10
10
10
10
10
10
10
10
10
10
10
10
10
10
10
10
10
10
10
10
10
10
10
10
10
10
10
10
10
10
10
10
10
10
10
10
10
10
10
10
10
10
10
10
10
10
10
10
10
10
10
10
10
10
10
10
10
10
10
10
10
10
10
10
10
10
10
10
10
10
10
10
10
10
10
10
10
10
10
10
10
10
10
10
10
10
10
10
10
10
10
10
10
10
10
10
10
10
10
10
10
10
10
10
10
10
10
10
10
10
10
10
10
10
10
10
10
10
10
10
10
10
10
10
10
10
10
10
10
10
10
10
10
10
10
10
10
10
10
10
10
10
10
10
10
10
10
10
10
10
10
10
10
10
10
10
10
10
10
10
10
10
10
10
10
10
10
10
10
10
10
10
10
10
10
10
10
10
10
10
10
10
10
10
10
10
10
10
10
10
10
10
10
10
10
10
10
10
10
10
10
10
10
10
10
10
10
10
10
10
10
10
10
10
10
10
10
10
10
10
10
10
10
10
10
10
10
10
10
10
10
10
10
10
10
10
10
10
10
10
10
10
10
10
10
10
10
10
10
10
10
10
10
10
10
10
10
10
10
10
10
10
10
10
10
10
10
10
10
10
10
10
10
10
10
10
10
10
10
10
10
10
10
10
10
10
10
10
10
10
10
10
10
10
10
10
10
10
10
10
10
10
10
10
10
10
10
10
10
10
10
10
10
10
10
10
10
10
10
10
10
10
              </DataArray>   
          </Cells>  
          <PointData>  
             <DataArray type="Float64" NumberOfComponents="3" Name="Strains" format="ascii">   
-5.056313829227466e-05   0.0   -3.3306510373249464e-05
-5.056313829227466e-05   0.0   -3.3306510373249464e-05
-5.056313829227466e-05   0.0   -3.3306510373249464e-05
-5.056313829227466e-05   0.0   -3.3306510373249464e-05
-3.216225291142114e-05   5.585260096377583e-06   7.1278798599956e-07
-3.216225291142114e-05   5.585260096377583e-06   7.1278798599956e-07
-3.216225291142114e-05   5.585260096377583e-06   7.1278798599956e-07
-3.216225291142114e-05   5.585260096377583e-06   7.1278798599956e-07
-3.151794217797805e-05   0.0   -3.145082094114796e-05
-3.151794217797805e-05   0.0   -3.145082094114796e-05
-3.151794217797805e-05   0.0   -3.145082094114796e-05
-3.151794217797805e-05   0.0   -3.145082094114796e-05
-5.290652083237596e-05   6.710309663165229e-06   1.7062435161623133e-07
-5.290652083237596e-05   6.710309663165229e-06   1.7062435161623133e-07
-5.290652083237596e-05   6.710309663165229e-06   1.7062435161623133e-07
-5.290652083237596e-05   6.710309663165229e-06   1.7062435161623133e-07
-4.104054023512628e-05   1.546407860084585e-06   -1.6507668895284823e-05
-4.104054023512628e-05   1.546407860084585e-06   -1.6507668895284823e-05
-4.104054023512628e-05   1.546407860084585e-06   -1.6507668895284823e-05
-4.104054023512628e-05   1.546407860084585e-06   -1.6507668895284823e-05
-5.2906520832376045e-05   0.0   -3.54770067390471e-05
-5.2906520832376045e-05   0.0   -3.54770067390471e-05
-5.2906520832376045e-05   0.0   -3.54770067390471e-05
-5.2906520832376045e-05   0.0   -3.54770067390471e-05
-3.151794217797805e-05   6.710309663165236e-06   4.196810149515363e-06
-3.151794217797805e-05   6.710309663165236e-06   4.196810149515363e-06
-3.151794217797805e-05   6.710309663165236e-06   4.196810149515363e-06
-3.151794217797805e-05   6.710309663165236e-06   4.196810149515363e-06
-3.159791231177974e-05   0.0   -3.2218226675339695e-05
-3.159791231177974e-05   0.0   -3.2218226675339695e-05
-3.159791231177974e-05   0.0   -3.2218226675339695e-05
-3.159791231177974e-05   0.0   -3.2218226675339695e-05
-5.454816225219059e-05   7.19118607805568e-06   1.7174782451784553e-06
-5.454816225219059e-05   7.19118607805568e-06   1.7174782451784553e-06
-5.454816225219059e-05   7.19118607805568e-06   1.7174782451784553e-06
-5.454816225219059e-05   7.19118607805568e-06   1.7174782451784553e-06
-4.225221657207782e-05   2.7156500530895027e-06   -1.609044294002977e-05
-4.225221657207782e-05   2.7156500530895027e-06   -1.609044294002977e-05
-4.225221657207782e-05   2.7156500530895027e-06   -1.609044294002977e-05
-4.225221657207782e-05   2.7156500530895027e-06   -1.609044294002977e-05
-5.454816225219069e-05   0.0   -3.653293832217311e-05
-5.454816225219069e-05   0.0   -3.653293832217311e-05
-5.454816225219069e-05   0.0   -3.653293832217311e-05
-5.454816225219069e-05   0.0   -3.653293832217311e-05
-3.1597912311779686e-05   7.19118607805568e-06   6.0321898920118566e-06
-3.1597912311779686e-05   7.19118607805568e-06   6.0321898920118566e-06
-3.1597912311779686e-05   7.19118607805568e-06   6.0321898920118566e-06
-3.1597912311779686e-05   7.19118607805568e-06   6.0321898920118566e-06
-3.15712528834186e-05   0.0   -3.241682530889788e-05
-3.15712528834186e-05   0.0   -3.241682530889788e-05
-3.15712528834186e-05   0.0   -3.241682530889788e-05
-3.15712528834186e-05   0.0   -3.241682530889788e-05
-5.809355832668293e-05   8.198794460607271e-06   6.867740420178457e-06
-5.809355832668293e-05   8.198794460607271e-06   6.867740420178457e-06
-5.809355832668293e-05   8.198794460607271e-06   6.867740420178457e-06
-5.809355832668293e-05   8.198794460607271e-06   6.867740420178457e-06
-4.305970756780457e-05   3.430094177729352e-06   -1.5327457341558712e-05
-4.305970756780457e-05   3.430094177729352e-06   -1.5327457341558712e-05
-4.305970756780457e-05   3.430094177729352e-06   -1.5327457341558712e-05
-4.305970756780457e-05   3.430094177729352e-06   -1.5327457341558712e-05
-3.216225291142119e-05   0.0   -2.995535431542291e-05
-3.216225291142119e-05   0.0   -2.995535431542291e-05
-3.216225291142119e-05   0.0   -2.995535431542291e-05
-3.216225291142119e-05   0.0   -2.995535431542291e-05
-1.4657174646692979e-05   2.0453346625801916e-06   4.4697692333887115e-07
-1.4657174646692979e-05   2.0453346625801916e-06   4.4697692333887115e-07
-1.4657174646692979e-05   2.0453346625801916e-06   4.4697692333887115e-07
-1.4657174646692979e-05   2.0453346625801916e-06   4.4697692333887115e-07
-1.4088373301639935e-05   0.0   -2.970047184403618e-05
-1.4088373301639935e-05   0.0   -2.970047184403618e-05
-1.4088373301639935e-05   0.0   -2.970047184403618e-05
-1.4088373301639935e-05   0.0   -2.970047184403618e-05
-3.151794217797805e-05   2.917248495186206e-06   -2.4015394805844856e-06
-3.151794217797805e-05   2.917248495186206e-06   -2.4015394805844856e-06
-3.151794217797805e-05   2.917248495186206e-06   -2.4015394805844856e-06
-3.151794217797805e-05   2.917248495186206e-06   -2.4015394805844856e-06
-2.3125313106530537e-05   2.1240205948889622e-07   -1.4766346738245177e-05
-2.3125313106530537e-05   2.1240205948889622e-07   -1.4766346738245177e-05
-2.3125313106530537e-05   2.1240205948889622e-07   -1.4766346738245177e-05
-2.3125313106530537e-05   2.1240205948889622e-07   -1.4766346738245177e-05
-3.151794217797802e-05   0.0   -3.145082094114793e-05
-3.151794217797802e-05   0.0   -3.145082094114793e-05
-3.151794217797802e-05   0.0   -3.145082094114793e-05
-3.151794217797802e-05   0.0   -3.145082094114793e-05
-1.4088373301639935e-05   2.917248495186199e-06   -6.511903834727581e-07
-1.4088373301639935e-05   2.917248495186199e-06   -6.511903834727581e-07
-1.4088373301639935e-05   2.917248495186199e-06   -6.511903834727581e-07
-1.4088373301639935e-05   2.917248495186199e-06   -6.511903834727581e-07
-1.3765272299990029e-05   0.0   -3.0071449042220424e-05
-1.3765272299990029e-05   0.0   -3.0071449042220424e-05
-1.3765272299990029e-05   0.0   -3.0071449042220424e-05
-1.3765272299990029e-05   0.0   -3.0071449042220424e-05
-3.159791231177974e-05   3.5779627218653586e-06   -2.4971599890235484e-06
-3.159791231177974e-05   3.5779627218653586e-06   -2.4971599890235484e-06
-3.159791231177974e-05   3.5779627218653586e-06   -2.4971599890235484e-06
-3.159791231177974e-05   3.5779627218653586e-06   -2.4971599890235484e-06
-2.2641607238984003e-05   1.1494765824395675e-06   -1.596724342669417e-05
-2.2641607238984003e-05   1.1494765824395675e-06   -1.596724342669417e-05
-2.2641607238984003e-05   1.1494765824395675e-06   -1.596724342669417e-05
-2.2641607238984003e-05   1.1494765824395675e-06   -1.596724342669417e-05
-3.159791231177974e-05   0.0   -3.2218226675339695e-05
-3.159791231177974e-05   0.0   -3.2218226675339695e-05
-3.159791231177974e-05   0.0   -3.2218226675339695e-05
-3.159791231177974e-05   0.0   -3.2218226675339695e-05
-1.3765272299990052e-05   3.5779627218653586e-06   -3.503823559043285e-07
-1.3765272299990052e-05   3.5779627218653586e-06   -3.503823559043285e-07
-1.3765272299990052e-05   3.5779627218653586e-06   -3.503823559043285e-07
-1.3765272299990052e-05   3.5779627218653586e-06   -3.503823559043285e-07
-1.3469590650333116e-05   0.0   -2.9917530057067e-05
-1.3469590650333116e-05   0.0   -2.9917530057067e-05
-1.3469590650333116e-05   0.0   -2.9917530057067e-05
-1.3469590650333116e-05   0.0   -2.9917530057067e-05
-3.157125288341857e-05   4.165492086384761e-06   -2.2473882537554063e-06
-3.157125288341857e-05   4.165492086384761e-06   -2.2473882537554063e-06
-3.157125288341857e-05   4.165492086384761e-06   -2.2473882537554063e-06
-3.157125288341857e-05   4.165492086384761e-06   -2.2473882537554063e-06
-2.253375148105642e-05   1.9172471818938925e-06   -1.5960943648331157e-05
-2.253375148105642e-05   1.9172471818938925e-06   -1.5960943648331157e-05
-2.253375148105642e-05   1.9172471818938925e-06   -1.5960943648331157e-05
-2.253375148105642e-05   1.9172471818938925e-06   -1.5960943648331157e-05
-1.4657174646693004e-05   0.0   -2.8728153517874794e-05
-1.4657174646693004e-05   0.0   -2.8728153517874794e-05
-1.4657174646693004e-05   0.0   -2.8728153517874794e-05
-1.4657174646693004e-05   0.0   -2.8728153517874794e-05
1.874215940954539e-06   -2.643850289697628e-07   -1.3344668891773866e-06
1.874215940954539e-06   -2.643850289697628e-07   -1.3344668891773866e-06
1.874215940954539e-06   -2.643850289697628e-07   -1.3344668891773866e-06
1.874215940954539e-06   -2.643850289697628e-07   -1.3344668891773866e-06
2.2414139848586595e-06   0.0   -2.9389541628510088e-05
2.2414139848586595e-06   0.0   -2.9389541628510088e-05
2.2414139848586595e-06   0.0   -2.9389541628510088e-05
2.2414139848586595e-06   0.0   -2.9389541628510088e-05
-1.4088373301639935e-05   5.18217025876739e-07   -2.484159699871852e-06
-1.4088373301639935e-05   5.18217025876739e-07   -2.484159699871852e-06
-1.4088373301639935e-05   5.18217025876739e-07   -2.484159699871852e-06
-1.4088373301639935e-05   5.18217025876739e-07   -2.484159699871852e-06
-6.207880330917158e-06   -5.511567588628301e-07   -1.497669038023273e-05
-6.207880330917158e-06   -5.511567588628301e-07   -1.497669038023273e-05
-6.207880330917158e-06   -5.511567588628301e-07   -1.497669038023273e-05
-6.207880330917158e-06   -5.511567588628301e-07   -1.497669038023273e-05
-1.408837330163996e-05   0.0   -2.970047184403623e-05
-1.408837330163996e-05   0.0   -2.970047184403623e-05
-1.408837330163996e-05   0.0   -2.970047184403623e-05
-1.408837330163996e-05   0.0   -2.970047184403623e-05
2.2414139848586633e-06   5.18217025876739e-07   -2.1732294843458084e-06
2.2414139848586633e-06   5.18217025876739e-07   -2.1732294843458084e-06
2.2414139848586633e-06   5.18217025876739e-07   -2.1732294843458084e-06
2.2414139848586633e-06   5.18217025876739e-07   -2.1732294843458084e-06
2.532408428955676e-06   0.0   -2.934681076410317e-05
2.532408428955676e-06   0.0   -2.934681076410317e-05
2.532408428955676e-06   0.0   -2.934681076410317e-05
2.532408428955676e-06   0.0   -2.934681076410317e-05
-1.3765272299990005e-05   1.207730463528759e-06   -2.90864782731092e-06
-1.3765272299990005e-05   1.207730463528759e-06   -2.90864782731092e-06
-1.3765272299990005e-05   1.207730463528759e-06   -2.90864782731092e-06
-1.3765272299990005e-05   1.207730463528759e-06   -2.90864782731092e-06
-5.77798243634213e-06   2.9471756661084405e-07   -1.5672989861906653e-05
-5.77798243634213e-06   2.9471756661084405e-07   -1.5672989861906653e-05
-5.77798243634213e-06   2.9471756661084405e-07   -1.5672989861906653e-05
-5.77798243634213e-06   2.9471756661084405e-07   -1.5672989861906653e-05
-1.3765272299990052e-05   0.0   -3.0071449042220475e-05
-1.3765272299990052e-05   0.0   -3.0071449042220475e-05
-1.3765272299990052e-05   0.0   -3.0071449042220475e-05
-1.3765272299990052e-05   0.0   -3.0071449042220475e-05
2.5324084289556803e-06   1.207730463528759e-06   -2.1840095491936703e-06
2.5324084289556803e-06   1.207730463528759e-06   -2.1840095491936703e-06
2.5324084289556803e-06   1.207730463528759e-06   -2.1840095491936703e-06
2.5324084289556803e-06   1.207730463528759e-06   -2.1840095491936703e-06
2.9209831097372754e-06   0.0   -2.871403047404511e-05
2.9209831097372754e-06   0.0   -2.871403047404511e-05
2.9209831097372754e-06   0.0   -2.871403047404511e-05
2.9209831097372754e-06   0.0   -2.871403047404511e-05
-1.3469590650333106e-05   2.00583263836977e-06   -2.5999071236163384e-06
-1.3469590650333106e-05   2.00583263836977e-06   -2.5999071236163384e-06
-1.3469590650333106e-05   2.00583263836977e-06   -2.5999071236163384e-06
-1.3469590650333106e-05   2.00583263836977e-06   -2.5999071236163384e-06
-5.422144595126377e-06   1.1311821401460948e-06   -1.5487526916693338e-05
-5.422144595126377e-06   1.1311821401460948e-06   -1.5487526916693338e-05
-5.422144595126377e-06   1.1311821401460948e-06   -1.5487526916693338e-05
-5.422144595126377e-06   1.1311821401460948e-06   -1.5487526916693338e-05
1.8742159409545422e-06   0.0   -2.8886784535256652e-05
1.8742159409545422e-06   0.0   -2.8886784535256652e-05
1.8742159409545422e-06   0.0   -2.8886784535256652e-05
1.8742159409545422e-06   0.0   -2.8886784535256652e-05
1.9826375837326172e-05   -2.325478356062066e-06   -3.618050549411531e-07
1.9826375837326172e-05   -2.325478356062066e-06   -3.618050549411531e-07
1.9826375837326172e-05   -2.325478356062066e-06   -3.618050549411531e-07
1.9826375837326172e-05   -2.325478356062066e-06   -3.618050549411531e-07
1.987252772158823e-05   0.0   -3.0439895491497443e-05
1.987252772158823e-05   0.0   -3.0439895491497443e-05
1.987252772158823e-05   0.0   -3.0439895491497443e-05
1.987252772158823e-05   0.0   -3.0439895491497443e-05
2.2414139848586675e-06   -1.7505897716454222e-06   -4.352067294256483e-09
2.2414139848586675e-06   -1.7505897716454222e-06   -4.352067294256483e-09
2.2414139848586675e-06   -1.7505897716454222e-06   -4.352067294256483e-09
2.2414139848586675e-06   -1.7505897716454222e-06   -4.352067294256483e-09
1.0873371831271386e-05   -1.2942591302006598e-06   -1.4664746862848965e-05
1.0873371831271386e-05   -1.2942591302006598e-06   -1.4664746862848965e-05
1.0873371831271386e-05   -1.2942591302006598e-06   -1.4664746862848965e-05
1.0873371831271386e-05   -1.2942591302006598e-06   -1.4664746862848965e-05
2.2414139848586675e-06   0.0   -2.938954162851019e-05
2.2414139848586675e-06   0.0   -2.938954162851019e-05
2.2414139848586675e-06   0.0   -2.938954162851019e-05
2.2414139848586675e-06   0.0   -2.938954162851019e-05
1.987252772158823e-05   -1.7505897716454222e-06   -1.0547059302815092e-06
1.987252772158823e-05   -1.7505897716454222e-06   -1.0547059302815092e-06
1.987252772158823e-05   -1.7505897716454222e-06   -1.0547059302815092e-06
1.987252772158823e-05   -1.7505897716454222e-06   -1.0547059302815092e-06
1.979680761247111e-05   0.0   -3.0005303346384973e-05
1.979680761247111e-05   0.0   -3.0005303346384973e-05
1.979680761247111e-05   0.0   -3.0005303346384973e-05
1.979680761247111e-05   0.0   -3.0005303346384973e-05
2.5324084289556803e-06   -1.0974876371362504e-06   -5.728121249108444e-07
2.5324084289556803e-06   -1.0974876371362504e-06   -5.728121249108444e-07
2.5324084289556803e-06   -1.0974876371362504e-06   -5.728121249108444e-07
2.5324084289556803e-06   -1.0974876371362504e-06   -5.728121249108444e-07
1.1019110798664887e-05   -5.13134764895654e-07   -1.5067927797770537e-05
1.1019110798664887e-05   -5.13134764895654e-07   -1.5067927797770537e-05
1.1019110798664887e-05   -5.13134764895654e-07   -1.5067927797770537e-05
1.1019110798664887e-05   -5.13134764895654e-07   -1.5067927797770537e-05
2.5324084289556782e-06   0.0   -2.9346810764103196e-05
2.5324084289556782e-06   0.0   -2.9346810764103196e-05
2.5324084289556782e-06   0.0   -2.9346810764103196e-05
2.5324084289556782e-06   0.0   -2.9346810764103196e-05
1.979680761247111e-05   -1.0974876371362504e-06   -1.231304707192599e-06
1.979680761247111e-05   -1.0974876371362504e-06   -1.231304707192599e-06
1.979680761247111e-05   -1.0974876371362504e-06   -1.231304707192599e-06
1.979680761247111e-05   -1.0974876371362504e-06   -1.231304707192599e-06
2.018923575383257e-05   0.0   -2.8846292355596666e-05
2.018923575383257e-05   0.0   -2.8846292355596666e-05
2.018923575383257e-05   0.0   -2.8846292355596666e-05
2.018923575383257e-05   0.0   -2.8846292355596666e-05
2.9209831097372804e-06   -2.204364692525129e-07   6.639059944698458e-08
2.9209831097372804e-06   -2.204364692525129e-07   6.639059944698458e-08
2.9209831097372804e-06   -2.204364692525129e-07   6.639059944698458e-08
2.9209831097372804e-06   -2.204364692525129e-07   6.639059944698458e-08
1.1360822091394116e-05   4.170986737554623e-07   -1.438252878911918e-05
1.1360822091394116e-05   4.170986737554623e-07   -1.438252878911918e-05
1.1360822091394116e-05   4.170986737554623e-07   -1.438252878911918e-05
1.1360822091394116e-05   4.170986737554623e-07   -1.438252878911918e-05
1.9826375837326172e-05   0.0   -3.028207154889389e-05
1.9826375837326172e-05   0.0   -3.028207154889389e-05
1.9826375837326172e-05   0.0   -3.028207154889389e-05
1.9826375837326172e-05   0.0   -3.028207154889389e-05
4.481849261607001e-05   -5.90240789799219e-06   7.830011676884108e-06
4.481849261607001e-05   -5.90240789799219e-06   7.830011676884108e-06
4.481849261607001e-05   -5.90240789799219e-06   7.830011676884108e-06
4.481849261607001e-05   -5.90240789799219e-06   7.830011676884108e-06
4.210595204936219e-05   0.0   -3.344964803812693e-05
4.210595204936219e-05   0.0   -3.344964803812693e-05
4.210595204936219e-05   0.0   -3.344964803812693e-05
4.210595204936219e-05   0.0   -3.344964803812693e-05
1.987252772158823e-05   -5.016254244382479e-06   6.615811721459149e-06
1.987252772158823e-05   -5.016254244382479e-06   6.615811721459149e-06
1.987252772158823e-05   -5.016254244382479e-06   6.615811721459149e-06
1.987252772158823e-05   -5.016254244382479e-06   6.615811721459149e-06
3.096616394334418e-05   -2.6396470743608695e-06   -1.3299546283480382e-05
3.096616394334418e-05   -2.6396470743608695e-06   -1.3299546283480382e-05
3.096616394334418e-05   -2.6396470743608695e-06   -1.3299546283480382e-05
3.096616394334418e-05   -2.6396470743608695e-06   -1.3299546283480382e-05
1.9872527721588212e-05   0.0   -3.0439895491497416e-05
1.9872527721588212e-05   0.0   -3.0439895491497416e-05
1.9872527721588212e-05   0.0   -3.0439895491497416e-05
1.9872527721588212e-05   0.0   -3.0439895491497416e-05
4.2105952049362046e-05   -5.016254244382465e-06   3.606059174829647e-06
4.2105952049362046e-05   -5.016254244382465e-06   3.606059174829647e-06
4.2105952049362046e-05   -5.016254244382465e-06   3.606059174829647e-06
4.2105952049362046e-05   -5.016254244382465e-06   3.606059174829647e-06
4.0859332974514575e-05   0.0   -3.275431449443327e-05
4.0859332974514575e-05   0.0   -3.275431449443327e-05
4.0859332974514575e-05   0.0   -3.275431449443327e-05
4.0859332974514575e-05   0.0   -3.275431449443327e-05
1.979680761247111e-05   -4.581685246747165e-06   5.0989055903541205e-06
1.979680761247111e-05   -4.581685246747165e-06   5.0989055903541205e-06
1.979680761247111e-05   -4.581685246747165e-06   5.0989055903541205e-06
1.979680761247111e-05   -4.581685246747165e-06   5.0989055903541205e-06
3.0365930348051383e-05   -1.9286825024465254e-06   -1.4108100615526708e-05
3.0365930348051383e-05   -1.9286825024465254e-06   -1.4108100615526708e-05
3.0365930348051383e-05   -1.9286825024465254e-06   -1.4108100615526708e-05
3.0365930348051383e-05   -1.9286825024465254e-06   -1.4108100615526708e-05
1.979680761247111e-05   0.0   -3.0005303346384973e-05
1.979680761247111e-05   0.0   -3.0005303346384973e-05
1.979680761247111e-05   0.0   -3.0005303346384973e-05
1.979680761247111e-05   0.0   -3.0005303346384973e-05
4.085933297451443e-05   -4.581685246747151e-06   2.3498944423058256e-06
4.085933297451443e-05   -4.581685246747151e-06   2.3498944423058256e-06
4.085933297451443e-05   -4.581685246747151e-06   2.3498944423058256e-06
4.085933297451443e-05   -4.581685246747151e-06   2.3498944423058256e-06
3.899690401126522e-05   0.0   -3.097883096028016e-05
3.899690401126522e-05   0.0   -3.097883096028016e-05
3.899690401126522e-05   0.0   -3.097883096028016e-05
3.899690401126522e-05   0.0   -3.097883096028016e-05
2.0189235753832535e-05   -3.554231007805814e-06   2.4998214067910798e-06
2.0189235753832535e-05   -3.554231007805814e-06   2.4998214067910798e-06
2.0189235753832535e-05   -3.554231007805814e-06   2.4998214067910798e-06
2.0189235753832535e-05   -3.554231007805814e-06   2.4998214067910798e-06
2.9396855811868164e-05   -8.112730115793195e-07   -1.4491986821004127e-05
2.9396855811868164e-05   -8.112730115793195e-07   -1.4491986821004127e-05
2.9396855811868164e-05   -8.112730115793195e-07   -1.4491986821004127e-05
2.9396855811868164e-05   -8.112730115793195e-07   -1.4491986821004127e-05
-4.378051475921676e-05   5.585260096377577e-06   -2.880669767061971e-05
-4.378051475921676e-05   5.585260096377577e-06   -2.880669767061971e-05
-4.378051475921676e-05   5.585260096377577e-06   -2.880669767061971e-05
-4.378051475921676e-05   5.585260096377577e-06   -2.880669767061971e-05
-2.8049172551468985e-05   5.017267864357495e-06   -2.9285893302521433e-06
-2.8049172551468985e-05   5.017267864357495e-06   -2.9285893302521433e-06
-2.8049172551468985e-05   5.017267864357495e-06   -2.9285893302521433e-06
-2.8049172551468985e-05   5.017267864357495e-06   -2.9285893302521433e-06
-2.8750186363192064e-05   6.710309663165215e-06   -2.4200689078028597e-05
-2.8750186363192064e-05   6.710309663165215e-06   -2.4200689078028597e-05
-2.8750186363192064e-05   6.710309663165215e-06   -2.4200689078028597e-05
-2.8750186363192064e-05   6.710309663165215e-06   -2.4200689078028597e-05
-4.424456834400207e-05   6.026830878821975e-06   2.033368160594051e-06
-4.424456834400207e-05   6.026830878821975e-06   2.033368160594051e-06
-4.424456834400207e-05   6.026830878821975e-06   2.033368160594051e-06
-4.424456834400207e-05   6.026830878821975e-06   2.033368160594051e-06
-3.477150392443221e-05   5.836551382563281e-06   -1.3640904840933949e-05
-3.477150392443221e-05   5.836551382563281e-06   -1.3640904840933949e-05
-3.477150392443221e-05   5.836551382563281e-06   -1.3640904840933949e-05
-3.477150392443221e-05   5.836551382563281e-06   -1.3640904840933949e-05
-4.424456834400207e-05   6.710309663165215e-06   -2.379060180742265e-05
-4.424456834400207e-05   6.710309663165215e-06   -2.379060180742265e-05
-4.424456834400207e-05   6.710309663165215e-06   -2.379060180742265e-05
-4.424456834400207e-05   6.710309663165215e-06   -2.379060180742265e-05
-2.8750186363192152e-05   6.026830878821975e-06   1.623280889988157e-06
-2.8750186363192152e-05   6.026830878821975e-06   1.623280889988157e-06
-2.8750186363192152e-05   6.026830878821975e-06   1.623280889988157e-06
-2.8750186363192152e-05   6.026830878821975e-06   1.623280889988157e-06
-2.8892066270122508e-05   7.1911860780556666e-06   -2.1763399572807053e-05
-2.8892066270122508e-05   7.1911860780556666e-06   -2.1763399572807053e-05
-2.8892066270122508e-05   7.1911860780556666e-06   -2.1763399572807053e-05
-2.8892066270122508e-05   7.1911860780556666e-06   -2.1763399572807053e-05
-4.4547421840091326e-05   6.48266658981195e-06   4.7539714034205386e-06
-4.4547421840091326e-05   6.48266658981195e-06   4.7539714034205386e-06
-4.4547421840091326e-05   6.48266658981195e-06   4.7539714034205386e-06
-4.4547421840091326e-05   6.48266658981195e-06   4.7539714034205386e-06
-3.578748166405588e-05   6.471095168883299e-06   -9.838986037414706e-06
-3.578748166405588e-05   6.471095168883299e-06   -9.838986037414706e-06
-3.578748166405588e-05   6.471095168883299e-06   -9.838986037414706e-06
-3.578748166405588e-05   6.471095168883299e-06   -9.838986037414706e-06
-4.4547421840091326e-05   7.1911860780556666e-06   -2.133828787986083e-05
-4.4547421840091326e-05   7.1911860780556666e-06   -2.133828787986083e-05
-4.4547421840091326e-05   7.1911860780556666e-06   -2.133828787986083e-05
-4.4547421840091326e-05   7.1911860780556666e-06   -2.133828787986083e-05
-2.8892066270122562e-05   6.482666589811977e-06   4.328859710474309e-06
-2.8892066270122562e-05   6.482666589811977e-06   4.328859710474309e-06
-2.8892066270122562e-05   6.482666589811977e-06   4.328859710474309e-06
-2.8892066270122562e-05   6.482666589811977e-06   4.328859710474309e-06
-2.872242028094293e-05   8.198794460607264e-06   -1.6097695974365506e-05
-2.872242028094293e-05   8.198794460607264e-06   -1.6097695974365506e-05
-2.872242028094293e-05   8.198794460607264e-06   -1.6097695974365506e-05
-2.872242028094293e-05   8.198794460607264e-06   -1.6097695974365506e-05
-4.3299680057819336e-05   6.8478005560260766e-06   9.008333329843754e-06
-4.3299680057819336e-05   6.8478005560260766e-06   9.008333329843754e-06
-4.3299680057819336e-05   6.8478005560260766e-06   9.008333329843754e-06
-4.3299680057819336e-05   6.8478005560260766e-06   9.008333329843754e-06
-3.4848893309090446e-05   7.100961992169961e-06   -5.228208113057384e-06
-3.4848893309090446e-05   7.100961992169961e-06   -5.228208113057384e-06
-3.4848893309090446e-05   7.100961992169961e-06   -5.228208113057384e-06
-3.4848893309090446e-05   7.100961992169961e-06   -5.228208113057384e-06
-2.8049172551468985e-05   2.045334662580185e-06   -3.064050487004058e-05
-2.8049172551468985e-05   2.045334662580185e-06   -3.064050487004058e-05
-2.8049172551468985e-05   2.045334662580185e-06   -3.064050487004058e-05
-2.8049172551468985e-05   2.045334662580185e-06   -3.064050487004058e-05
-1.330576135138924e-05   2.334783384164065e-06   -5.8944836369573204e-06
-1.330576135138924e-05   2.334783384164065e-06   -5.8944836369573204e-06
-1.330576135138924e-05   2.334783384164065e-06   -5.8944836369573204e-06
-1.330576135138924e-05   2.334783384164065e-06   -5.8944836369573204e-06
-1.361863864253667e-05   2.917248495186206e-06   -3.059157265454331e-05
-1.361863864253667e-05   2.917248495186206e-06   -3.059157265454331e-05
-1.361863864253667e-05   2.917248495186206e-06   -3.059157265454331e-05
-1.361863864253667e-05   2.917248495186206e-06   -3.059157265454331e-05
-2.8750186363192064e-05   3.263025251161499e-06   -5.579792507036079e-06
-2.8750186363192064e-05   3.263025251161499e-06   -5.579792507036079e-06
-2.8750186363192064e-05   3.263025251161499e-06   -5.579792507036079e-06
-2.8750186363192064e-05   3.263025251161499e-06   -5.579792507036079e-06
-2.0871660291197902e-05   2.6269425756727713e-06   -1.8329019688399857e-05
-2.0871660291197902e-05   2.6269425756727713e-06   -1.8329019688399857e-05
-2.0871660291197902e-05   2.6269425756727713e-06   -1.8329019688399857e-05
-2.0871660291197902e-05   2.6269425756727713e-06   -1.8329019688399857e-05
-2.8750186363192037e-05   2.917248495186199e-06   -3.0799038708128385e-05
-2.8750186363192037e-05   2.917248495186199e-06   -3.0799038708128385e-05
-2.8750186363192037e-05   2.917248495186199e-06   -3.0799038708128385e-05
-2.8750186363192037e-05   2.917248495186199e-06   -3.0799038708128385e-05
-1.3618638642536647e-05   3.263025251161499e-06   -5.372326453450822e-06
-1.3618638642536647e-05   3.263025251161499e-06   -5.372326453450822e-06
-1.3618638642536647e-05   3.263025251161499e-06   -5.372326453450822e-06
-1.3618638642536647e-05   3.263025251161499e-06   -5.372326453450822e-06
-1.3713296241016509e-05   3.5779627218653586e-06   -3.0020348689569745e-05
-1.3713296241016509e-05   3.5779627218653586e-06   -3.0020348689569745e-05
-1.3713296241016509e-05   3.5779627218653586e-06   -3.0020348689569745e-05
-1.3713296241016509e-05   3.5779627218653586e-06   -3.0020348689569745e-05
-2.8892066270122508e-05   4.03196399565323e-06   -4.9947994053323896e-06
-2.8892066270122508e-05   4.03196399565323e-06   -4.9947994053323896e-06
-2.8892066270122508e-05   4.03196399565323e-06   -4.9947994053323896e-06
-2.8892066270122508e-05   4.03196399565323e-06   -4.9947994053323896e-06
-2.1030205734378495e-05   3.3366929358642024e-06   -1.7680737662365653e-05
-2.1030205734378495e-05   3.3366929358642024e-06   -1.7680737662365653e-05
-2.1030205734378495e-05   3.3366929358642024e-06   -1.7680737662365653e-05
-2.1030205734378495e-05   3.3366929358642024e-06   -1.7680737662365653e-05
-2.8892066270122508e-05   3.577962721865352e-06   -3.0292749453842445e-05
-2.8892066270122508e-05   3.577962721865352e-06   -3.0292749453842445e-05
-2.8892066270122508e-05   3.577962721865352e-06   -3.0292749453842445e-05
-2.8892066270122508e-05   3.577962721865352e-06   -3.0292749453842445e-05
-1.3713296241016532e-05   4.031963995653257e-06   -4.722398641059707e-06
-1.3713296241016532e-05   4.031963995653257e-06   -4.722398641059707e-06
-1.3713296241016532e-05   4.031963995653257e-06   -4.722398641059707e-06
-1.3713296241016532e-05   4.031963995653257e-06   -4.722398641059707e-06
-1.3674919755517506e-05   4.165492086384754e-06   -2.9715504991212756e-05
-1.3674919755517506e-05   4.165492086384754e-06   -2.9715504991212756e-05
-1.3674919755517506e-05   4.165492086384754e-06   -2.9715504991212756e-05
-1.3674919755517506e-05   4.165492086384754e-06   -2.9715504991212756e-05
-2.872242028094295e-05   4.859819308803055e-06   -5.0529337822880025e-06
-2.872242028094295e-05   4.859819308803055e-06   -5.0529337822880025e-06
-2.872242028094295e-05   4.859819308803055e-06   -5.0529337822880025e-06
-2.872242028094295e-05   4.859819308803055e-06   -5.0529337822880025e-06
-2.1148981902172127e-05   3.979122482294527e-06   -1.7146912984334267e-05
-2.1148981902172127e-05   3.979122482294527e-06   -1.7146912984334267e-05
-2.1148981902172127e-05   3.979122482294527e-06   -1.7146912984334267e-05
-2.1148981902172127e-05   3.979122482294527e-06   -1.7146912984334267e-05
-1.330576135138924e-05   -2.643850289697628e-07   -3.208964843222464e-05
-1.330576135138924e-05   -2.643850289697628e-07   -3.208964843222464e-05
-1.330576135138924e-05   -2.643850289697628e-07   -3.208964843222464e-05
-1.330576135138924e-05   -2.643850289697628e-07   -3.208964843222464e-05
1.2508115736554797e-06   -7.098301060034628e-08   -7.712652346128433e-06
1.2508115736554797e-06   -7.098301060034628e-08   -7.712652346128433e-06
1.2508115736554797e-06   -7.098301060034628e-08   -7.712652346128433e-06
1.2508115736554797e-06   -7.098301060034628e-08   -7.712652346128433e-06
1.1956273738824128e-06   5.18217025876739e-07   -3.2264751314778716e-05
1.1956273738824128e-06   5.18217025876739e-07   -3.2264751314778716e-05
1.1956273738824128e-06   5.18217025876739e-07   -3.2264751314778716e-05
1.1956273738824128e-06   5.18217025876739e-07   -3.2264751314778716e-05
-1.3618638642536647e-05   7.845347861494577e-07   -7.73409861024389e-06
-1.3618638642536647e-05   7.845347861494577e-07   -7.73409861024389e-06
-1.3618638642536647e-05   7.845347861494577e-07   -7.73409861024389e-06
-1.3618638642536647e-05   7.845347861494577e-07   -7.73409861024389e-06
-6.155868639327873e-06   2.6100151458747654e-07   -1.9857928652654676e-05
-6.155868639327873e-06   2.6100151458747654e-07   -1.9857928652654676e-05
-6.155868639327873e-06   2.6100151458747654e-07   -1.9857928652654676e-05
-6.155868639327873e-06   2.6100151458747654e-07   -1.9857928652654676e-05
-1.3618638642536647e-05   5.18217025876739e-07   -3.2424541970942334e-05
-1.3618638642536647e-05   5.18217025876739e-07   -3.2424541970942334e-05
-1.3618638642536647e-05   5.18217025876739e-07   -3.2424541970942334e-05
-1.3618638642536647e-05   5.18217025876739e-07   -3.2424541970942334e-05
1.195627373882415e-06   7.845347861494577e-07   -7.574307954080238e-06
1.195627373882415e-06   7.845347861494577e-07   -7.574307954080238e-06
1.195627373882415e-06   7.845347861494577e-07   -7.574307954080238e-06
1.195627373882415e-06   7.845347861494577e-07   -7.574307954080238e-06
1.119233143033716e-06   1.207730463528759e-06   -3.23308829546275e-05
1.119233143033716e-06   1.207730463528759e-06   -3.23308829546275e-05
1.119233143033716e-06   1.207730463528759e-06   -3.23308829546275e-05
1.119233143033716e-06   1.207730463528759e-06   -3.23308829546275e-05
-1.3713296241016485e-05   1.620615807443424e-06   -7.857731854225947e-06
-1.3713296241016485e-05   1.620615807443424e-06   -7.857731854225947e-06
-1.3713296241016485e-05   1.620615807443424e-06   -7.857731854225947e-06
-1.3713296241016485e-05   1.620615807443424e-06   -7.857731854225947e-06
-6.265756028527912e-06   9.856153660108246e-07   -1.9889298610180665e-05
-6.265756028527912e-06   9.856153660108246e-07   -1.9889298610180665e-05
-6.265756028527912e-06   9.856153660108246e-07   -1.9889298610180665e-05
-6.265756028527912e-06   9.856153660108246e-07   -1.9889298610180665e-05
-1.3713296241016485e-05   1.207730463528759e-06   -3.257861416097628e-05
-1.3713296241016485e-05   1.207730463528759e-06   -3.257861416097628e-05
-1.3713296241016485e-05   1.207730463528759e-06   -3.257861416097628e-05
-1.3713296241016485e-05   1.207730463528759e-06   -3.257861416097628e-05
1.1192331430337181e-06   1.6206158074433968e-06   -7.610000647877202e-06
1.1192331430337181e-06   1.6206158074433968e-06   -7.610000647877202e-06
1.1192331430337181e-06   1.6206158074433968e-06   -7.610000647877202e-06
1.1192331430337181e-06   1.6206158074433968e-06   -7.610000647877202e-06
9.597986972538138e-07   2.00583263836977e-06   -3.227590550951596e-05
9.597986972538138e-07   2.00583263836977e-06   -3.227590550951596e-05
9.597986972538138e-07   2.00583263836977e-06   -3.227590550951596e-05
9.597986972538138e-07   2.00583263836977e-06   -3.227590550951596e-05
-1.3674919755517494e-05   2.491521977350693e-06   -8.17612169161904e-06
-1.3674919755517494e-05   2.491521977350693e-06   -8.17612169161904e-06
-1.3674919755517494e-05   2.491521977350693e-06   -8.17612169161904e-06
-1.3674919755517494e-05   2.491521977350693e-06   -8.17612169161904e-06
-6.330302256318998e-06   1.7300206617152709e-06   -1.9960250067568576e-05
-6.330302256318998e-06   1.7300206617152709e-06   -1.9960250067568576e-05
-6.330302256318998e-06   1.7300206617152709e-06   -1.9960250067568576e-05
-6.330302256318998e-06   1.7300206617152709e-06   -1.9960250067568576e-05
1.2508115736554797e-06   -2.3254783560620594e-06   -2.9605658373329513e-05
1.2508115736554797e-06   -2.3254783560620594e-06   -2.9605658373329513e-05
1.2508115736554797e-06   -2.3254783560620594e-06   -2.9605658373329513e-05
1.2508115736554797e-06   -2.3254783560620594e-06   -2.9605658373329513e-05
1.6251342595380417e-05   -2.390389163382708e-06   -4.6437198215136636e-06
1.6251342595380417e-05   -2.390389163382708e-06   -4.6437198215136636e-06
1.6251342595380417e-05   -2.390389163382708e-06   -4.6437198215136636e-06
1.6251342595380417e-05   -2.390389163382708e-06   -4.6437198215136636e-06
1.639024309463794e-05   -1.7505897716454155e-06   -3.001275154578e-05
1.639024309463794e-05   -1.7505897716454155e-06   -3.001275154578e-05
1.639024309463794e-05   -1.7505897716454155e-06   -3.001275154578e-05
1.639024309463794e-05   -1.7505897716454155e-06   -3.001275154578e-05
1.195627373882415e-06   -1.6120525184001486e-06   -4.771514363134618e-06
1.195627373882415e-06   -1.6120525184001486e-06   -4.771514363134618e-06
1.195627373882415e-06   -1.6120525184001486e-06   -4.771514363134618e-06
1.195627373882415e-06   -1.6120525184001486e-06   -4.771514363134618e-06
8.660004254325677e-06   -1.931380930281817e-06   -1.7020545450077706e-05
8.660004254325677e-06   -1.931380930281817e-06   -1.7020545450077706e-05
8.660004254325677e-06   -1.931380930281817e-06   -1.7020545450077706e-05
8.660004254325677e-06   -1.931380930281817e-06   -1.7020545450077706e-05
1.1956273738824128e-06   -1.7505897716454155e-06   -3.0095873897727168e-05
1.1956273738824128e-06   -1.7505897716454155e-06   -3.0095873897727168e-05
1.1956273738824128e-06   -1.7505897716454155e-06   -3.0095873897727168e-05
1.1956273738824128e-06   -1.7505897716454155e-06   -3.0095873897727168e-05
1.639024309463794e-05   -1.6120525184001215e-06   -4.6883920111873796e-06
1.639024309463794e-05   -1.6120525184001215e-06   -4.6883920111873796e-06
1.639024309463794e-05   -1.6120525184001215e-06   -4.6883920111873796e-06
1.639024309463794e-05   -1.6120525184001215e-06   -4.6883920111873796e-06
1.631519326021937e-05   -1.0974876371362504e-06   -3.057135335791091e-05
1.631519326021937e-05   -1.0974876371362504e-06   -3.057135335791091e-05
1.631519326021937e-05   -1.0974876371362504e-06   -3.057135335791091e-05
1.631519326021937e-05   -1.0974876371362504e-06   -3.057135335791091e-05
1.119233143033716e-06   -8.502673497465555e-07   -5.393085335035288e-06
1.119233143033716e-06   -8.502673497465555e-07   -5.393085335035288e-06
1.119233143033716e-06   -8.502673497465555e-07   -5.393085335035288e-06
1.119233143033716e-06   -8.502673497465555e-07   -5.393085335035288e-06
8.572053040443826e-06   -1.310945819524276e-06   -1.7538044748852173e-05
8.572053040443826e-06   -1.310945819524276e-06   -1.7538044748852173e-05
8.572053040443826e-06   -1.310945819524276e-06   -1.7538044748852173e-05
8.572053040443826e-06   -1.310945819524276e-06   -1.7538044748852173e-05
1.1192331430337152e-06   -1.0974876371362504e-06   -3.071968553034464e-05
1.1192331430337152e-06   -1.0974876371362504e-06   -3.071968553034464e-05
1.1192331430337152e-06   -1.0974876371362504e-06   -3.071968553034464e-05
1.1192331430337152e-06   -1.0974876371362504e-06   -3.071968553034464e-05
1.6315193260219343e-05   -8.502673497465555e-07   -5.244753162601519e-06
1.6315193260219343e-05   -8.502673497465555e-07   -5.244753162601519e-06
1.6315193260219343e-05   -8.502673497465555e-07   -5.244753162601519e-06
1.6315193260219343e-05   -8.502673497465555e-07   -5.244753162601519e-06
1.5842458114552293e-05   -2.204364692525129e-07   -3.062614023488668e-05
1.5842458114552293e-05   -2.204364692525129e-07   -3.062614023488668e-05
1.5842458114552293e-05   -2.204364692525129e-07   -3.062614023488668e-05
1.5842458114552293e-05   -2.204364692525129e-07   -3.062614023488668e-05
9.597986972538138e-07   9.117542172718939e-08   -6.008675007310389e-06
9.597986972538138e-07   9.117542172718939e-08   -6.008675007310389e-06
9.597986972538138e-07   9.117542172718939e-08   -6.008675007310389e-06
9.597986972538138e-07   9.117542172718939e-08   -6.008675007310389e-06
8.482772359082936e-06   -5.863596688958735e-07   -1.8140443389318397e-05
8.482772359082936e-06   -5.863596688958735e-07   -1.8140443389318397e-05
8.482772359082936e-06   -5.863596688958735e-07   -1.8140443389318397e-05
8.482772359082936e-06   -5.863596688958735e-07   -1.8140443389318397e-05
1.6251342595380417e-05   -5.90240789799219e-06   -1.791134338710134e-05
1.6251342595380417e-05   -5.90240789799219e-06   -1.791134338710134e-05
1.6251342595380417e-05   -5.90240789799219e-06   -1.791134338710134e-05
1.6251342595380417e-05   -5.90240789799219e-06   -1.791134338710134e-05
3.104553067004594e-05   -4.4381842121502815e-06   7.624170948846272e-06
3.104553067004594e-05   -4.4381842121502815e-06   7.624170948846272e-06
3.104553067004594e-05   -4.4381842121502815e-06   7.624170948846272e-06
3.104553067004594e-05   -4.4381842121502815e-06   7.624170948846272e-06
3.223958793059182e-05   -5.016254244382479e-06   -2.1745445279133067e-05
3.223958793059182e-05   -5.016254244382479e-06   -2.1745445279133067e-05
3.223958793059182e-05   -5.016254244382479e-06   -2.1745445279133067e-05
3.223958793059182e-05   -5.016254244382479e-06   -2.1745445279133067e-05
1.6390243094637967e-05   -4.021606552871915e-06   4.073340832550408e-06
1.6390243094637967e-05   -4.021606552871915e-06   4.073340832550408e-06
1.6390243094637967e-05   -4.021606552871915e-06   4.073340832550408e-06
1.6390243094637967e-05   -4.021606552871915e-06   4.073340832550408e-06
2.2866119037501116e-05   -4.822898688199801e-06   -6.239010457691481e-06
2.2866119037501116e-05   -4.822898688199801e-06   -6.239010457691481e-06
2.2866119037501116e-05   -4.822898688199801e-06   -6.239010457691481e-06
2.2866119037501116e-05   -4.822898688199801e-06   -6.239010457691481e-06
1.6390243094637923e-05   -5.016254244382472e-06   -2.23422338940393e-05
1.6390243094637923e-05   -5.016254244382472e-06   -2.23422338940393e-05
1.6390243094637923e-05   -5.016254244382472e-06   -2.23422338940393e-05
1.6390243094637923e-05   -5.016254244382472e-06   -2.23422338940393e-05
3.223958793059182e-05   -4.021606552871942e-06   4.670129447456763e-06
3.223958793059182e-05   -4.021606552871942e-06   4.670129447456763e-06
3.223958793059182e-05   -4.021606552871942e-06   4.670129447456763e-06
3.223958793059182e-05   -4.021606552871942e-06   4.670129447456763e-06
3.2127036481321916e-05   -4.581685246747158e-06   -2.3642140565668495e-05
3.2127036481321916e-05   -4.581685246747158e-06   -2.3642140565668495e-05
3.2127036481321916e-05   -4.581685246747158e-06   -2.3642140565668495e-05
3.2127036481321916e-05   -4.581685246747158e-06   -2.3642140565668495e-05
1.631519326021937e-05   -3.583347755587655e-06   2.1119289748067484e-06
1.631519326021937e-05   -3.583347755587655e-06   2.1119289748067484e-06
1.631519326021937e-05   -3.583347755587655e-06   2.1119289748067484e-06
1.631519326021937e-05   -3.583347755587655e-06   2.1119289748067484e-06
2.367319030511466e-05   -4.255976741741123e-06   -9.74782204166003e-06
2.367319030511466e-05   -4.255976741741123e-06   -9.74782204166003e-06
2.367319030511466e-05   -4.255976741741123e-06   -9.74782204166003e-06
2.367319030511466e-05   -4.255976741741123e-06   -9.74782204166003e-06
1.6315193260219343e-05   -4.581685246747151e-06   -2.4241143060364164e-05
1.6315193260219343e-05   -4.581685246747151e-06   -2.4241143060364164e-05
1.6315193260219343e-05   -4.581685246747151e-06   -2.4241143060364164e-05
1.6315193260219343e-05   -4.581685246747151e-06   -2.4241143060364164e-05
3.2127036481321916e-05   -3.5833477555876822e-06   2.7109314695023662e-06
3.2127036481321916e-05   -3.5833477555876822e-06   2.7109314695023662e-06
3.2127036481321916e-05   -3.5833477555876822e-06   2.7109314695023662e-06
3.2127036481321916e-05   -3.5833477555876822e-06   2.7109314695023662e-06
3.1942185700913184e-05   -3.5542310078058207e-06   -2.7512305021335782e-05
3.1942185700913184e-05   -3.5542310078058207e-06   -2.7512305021335782e-05
3.1942185700913184e-05   -3.5542310078058207e-06   -2.7512305021335782e-05
3.1942185700913184e-05   -3.5542310078058207e-06   -2.7512305021335782e-05
1.584245811455232e-05   -2.640660133380239e-06   -1.227568235389725e-06
1.584245811455232e-05   -2.640660133380239e-06   -1.227568235389725e-06
1.584245811455232e-05   -2.640660133380239e-06   -1.227568235389725e-06
1.584245811455232e-05   -2.640660133380239e-06   -1.227568235389725e-06
2.3001260928260876e-05   -3.662180449460028e-06   -1.2545994068589416e-05
2.3001260928260876e-05   -3.662180449460028e-06   -1.2545994068589416e-05
2.3001260928260876e-05   -3.662180449460028e-06   -1.2545994068589416e-05
2.3001260928260876e-05   -3.662180449460028e-06   -1.2545994068589416e-05
-3.480095437151456e-05   5.017267864357495e-06   -2.407641225125454e-05
-3.480095437151456e-05   5.017267864357495e-06   -2.407641225125454e-05
-3.480095437151456e-05   5.017267864357495e-06   -2.407641225125454e-05
-3.480095437151456e-05   5.017267864357495e-06   -2.407641225125454e-05
-2.2833122931552216e-05   3.827257788187961e-06   -4.844032563685699e-06
-2.2833122931552216e-05   3.827257788187961e-06   -4.844032563685699e-06
-2.2833122931552216e-05   3.827257788187961e-06   -4.844032563685699e-06
-2.2833122931552216e-05   3.827257788187961e-06   -4.844032563685699e-06
-2.2940771576231123e-05   6.026830878821975e-06   -1.9994033744869216e-05
-2.2940771576231123e-05   6.026830878821975e-06   -1.9994033744869216e-05
-2.2940771576231123e-05   6.026830878821975e-06   -1.9994033744869216e-05
-2.2940771576231123e-05   6.026830878821975e-06   -1.9994033744869216e-05
-3.426562185716149e-05   4.633373538694206e-06   -2.8320887257525236e-07
-3.426562185716149e-05   4.633373538694206e-06   -2.8320887257525236e-07
-3.426562185716149e-05   4.633373538694206e-06   -2.8320887257525236e-07
-3.426562185716149e-05   4.633373538694206e-06   -2.8320887257525236e-07
-2.749549645056951e-05   5.103568895512575e-06   -1.184886843098637e-05
-2.749549645056951e-05   5.103568895512575e-06   -1.184886843098637e-05
-2.749549645056951e-05   5.103568895512575e-06   -1.184886843098637e-05
-2.749549645056951e-05   5.103568895512575e-06   -1.184886843098637e-05
-3.426562185716149e-05   6.026830878821975e-06   -1.9157959340792535e-05
-3.426562185716149e-05   6.026830878821975e-06   -1.9157959340792535e-05
-3.426562185716149e-05   6.026830878821975e-06   -1.9157959340792535e-05
-3.426562185716149e-05   6.026830878821975e-06   -1.9157959340792535e-05
-2.2940771576231123e-05   4.633373538694206e-06   -1.1192832766519057e-06
-2.2940771576231123e-05   4.633373538694206e-06   -1.1192832766519057e-06
-2.2940771576231123e-05   4.633373538694206e-06   -1.1192832766519057e-06
-2.2940771576231123e-05   4.633373538694206e-06   -1.1192832766519057e-06
-2.2914620877571813e-05   6.482666589811977e-06   -1.7107591396460866e-05
-2.2914620877571813e-05   6.482666589811977e-06   -1.7107591396460866e-05
-2.2914620877571813e-05   6.482666589811977e-06   -1.7107591396460866e-05
-2.2914620877571813e-05   6.482666589811977e-06   -1.7107591396460866e-05
-3.37453542955731e-05   4.988156630821906e-06   1.8403369422686784e-06
-3.37453542955731e-05   4.988156630821906e-06   1.8403369422686784e-06
-3.37453542955731e-05   4.988156630821906e-06   1.8403369422686784e-06
-3.37453542955731e-05   4.988156630821906e-06   1.8403369422686784e-06
-2.772879892978078e-05   5.570826361299283e-06   -8.536857172338305e-06
-2.772879892978078e-05   5.570826361299283e-06   -8.536857172338305e-06
-2.772879892978078e-05   5.570826361299283e-06   -8.536857172338305e-06
-2.772879892978078e-05   5.570826361299283e-06   -8.536857172338305e-06
-3.37453542955731e-05   6.482666589811977e-06   -1.6210885421066797e-05
-3.37453542955731e-05   6.482666589811977e-06   -1.6210885421066797e-05
-3.37453542955731e-05   6.482666589811977e-06   -1.6210885421066797e-05
-3.37453542955731e-05   6.482666589811977e-06   -1.6210885421066797e-05
-2.291462087757186e-05   4.988156630821906e-06   9.436309668746763e-07
-2.291462087757186e-05   4.988156630821906e-06   9.436309668746763e-07
-2.291462087757186e-05   4.988156630821906e-06   9.436309668746763e-07
-2.291462087757186e-05   4.988156630821906e-06   9.436309668746763e-07
-2.293582694515643e-05   6.8478005560260766e-06   -1.3070607303321518e-05
-2.293582694515643e-05   6.8478005560260766e-06   -1.3070607303321518e-05
-2.293582694515643e-05   6.8478005560260766e-06   -1.3070607303321518e-05
-2.293582694515643e-05   6.8478005560260766e-06   -1.3070607303321518e-05
-3.30681679572738e-05   5.339375266721056e-06   4.7216828904569485e-06
-3.30681679572738e-05   5.339375266721056e-06   4.7216828904569485e-06
-3.30681679572738e-05   5.339375266721056e-06   4.7216828904569485e-06
-3.30681679572738e-05   5.339375266721056e-06   4.7216828904569485e-06
-2.7093610765484262e-05   5.81829907414993e-06   -5.523266713649302e-06
-2.7093610765484262e-05   5.81829907414993e-06   -5.523266713649302e-06
-2.7093610765484262e-05   5.81829907414993e-06   -5.523266713649302e-06
-2.7093610765484262e-05   5.81829907414993e-06   -5.523266713649302e-06
-2.2833122931552216e-05   2.334783384164065e-06   -2.7929981836611792e-05
-2.2833122931552216e-05   2.334783384164065e-06   -2.7929981836611792e-05
-2.2833122931552216e-05   2.334783384164065e-06   -2.7929981836611792e-05
-2.2833122931552216e-05   2.334783384164065e-06   -2.7929981836611792e-05
-1.1640714803729564e-05   1.9108248107007914e-06   -9.530343434318634e-06
-1.1640714803729564e-05   1.9108248107007914e-06   -9.530343434318634e-06
-1.1640714803729564e-05   1.9108248107007914e-06   -9.530343434318634e-06
-1.1640714803729564e-05   1.9108248107007914e-06   -9.530343434318634e-06
-1.1779871183287111e-05   3.263025251161499e-06   -2.7532430876686035e-05
-1.1779871183287111e-05   3.263025251161499e-06   -2.7532430876686035e-05
-1.1779871183287111e-05   3.263025251161499e-06   -2.7532430876686035e-05
-1.1779871183287111e-05   3.263025251161499e-06   -2.7532430876686035e-05
-2.2940771576231123e-05   2.7041523598403676e-06   -8.595606486986657e-06
-2.2940771576231123e-05   2.7041523598403676e-06   -8.595606486986657e-06
-2.2940771576231123e-05   2.7041523598403676e-06   -8.595606486986657e-06
-2.2940771576231123e-05   2.7041523598403676e-06   -8.595606486986657e-06
-1.7150183491326876e-05   2.6959924340098234e-06   -1.8241690672995416e-05
-1.7150183491326876e-05   2.6959924340098234e-06   -1.8241690672995416e-05
-1.7150183491326876e-05   2.6959924340098234e-06   -1.8241690672995416e-05
-1.7150183491326876e-05   2.6959924340098234e-06   -1.8241690672995416e-05
-2.294077157623111e-05   3.263025251161499e-06   -2.7197107141893262e-05
-2.294077157623111e-05   3.263025251161499e-06   -2.7197107141893262e-05
-2.294077157623111e-05   3.263025251161499e-06   -2.7197107141893262e-05
-2.294077157623111e-05   3.263025251161499e-06   -2.7197107141893262e-05
-1.1779871183287128e-05   2.704152359840422e-06   -8.93093022177935e-06
-1.1779871183287128e-05   2.704152359840422e-06   -8.93093022177935e-06
-1.1779871183287128e-05   2.704152359840422e-06   -8.93093022177935e-06
-1.1779871183287128e-05   2.704152359840422e-06   -8.93093022177935e-06
-1.1869342677092683e-05   4.031963995653257e-06   -2.6804590018169423e-05
-1.1869342677092683e-05   4.031963995653257e-06   -2.6804590018169423e-05
-1.1869342677092683e-05   4.031963995653257e-06   -2.6804590018169423e-05
-1.1869342677092683e-05   4.031963995653257e-06   -2.6804590018169423e-05
-2.2914620877571813e-05   3.4097314858168586e-06   -8.022453511469046e-06
-2.2914620877571813e-05   3.4097314858168586e-06   -8.022453511469046e-06
-2.2914620877571813e-05   3.4097314858168586e-06   -8.022453511469046e-06
-2.2914620877571813e-05   3.4097314858168586e-06   -8.022453511469046e-06
-1.717991040471078e-05   3.3491846655353704e-06   -1.7543976207401758e-05
-1.717991040471078e-05   3.3491846655353704e-06   -1.7543976207401758e-05
-1.717991040471078e-05   3.3491846655353704e-06   -1.7543976207401758e-05
-1.717991040471078e-05   3.3491846655353704e-06   -1.7543976207401758e-05
-2.2914620877571813e-05   4.031963995653257e-06   -2.6431250512267592e-05
-2.2914620877571813e-05   4.031963995653257e-06   -2.6431250512267592e-05
-2.2914620877571813e-05   4.031963995653257e-06   -2.6431250512267592e-05
-2.2914620877571813e-05   4.031963995653257e-06   -2.6431250512267592e-05
-1.1869342677092703e-05   3.4097314858169128e-06   -8.395793017370809e-06
-1.1869342677092703e-05   3.4097314858169128e-06   -8.395793017370809e-06
-1.1869342677092703e-05   3.4097314858169128e-06   -8.395793017370809e-06
-1.1869342677092703e-05   3.4097314858169128e-06   -8.395793017370809e-06
-1.1985944594454235e-05   4.859819308803055e-06   -2.6740503406795122e-05
-1.1985944594454235e-05   4.859819308803055e-06   -2.6740503406795122e-05
-1.1985944594454235e-05   4.859819308803055e-06   -2.6740503406795122e-05
-1.1985944594454235e-05   4.859819308803055e-06   -2.6740503406795122e-05
-2.2935826945156404e-05   4.1611104186521164e-06   -8.07147415486767e-06
-2.2935826945156404e-05   4.1611104186521164e-06   -8.07147415486767e-06
-2.2935826945156404e-05   4.1611104186521164e-06   -8.07147415486767e-06
-2.2935826945156404e-05   4.1611104186521164e-06   -8.07147415486767e-06
-1.7381406377205414e-05   3.996857687878599e-06   -1.7230290129655038e-05
-1.7381406377205414e-05   3.996857687878599e-06   -1.7230290129655038e-05
-1.7381406377205414e-05   3.996857687878599e-06   -1.7230290129655038e-05
-1.7381406377205414e-05   3.996857687878599e-06   -1.7230290129655038e-05
-1.1640714803729543e-05   -7.098301060034628e-08   -3.0118566900882478e-05
-1.1640714803729543e-05   -7.098301060034628e-08   -3.0118566900882478e-05
-1.1640714803729543e-05   -7.098301060034628e-08   -3.0118566900882478e-05
-1.1640714803729543e-05   -7.098301060034628e-08   -3.0118566900882478e-05
-5.711249291474511e-07   1.0221038329285203e-07   -1.1565334406909772e-05
-5.711249291474511e-07   1.0221038329285203e-07   -1.1565334406909772e-05
-5.711249291474511e-07   1.0221038329285203e-07   -1.1565334406909772e-05
-5.711249291474511e-07   1.0221038329285203e-07   -1.1565334406909772e-05
-6.824977387534738e-07   7.845347861494577e-07   -2.983462232309533e-05
-6.824977387534738e-07   7.845347861494577e-07   -2.983462232309533e-05
-6.824977387534738e-07   7.845347861494577e-07   -2.983462232309533e-05
-6.824977387534738e-07   7.845347861494577e-07   -2.983462232309533e-05
-1.177987118328709e-05   8.838359701223071e-07   -1.1398580625922994e-05
-1.177987118328709e-05   8.838359701223071e-07   -1.1398580625922994e-05
-1.177987118328709e-05   8.838359701223071e-07   -1.1398580625922994e-05
-1.177987118328709e-05   8.838359701223071e-07   -1.1398580625922994e-05
-6.133561376128799e-06   5.154938828396587e-07   -2.0588091718817247e-05
-6.133561376128799e-06   5.154938828396587e-07   -2.0588091718817247e-05
-6.133561376128799e-06   5.154938828396587e-07   -2.0588091718817247e-05
-6.133561376128799e-06   5.154938828396587e-07   -2.0588091718817247e-05
-1.1779871183287111e-05   7.845347861494577e-07   -2.9894203033479036e-05
-1.1779871183287111e-05   7.845347861494577e-07   -2.9894203033479036e-05
-1.1779871183287111e-05   7.845347861494577e-07   -2.9894203033479036e-05
-1.1779871183287111e-05   7.845347861494577e-07   -2.9894203033479036e-05
-6.824977387534738e-07   8.838359701223613e-07   -1.1338999915539276e-05
-6.824977387534738e-07   8.838359701223613e-07   -1.1338999915539276e-05
-6.824977387534738e-07   8.838359701223613e-07   -1.1338999915539276e-05
-6.824977387534738e-07   8.838359701223613e-07   -1.1338999915539276e-05
-7.621985467206189e-07   1.6206158074433968e-06   -2.9914369752691435e-05
-7.621985467206189e-07   1.6206158074433968e-06   -2.9914369752691435e-05
-7.621985467206189e-07   1.6206158074433968e-06   -2.9914369752691435e-05
-7.621985467206189e-07   1.6206158074433968e-06   -2.9914369752691435e-05
-1.1869342677092683e-05   1.6632049385172207e-06   -1.1428016347382269e-05
-1.1869342677092683e-05   1.6632049385172207e-06   -1.1428016347382269e-05
-1.1869342677092683e-05   1.6632049385172207e-06   -1.1428016347382269e-05
-1.1869342677092683e-05   1.6632049385172207e-06   -1.1428016347382269e-05
-6.277956459964741e-06   1.2049963501218838e-06   -2.047206822289164e-05
-6.277956459964741e-06   1.2049963501218838e-06   -2.047206822289164e-05
-6.277956459964741e-06   1.2049963501218838e-06   -2.047206822289164e-05
-6.277956459964741e-06   1.2049963501218838e-06   -2.047206822289164e-05
-1.1869342677092683e-05   1.6206158074433968e-06   -2.99399232313357e-05
-1.1869342677092683e-05   1.6206158074433968e-06   -2.99399232313357e-05
-1.1869342677092683e-05   1.6206158074433968e-06   -2.99399232313357e-05
-1.1869342677092683e-05   1.6206158074433968e-06   -2.99399232313357e-05
-7.621985467206189e-07   1.6632049385171665e-06   -1.1402462868737937e-05
-7.621985467206189e-07   1.6632049385171665e-06   -1.1402462868737937e-05
-7.621985467206189e-07   1.6632049385171665e-06   -1.1402462868737937e-05
-7.621985467206189e-07   1.6632049385171665e-06   -1.1402462868737937e-05
-8.886947553258495e-07   2.491521977350693e-06   -3.0298833003550632e-05
-8.886947553258495e-07   2.491521977350693e-06   -3.0298833003550632e-05
-8.886947553258495e-07   2.491521977350693e-06   -3.0298833003550632e-05
-8.886947553258495e-07   2.491521977350693e-06   -3.0298833003550632e-05
-1.1985944594454245e-05   2.4606130540616444e-06   -1.1784871251029947e-05
-1.1985944594454245e-05   2.4606130540616444e-06   -1.1784871251029947e-05
-1.1985944594454245e-05   2.4606130540616444e-06   -1.1784871251029947e-05
-1.1985944594454245e-05   2.4606130540616444e-06   -1.1784871251029947e-05
-6.4314776662863745e-06   1.9026967213211761e-06   -2.0707566331665276e-05
-6.4314776662863745e-06   1.9026967213211761e-06   -2.0707566331665276e-05
-6.4314776662863745e-06   1.9026967213211761e-06   -2.0707566331665276e-05
-6.4314776662863745e-06   1.9026967213211761e-06   -2.0707566331665276e-05
-5.711249291474515e-07   -2.390389163382708e-06   -2.6906771855539433e-05
-5.711249291474515e-07   -2.390389163382708e-06   -2.6906771855539433e-05
-5.711249291474515e-07   -2.390389163382708e-06   -2.6906771855539433e-05
-5.711249291474515e-07   -2.390389163382708e-06   -2.6906771855539433e-05
1.0438042956542055e-05   -1.598630873034918e-06   -8.083103738514968e-06
1.0438042956542055e-05   -1.598630873034918e-06   -8.083103738514968e-06
1.0438042956542055e-05   -1.598630873034918e-06   -8.083103738514968e-06
1.0438042956542055e-05   -1.598630873034918e-06   -8.083103738514968e-06
1.0432250230237943e-05   -1.6120525184001215e-06   -2.6593292515434585e-05
1.0432250230237943e-05   -1.6120525184001215e-06   -2.6593292515434585e-05
1.0432250230237943e-05   -1.6120525184001215e-06   -2.6593292515434585e-05
1.0432250230237943e-05   -1.6120525184001215e-06   -2.6593292515434585e-05
-6.824977387534738e-07   -8.811588238749981e-07   -8.507248783830632e-06
-6.824977387534738e-07   -8.811588238749981e-07   -8.507248783830632e-06
-6.824977387534738e-07   -8.811588238749981e-07   -8.507248783830632e-06
-6.824977387534738e-07   -8.811588238749981e-07   -8.507248783830632e-06
4.867081920239506e-06   -1.563652695510322e-06   -1.734705189250439e-05
4.867081920239506e-06   -1.563652695510322e-06   -1.734705189250439e-05
4.867081920239506e-06   -1.563652695510322e-06   -1.734705189250439e-05
4.867081920239506e-06   -1.563652695510322e-06   -1.734705189250439e-05
-6.824977387534738e-07   -1.6120525184001215e-06   -2.7031828732149656e-05
-6.824977387534738e-07   -1.6120525184001215e-06   -2.7031828732149656e-05
-6.824977387534738e-07   -1.6120525184001215e-06   -2.7031828732149656e-05
-6.824977387534738e-07   -1.6120525184001215e-06   -2.7031828732149656e-05
1.0432250230237963e-05   -8.811588238749981e-07   -8.068712567115547e-06
1.0432250230237963e-05   -8.811588238749981e-07   -8.068712567115547e-06
1.0432250230237963e-05   -8.811588238749981e-07   -8.068712567115547e-06
1.0432250230237963e-05   -8.811588238749981e-07   -8.068712567115547e-06
1.0484913296087083e-05   -8.502673497465284e-07   -2.7293504453854093e-05
1.0484913296087083e-05   -8.502673497465284e-07   -2.7293504453854093e-05
1.0484913296087083e-05   -8.502673497465284e-07   -2.7293504453854093e-05
1.0484913296087083e-05   -8.502673497465284e-07   -2.7293504453854093e-05
-7.621985467206202e-07   -1.7701737308742013e-07   -8.95226803517007e-06
-7.621985467206202e-07   -1.7701737308742013e-07   -8.95226803517007e-06
-7.621985467206202e-07   -1.7701737308742013e-07   -8.95226803517007e-06
-7.621985467206202e-07   -1.7701737308742013e-07   -8.95226803517007e-06
4.718522700274788e-06   -9.417644844047796e-07   -1.762795518003868e-05
4.718522700274788e-06   -9.417644844047796e-07   -1.762795518003868e-05
4.718522700274788e-06   -9.417644844047796e-07   -1.762795518003868e-05
4.718522700274788e-06   -9.417644844047796e-07   -1.762795518003868e-05
-7.62198546720618e-07   -8.502673497465284e-07   -2.7697454439849483e-05
-7.62198546720618e-07   -8.502673497465284e-07   -2.7697454439849483e-05
-7.62198546720618e-07   -8.502673497465284e-07   -2.7697454439849483e-05
-7.62198546720618e-07   -8.502673497465284e-07   -2.7697454439849483e-05
1.0484913296087096e-05   -1.7701737308747434e-07   -8.548318049174549e-06
1.0484913296087096e-05   -1.7701737308747434e-07   -8.548318049174549e-06
1.0484913296087096e-05   -1.7701737308747434e-07   -8.548318049174549e-06
1.0484913296087096e-05   -1.7701737308747434e-07   -8.548318049174549e-06
1.0406954015264257e-05   9.117542172718939e-08   -2.8090279938330922e-05
1.0406954015264257e-05   9.117542172718939e-08   -2.8090279938330922e-05
1.0406954015264257e-05   9.117542172718939e-08   -2.8090279938330922e-05
1.0406954015264257e-05   9.117542172718939e-08   -2.8090279938330922e-05
-8.886947553258512e-07   6.45375395559979e-07   -9.59671863831384e-06
-8.886947553258512e-07   6.45375395559979e-07   -9.59671863831384e-06
-8.886947553258512e-07   6.45375395559979e-07   -9.59671863831384e-06
-8.886947553258512e-07   6.45375395559979e-07   -9.59671863831384e-06
4.6676541146181515e-06   -2.77112713706069e-07   -1.8303807222660698e-05
4.6676541146181515e-06   -2.77112713706069e-07   -1.8303807222660698e-05
4.6676541146181515e-06   -2.77112713706069e-07   -1.8303807222660698e-05
4.6676541146181515e-06   -2.77112713706069e-07   -1.8303807222660698e-05
1.0438042956542034e-05   -4.4381842121502815e-06   -1.5042360322475994e-05
1.0438042956542034e-05   -4.4381842121502815e-06   -1.5042360322475994e-05
1.0438042956542034e-05   -4.4381842121502815e-06   -1.5042360322475994e-05
1.0438042956542034e-05   -4.4381842121502815e-06   -1.5042360322475994e-05
2.0728172167247332e-05   -2.892906789547637e-06   3.035021482261093e-06
2.0728172167247332e-05   -2.892906789547637e-06   3.035021482261093e-06
2.0728172167247332e-05   -2.892906789547637e-06   3.035021482261093e-06
2.0728172167247332e-05   -2.892906789547637e-06   3.035021482261093e-06
2.143609275881478e-05   -4.021606552871915e-06   -1.690530963451732e-05
2.143609275881478e-05   -4.021606552871915e-06   -1.690530963451732e-05
2.143609275881478e-05   -4.021606552871915e-06   -1.690530963451732e-05
2.143609275881478e-05   -4.021606552871915e-06   -1.690530963451732e-05
1.0432250230237943e-05   -2.4778564909062168e-06   5.081778759313262e-07
1.0432250230237943e-05   -2.4778564909062168e-06   5.081778759313262e-07
1.0432250230237943e-05   -2.4778564909062168e-06   5.081778759313262e-07
1.0432250230237943e-05   -2.4778564909062168e-06   5.081778759313262e-07
1.5085300012837566e-05   -3.416331351321065e-06   -6.683820178819179e-06
1.5085300012837566e-05   -3.416331351321065e-06   -6.683820178819179e-06
1.5085300012837566e-05   -3.416331351321065e-06   -6.683820178819179e-06
1.5085300012837566e-05   -3.416331351321065e-06   -6.683820178819179e-06
1.0432250230237936e-05   -4.021606552871942e-06   -1.783155967169664e-05
1.0432250230237936e-05   -4.021606552871942e-06   -1.783155967169664e-05
1.0432250230237936e-05   -4.021606552871942e-06   -1.783155967169664e-05
1.0432250230237936e-05   -4.021606552871942e-06   -1.783155967169664e-05
2.143609275881478e-05   -2.477856490906271e-06   1.4344279131107344e-06
2.143609275881478e-05   -2.477856490906271e-06   1.4344279131107344e-06
2.143609275881478e-05   -2.477856490906271e-06   1.4344279131107344e-06
2.143609275881478e-05   -2.477856490906271e-06   1.4344279131107344e-06
2.198197425377396e-05   -3.5833477555876822e-06   -1.9061055309608767e-05
2.198197425377396e-05   -3.5833477555876822e-06   -1.9061055309608767e-05
2.198197425377396e-05   -3.5833477555876822e-06   -1.9061055309608767e-05
2.198197425377396e-05   -3.5833477555876822e-06   -1.9061055309608767e-05
1.0484913296087062e-05   -2.123736077525788e-06   -7.750540536344578e-07
1.0484913296087062e-05   -2.123736077525788e-06   -7.750540536344578e-07
1.0484913296087062e-05   -2.123736077525788e-06   -7.750540536344578e-07
1.0484913296087062e-05   -2.123736077525788e-06   -7.750540536344578e-07
1.560291195171501e-05   -3.148722712792868e-06   -8.69005983185407e-06
1.560291195171501e-05   -3.148722712792868e-06   -8.69005983185407e-06
1.560291195171501e-05   -3.148722712792868e-06   -8.69005983185407e-06
1.560291195171501e-05   -3.148722712792868e-06   -8.69005983185407e-06
1.0484913296087083e-05   -3.5833477555876822e-06   -1.99368223164459e-05
1.0484913296087083e-05   -3.5833477555876822e-06   -1.99368223164459e-05
1.0484913296087083e-05   -3.5833477555876822e-06   -1.99368223164459e-05
1.0484913296087083e-05   -3.5833477555876822e-06   -1.99368223164459e-05
2.198197425377392e-05   -2.123736077525788e-06   1.0071295320277082e-07
2.198197425377392e-05   -2.123736077525788e-06   1.0071295320277082e-07
2.198197425377392e-05   -2.123736077525788e-06   1.0071295320277082e-07
2.198197425377392e-05   -2.123736077525788e-06   1.0071295320277082e-07
2.2565188726854482e-05   -2.640660133380239e-06   -2.2733007636563813e-05
2.2565188726854482e-05   -2.640660133380239e-06   -2.2733007636563813e-05
2.2565188726854482e-05   -2.640660133380239e-06   -2.2733007636563813e-05
2.2565188726854482e-05   -2.640660133380239e-06   -2.2733007636563813e-05
1.0406954015264236e-05   -1.3687723593232715e-06   -3.2324157816809884e-06
1.0406954015264236e-05   -1.3687723593232715e-06   -3.2324157816809884e-06
1.0406954015264236e-05   -1.3687723593232715e-06   -3.2324157816809884e-06
1.0406954015264236e-05   -1.3687723593232715e-06   -3.2324157816809884e-06
1.554156464179454e-05   -2.71025179548139e-06   -1.0985212497536539e-05
1.554156464179454e-05   -2.71025179548139e-06   -1.0985212497536539e-05
1.554156464179454e-05   -2.71025179548139e-06   -1.0985212497536539e-05
1.554156464179454e-05   -2.71025179548139e-06   -1.0985212497536539e-05
-2.4944573102084043e-05   3.827257788187961e-06   -1.901923188008656e-05
-2.4944573102084043e-05   3.827257788187961e-06   -1.901923188008656e-05
-2.4944573102084043e-05   3.827257788187961e-06   -1.901923188008656e-05
-2.4944573102084043e-05   3.827257788187961e-06   -1.901923188008656e-05
-1.7009678862163274e-05   2.4285447682587807e-06   -6.633635958842719e-06
-1.7009678862163274e-05   2.4285447682587807e-06   -6.633635958842719e-06
-1.7009678862163274e-05   2.4285447682587807e-06   -6.633635958842719e-06
-1.7009678862163274e-05   2.4285447682587807e-06   -6.633635958842719e-06
-1.694727069526713e-05   4.633373538694206e-06   -1.6158826831879063e-05
-1.694727069526713e-05   4.633373538694206e-06   -1.6158826831879063e-05
-1.694727069526713e-05   4.633373538694206e-06   -1.6158826831879063e-05
-1.694727069526713e-05   4.633373538694206e-06   -1.6158826831879063e-05
-2.4192519636831938e-05   3.0944074854442937e-06   -3.160032297321112e-06
-2.4192519636831938e-05   3.0944074854442937e-06   -3.160032297321112e-06
-2.4192519636831938e-05   3.0944074854442937e-06   -3.160032297321112e-06
-2.4192519636831938e-05   3.0944074854442937e-06   -3.160032297321112e-06
-1.9892045954888202e-05   3.686553359760064e-06   -1.0682775958483507e-05
-1.9892045954888202e-05   3.686553359760064e-06   -1.0682775958483507e-05
-1.9892045954888202e-05   3.686553359760064e-06   -1.0682775958483507e-05
-1.9892045954888202e-05   3.686553359760064e-06   -1.0682775958483507e-05
-2.4192519636831938e-05   4.633373538694206e-06   -1.523544719992916e-05
-2.4192519636831938e-05   4.633373538694206e-06   -1.523544719992916e-05
-2.4192519636831938e-05   4.633373538694206e-06   -1.523544719992916e-05
-2.4192519636831938e-05   4.633373538694206e-06   -1.523544719992916e-05
-1.6947270695267144e-05   3.0944074854442937e-06   -4.083411929271043e-06
-1.6947270695267144e-05   3.0944074854442937e-06   -4.083411929271043e-06
-1.6947270695267144e-05   3.0944074854442937e-06   -4.083411929271043e-06
-1.6947270695267144e-05   3.0944074854442937e-06   -4.083411929271043e-06
-1.681841416777282e-05   4.988156630821906e-06   -1.4090879739554231e-05
-1.681841416777282e-05   4.988156630821906e-06   -1.4090879739554231e-05
-1.681841416777282e-05   4.988156630821906e-06   -1.4090879739554231e-05
-1.681841416777282e-05   4.988156630821906e-06   -1.4090879739554231e-05
-2.3631394559668308e-05   3.4055235497139976e-06   -1.786332571063773e-06
-2.3631394559668308e-05   3.4055235497139976e-06   -1.786332571063773e-06
-2.3631394559668308e-05   3.4055235497139976e-06   -1.786332571063773e-06
-2.3631394559668308e-05   3.4055235497139976e-06   -1.786332571063773e-06
-1.989120289618106e-05   4.058282395844699e-06   -8.411640651220765e-06
-1.989120289618106e-05   4.058282395844699e-06   -8.411640651220765e-06
-1.989120289618106e-05   4.058282395844699e-06   -8.411640651220765e-06
-1.989120289618106e-05   4.058282395844699e-06   -8.411640651220765e-06
-2.3631394559668308e-05   4.988156630821906e-06   -1.3141299890889562e-05
-2.3631394559668308e-05   4.988156630821906e-06   -1.3141299890889562e-05
-2.3631394559668308e-05   4.988156630821906e-06   -1.3141299890889562e-05
-2.3631394559668308e-05   4.988156630821906e-06   -1.3141299890889562e-05
-1.6818414167772846e-05   3.4055235497140518e-06   -2.735912419728442e-06
-1.6818414167772846e-05   3.4055235497140518e-06   -2.735912419728442e-06
-1.6818414167772846e-05   3.4055235497140518e-06   -2.735912419728442e-06
-1.6818414167772846e-05   3.4055235497140518e-06   -2.735912419728442e-06
-1.676752151995905e-05   5.33937526672111e-06   -1.1231562683927448e-05
-1.676752151995905e-05   5.33937526672111e-06   -1.1231562683927448e-05
-1.676752151995905e-05   5.33937526672111e-06   -1.1231562683927448e-05
-1.676752151995905e-05   5.33937526672111e-06   -1.1231562683927448e-05
-2.2898435412415958e-05   3.7980889477013703e-06   -8.860107175397754e-08
-2.2898435412415958e-05   3.7980889477013703e-06   -8.860107175397754e-08
-2.2898435412415958e-05   3.7980889477013703e-06   -8.860107175397754e-08
-2.2898435412415958e-05   3.7980889477013703e-06   -8.860107175397754e-08
-1.9301674387875137e-05   4.261370143632899e-06   -6.361171496880962e-06
-1.9301674387875137e-05   4.261370143632899e-06   -6.361171496880962e-06
-1.9301674387875137e-05   4.261370143632899e-06   -6.361171496880962e-06
-1.9301674387875137e-05   4.261370143632899e-06   -6.361171496880962e-06
-1.7009678862163247e-05   1.9108248107008456e-06   -2.4290395418599095e-05
-1.7009678862163247e-05   1.9108248107008456e-06   -2.4290395418599095e-05
-1.7009678862163247e-05   1.9108248107008456e-06   -2.4290395418599095e-05
-1.7009678862163247e-05   1.9108248107008456e-06   -2.4290395418599095e-05
-9.809653562541794e-06   1.2596780463654017e-06   -1.2681041311164582e-05
-9.809653562541794e-06   1.2596780463654017e-06   -1.2681041311164582e-05
-9.809653562541794e-06   1.2596780463654017e-06   -1.2681041311164582e-05
-9.809653562541794e-06   1.2596780463654017e-06   -1.2681041311164582e-05
-9.814660019733486e-06   2.704152359840422e-06   -2.4079692631426698e-05
-9.814660019733486e-06   2.704152359840422e-06   -2.4079692631426698e-05
-9.814660019733486e-06   2.704152359840422e-06   -2.4079692631426698e-05
-9.814660019733486e-06   2.704152359840422e-06   -2.4079692631426698e-05
-1.694727069526713e-05   1.9632480444857297e-06   -1.17474655829911e-05
-1.694727069526713e-05   1.9632480444857297e-06   -1.17474655829911e-05
-1.694727069526713e-05   1.9632480444857297e-06   -1.17474655829911e-05
-1.694727069526713e-05   1.9632480444857297e-06   -1.17474655829911e-05
-1.3271609742294923e-05   2.0926306338768584e-06   -1.7951196724912854e-05
-1.3271609742294923e-05   2.0926306338768584e-06   -1.7951196724912854e-05
-1.3271609742294923e-05   2.0926306338768584e-06   -1.7951196724912854e-05
-1.3271609742294923e-05   2.0926306338768584e-06   -1.7951196724912854e-05
-1.6947270695267104e-05   2.7041523598403676e-06   -2.36351500422138e-05
-1.6947270695267104e-05   2.7041523598403676e-06   -2.36351500422138e-05
-1.6947270695267104e-05   2.7041523598403676e-06   -2.36351500422138e-05
-1.6947270695267104e-05   2.7041523598403676e-06   -2.36351500422138e-05
-9.814660019733486e-06   1.9632480444857297e-06   -1.2192008172203861e-05
-9.814660019733486e-06   1.9632480444857297e-06   -1.2192008172203861e-05
-9.814660019733486e-06   1.9632480444857297e-06   -1.2192008172203861e-05
-9.814660019733486e-06   1.9632480444857297e-06   -1.2192008172203861e-05
-9.80775151895441e-06   3.4097314858168586e-06   -2.3540209671880886e-05
-9.80775151895441e-06   3.4097314858168586e-06   -2.3540209671880886e-05
-9.80775151895441e-06   3.4097314858168586e-06   -2.3540209671880886e-05
-9.80775151895441e-06   3.4097314858168586e-06   -2.3540209671880886e-05
-1.681841416777282e-05   2.6043223958453353e-06   -1.1372526469867239e-05
-1.681841416777282e-05   2.6043223958453353e-06   -1.1372526469867239e-05
-1.681841416777282e-05   2.6043223958453353e-06   -1.1372526469867239e-05
-1.681841416777282e-05   2.6043223958453353e-06   -1.1372526469867239e-05
-1.321017548139208e-05   2.6712377155544234e-06   -1.742640680566033e-05
-1.321017548139208e-05   2.6712377155544234e-06   -1.742640680566033e-05
-1.321017548139208e-05   2.6712377155544234e-06   -1.742640680566033e-05
-1.321017548139208e-05   2.6712377155544234e-06   -1.742640680566033e-05
-1.681841416777282e-05   3.4097314858168586e-06   -2.305696421789794e-05
-1.681841416777282e-05   3.4097314858168586e-06   -2.305696421789794e-05
-1.681841416777282e-05   3.4097314858168586e-06   -2.305696421789794e-05
-1.681841416777282e-05   3.4097314858168586e-06   -2.305696421789794e-05
-9.807751518954424e-06   2.604322395845281e-06   -1.1855771923850158e-05
-9.807751518954424e-06   2.604322395845281e-06   -1.1855771923850158e-05
-9.807751518954424e-06   2.604322395845281e-06   -1.1855771923850158e-05
-9.807751518954424e-06   2.604322395845281e-06   -1.1855771923850158e-05
-9.816113327875264e-06   4.161110418652062e-06   -2.3635396242228793e-05
-9.816113327875264e-06   4.161110418652062e-06   -2.3635396242228793e-05
-9.816113327875264e-06   4.161110418652062e-06   -2.3635396242228793e-05
-9.816113327875264e-06   4.161110418652062e-06   -2.3635396242228793e-05
-1.6767521519959038e-05   3.301557607719209e-06   -1.1533984235529327e-05
-1.6767521519959038e-05   3.301557607719209e-06   -1.1533984235529327e-05
-1.6767521519959038e-05   3.301557607719209e-06   -1.1533984235529327e-05
-1.6767521519959038e-05   3.301557607719209e-06   -1.1533984235529327e-05
-1.32960853139049e-05   3.2445652821833787e-06   -1.728551585029814e-05
-1.32960853139049e-05   3.2445652821833787e-06   -1.728551585029814e-05
-1.32960853139049e-05   3.2445652821833787e-06   -1.728551585029814e-05
-1.32960853139049e-05   3.2445652821833787e-06   -1.728551585029814e-05
-9.80965356254178e-06   1.0221038329279782e-07   -2.6819990486127364e-05
-9.80965356254178e-06   1.0221038329279782e-07   -2.6819990486127364e-05
-9.80965356254178e-06   1.0221038329279782e-07   -2.6819990486127364e-05
-9.80965356254178e-06   1.0221038329279782e-07   -2.6819990486127364e-05
-2.705889696689267e-06   2.1943543591527656e-07   -1.4910049011466385e-05
-2.705889696689267e-06   2.1943543591527656e-07   -1.4910049011466385e-05
-2.705889696689267e-06   2.1943543591527656e-07   -1.4910049011466385e-05
-2.705889696689267e-06   2.1943543591527656e-07   -1.4910049011466385e-05
-2.711434289906732e-06   8.838359701223613e-07   -2.6521003232703167e-05
-2.711434289906732e-06   8.838359701223613e-07   -2.6521003232703167e-05
-2.711434289906732e-06   8.838359701223613e-07   -2.6521003232703167e-05
-2.711434289906732e-06   8.838359701223613e-07   -2.6521003232703167e-05
-9.814660019733465e-06   9.27735641567532e-07   -1.4708633485859129e-05
-9.814660019733465e-06   9.27735641567532e-07   -1.4708633485859129e-05
-9.814660019733465e-06   9.27735641567532e-07   -1.4708633485859129e-05
-9.814660019733465e-06   9.27735641567532e-07   -1.4708633485859129e-05
-6.218607246135774e-06   6.256884432041658e-07   -2.052082645617055e-05
-6.218607246135774e-06   6.256884432041658e-07   -2.052082645617055e-05
-6.218607246135774e-06   6.256884432041658e-07   -2.052082645617055e-05
-6.218607246135774e-06   6.256884432041658e-07   -2.052082645617055e-05
-9.814660019733465e-06   8.838359701223613e-07   -2.654734303557033e-05
-9.814660019733465e-06   8.838359701223613e-07   -2.654734303557033e-05
-9.814660019733465e-06   8.838359701223613e-07   -2.654734303557033e-05
-9.814660019733465e-06   8.838359701223613e-07   -2.654734303557033e-05
-2.711434289906732e-06   9.27735641567532e-07   -1.4682293682991872e-05
-2.711434289906732e-06   9.27735641567532e-07   -1.4682293682991872e-05
-2.711434289906732e-06   9.27735641567532e-07   -1.4682293682991872e-05
-2.711434289906732e-06   9.27735641567532e-07   -1.4682293682991872e-05
-2.7023363824826216e-06   1.6632049385172207e-06   -2.65873672331257e-05
-2.7023363824826216e-06   1.6632049385172207e-06   -2.65873672331257e-05
-2.7023363824826216e-06   1.6632049385172207e-06   -2.65873672331257e-05
-2.7023363824826216e-06   1.6632049385172207e-06   -2.65873672331257e-05
-9.80775151895441e-06   1.6383145531282143e-06   -1.4730074441105979e-05
-9.80775151895441e-06   1.6383145531282143e-06   -1.4730074441105979e-05
-9.80775151895441e-06   1.6383145531282143e-06   -1.4730074441105979e-05
-9.80775151895441e-06   1.6383145531282143e-06   -1.4730074441105979e-05
-6.260534453149706e-06   1.2458232120283628e-06   -2.0406608079453815e-05
-6.260534453149706e-06   1.2458232120283628e-06   -2.0406608079453815e-05
-6.260534453149706e-06   1.2458232120283628e-06   -2.0406608079453815e-05
-6.260534453149706e-06   1.2458232120283628e-06   -2.0406608079453815e-05
-9.80775151895441e-06   1.6632049385172207e-06   -2.657243300189228e-05
-9.80775151895441e-06   1.6632049385172207e-06   -2.657243300189228e-05
-9.80775151895441e-06   1.6632049385172207e-06   -2.657243300189228e-05
-9.80775151895441e-06   1.6632049385172207e-06   -2.657243300189228e-05
-2.7023363824826216e-06   1.6383145531282143e-06   -1.4745008672339304e-05
-2.7023363824826216e-06   1.6383145531282143e-06   -1.4745008672339304e-05
-2.7023363824826216e-06   1.6383145531282143e-06   -1.4745008672339304e-05
-2.7023363824826216e-06   1.6383145531282143e-06   -1.4745008672339304e-05
-2.706716014081975e-06   2.4606130540616444e-06   -2.6989145809952188e-05
-2.706716014081975e-06   2.4606130540616444e-06   -2.6989145809952188e-05
-2.706716014081975e-06   2.4606130540616444e-06   -2.6989145809952188e-05
-2.706716014081975e-06   2.4606130540616444e-06   -2.6989145809952188e-05
-9.816113327875271e-06   2.3613167113088035e-06   -1.5080572481311567e-05
-9.816113327875271e-06   2.3613167113088035e-06   -1.5080572481311567e-05
-9.816113327875271e-06   2.3613167113088035e-06   -1.5080572481311567e-05
-9.816113327875271e-06   2.3613167113088035e-06   -1.5080572481311567e-05
-6.314639862217136e-06   1.8741096998476378e-06   -2.0624037383865173e-05
-6.314639862217136e-06   1.8741096998476378e-06   -2.0624037383865173e-05
-6.314639862217136e-06   1.8741096998476378e-06   -2.0624037383865173e-05
-6.314639862217136e-06   1.8741096998476378e-06   -2.0624037383865173e-05
-2.705889696689262e-06   -1.598630873034918e-06   -2.3742479760367763e-05
-2.705889696689262e-06   -1.598630873034918e-06   -2.3742479760367763e-05
-2.705889696689262e-06   -1.598630873034918e-06   -2.3742479760367763e-05
-2.705889696689262e-06   -1.598630873034918e-06   -2.3742479760367763e-05
4.288617211181419e-06   -7.311940912326322e-07   -1.1564506178168648e-05
4.288617211181419e-06   -7.311940912326322e-07   -1.1564506178168648e-05
4.288617211181419e-06   -7.311940912326322e-07   -1.1564506178168648e-05
4.288617211181419e-06   -7.311940912326322e-07   -1.1564506178168648e-05
4.345516052365608e-06   -8.811588238749981e-07   -2.319843160398987e-05
4.345516052365608e-06   -8.811588238749981e-07   -2.319843160398987e-05
4.345516052365608e-06   -8.811588238749981e-07   -2.319843160398987e-05
4.345516052365608e-06   -8.811588238749981e-07   -2.319843160398987e-05
-2.711434289906727e-06   -6.31246622005005e-08   -1.1927668197207329e-05
-2.711434289906727e-06   -6.31246622005005e-08   -1.1927668197207329e-05
-2.711434289906727e-06   -6.31246622005005e-08   -1.1927668197207329e-05
-2.711434289906727e-06   -6.31246622005005e-08   -1.1927668197207329e-05
8.091224891833989e-07   -7.568250274323624e-07   -1.7379042609885093e-05
8.091224891833989e-07   -7.568250274323624e-07   -1.7379042609885093e-05
8.091224891833989e-07   -7.568250274323624e-07   -1.7379042609885093e-05
8.091224891833989e-07   -7.568250274323624e-07   -1.7379042609885093e-05
-2.711434289906732e-06   -8.811588238749981e-07   -2.368925210099451e-05
-2.711434289906732e-06   -8.811588238749981e-07   -2.368925210099451e-05
-2.711434289906732e-06   -8.811588238749981e-07   -2.368925210099451e-05
-2.711434289906732e-06   -8.811588238749981e-07   -2.368925210099451e-05
4.345516052365608e-06   -6.31246622005005e-08   -1.1436847700202544e-05
4.345516052365608e-06   -6.31246622005005e-08   -1.1436847700202544e-05
4.345516052365608e-06   -6.31246622005005e-08   -1.1436847700202544e-05
4.345516052365608e-06   -6.31246622005005e-08   -1.1436847700202544e-05
4.481098447097269e-06   -1.7701737308747434e-07   -2.368372459730098e-05
4.481098447097269e-06   -1.7701737308747434e-07   -2.368372459730098e-05
4.481098447097269e-06   -1.7701737308747434e-07   -2.368372459730098e-05
4.481098447097269e-06   -1.7701737308747434e-07   -2.368372459730098e-05
-2.702336382482617e-06   5.787289640072062e-07   -1.2164781016924617e-05
-2.702336382482617e-06   5.787289640072062e-07   -1.2164781016924617e-05
-2.702336382482617e-06   5.787289640072062e-07   -1.2164781016924617e-05
-2.702336382482617e-06   5.787289640072062e-07   -1.2164781016924617e-05
7.68328937111395e-07   -2.0086200794793658e-07   -1.7481468633074814e-05
7.68328937111395e-07   -2.0086200794793658e-07   -1.7481468633074814e-05
7.68328937111395e-07   -2.0086200794793658e-07   -1.7481468633074814e-05
7.68328937111395e-07   -2.0086200794793658e-07   -1.7481468633074814e-05
-2.702336382482619e-06   -1.7701737308747434e-07   -2.413717239955766e-05
-2.702336382482619e-06   -1.7701737308747434e-07   -2.413717239955766e-05
-2.702336382482619e-06   -1.7701737308747434e-07   -2.413717239955766e-05
-2.702336382482619e-06   -1.7701737308747434e-07   -2.413717239955766e-05
4.481098447097276e-06   5.787289640072062e-07   -1.171133321466785e-05
4.481098447097276e-06   5.787289640072062e-07   -1.171133321466785e-05
4.481098447097276e-06   5.787289640072062e-07   -1.171133321466785e-05
4.481098447097276e-06   5.787289640072062e-07   -1.171133321466785e-05
4.547831718527799e-06   6.45375395559979e-07   -2.438161561079698e-05
4.547831718527799e-06   6.45375395559979e-07   -2.438161561079698e-05
4.547831718527799e-06   6.45375395559979e-07   -2.438161561079698e-05
4.547831718527799e-06   6.45375395559979e-07   -2.438161561079698e-05
-2.706716014081975e-06   1.3134291163360173e-06   -1.269153495557961e-05
-2.706716014081975e-06   1.3134291163360173e-06   -1.269153495557961e-05
-2.706716014081975e-06   1.3134291163360173e-06   -1.269153495557961e-05
-2.706716014081975e-06   1.3134291163360173e-06   -1.269153495557961e-05
7.92292512260114e-07   3.9285176787703414e-07   -1.7970869423740994e-05
7.92292512260114e-07   3.9285176787703414e-07   -1.7970869423740994e-05
7.92292512260114e-07   3.9285176787703414e-07   -1.7970869423740994e-05
7.92292512260114e-07   3.9285176787703414e-07   -1.7970869423740994e-05
4.288617211181412e-06   -2.8929067895476913e-06   -1.303105892407183e-05
4.288617211181412e-06   -2.8929067895476913e-06   -1.303105892407183e-05
4.288617211181412e-06   -2.8929067895476913e-06   -1.303105892407183e-05
4.288617211181412e-06   -2.8929067895476913e-06   -1.303105892407183e-05
1.047864503112376e-05   -1.3383468937277522e-06   -1.7816099533426782e-06
1.047864503112376e-05   -1.3383468937277522e-06   -1.7816099533426782e-06
1.047864503112376e-05   -1.3383468937277522e-06   -1.7816099533426782e-06
1.047864503112376e-05   -1.3383468937277522e-06   -1.7816099533426782e-06
1.1221739477317236e-05   -2.4778564909062168e-06   -1.3665621781267396e-05
1.1221739477317236e-05   -2.4778564909062168e-06   -1.3665621781267396e-05
1.1221739477317236e-05   -2.4778564909062168e-06   -1.3665621781267396e-05
1.1221739477317236e-05   -2.4778564909062168e-06   -1.3665621781267396e-05
4.345516052365608e-06   -8.846575247803239e-07   -3.1611687860235886e-06
4.345516052365608e-06   -8.846575247803239e-07   -3.1611687860235886e-06
4.345516052365608e-06   -8.846575247803239e-07   -3.1611687860235886e-06
4.345516052365608e-06   -8.846575247803239e-07   -3.1611687860235886e-06
7.260267158344263e-06   -1.839430727042582e-06   -7.446223374630678e-06
7.260267158344263e-06   -1.839430727042582e-06   -7.446223374630678e-06
7.260267158344263e-06   -1.839430727042582e-06   -7.446223374630678e-06
7.260267158344263e-06   -1.839430727042582e-06   -7.446223374630678e-06
4.345516052365601e-06   -2.4778564909062168e-06   -1.4621541160942834e-05
4.345516052365601e-06   -2.4778564909062168e-06   -1.4621541160942834e-05
4.345516052365601e-06   -2.4778564909062168e-06   -1.4621541160942834e-05
4.345516052365601e-06   -2.4778564909062168e-06   -1.4621541160942834e-05
1.1221739477317236e-05   -8.846575247803239e-07   -2.20524940634792e-06
1.1221739477317236e-05   -8.846575247803239e-07   -2.20524940634792e-06
1.1221739477317236e-05   -8.846575247803239e-07   -2.20524940634792e-06
1.1221739477317236e-05   -8.846575247803239e-07   -2.20524940634792e-06
1.1794678300483356e-05   -2.123736077525788e-06   -1.4979722988156939e-05
1.1794678300483356e-05   -2.123736077525788e-06   -1.4979722988156939e-05
1.1794678300483356e-05   -2.123736077525788e-06   -1.4979722988156939e-05
1.1794678300483356e-05   -2.123736077525788e-06   -1.4979722988156939e-05
4.481098447097276e-06   -5.725067215192983e-07   -3.721160846117391e-06
4.481098447097276e-06   -5.725067215192983e-07   -3.721160846117391e-06
4.481098447097276e-06   -5.725067215192983e-07   -3.721160846117391e-06
4.481098447097276e-06   -5.725067215192983e-07   -3.721160846117391e-06
7.712506100688535e-06   -1.6059725965166796e-06   -8.486760743770929e-06
7.712506100688535e-06   -1.6059725965166796e-06   -8.486760743770929e-06
7.712506100688535e-06   -1.6059725965166796e-06   -8.486760743770929e-06
7.712506100688535e-06   -1.6059725965166796e-06   -8.486760743770929e-06
4.481098447097269e-06   -2.123736077525788e-06   -1.5910460601760836e-05
4.481098447097269e-06   -2.123736077525788e-06   -1.5910460601760836e-05
4.481098447097269e-06   -2.123736077525788e-06   -1.5910460601760836e-05
4.481098447097269e-06   -2.123736077525788e-06   -1.5910460601760836e-05
1.1794678300483356e-05   -5.725067215192441e-07   -2.7904232325134536e-06
1.1794678300483356e-05   -5.725067215192441e-07   -2.7904232325134536e-06
1.1794678300483356e-05   -5.725067215192441e-07   -2.7904232325134536e-06
1.1794678300483356e-05   -5.725067215192441e-07   -2.7904232325134536e-06
1.255745372752263e-05   -1.3687723593233257e-06   -1.7505095494959924e-05
1.255745372752263e-05   -1.3687723593233257e-06   -1.7505095494959924e-05
1.255745372752263e-05   -1.3687723593233257e-06   -1.7505095494959924e-05
1.255745372752263e-05   -1.3687723593233257e-06   -1.7505095494959924e-05
4.547831718527806e-06   3.912304651656996e-08   -5.000462723472467e-06
4.547831718527806e-06   3.912304651656996e-08   -5.000462723472467e-06
4.547831718527806e-06   3.912304651656996e-08   -5.000462723472467e-06
4.547831718527806e-06   3.912304651656996e-08   -5.000462723472467e-06
7.866376594585393e-06   -1.2615069274111404e-06   -9.750992865878495e-06
7.866376594585393e-06   -1.2615069274111404e-06   -9.750992865878495e-06
7.866376594585393e-06   -1.2615069274111404e-06   -9.750992865878495e-06
7.866376594585393e-06   -1.2615069274111404e-06   -9.750992865878495e-06
-1.504240137092865e-05   2.4285447682587807e-06   -1.4135435197254887e-05
-1.504240137092865e-05   2.4285447682587807e-06   -1.4135435197254887e-05
-1.504240137092865e-05   2.4285447682587807e-06   -1.4135435197254887e-05
-1.504240137092865e-05   2.4285447682587807e-06   -1.4135435197254887e-05
-1.114121657859739e-05   9.837512200384056e-07   -8.500336672301762e-06
-1.114121657859739e-05   9.837512200384056e-07   -8.500336672301762e-06
-1.114121657859739e-05   9.837512200384056e-07   -8.500336672301762e-06
-1.114121657859739e-05   9.837512200384056e-07   -8.500336672301762e-06
-1.0979251181864267e-05   3.0944074854442937e-06   -1.2470229511993931e-05
-1.0979251181864267e-05   3.0944074854442937e-06   -1.2470229511993931e-05
-1.0979251181864267e-05   3.0944074854442937e-06   -1.2470229511993931e-05
-1.0979251181864267e-05   3.0944074854442937e-06   -1.2470229511993931e-05
-1.42208184950563e-05   1.5365935915864814e-06   -6.132928987025816e-06
-1.42208184950563e-05   1.5365935915864814e-06   -6.132928987025816e-06
-1.42208184950563e-05   1.5365935915864814e-06   -6.132928987025816e-06
-1.42208184950563e-05   1.5365935915864814e-06   -6.132928987025816e-06
-1.2301772981787088e-05   2.179555046209129e-06   -9.717115048581978e-06
-1.2301772981787088e-05   2.179555046209129e-06   -9.717115048581978e-06
-1.2301772981787088e-05   2.179555046209129e-06   -9.717115048581978e-06
-1.2301772981787088e-05   2.179555046209129e-06   -9.717115048581978e-06
-1.42208184950563e-05   3.0944074854442937e-06   -1.1535541175679265e-05
-1.42208184950563e-05   3.0944074854442937e-06   -1.1535541175679265e-05
-1.42208184950563e-05   3.0944074854442937e-06   -1.1535541175679265e-05
-1.42208184950563e-05   3.0944074854442937e-06   -1.1535541175679265e-05
-1.097925118186428e-05   1.5365935915864814e-06   -7.067617323340482e-06
-1.097925118186428e-05   1.5365935915864814e-06   -7.067617323340482e-06
-1.097925118186428e-05   1.5365935915864814e-06   -7.067617323340482e-06
-1.097925118186428e-05   1.5365935915864814e-06   -7.067617323340482e-06
-1.0747505041462898e-05   3.4055235497139976e-06   -1.1134437760654866e-05
-1.0747505041462898e-05   3.4055235497139976e-06   -1.1134437760654866e-05
-1.0747505041462898e-05   3.4055235497139976e-06   -1.1134437760654866e-05
-1.0747505041462898e-05   3.4055235497139976e-06   -1.1134437760654866e-05
-1.3567174954781566e-05   1.8169906792008623e-06   -5.481868182815783e-06
-1.3567174954781566e-05   1.8169906792008623e-06   -5.481868182815783e-06
-1.3567174954781566e-05   1.8169906792008623e-06   -5.481868182815783e-06
-1.3567174954781566e-05   1.8169906792008623e-06   -5.481868182815783e-06
-1.2086032036972934e-05   2.4783024431921123e-06   -8.34722677089169e-06
-1.2086032036972934e-05   2.4783024431921123e-06   -8.34722677089169e-06
-1.2086032036972934e-05   2.4783024431921123e-06   -8.34722677089169e-06
-1.2086032036972934e-05   2.4783024431921123e-06   -8.34722677089169e-06
-1.3567174954781566e-05   3.4055235497139976e-06   -1.0181318038346963e-05
-1.3567174954781566e-05   3.4055235497139976e-06   -1.0181318038346963e-05
-1.3567174954781566e-05   3.4055235497139976e-06   -1.0181318038346963e-05
-1.3567174954781566e-05   3.4055235497139976e-06   -1.0181318038346963e-05
-1.0747505041462912e-05   1.8169906792008623e-06   -6.434987905123686e-06
-1.0747505041462912e-05   1.8169906792008623e-06   -6.434987905123686e-06
-1.0747505041462912e-05   1.8169906792008623e-06   -6.434987905123686e-06
-1.0747505041462912e-05   1.8169906792008623e-06   -6.434987905123686e-06
-1.0591150277099569e-05   3.7980889477014245e-06   -9.423115032686658e-06
-1.0591150277099569e-05   3.7980889477014245e-06   -9.423115032686658e-06
-1.0591150277099569e-05   3.7980889477014245e-06   -9.423115032686658e-06
-1.0591150277099569e-05   3.7980889477014245e-06   -9.423115032686658e-06
-1.2735269465481252e-05   2.261680300578062e-06   -4.927737863776429e-06
-1.2735269465481252e-05   2.261680300578062e-06   -4.927737863776429e-06
-1.2735269465481252e-05   2.261680300578062e-06   -4.927737863776429e-06
-1.2735269465481252e-05   2.261680300578062e-06   -4.927737863776429e-06
-1.1522412213721323e-05   2.6871131917041886e-06   -7.204426351385668e-06
-1.1522412213721323e-05   2.6871131917041886e-06   -7.204426351385668e-06
-1.1522412213721323e-05   2.6871131917041886e-06   -7.204426351385668e-06
-1.1522412213721323e-05   2.6871131917041886e-06   -7.204426351385668e-06
-1.114121657859739e-05   1.2596780463654017e-06   -2.065902861990768e-05
-1.114121657859739e-05   1.2596780463654017e-06   -2.065902861990768e-05
-1.114121657859739e-05   1.2596780463654017e-06   -2.065902861990768e-05
-1.114121657859739e-05   1.2596780463654017e-06   -2.065902861990768e-05
-7.967245058155985e-06   5.70579498110498e-07   -1.578253521479156e-05
-7.967245058155985e-06   5.70579498110498e-07   -1.578253521479156e-05
-7.967245058155985e-06   5.70579498110498e-07   -1.578253521479156e-05
-7.967245058155985e-06   5.70579498110498e-07   -1.578253521479156e-05
-7.862506565353467e-06   1.9632480444857297e-06   -2.0589180576703874e-05
-7.862506565353467e-06   1.9632480444857297e-06   -2.0589180576703874e-05
-7.862506565353467e-06   1.9632480444857297e-06   -2.0589180576703874e-05
-7.862506565353467e-06   1.9632480444857297e-06   -2.0589180576703874e-05
-1.0979251181864307e-05   1.2050856928358562e-06   -1.493970880486246e-05
-1.0979251181864307e-05   1.2050856928358562e-06   -1.493970880486246e-05
-1.0979251181864307e-05   1.2050856928358562e-06   -1.493970880486246e-05
-1.0979251181864307e-05   1.2050856928358562e-06   -1.493970880486246e-05
-9.395009185365885e-06   1.3728575630684355e-06   -1.768077525449979e-05
-9.395009185365885e-06   1.3728575630684355e-06   -1.768077525449979e-05
-9.395009185365885e-06   1.3728575630684355e-06   -1.768077525449979e-05
-9.395009185365885e-06   1.3728575630684355e-06   -1.768077525449979e-05
-1.0979251181864267e-05   1.9632480444857297e-06   -2.0134283165713853e-05
-1.0979251181864267e-05   1.9632480444857297e-06   -2.0134283165713853e-05
-1.0979251181864267e-05   1.9632480444857297e-06   -2.0134283165713853e-05
-1.0979251181864267e-05   1.9632480444857297e-06   -2.0134283165713853e-05
-7.862506565353473e-06   1.2050856928358562e-06   -1.539460621585251e-05
-7.862506565353473e-06   1.2050856928358562e-06   -1.539460621585251e-05
-7.862506565353473e-06   1.2050856928358562e-06   -1.539460621585251e-05
-7.862506565353473e-06   1.2050856928358562e-06   -1.539460621585251e-05
-7.746653290464182e-06   2.6043223958453353e-06   -2.0256058334442383e-05
-7.746653290464182e-06   2.6043223958453353e-06   -2.0256058334442383e-05
-7.746653290464182e-06   2.6043223958453353e-06   -2.0256058334442383e-05
-7.746653290464182e-06   2.6043223958453353e-06   -2.0256058334442383e-05
-1.0747505041462926e-05   1.7959781897640718e-06   -1.4769632225795649e-05
-1.0747505041462926e-05   1.7959781897640718e-06   -1.4769632225795649e-05
-1.0747505041462926e-05   1.7959781897640718e-06   -1.4769632225795649e-05
-1.0747505041462926e-05   1.7959781897640718e-06   -1.4769632225795649e-05
-9.256590623803168e-06   1.8868569896667194e-06   -1.7309016868503386e-05
-9.256590623803168e-06   1.8868569896667194e-06   -1.7309016868503386e-05
-9.256590623803168e-06   1.8868569896667194e-06   -1.7309016868503386e-05
-9.256590623803168e-06   1.8868569896667194e-06   -1.7309016868503386e-05
-1.0747505041462898e-05   2.604322395845281e-06   -1.9771051810793636e-05
-1.0747505041462898e-05   2.604322395845281e-06   -1.9771051810793636e-05
-1.0747505041462898e-05   2.604322395845281e-06   -1.9771051810793636e-05
-1.0747505041462898e-05   2.604322395845281e-06   -1.9771051810793636e-05
-7.746653290464162e-06   1.7959781897640718e-06   -1.5254638749444369e-05
-7.746653290464162e-06   1.7959781897640718e-06   -1.5254638749444369e-05
-7.746653290464162e-06   1.7959781897640718e-06   -1.5254638749444369e-05
-7.746653290464162e-06   1.7959781897640718e-06   -1.5254638749444369e-05
-7.644133630218663e-06   3.301557607719209e-06   -2.0452594781658075e-05
-7.644133630218663e-06   3.301557607719209e-06   -2.0452594781658075e-05
-7.644133630218663e-06   3.301557607719209e-06   -2.0452594781658075e-05
-7.644133630218663e-06   3.301557607719209e-06   -2.0452594781658075e-05
-1.0591150277099596e-05   2.4534436467063114e-06   -1.5032031993581911e-05
-1.0591150277099596e-05   2.4534436467063114e-06   -1.5032031993581911e-05
-1.0591150277099596e-05   2.4534436467063114e-06   -1.5032031993581911e-05
-1.0591150277099596e-05   2.4534436467063114e-06   -1.5032031993581911e-05
-9.204268130288956e-06   2.4084563995289228e-06   -1.7316509889960083e-05
-9.204268130288956e-06   2.4084563995289228e-06   -1.7316509889960083e-05
-9.204268130288956e-06   2.4084563995289228e-06   -1.7316509889960083e-05
-9.204268130288956e-06   2.4084563995289228e-06   -1.7316509889960083e-05
-7.967245058155958e-06   2.1943543591527656e-07   -2.3371830480735942e-05
-7.967245058155958e-06   2.1943543591527656e-07   -2.3371830480735942e-05
-7.967245058155958e-06   2.1943543591527656e-07   -2.3371830480735942e-05
-7.967245058155958e-06   2.1943543591527656e-07   -2.3371830480735942e-05
-4.870780688727127e-06   3.308505803445395e-07   -1.8144207445030386e-05
-4.870780688727127e-06   3.308505803445395e-07   -1.8144207445030386e-05
-4.870780688727127e-06   3.308505803445395e-07   -1.8144207445030386e-05
-4.870780688727127e-06   3.308505803445395e-07   -1.8144207445030386e-05
-4.769019275118608e-06   9.277356415675862e-07   -2.3075576184995988e-05
-4.769019275118608e-06   9.277356415675862e-07   -2.3075576184995988e-05
-4.769019275118608e-06   9.277356415675862e-07   -2.3075576184995988e-05
-4.769019275118608e-06   9.277356415675862e-07   -2.3075576184995988e-05
-7.862506565353467e-06   9.781184838394963e-07   -1.7949993739967458e-05
-7.862506565353467e-06   9.781184838394963e-07   -1.7949993739967458e-05
-7.862506565353467e-06   9.781184838394963e-07   -1.7949993739967458e-05
-7.862506565353467e-06   9.781184838394963e-07   -1.7949993739967458e-05
-6.3264645545617026e-06   7.047207516476268e-07   -2.0346025118639168e-05
-6.3264645545617026e-06   7.047207516476268e-07   -2.0346025118639168e-05
-6.3264645545617026e-06   7.047207516476268e-07   -2.0346025118639168e-05
-6.3264645545617026e-06   7.047207516476268e-07   -2.0346025118639168e-05
-7.862506565353453e-06   9.27735641567532e-07   -2.3105805890359047e-05
-7.862506565353453e-06   9.27735641567532e-07   -2.3105805890359047e-05
-7.862506565353453e-06   9.27735641567532e-07   -2.3105805890359047e-05
-7.862506565353453e-06   9.27735641567532e-07   -2.3105805890359047e-05
-4.769019275118608e-06   9.781184838394963e-07   -1.791976403460444e-05
-4.769019275118608e-06   9.781184838394963e-07   -1.791976403460444e-05
-4.769019275118608e-06   9.781184838394963e-07   -1.791976403460444e-05
-4.769019275118608e-06   9.781184838394963e-07   -1.791976403460444e-05
-4.653957864970004e-06   1.6383145531281601e-06   -2.3134743315418886e-05
-4.653957864970004e-06   1.6383145531281601e-06   -2.3134743315418886e-05
-4.653957864970004e-06   1.6383145531281601e-06   -2.3134743315418886e-05
-4.653957864970004e-06   1.6383145531281601e-06   -2.3134743315418886e-05
-7.746653290464182e-06   1.6310104469271624e-06   -1.797586847587447e-05
-7.746653290464182e-06   1.6310104469271624e-06   -1.797586847587447e-05
-7.746653290464182e-06   1.6310104469271624e-06   -1.797586847587447e-05
-7.746653290464182e-06   1.6310104469271624e-06   -1.797586847587447e-05
-6.259173763880866e-06   1.2615259895733082e-06   -2.0233310345767884e-05
-6.259173763880866e-06   1.2615259895733082e-06   -2.0233310345767884e-05
-6.259173763880866e-06   1.2615259895733082e-06   -2.0233310345767884e-05
-6.259173763880866e-06   1.2615259895733082e-06   -2.0233310345767884e-05
-7.746653290464155e-06   1.6383145531282143e-06   -2.313036085169808e-05
-7.746653290464155e-06   1.6383145531282143e-06   -2.313036085169808e-05
-7.746653290464155e-06   1.6383145531282143e-06   -2.313036085169808e-05
-7.746653290464155e-06   1.6383145531282143e-06   -2.313036085169808e-05
-4.653957864970004e-06   1.6310104469271624e-06   -1.798025093959518e-05
-4.653957864970004e-06   1.6310104469271624e-06   -1.798025093959518e-05
-4.653957864970004e-06   1.6310104469271624e-06   -1.798025093959518e-05
-4.653957864970004e-06   1.6310104469271624e-06   -1.798025093959518e-05
-4.5507488839622174e-06   2.3613167113087493e-06   -2.3523955789930882e-05
-4.5507488839622174e-06   2.3613167113087493e-06   -2.3523955789930882e-05
-4.5507488839622174e-06   2.3613167113087493e-06   -2.3523955789930882e-05
-4.5507488839622174e-06   2.3613167113087493e-06   -2.3523955789930882e-05
-7.64413363021867e-06   2.2938092962247617e-06   -1.8327810097119664e-05
-7.64413363021867e-06   2.2938092962247617e-06   -1.8327810097119664e-05
-7.64413363021867e-06   2.2938092962247617e-06   -1.8327810097119664e-05
-7.64413363021867e-06   2.2938092962247617e-06   -1.8327810097119664e-05
-6.204116094251379e-06   1.8257504254637433e-06   -2.0447004001275368e-05
-6.204116094251379e-06   1.8257504254637433e-06   -2.0447004001275368e-05
-6.204116094251379e-06   1.8257504254637433e-06   -2.0447004001275368e-05
-6.204116094251379e-06   1.8257504254637433e-06   -2.0447004001275368e-05
-4.8707806887271094e-06   -7.311940912326322e-07   -2.0479900629861926e-05
-4.8707806887271094e-06   -7.311940912326322e-07   -2.0479900629861926e-05
-4.8707806887271094e-06   -7.311940912326322e-07   -2.0479900629861926e-05
-4.8707806887271094e-06   -7.311940912326322e-07   -2.0479900629861926e-05
-1.8748153277375307e-06   1.4832758809082188e-07   -1.4958912020618614e-05
-1.8748153277375307e-06   1.4832758809082188e-07   -1.4958912020618614e-05
-1.8748153277375307e-06   1.4832758809082188e-07   -1.4958912020618614e-05
-1.8748153277375307e-06   1.4832758809082188e-07   -1.4958912020618614e-05
-1.7213968106198505e-06   -6.31246622005005e-08   -1.9817419110799495e-05
-1.7213968106198505e-06   -6.31246622005005e-08   -1.9817419110799495e-05
-1.7213968106198505e-06   -6.31246622005005e-08   -1.9817419110799495e-05
-1.7213968106198505e-06   -6.31246622005005e-08   -1.9817419110799495e-05
-4.7690192751186e-06   7.760946518192268e-07   -1.5241579925046592e-05
-4.7690192751186e-06   7.760946518192268e-07   -1.5241579925046592e-05
-4.7690192751186e-06   7.760946518192268e-07   -1.5241579925046592e-05
-4.7690192751186e-06   7.760946518192268e-07   -1.5241579925046592e-05
-3.2755577211274254e-06   9.787792098494251e-08   -1.7323752476531602e-05
-3.2755577211274254e-06   9.787792098494251e-08   -1.7323752476531602e-05
-3.2755577211274254e-06   9.787792098494251e-08   -1.7323752476531602e-05
-3.2755577211274254e-06   9.787792098494251e-08   -1.7323752476531602e-05
-4.7690192751185915e-06   -6.31246622005005e-08   -2.0320950699211245e-05
-4.7690192751185915e-06   -6.31246622005005e-08   -2.0320950699211245e-05
-4.7690192751185915e-06   -6.31246622005005e-08   -2.0320950699211245e-05
-4.7690192751185915e-06   -6.31246622005005e-08   -2.0320950699211245e-05
-1.7213968106198505e-06   7.760946518193352e-07   -1.4738048336634859e-05
-1.7213968106198505e-06   7.760946518193352e-07   -1.4738048336634859e-05
-1.7213968106198505e-06   7.760946518193352e-07   -1.4738048336634859e-05
-1.7213968106198505e-06   7.760946518193352e-07   -1.4738048336634859e-05
-1.4913845691342378e-06   5.787289640072062e-07   -2.0081615203584445e-05
-1.4913845691342378e-06   5.787289640072062e-07   -2.0081615203584445e-05
-1.4913845691342378e-06   5.787289640072062e-07   -2.0081615203584445e-05
-1.4913845691342378e-06   5.787289640072062e-07   -2.0081615203584445e-05
-4.653957864969995e-06   1.3668963913732787e-06   -1.5283560166944398e-05
-4.653957864969995e-06   1.3668963913732787e-06   -1.5283560166944398e-05
-4.653957864969995e-06   1.3668963913732787e-06   -1.5283560166944398e-05
-4.653957864969995e-06   1.3668963913732787e-06   -1.5283560166944398e-05
-3.183462819956517e-06   6.051953356760046e-07   -1.7277364608548564e-05
-3.183462819956517e-06   6.051953356760046e-07   -1.7277364608548564e-05
-3.183462819956517e-06   6.051953356760046e-07   -1.7277364608548564e-05
-3.183462819956517e-06   6.051953356760046e-07   -1.7277364608548564e-05
-4.6539578649699835e-06   5.787289640072062e-07   -2.0554515660004002e-05
-4.6539578649699835e-06   5.787289640072062e-07   -2.0554515660004002e-05
-4.6539578649699835e-06   5.787289640072062e-07   -2.0554515660004002e-05
-4.6539578649699835e-06   5.787289640072062e-07   -2.0554515660004002e-05
-1.4913845691342446e-06   1.3668963913731702e-06   -1.481065971052479e-05
-1.4913845691342446e-06   1.3668963913731702e-06   -1.481065971052479e-05
-1.4913845691342446e-06   1.3668963913731702e-06   -1.481065971052479e-05
-1.4913845691342446e-06   1.3668963913731702e-06   -1.481065971052479e-05
-1.3311688104645199e-06   1.3134291163360715e-06   -2.0643028355902518e-05
-1.3311688104645199e-06   1.3134291163360715e-06   -2.0643028355902518e-05
-1.3311688104645199e-06   1.3134291163360715e-06   -2.0643028355902518e-05
-1.3311688104645199e-06   1.3134291163360715e-06   -2.0643028355902518e-05
-4.550748883962225e-06   2.0339492874106406e-06   -1.5709373669384214e-05
-4.550748883962225e-06   2.0339492874106406e-06   -1.5709373669384214e-05
-4.550748883962225e-06   2.0339492874106406e-06   -1.5709373669384214e-05
-4.550748883962225e-06   2.0339492874106406e-06   -1.5709373669384214e-05
-3.0874620419647908e-06   1.1359259720546567e-06   -1.7609371083499846e-05
-3.0874620419647908e-06   1.1359259720546567e-06   -1.7609371083499846e-05
-3.0874620419647908e-06   1.1359259720546567e-06   -1.7609371083499846e-05
-3.0874620419647908e-06   1.1359259720546567e-06   -1.7609371083499846e-05
-1.874815327737524e-06   -1.3383468937278064e-06   -1.110202733493388e-05
-1.874815327737524e-06   -1.3383468937278064e-06   -1.110202733493388e-05
-1.874815327737524e-06   -1.3383468937278064e-06   -1.110202733493388e-05
-1.874815327737524e-06   -1.3383468937278064e-06   -1.110202733493388e-05
3.1267817885521595e-07   2.1340152071922663e-07   -6.5251557752777235e-06
3.1267817885521595e-07   2.1340152071922663e-07   -6.5251557752777235e-06
3.1267817885521595e-07   2.1340152071922663e-07   -6.5251557752777235e-06
3.1267817885521595e-07   2.1340152071922663e-07   -6.5251557752777235e-06
1.1366515325674642e-06   -8.846575247803781e-07   -1.0584612416331411e-05
1.1366515325674642e-06   -8.846575247803781e-07   -1.0584612416331411e-05
1.1366515325674642e-06   -8.846575247803781e-07   -1.0584612416331411e-05
1.1366515325674642e-06   -8.846575247803781e-07   -1.0584612416331411e-05
-1.7213968106198505e-06   7.105554423680015e-07   -6.778326291307987e-06
-1.7213968106198505e-06   7.105554423680015e-07   -6.778326291307987e-06
-1.7213968106198505e-06   7.105554423680015e-07   -6.778326291307987e-06
-1.7213968106198505e-06   7.105554423680015e-07   -6.778326291307987e-06
-5.208952809854502e-07   -2.5861926764003933e-07   -8.1976573480274e-06
-5.208952809854502e-07   -2.5861926764003933e-07   -8.1976573480274e-06
-5.208952809854502e-07   -2.5861926764003933e-07   -8.1976573480274e-06
-5.208952809854502e-07   -2.5861926764003933e-07   -8.1976573480274e-06
-1.7213968106198437e-06   -8.846575247803239e-07   -1.1541740196620255e-05
-1.7213968106198437e-06   -8.846575247803239e-07   -1.1541740196620255e-05
-1.7213968106198437e-06   -8.846575247803239e-07   -1.1541740196620255e-05
-1.7213968106198437e-06   -8.846575247803239e-07   -1.1541740196620255e-05
1.1366515325674642e-06   7.105554423680015e-07   -5.82119851101913e-06
1.1366515325674642e-06   7.105554423680015e-07   -5.82119851101913e-06
1.1366515325674642e-06   7.105554423680015e-07   -5.82119851101913e-06
1.1366515325674642e-06   7.105554423680015e-07   -5.82119851101913e-06
1.7875926395320414e-06   -5.725067215192983e-07   -1.1154147586769773e-05
1.7875926395320414e-06   -5.725067215192983e-07   -1.1154147586769773e-05
1.7875926395320414e-06   -5.725067215192983e-07   -1.1154147586769773e-05
1.7875926395320414e-06   -5.725067215192983e-07   -1.1154147586769773e-05
-1.4913845691342378e-06   9.896520255877781e-07   -6.626480820590049e-06
-1.4913845691342378e-06   9.896520255877781e-07   -6.626480820590049e-06
-1.4913845691342378e-06   9.896520255877781e-07   -6.626480820590049e-06
-1.4913845691342378e-06   9.896520255877781e-07   -6.626480820590049e-06
-1.0581494706262201e-07   -1.9719221833539025e-08   -8.330140775589993e-06
-1.0581494706262201e-07   -1.9719221833539025e-08   -8.330140775589993e-06
-1.0581494706262201e-07   -1.9719221833539025e-08   -8.330140775589993e-06
-1.0581494706262201e-07   -1.9719221833539025e-08   -8.330140775589993e-06
-1.4913845691342378e-06   -5.725067215192983e-07   -1.2091442835033932e-05
-1.4913845691342378e-06   -5.725067215192983e-07   -1.2091442835033932e-05
-1.4913845691342378e-06   -5.725067215192983e-07   -1.2091442835033932e-05
-1.4913845691342378e-06   -5.725067215192983e-07   -1.2091442835033932e-05
1.7875926395320414e-06   9.896520255877781e-07   -5.689185572325863e-06
1.7875926395320414e-06   9.896520255877781e-07   -5.689185572325863e-06
1.7875926395320414e-06   9.896520255877781e-07   -5.689185572325863e-06
1.7875926395320414e-06   9.896520255877781e-07   -5.689185572325863e-06
2.610990672797774e-06   3.912304651656996e-08   -1.2486911186642118e-05
2.610990672797774e-06   3.912304651656996e-08   -1.2486911186642118e-05
2.610990672797774e-06   3.912304651656996e-08   -1.2486911186642118e-05
2.610990672797774e-06   3.912304651656996e-08   -1.2486911186642118e-05
-1.3311688104645199e-06   1.4822516625481383e-06   -6.782522550823674e-06
-1.3311688104645199e-06   1.4822516625481383e-06   -6.782522550823674e-06
-1.3311688104645199e-06   1.4822516625481383e-06   -6.782522550823674e-06
-1.3311688104645199e-06   1.4822516625481383e-06   -6.782522550823674e-06
2.549246369115666e-07   2.5063568871448293e-07   -8.6870420454838e-06
2.549246369115666e-07   2.5063568871448293e-07   -8.6870420454838e-06
2.549246369115666e-07   2.5063568871448293e-07   -8.6870420454838e-06
2.549246369115666e-07   2.5063568871448293e-07   -8.6870420454838e-06
-5.178732653208742e-06   9.837512200384056e-07   -9.374821321511272e-06
-5.178732653208742e-06   9.837512200384056e-07   -9.374821321511272e-06
-5.178732653208742e-06   9.837512200384056e-07   -9.374821321511272e-06
-5.178732653208742e-06   9.837512200384056e-07   -9.374821321511272e-06
-5.307813503598505e-06   -4.665875617224395e-07   -1.0460159341217444e-05
-5.307813503598505e-06   -4.665875617224395e-07   -1.0460159341217444e-05
-5.307813503598505e-06   -4.665875617224395e-07   -1.0460159341217444e-05
-5.307813503598505e-06   -4.665875617224395e-07   -1.0460159341217444e-05
-5.045415763806185e-06   1.5365935915865898e-06   -8.809789419176217e-06
-5.045415763806185e-06   1.5365935915865898e-06   -8.809789419176217e-06
-5.045415763806185e-06   1.5365935915865898e-06   -8.809789419176217e-06
-5.045415763806185e-06   1.5365935915865898e-06   -8.809789419176217e-06
-4.263556609126801e-06   -2.052909367489513e-08   -9.178614399151495e-06
-4.263556609126801e-06   -2.052909367489513e-08   -9.178614399151495e-06
-4.263556609126801e-06   -2.052909367489513e-08   -9.178614399151495e-06
-4.263556609126801e-06   -2.052909367489513e-08   -9.178614399151495e-06
-4.732829653467693e-06   6.775752270921217e-07   -8.815355251043876e-06
-4.732829653467693e-06   6.775752270921217e-07   -8.815355251043876e-06
-4.732829653467693e-06   6.775752270921217e-07   -8.815355251043876e-06
-4.732829653467693e-06   6.775752270921217e-07   -8.815355251043876e-06
-4.2635566091267735e-06   1.5365935915865898e-06   -7.87551580801925e-06
-4.2635566091267735e-06   1.5365935915865898e-06   -7.87551580801925e-06
-4.2635566091267735e-06   1.5365935915865898e-06   -7.87551580801925e-06
-4.2635566091267735e-06   1.5365935915865898e-06   -7.87551580801925e-06
-5.045415763806199e-06   -2.052909367489513e-08   -1.0112888010308516e-05
-5.045415763806199e-06   -2.052909367489513e-08   -1.0112888010308516e-05
-5.045415763806199e-06   -2.052909367489513e-08   -1.0112888010308516e-05
-5.045415763806199e-06   -2.052909367489513e-08   -1.0112888010308516e-05
-4.713697564406622e-06   1.816990679200754e-06   -8.175004582310248e-06
-4.713697564406622e-06   1.816990679200754e-06   -8.175004582310248e-06
-4.713697564406622e-06   1.816990679200754e-06   -8.175004582310248e-06
-4.713697564406622e-06   1.816990679200754e-06   -8.175004582310248e-06
-3.508767318728624e-06   2.3303737907030744e-07   -9.232849678361872e-06
-3.508767318728624e-06   2.3303737907030744e-07   -9.232849678361872e-06
-3.508767318728624e-06   2.3303737907030744e-07   -9.232849678361872e-06
-3.508767318728624e-06   2.3303737907030744e-07   -9.232849678361872e-06
-4.301446055416729e-06   9.07270847512031e-07   -8.31625853161378e-06
-4.301446055416729e-06   9.07270847512031e-07   -8.31625853161378e-06
-4.301446055416729e-06   9.07270847512031e-07   -8.31625853161378e-06
-4.301446055416729e-06   9.07270847512031e-07   -8.31625853161378e-06
-3.508767318728597e-06   1.816990679200754e-06   -7.224632602231894e-06
-3.508767318728597e-06   1.816990679200754e-06   -7.224632602231894e-06
-3.508767318728597e-06   1.816990679200754e-06   -7.224632602231894e-06
-3.508767318728597e-06   1.816990679200754e-06   -7.224632602231894e-06
-4.7136975644066355e-06   2.3303737907030744e-07   -1.0183221658440145e-05
-4.7136975644066355e-06   2.3303737907030744e-07   -1.0183221658440145e-05
-4.7136975644066355e-06   2.3303737907030744e-07   -1.0183221658440145e-05
-4.7136975644066355e-06   2.3303737907030744e-07   -1.0183221658440145e-05
-4.456637870969219e-06   2.261680300578062e-06   -7.58717197129504e-06
-4.456637870969219e-06   2.261680300578062e-06   -7.58717197129504e-06
-4.456637870969219e-06   2.261680300578062e-06   -7.58717197129504e-06
-4.456637870969219e-06   2.261680300578062e-06   -7.58717197129504e-06
-2.5768422528616765e-06   7.383300410460526e-07   -9.806154512421745e-06
-2.5768422528616765e-06   7.383300410460526e-07   -9.806154512421745e-06
-2.5768422528616765e-06   7.383300410460526e-07   -9.806154512421745e-06
-2.5768422528616765e-06   7.383300410460526e-07   -9.806154512421745e-06
-3.763727555098163e-06   1.1289553496958166e-06   -8.06238752721746e-06
-3.763727555098163e-06   1.1289553496958166e-06   -8.06238752721746e-06
-3.763727555098163e-06   1.1289553496958166e-06   -8.06238752721746e-06
-3.763727555098163e-06   1.1289553496958166e-06   -8.06238752721746e-06
-5.307813503598478e-06   5.70579498110498e-07   -1.7113764004104688e-05
-5.307813503598478e-06   5.70579498110498e-07   -1.7113764004104688e-05
-5.307813503598478e-06   5.70579498110498e-07   -1.7113764004104688e-05
-5.307813503598478e-06   5.70579498110498e-07   -1.7113764004104688e-05
-6.161746563875435e-06   -9.703444595152589e-08   -1.8937554137670115e-05
-6.161746563875435e-06   -9.703444595152589e-08   -1.8937554137670115e-05
-6.161746563875435e-06   -9.703444595152589e-08   -1.8937554137670115e-05
-6.161746563875435e-06   -9.703444595152589e-08   -1.8937554137670115e-05
-5.95106714431412e-06   1.2050856928358562e-06   -1.7124982190270177e-05
-5.95106714431412e-06   1.2050856928358562e-06   -1.7124982190270177e-05
-5.95106714431412e-06   1.2050856928358562e-06   -1.7124982190270177e-05
-5.95106714431412e-06   1.2050856928358562e-06   -1.7124982190270177e-05
-5.045415763806199e-06   4.665835435492755e-07   -1.8191299868211292e-05
-5.045415763806199e-06   4.665835435492755e-07   -1.8191299868211292e-05
-5.045415763806199e-06   4.665835435492755e-07   -1.8191299868211292e-05
-5.045415763806199e-06   4.665835435492755e-07   -1.8191299868211292e-05
-5.551201389312072e-06   6.611537329899875e-07   -1.74650659393662e-05
-5.551201389312072e-06   6.611537329899875e-07   -1.74650659393662e-05
-5.551201389312072e-06   6.611537329899875e-07   -1.74650659393662e-05
-5.551201389312072e-06   6.611537329899875e-07   -1.74650659393662e-05
-5.045415763806172e-06   1.2050856928358562e-06   -1.668188090069798e-05
-5.045415763806172e-06   1.2050856928358562e-06   -1.668188090069798e-05
-5.045415763806172e-06   1.2050856928358562e-06   -1.668188090069798e-05
-5.045415763806172e-06   1.2050856928358562e-06   -1.668188090069798e-05
-5.951067144314093e-06   4.665835435492755e-07   -1.8634401157783327e-05
-5.951067144314093e-06   4.665835435492755e-07   -1.8634401157783327e-05
-5.951067144314093e-06   4.665835435492755e-07   -1.8634401157783327e-05
-5.951067144314093e-06   4.665835435492755e-07   -1.8634401157783327e-05
-5.7318334138409266e-06   1.7959781897640718e-06   -1.6981213199908688e-05
-5.7318334138409266e-06   1.7959781897640718e-06   -1.6981213199908688e-05
-5.7318334138409266e-06   1.7959781897640718e-06   -1.6981213199908688e-05
-5.7318334138409266e-06   1.7959781897640718e-06   -1.6981213199908688e-05
-4.7136975644066355e-06   1.010037694886565e-06   -1.820654198537262e-05
-4.7136975644066355e-06   1.010037694886565e-06   -1.820654198537262e-05
-4.7136975644066355e-06   1.010037694886565e-06   -1.820654198537262e-05
-4.7136975644066355e-06   1.010037694886565e-06   -1.820654198537262e-05
-5.340209409218532e-06   1.1166017486103665e-06   -1.7226294009587117e-05
-5.340209409218532e-06   1.1166017486103665e-06   -1.7226294009587117e-05
-5.340209409218532e-06   1.1166017486103665e-06   -1.7226294009587117e-05
-5.340209409218532e-06   1.1166017486103665e-06   -1.7226294009587117e-05
-4.713697564406622e-06   1.7959781897640718e-06   -1.6509648902982184e-05
-4.713697564406622e-06   1.7959781897640718e-06   -1.6509648902982184e-05
-4.713697564406622e-06   1.7959781897640718e-06   -1.6509648902982184e-05
-4.713697564406622e-06   1.7959781897640718e-06   -1.6509648902982184e-05
-5.731833413840906e-06   1.010037694886565e-06   -1.8678106282299096e-05
-5.731833413840906e-06   1.010037694886565e-06   -1.8678106282299096e-05
-5.731833413840906e-06   1.010037694886565e-06   -1.8678106282299096e-05
-5.731833413840906e-06   1.010037694886565e-06   -1.8678106282299096e-05
-5.525820586365526e-06   2.4534436467063114e-06   -1.726282178749546e-05
-5.525820586365526e-06   2.4534436467063114e-06   -1.726282178749546e-05
-5.525820586365526e-06   2.4534436467063114e-06   -1.726282178749546e-05
-5.525820586365526e-06   2.4534436467063114e-06   -1.726282178749546e-05
-4.456637870969233e-06   1.6314421889246757e-06   -1.855159210515357e-05
-4.456637870969233e-06   1.6314421889246757e-06   -1.855159210515357e-05
-4.456637870969233e-06   1.6314421889246757e-06   -1.855159210515357e-05
-4.456637870969233e-06   1.6314421889246757e-06   -1.855159210515357e-05
-5.155125421893168e-06   1.5953066992160057e-06   -1.7365764893121884e-05
-5.155125421893168e-06   1.5953066992160057e-06   -1.7365764893121884e-05
-5.155125421893168e-06   1.5953066992160057e-06   -1.7365764893121884e-05
-5.155125421893168e-06   1.5953066992160057e-06   -1.7365764893121884e-05
-6.161746563875401e-06   3.3085058034464793e-07   -1.994285368743813e-05
-6.161746563875401e-06   3.3085058034464793e-07   -1.994285368743813e-05
-6.161746563875401e-06   3.3085058034464793e-07   -1.994285368743813e-05
-6.161746563875401e-06   3.3085058034464793e-07   -1.994285368743813e-05
-7.05466518775855e-06   4.7300994137115197e-07   -2.1345755777294135e-05
-7.05466518775855e-06   4.7300994137115197e-07   -2.1345755777294135e-05
-7.05466518775855e-06   4.7300994137115197e-07   -2.1345755777294135e-05
-7.05466518775855e-06   4.7300994137115197e-07   -2.1345755777294135e-05
-6.847932481536471e-06   9.781184838394963e-07   -1.963327568907516e-05
-6.847932481536471e-06   9.781184838394963e-07   -1.963327568907516e-05
-6.847932481536471e-06   9.781184838394963e-07   -1.963327568907516e-05
-6.847932481536471e-06   9.781184838394963e-07   -1.963327568907516e-05
-5.95106714431412e-06   1.0566085260229046e-06   -2.117514527642247e-05
-5.95106714431412e-06   1.0566085260229046e-06   -2.117514527642247e-05
-5.95106714431412e-06   1.0566085260229046e-06   -2.117514527642247e-05
-5.95106714431412e-06   1.0566085260229046e-06   -2.117514527642247e-05
-6.46466045022735e-06   8.00857662731436e-07   -2.016570591525909e-05
-6.46466045022735e-06   8.00857662731436e-07   -2.016570591525909e-05
-6.46466045022735e-06   8.00857662731436e-07   -2.016570591525909e-05
-6.46466045022735e-06   8.00857662731436e-07   -2.016570591525909e-05
-5.9510671443140865e-06   9.781184838394963e-07   -1.9680369714385193e-05
-5.9510671443140865e-06   9.781184838394963e-07   -1.9680369714385193e-05
-5.9510671443140865e-06   9.781184838394963e-07   -1.9680369714385193e-05
-5.9510671443140865e-06   9.781184838394963e-07   -1.9680369714385193e-05
-6.847932481536484e-06   1.056608526023013e-06   -2.1128051251112436e-05
-6.847932481536484e-06   1.056608526023013e-06   -2.1128051251112436e-05
-6.847932481536484e-06   1.056608526023013e-06   -2.1128051251112436e-05
-6.847932481536484e-06   1.056608526023013e-06   -2.1128051251112436e-05
-6.630020010418611e-06   1.6310104469271624e-06   -1.9689327477021012e-05
-6.630020010418611e-06   1.6310104469271624e-06   -1.9689327477021012e-05
-6.630020010418611e-06   1.6310104469271624e-06   -1.9689327477021012e-05
-6.630020010418611e-06   1.6310104469271624e-06   -1.9689327477021012e-05
-5.7318334138409266e-06   1.6528695291233905e-06   -2.1199420587301516e-05
-5.7318334138409266e-06   1.6528695291233905e-06   -2.1199420587301516e-05
-5.7318334138409266e-06   1.6528695291233905e-06   -2.1199420587301516e-05
-5.7318334138409266e-06   1.6528695291233905e-06   -2.1199420587301516e-05
-6.291881058455847e-06   1.3008148884351362e-06   -2.0054775061863913e-05
-6.291881058455847e-06   1.3008148884351362e-06   -2.0054775061863913e-05
-6.291881058455847e-06   1.3008148884351362e-06   -2.0054775061863913e-05
-6.291881058455847e-06   1.3008148884351362e-06   -2.0054775061863913e-05
-5.731833413840906e-06   1.6310104469271624e-06   -1.9702442926338695e-05
-5.731833413840906e-06   1.6310104469271624e-06   -1.9702442926338695e-05
-5.731833413840906e-06   1.6310104469271624e-06   -1.9702442926338695e-05
-5.731833413840906e-06   1.6310104469271624e-06   -1.9702442926338695e-05
-6.630020010418611e-06   1.6528695291233905e-06   -2.1186305137983698e-05
-6.630020010418611e-06   1.6528695291233905e-06   -2.1186305137983698e-05
-6.630020010418611e-06   1.6528695291233905e-06   -2.1186305137983698e-05
-6.630020010418611e-06   1.6528695291233905e-06   -2.1186305137983698e-05
-6.4246233223583415e-06   2.2938092962247617e-06   -2.0071539010496967e-05
-6.4246233223583415e-06   2.2938092962247617e-06   -2.0071539010496967e-05
-6.4246233223583415e-06   2.2938092962247617e-06   -2.0071539010496967e-05
-6.4246233223583415e-06   2.2938092962247617e-06   -2.0071539010496967e-05
-5.5258205863655324e-06   2.2574634694390175e-06   -2.154773607441339e-05
-5.5258205863655324e-06   2.2574634694390175e-06   -2.154773607441339e-05
-5.5258205863655324e-06   2.2574634694390175e-06   -2.154773607441339e-05
-5.5258205863655324e-06   2.2574634694390175e-06   -2.154773607441339e-05
-6.133298714756687e-06   1.8078029866027117e-06   -2.0265476237392956e-05
-6.133298714756687e-06   1.8078029866027117e-06   -2.0265476237392956e-05
-6.133298714756687e-06   1.8078029866027117e-06   -2.0265476237392956e-05
-6.133298714756687e-06   1.8078029866027117e-06   -2.0265476237392956e-05
-7.054665187758525e-06   1.4832758809071346e-07   -1.7199975654004604e-05
-7.054665187758525e-06   1.4832758809071346e-07   -1.7199975654004604e-05
-7.054665187758525e-06   1.4832758809071346e-07   -1.7199975654004604e-05
-7.054665187758525e-06   1.4832758809071346e-07   -1.7199975654004604e-05
-8.001972474544909e-06   1.0490717100003879e-06   -1.823837465883614e-05
-8.001972474544909e-06   1.0490717100003879e-06   -1.823837465883614e-05
-8.001972474544909e-06   1.0490717100003879e-06   -1.823837465883614e-05
-8.001972474544909e-06   1.0490717100003879e-06   -1.823837465883614e-05
-7.750896339445136e-06   7.760946518192268e-07   -1.643963000149464e-05
-7.750896339445136e-06   7.760946518192268e-07   -1.643963000149464e-05
-7.750896339445136e-06   7.760946518192268e-07   -1.643963000149464e-05
-7.750896339445136e-06   7.760946518192268e-07   -1.643963000149464e-05
-6.847932481536471e-06   1.6351972818572395e-06   -1.8460031342698334e-05
-6.847932481536471e-06   1.6351972818572395e-06   -1.8460031342698334e-05
-6.847932481536471e-06   1.6351972818572395e-06   -1.8460031342698334e-05
-6.847932481536471e-06   1.6351972818572395e-06   -1.8460031342698334e-05
-7.356421183301204e-06   9.670558851003052e-07   -1.7211665335036524e-05
-7.356421183301204e-06   9.670558851003052e-07   -1.7211665335036524e-05
-7.356421183301204e-06   9.670558851003052e-07   -1.7211665335036524e-05
-7.356421183301204e-06   9.670558851003052e-07   -1.7211665335036524e-05
-6.8479324815364595e-06   7.760946518193352e-07   -1.6955091579517274e-05
-6.8479324815364595e-06   7.760946518193352e-07   -1.6955091579517274e-05
-6.8479324815364595e-06   7.760946518193352e-07   -1.6955091579517274e-05
-6.8479324815364595e-06   7.760946518193352e-07   -1.6955091579517274e-05
-7.750896339445136e-06   1.6351972818572395e-06   -1.7944569764675696e-05
-7.750896339445136e-06   1.6351972818572395e-06   -1.7944569764675696e-05
-7.750896339445136e-06   1.6351972818572395e-06   -1.7944569764675696e-05
-7.750896339445136e-06   1.6351972818572395e-06   -1.7944569764675696e-05
-7.424282991711989e-06   1.3668963913731702e-06   -1.650763454536143e-05
-7.424282991711989e-06   1.3668963913731702e-06   -1.650763454536143e-05
-7.424282991711989e-06   1.3668963913731702e-06   -1.650763454536143e-05
-7.424282991711989e-06   1.3668963913731702e-06   -1.650763454536143e-05
-6.630020010418611e-06   2.175233323054547e-06   -1.8316408339859114e-05
-6.630020010418611e-06   2.175233323054547e-06   -1.8316408339859114e-05
-6.630020010418611e-06   2.175233323054547e-06   -1.8316408339859114e-05
-6.630020010418611e-06   2.175233323054547e-06   -1.8316408339859114e-05
-7.131893218785821e-06   1.4326693893969896e-06   -1.703441463238607e-05
-7.131893218785821e-06   1.4326693893969896e-06   -1.703441463238607e-05
-7.131893218785821e-06   1.4326693893969896e-06   -1.703441463238607e-05
-7.131893218785821e-06   1.4326693893969896e-06   -1.703441463238607e-05
-6.630020010418583e-06   1.3668963913731702e-06   -1.6992636704370124e-05
-6.630020010418583e-06   1.3668963913731702e-06   -1.6992636704370124e-05
-6.630020010418583e-06   1.3668963913731702e-06   -1.6992636704370124e-05
-6.630020010418583e-06   1.3668963913731702e-06   -1.6992636704370124e-05
-7.424282991711989e-06   2.175233323054547e-06   -1.7831406180850292e-05
-7.424282991711989e-06   2.175233323054547e-06   -1.7831406180850292e-05
-7.424282991711989e-06   2.175233323054547e-06   -1.7831406180850292e-05
-7.424282991711989e-06   2.175233323054547e-06   -1.7831406180850292e-05
-7.168241591962896e-06   2.033949287410532e-06   -1.696533491569633e-05
-7.168241591962896e-06   2.033949287410532e-06   -1.696533491569633e-05
-7.168241591962896e-06   2.033949287410532e-06   -1.696533491569633e-05
-7.168241591962896e-06   2.033949287410532e-06   -1.696533491569633e-05
-6.4246233223583415e-06   2.77938798410194e-06   -1.8651961916385335e-05
-6.4246233223583415e-06   2.77938798410194e-06   -1.8651961916385335e-05
-6.4246233223583415e-06   2.77938798410194e-06   -1.8651961916385335e-05
-6.4246233223583415e-06   2.77938798410194e-06   -1.8651961916385335e-05
-6.965526116607305e-06   1.9076057616660824e-06   -1.7227387925842046e-05
-6.965526116607305e-06   1.9076057616660824e-06   -1.7227387925842046e-05
-6.965526116607305e-06   1.9076057616660824e-06   -1.7227387925842046e-05
-6.965526116607305e-06   1.9076057616660824e-06   -1.7227387925842046e-05
-8.001972474544882e-06   2.1340152071922663e-07   -9.156821984186193e-06
-8.001972474544882e-06   2.1340152071922663e-07   -9.156821984186193e-06
-8.001972474544882e-06   2.1340152071922663e-07   -9.156821984186193e-06
-8.001972474544882e-06   2.1340152071922663e-07   -9.156821984186193e-06
-9.73124309545157e-06   1.7670511426634127e-06   -1.110674991253093e-05
-9.73124309545157e-06   1.7670511426634127e-06   -1.110674991253093e-05
-9.73124309545157e-06   1.7670511426634127e-06   -1.110674991253093e-05
-9.73124309545157e-06   1.7670511426634127e-06   -1.110674991253093e-05
-8.825696920253641e-06   7.105554423680015e-07   -7.526623610775807e-06
-8.825696920253641e-06   7.105554423680015e-07   -7.526623610775807e-06
-8.825696920253641e-06   7.105554423680015e-07   -7.526623610775807e-06
-8.825696920253641e-06   7.105554423680015e-07   -7.526623610775807e-06
-7.750896339445123e-06   2.2993626846882576e-06   -1.027124225751526e-05
-7.750896339445123e-06   2.2993626846882576e-06   -1.027124225751526e-05
-7.750896339445123e-06   2.2993626846882576e-06   -1.027124225751526e-05
-7.750896339445123e-06   2.2993626846882576e-06   -1.027124225751526e-05
-8.230370662502388e-06   1.3108548068941316e-06   -8.879013659076915e-06
-8.230370662502388e-06   1.3108548068941316e-06   -8.879013659076915e-06
-8.230370662502388e-06   1.3108548068941316e-06   -8.879013659076915e-06
-8.230370662502388e-06   1.3108548068941316e-06   -8.879013659076915e-06
-7.750896339445102e-06   7.10555442367893e-07   -8.479907956167863e-06
-7.750896339445102e-06   7.10555442367893e-07   -8.479907956167863e-06
-7.750896339445102e-06   7.10555442367893e-07   -8.479907956167863e-06
-7.750896339445102e-06   7.10555442367893e-07   -8.479907956167863e-06
-8.8256969202536e-06   2.2993626846882576e-06   -9.317957912123326e-06
-8.8256969202536e-06   2.2993626846882576e-06   -9.317957912123326e-06
-8.8256969202536e-06   2.2993626846882576e-06   -9.317957912123326e-06
-8.8256969202536e-06   2.2993626846882576e-06   -9.317957912123326e-06
-8.089163292735328e-06   9.896520255877781e-07   -7.391442297254686e-06
-8.089163292735328e-06   9.896520255877781e-07   -7.391442297254686e-06
-8.089163292735328e-06   9.896520255877781e-07   -7.391442297254686e-06
-8.089163292735328e-06   9.896520255877781e-07   -7.391442297254686e-06
-7.424282991711982e-06   2.5430076225411947e-06   -9.431589490465608e-06
-7.424282991711982e-06   2.5430076225411947e-06   -9.431589490465608e-06
-7.424282991711982e-06   2.5430076225411947e-06   -9.431589490465608e-06
-7.424282991711982e-06   2.5430076225411947e-06   -9.431589490465608e-06
-7.848478244869454e-06   1.5584040852362202e-06   -8.133835279486892e-06
-7.848478244869454e-06   1.5584040852362202e-06   -8.133835279486892e-06
-7.848478244869454e-06   1.5584040852362202e-06   -8.133835279486892e-06
-7.848478244869454e-06   1.5584040852362202e-06   -8.133835279486892e-06
-7.424282991711962e-06   9.896520255877781e-07   -8.323455655426715e-06
-7.424282991711962e-06   9.896520255877781e-07   -8.323455655426715e-06
-7.424282991711962e-06   9.896520255877781e-07   -8.323455655426715e-06
-7.424282991711962e-06   9.896520255877781e-07   -8.323455655426715e-06
-8.089163292735314e-06   2.5430076225411947e-06   -8.499576132293485e-06
-8.089163292735314e-06   2.5430076225411947e-06   -8.499576132293485e-06
-8.089163292735314e-06   2.5430076225411947e-06   -8.499576132293485e-06
-8.089163292735314e-06   2.5430076225411947e-06   -8.499576132293485e-06
-7.186015896296359e-06   1.4822516625481383e-06   -7.609376054550836e-06
-7.186015896296359e-06   1.4822516625481383e-06   -7.609376054550836e-06
-7.186015896296359e-06   1.4822516625481383e-06   -7.609376054550836e-06
-7.186015896296359e-06   1.4822516625481383e-06   -7.609376054550836e-06
-7.168241591962896e-06   2.9179514045974244e-06   -8.500419740336133e-06
-7.168241591962896e-06   2.9179514045974244e-06   -8.500419740336133e-06
-7.168241591962896e-06   2.9179514045974244e-06   -8.500419740336133e-06
-7.168241591962896e-06   2.9179514045974244e-06   -8.500419740336133e-06
-7.278436721626365e-06   1.7568161715261982e-06   -7.620080051054339e-06
-7.278436721626365e-06   1.7568161715261982e-06   -7.620080051054339e-06
-7.278436721626365e-06   1.7568161715261982e-06   -7.620080051054339e-06
-7.278436721626365e-06   1.7568161715261982e-06   -7.620080051054339e-06
4.728962021137651e-06   -4.665875617224395e-07   -4.691305541298127e-06
4.728962021137651e-06   -4.665875617224395e-07   -4.691305541298127e-06
4.728962021137651e-06   -4.665875617224395e-07   -4.691305541298127e-06
4.728962021137651e-06   -4.665875617224395e-07   -4.691305541298127e-06
4.961752147283904e-07   -1.937282343911738e-06   -1.2628367087960332e-05
4.961752147283904e-07   -1.937282343911738e-06   -1.2628367087960332e-05
4.961752147283904e-07   -1.937282343911738e-06   -1.2628367087960332e-05
4.961752147283904e-07   -1.937282343911738e-06   -1.2628367087960332e-05
8.550907711580912e-07   -2.052909367489513e-08   -5.195943068424941e-06
8.550907711580912e-07   -2.052909367489513e-08   -5.195943068424941e-06
8.550907711580912e-07   -2.052909367489513e-08   -5.195943068424941e-06
8.550907711580912e-07   -2.052909367489513e-08   -5.195943068424941e-06
5.7429495288638345e-06   -1.5934947778931726e-06   -1.239859492073675e-05
5.7429495288638345e-06   -1.5934947778931726e-06   -1.239859492073675e-05
5.7429495288638345e-06   -1.5934947778931726e-06   -1.239859492073675e-05
5.7429495288638345e-06   -1.5934947778931726e-06   -1.239859492073675e-05
2.8448817990428237e-06   -8.109101639014547e-07   -8.038032806096794e-06
2.8448817990428237e-06   -8.109101639014547e-07   -8.038032806096794e-06
2.8448817990428237e-06   -8.109101639014547e-07   -8.038032806096794e-06
2.8448817990428237e-06   -8.109101639014547e-07   -8.038032806096794e-06
5.7429495288638616e-06   -2.052909367489513e-08   -4.252163657893931e-06
5.7429495288638616e-06   -2.052909367489513e-08   -4.252163657893931e-06
5.7429495288638616e-06   -2.052909367489513e-08   -4.252163657893931e-06
5.7429495288638616e-06   -2.052909367489513e-08   -4.252163657893931e-06
8.550907711580912e-07   -1.5934947778931726e-06   -1.3342374331267869e-05
8.550907711580912e-07   -1.5934947778931726e-06   -1.3342374331267869e-05
8.550907711580912e-07   -1.5934947778931726e-06   -1.3342374331267869e-05
8.550907711580912e-07   -1.5934947778931726e-06   -1.3342374331267869e-05
1.2788300038249847e-06   2.3303737907030744e-07   -5.24010471630702e-06
1.2788300038249847e-06   2.3303737907030744e-07   -5.24010471630702e-06
1.2788300038249847e-06   2.3303737907030744e-07   -5.24010471630702e-06
1.2788300038249847e-06   2.3303737907030744e-07   -5.24010471630702e-06
6.5979063103206335e-06   -1.3628650067254054e-06   -1.314769046232222e-05
6.5979063103206335e-06   -1.3628650067254054e-06   -1.314769046232222e-05
6.5979063103206335e-06   -1.3628650067254054e-06   -1.314769046232222e-05
6.5979063103206335e-06   -1.3628650067254054e-06   -1.314769046232222e-05
3.486535252195085e-06   -6.493786444543596e-07   -8.390163849475999e-06
3.486535252195085e-06   -6.493786444543596e-07   -8.390163849475999e-06
3.486535252195085e-06   -6.493786444543596e-07   -8.390163849475999e-06
3.486535252195085e-06   -6.493786444543596e-07   -8.390163849475999e-06
6.597906310320661e-06   2.3303737907030744e-07   -4.282563284829408e-06
6.597906310320661e-06   2.3303737907030744e-07   -4.282563284829408e-06
6.597906310320661e-06   2.3303737907030744e-07   -4.282563284829408e-06
6.597906310320661e-06   2.3303737907030744e-07   -4.282563284829408e-06
1.2788300038249847e-06   -1.3628650067254054e-06   -1.4105231893799615e-05
1.2788300038249847e-06   -1.3628650067254054e-06   -1.4105231893799615e-05
1.2788300038249847e-06   -1.3628650067254054e-06   -1.4105231893799615e-05
1.2788300038249847e-06   -1.3628650067254054e-06   -1.4105231893799615e-05
1.6260113759118645e-06   7.383300410460526e-07   -5.7533438348815165e-06
1.6260113759118645e-06   7.383300410460526e-07   -5.7533438348815165e-06
1.6260113759118645e-06   7.383300410460526e-07   -5.7533438348815165e-06
1.6260113759118645e-06   7.383300410460526e-07   -5.7533438348815165e-06
7.625108118966914e-06   -7.831339617939918e-07   -1.483896000493588e-05
7.625108118966914e-06   -7.831339617939918e-07   -1.483896000493588e-05
7.625108118966914e-06   -7.831339617939918e-07   -1.483896000493588e-05
7.625108118966914e-06   -7.831339617939918e-07   -1.483896000493588e-05
3.993501196652242e-06   -4.1091773036344183e-07   -9.009611539936835e-06
3.993501196652242e-06   -4.1091773036344183e-07   -9.009611539936835e-06
3.993501196652242e-06   -4.1091773036344183e-07   -9.009611539936835e-06
3.993501196652242e-06   -4.1091773036344183e-07   -9.009611539936835e-06
4.961752147283904e-07   -9.703444595141747e-08   -1.3650548840627168e-05
4.961752147283904e-07   -9.703444595141747e-08   -1.3650548840627168e-05
4.961752147283904e-07   -9.703444595141747e-08   -1.3650548840627168e-05
4.961752147283904e-07   -9.703444595141747e-08   -1.3650548840627168e-05
-4.416953554210872e-06   -7.604001794912557e-07   -2.2237116228983073e-05
-4.416953554210872e-06   -7.604001794912557e-07   -2.2237116228983073e-05
-4.416953554210872e-06   -7.604001794912557e-07   -2.2237116228983073e-05
-4.416953554210872e-06   -7.604001794912557e-07   -2.2237116228983073e-05
-4.10335526480588e-06   4.665835435492755e-07   -1.3726802457529391e-05
-4.10335526480588e-06   4.665835435492755e-07   -1.3726802457529391e-05
-4.10335526480588e-06   4.665835435492755e-07   -1.3726802457529391e-05
-4.10335526480588e-06   4.665835435492755e-07   -1.3726802457529391e-05
8.550907711580912e-07   -2.874956751202718e-07   -2.1538431652934407e-05
8.550907711580912e-07   -2.874956751202718e-07   -2.1538431652934407e-05
8.550907711580912e-07   -2.874956751202718e-07   -2.1538431652934407e-05
8.550907711580912e-07   -2.874956751202718e-07   -2.1538431652934407e-05
-1.7512102505099994e-06   -2.4269505644091208e-08   -1.7352532318506595e-05
-1.7512102505099994e-06   -2.4269505644091208e-08   -1.7352532318506595e-05
-1.7512102505099994e-06   -2.4269505644091208e-08   -1.7352532318506595e-05
-1.7512102505099994e-06   -2.4269505644091208e-08   -1.7352532318506595e-05
8.550907711580912e-07   4.665835435492755e-07   -1.3274354926327608e-05
8.550907711580912e-07   4.665835435492755e-07   -1.3274354926327608e-05
8.550907711580912e-07   4.665835435492755e-07   -1.3274354926327608e-05
8.550907711580912e-07   4.665835435492755e-07   -1.3274354926327608e-05
-4.10335526480588e-06   -2.8749567512016336e-07   -2.1990879184136027e-05
-4.10335526480588e-06   -2.8749567512016336e-07   -2.1990879184136027e-05
-4.10335526480588e-06   -2.8749567512016336e-07   -2.1990879184136027e-05
-4.10335526480588e-06   -2.8749567512016336e-07   -2.1990879184136027e-05
-3.7879165137395723e-06   1.010037694886565e-06   -1.374824672588479e-05
-3.7879165137395723e-06   1.010037694886565e-06   -1.374824672588479e-05
-3.7879165137395723e-06   1.010037694886565e-06   -1.374824672588479e-05
-3.7879165137395723e-06   1.010037694886565e-06   -1.374824672588479e-05
1.2788300038249847e-06   2.0200155714399006e-07   -2.170800257251344e-05
1.2788300038249847e-06   2.0200155714399006e-07   -2.170800257251344e-05
1.2788300038249847e-06   2.0200155714399006e-07   -2.170800257251344e-05
1.2788300038249847e-06   2.0200155714399006e-07   -2.170800257251344e-05
-1.4742399261488876e-06   3.6514260530365154e-07   -1.7217437318119632e-05
-1.4742399261488876e-06   3.6514260530365154e-07   -1.7217437318119632e-05
-1.4742399261488876e-06   3.6514260530365154e-07   -1.7217437318119632e-05
-1.4742399261488876e-06   3.6514260530365154e-07   -1.7217437318119632e-05
1.2788300038249847e-06   1.010037694886565e-06   -1.3263425043239332e-05
1.2788300038249847e-06   1.010037694886565e-06   -1.3263425043239332e-05
1.2788300038249847e-06   1.010037694886565e-06   -1.3263425043239332e-05
1.2788300038249847e-06   1.010037694886565e-06   -1.3263425043239332e-05
-3.7879165137395723e-06   2.0200155714399006e-07   -2.219282425515917e-05
-3.7879165137395723e-06   2.0200155714399006e-07   -2.219282425515917e-05
-3.7879165137395723e-06   2.0200155714399006e-07   -2.219282425515917e-05
-3.7879165137395723e-06   2.0200155714399006e-07   -2.219282425515917e-05
-3.486956488906972e-06   1.6314421889246757e-06   -1.4094157698461363e-05
-3.486956488906972e-06   1.6314421889246757e-06   -1.4094157698461363e-05
-3.486956488906972e-06   1.6314421889246757e-06   -1.4094157698461363e-05
-3.486956488906972e-06   1.6314421889246757e-06   -1.4094157698461363e-05
1.6260113759118645e-06   7.824648113124392e-07   -2.2106384379925575e-05
1.6260113759118645e-06   7.824648113124392e-07   -2.2106384379925575e-05
1.6260113759118645e-06   7.824648113124392e-07   -2.2106384379925575e-05
1.6260113759118645e-06   7.824648113124392e-07   -2.2106384379925575e-05
-1.1649530220290887e-06   7.976010055757909e-07   -1.7463858766582292e-05
-1.1649530220290887e-06   7.976010055757909e-07   -1.7463858766582292e-05
-1.1649530220290887e-06   7.976010055757909e-07   -1.7463858766582292e-05
-1.1649530220290887e-06   7.976010055757909e-07   -1.7463858766582292e-05
-4.416953554210872e-06   4.7300994137104355e-07   -1.6542065536991014e-05
-4.416953554210872e-06   4.7300994137104355e-07   -1.6542065536991014e-05
-4.416953554210872e-06   4.7300994137104355e-07   -1.6542065536991014e-05
-4.416953554210872e-06   4.7300994137104355e-07   -1.6542065536991014e-05
-9.285145492455106e-06   5.959031224442779e-07   -2.45819828587541e-05
-9.285145492455106e-06   5.959031224442779e-07   -2.45819828587541e-05
-9.285145492455106e-06   5.959031224442779e-07   -2.45819828587541e-05
-9.285145492455106e-06   5.959031224442779e-07   -2.45819828587541e-05
-8.969596458884785e-06   1.0566085260229046e-06   -1.6243159867037563e-05
-8.969596458884785e-06   1.0566085260229046e-06   -1.6243159867037563e-05
-8.969596458884785e-06   1.0566085260229046e-06   -1.6243159867037563e-05
-8.969596458884785e-06   1.0566085260229046e-06   -1.6243159867037563e-05
-4.10335526480588e-06   1.0972530412416397e-06   -2.437794856630008e-05
-4.10335526480588e-06   1.0972530412416397e-06   -2.437794856630008e-05
-4.10335526480588e-06   1.0972530412416397e-06   -2.437794856630008e-05
-4.10335526480588e-06   1.0972530412416397e-06   -2.437794856630008e-05
-6.655069290738856e-06   9.077703036332405e-07   -2.0011402213846995e-05
-6.655069290738856e-06   9.077703036332405e-07   -2.0011402213846995e-05
-6.655069290738856e-06   9.077703036332405e-07   -2.0011402213846995e-05
-6.655069290738856e-06   9.077703036332405e-07   -2.0011402213846995e-05
-4.10335526480588e-06   1.0566085260229046e-06   -1.6267546576168588e-05
-4.10335526480588e-06   1.0566085260229046e-06   -1.6267546576168588e-05
-4.10335526480588e-06   1.0566085260229046e-06   -1.6267546576168588e-05
-4.10335526480588e-06   1.0566085260229046e-06   -1.6267546576168588e-05
-8.969596458884772e-06   1.0972530412415313e-06   -2.4353561857168933e-05
-8.969596458884772e-06   1.0972530412415313e-06   -2.4353561857168933e-05
-8.969596458884772e-06   1.0972530412415313e-06   -2.4353561857168933e-05
-8.969596458884772e-06   1.0972530412415313e-06   -2.4353561857168933e-05
-8.648582582023028e-06   1.6528695291233905e-06   -1.62847315788088e-05
-8.648582582023028e-06   1.6528695291233905e-06   -1.62847315788088e-05
-8.648582582023028e-06   1.6528695291233905e-06   -1.62847315788088e-05
-8.648582582023028e-06   1.6528695291233905e-06   -1.62847315788088e-05
-3.7879165137395723e-06   1.6275852825873996e-06   -2.4370671144693015e-05
-3.7879165137395723e-06   1.6275852825873996e-06   -2.4370671144693015e-05
-3.7879165137395723e-06   1.6275852825873996e-06   -2.4370671144693015e-05
-3.7879165137395723e-06   1.6275852825873996e-06   -2.4370671144693015e-05
-6.377967034181596e-06   1.3459684997257654e-06   -1.988495020757292e-05
-6.377967034181596e-06   1.3459684997257654e-06   -1.988495020757292e-05
-6.377967034181596e-06   1.3459684997257654e-06   -1.988495020757292e-05
-6.377967034181596e-06   1.3459684997257654e-06   -1.988495020757292e-05
-3.7879165137395723e-06   1.6528695291233905e-06   -1.6269561030887237e-05
-3.7879165137395723e-06   1.6528695291233905e-06   -1.6269561030887237e-05
-3.7879165137395723e-06   1.6528695291233905e-06   -1.6269561030887237e-05
-3.7879165137395723e-06   1.6528695291233905e-06   -1.6269561030887237e-05
-8.648582582023012e-06   1.6275852825873996e-06   -2.4385841692614618e-05
-8.648582582023012e-06   1.6275852825873996e-06   -2.4385841692614618e-05
-8.648582582023012e-06   1.6275852825873996e-06   -2.4385841692614618e-05
-8.648582582023012e-06   1.6275852825873996e-06   -2.4385841692614618e-05
-8.342551970271438e-06   2.2574634694390175e-06   -1.6651297546360177e-05
-8.342551970271438e-06   2.2574634694390175e-06   -1.6651297546360177e-05
-8.342551970271438e-06   2.2574634694390175e-06   -1.6651297546360177e-05
-8.342551970271438e-06   2.2574634694390175e-06   -1.6651297546360177e-05
-3.4869564889069855e-06   2.167135547259365e-06   -2.4689759928659693e-05
-3.4869564889069855e-06   2.167135547259365e-06   -2.4689759928659693e-05
-3.4869564889069855e-06   2.167135547259365e-06   -2.4689759928659693e-05
-3.4869564889069855e-06   2.167135547259365e-06   -2.4689759928659693e-05
-6.120612658370121e-06   1.7908816707328358e-06   -2.0074580653638952e-05
-6.120612658370121e-06   1.7908816707328358e-06   -2.0074580653638952e-05
-6.120612658370121e-06   1.7908816707328358e-06   -2.0074580653638952e-05
-6.120612658370121e-06   1.7908816707328358e-06   -2.0074580653638952e-05
-9.285145492455122e-06   1.0490717100004963e-06   -1.3901394983034752e-05
-9.285145492455122e-06   1.0490717100004963e-06   -1.3901394983034752e-05
-9.285145492455122e-06   1.0490717100004963e-06   -1.3901394983034752e-05
-9.285145492455122e-06   1.0490717100004963e-06   -1.3901394983034752e-05
-1.4104226955037299e-05   1.9148746358496355e-06   -2.1413715665162297e-05
-1.4104226955037299e-05   1.9148746358496355e-06   -2.1413715665162297e-05
-1.4104226955037299e-05   1.9148746358496355e-06   -2.1413715665162297e-05
-1.4104226955037299e-05   1.9148746358496355e-06   -2.1413715665162297e-05
-1.3742986500271484e-05   1.6351972818572395e-06   -1.3086199869409153e-05
-1.3742986500271484e-05   1.6351972818572395e-06   -1.3086199869409153e-05
-1.3742986500271484e-05   1.6351972818572395e-06   -1.3086199869409153e-05
-1.3742986500271484e-05   1.6351972818572395e-06   -1.3086199869409153e-05
-8.969596458884772e-06   2.4500974305478743e-06   -2.1530790027601307e-05
-8.969596458884772e-06   2.4500974305478743e-06   -2.1530790027601307e-05
-8.969596458884772e-06   2.4500974305478743e-06   -2.1530790027601307e-05
-8.969596458884772e-06   2.4500974305478743e-06   -2.1530790027601307e-05
-1.1445534701623805e-05   1.831099049673943e-06   -1.703282726117854e-05
-1.1445534701623805e-05   1.831099049673943e-06   -1.703282726117854e-05
-1.1445534701623805e-05   1.831099049673943e-06   -1.703282726117854e-05
-1.1445534701623805e-05   1.831099049673943e-06   -1.703282726117854e-05
-8.969596458884785e-06   1.6351972818572395e-06   -1.3575139958623566e-05
-8.969596458884785e-06   1.6351972818572395e-06   -1.3575139958623566e-05
-8.969596458884785e-06   1.6351972818572395e-06   -1.3575139958623566e-05
-8.969596458884785e-06   1.6351972818572395e-06   -1.3575139958623566e-05
-1.3742986500271511e-05   2.4500974305478743e-06   -2.1041849938386995e-05
-1.3742986500271511e-05   2.4500974305478743e-06   -2.1041849938386995e-05
-1.3742986500271511e-05   2.4500974305478743e-06   -2.1041849938386995e-05
-1.3742986500271511e-05   2.4500974305478743e-06   -2.1041849938386995e-05
-1.3308525378767806e-05   2.175233323054547e-06   -1.296097861862495e-05
-1.3308525378767806e-05   2.175233323054547e-06   -1.296097861862495e-05
-1.3308525378767806e-05   2.175233323054547e-06   -1.296097861862495e-05
-1.3308525378767806e-05   2.175233323054547e-06   -1.296097861862495e-05
-8.648582582023012e-06   2.9316602598200873e-06   -2.1181406108592134e-05
-8.648582582023012e-06   2.9316602598200873e-06   -2.1181406108592134e-05
-8.648582582023012e-06   2.9316602598200873e-06   -2.1181406108592134e-05
-8.648582582023012e-06   2.9316602598200873e-06   -2.1181406108592134e-05
-1.1080495962680256e-05   2.254335985382022e-06   -1.672182257616751e-05
-1.1080495962680256e-05   2.254335985382022e-06   -1.672182257616751e-05
-1.1080495962680256e-05   2.254335985382022e-06   -1.672182257616751e-05
-1.1080495962680256e-05   2.254335985382022e-06   -1.672182257616751e-05
-8.64858258202302e-06   2.175233323054547e-06   -1.3414834780684252e-05
-8.64858258202302e-06   2.175233323054547e-06   -1.3414834780684252e-05
-8.64858258202302e-06   2.175233323054547e-06   -1.3414834780684252e-05
-8.64858258202302e-06   2.175233323054547e-06   -1.3414834780684252e-05
-1.3308525378767806e-05   2.9316602598200873e-06   -2.0727549946532873e-05
-1.3308525378767806e-05   2.9316602598200873e-06   -2.0727549946532873e-05
-1.3308525378767806e-05   2.9316602598200873e-06   -2.0727549946532873e-05
-1.3308525378767806e-05   2.9316602598200873e-06   -2.0727549946532873e-05
-1.2947065004153505e-05   2.7793879841018316e-06   -1.3319784345512393e-05
-1.2947065004153505e-05   2.7793879841018316e-06   -1.3319784345512393e-05
-1.2947065004153505e-05   2.7793879841018316e-06   -1.3319784345512393e-05
-1.2947065004153505e-05   2.7793879841018316e-06   -1.3319784345512393e-05
-8.342551970271438e-06   3.4692738953487606e-06   -2.1407904282064112e-05
-8.342551970271438e-06   3.4692738953487606e-06   -2.1407904282064112e-05
-8.342551970271438e-06   3.4692738953487606e-06   -2.1407904282064112e-05
-8.342551970271438e-06   3.4692738953487606e-06   -2.1407904282064112e-05
-1.0838896752660402e-05   2.6706109039213895e-06   -1.6768131849892677e-05
-1.0838896752660402e-05   2.6706109039213895e-06   -1.6768131849892677e-05
-1.0838896752660402e-05   2.6706109039213895e-06   -1.6768131849892677e-05
-1.0838896752660402e-05   2.6706109039213895e-06   -1.6768131849892677e-05
-1.4104226955037299e-05   1.7670511426634127e-06   -7.182478254386668e-06
-1.4104226955037299e-05   1.7670511426634127e-06   -7.182478254386668e-06
-1.4104226955037299e-05   1.7670511426634127e-06   -7.182478254386668e-06
-1.4104226955037299e-05   1.7670511426634127e-06   -7.182478254386668e-06
-1.9606147691778107e-05   3.293821132581117e-06   -1.543628415500407e-05
-1.9606147691778107e-05   3.293821132581117e-06   -1.543628415500407e-05
-1.9606147691778107e-05   3.293821132581117e-06   -1.543628415500407e-05
-1.9606147691778107e-05   3.293821132581117e-06   -1.543628415500407e-05
-1.8601254267445078e-05   2.2993626846882576e-06   -4.482214078355942e-06
-1.8601254267445078e-05   2.2993626846882576e-06   -4.482214078355942e-06
-1.8601254267445078e-05   2.2993626846882576e-06   -4.482214078355942e-06
-1.8601254267445078e-05   2.2993626846882576e-06   -4.482214078355942e-06
-1.3742986500271484e-05   3.850459824509644e-06   -1.3509985307538036e-05
-1.3742986500271484e-05   3.850459824509644e-06   -1.3509985307538036e-05
-1.3742986500271484e-05   3.850459824509644e-06   -1.3509985307538036e-05
-1.3742986500271484e-05   3.850459824509644e-06   -1.3509985307538036e-05
-1.5842041556295225e-05   2.864818574407034e-06   -9.420175464103602e-06
-1.5842041556295225e-05   2.864818574407034e-06   -9.420175464103602e-06
-1.5842041556295225e-05   2.864818574407034e-06   -9.420175464103602e-06
-1.5842041556295225e-05   2.864818574407034e-06   -9.420175464103602e-06
-1.3742986500271495e-05   2.2993626846882576e-06   -5.412872362248731e-06
-1.3742986500271495e-05   2.2993626846882576e-06   -5.412872362248731e-06
-1.3742986500271495e-05   2.2993626846882576e-06   -5.412872362248731e-06
-1.3742986500271495e-05   2.2993626846882576e-06   -5.412872362248731e-06
-1.860125426744501e-05   3.850459824509644e-06   -1.2579327023645335e-05
-1.860125426744501e-05   3.850459824509644e-06   -1.2579327023645335e-05
-1.860125426744501e-05   3.850459824509644e-06   -1.2579327023645335e-05
-1.860125426744501e-05   3.850459824509644e-06   -1.2579327023645335e-05
-1.7770781600419017e-05   2.5430076225411947e-06   -3.6568305399674685e-06
-1.7770781600419017e-05   2.5430076225411947e-06   -3.6568305399674685e-06
-1.7770781600419017e-05   2.5430076225411947e-06   -3.6568305399674685e-06
-1.7770781600419017e-05   2.5430076225411947e-06   -3.6568305399674685e-06
-1.3308525378767779e-05   4.050226602995716e-06   -1.199825563099224e-05
-1.3308525378767779e-05   4.050226602995716e-06   -1.199825563099224e-05
-1.3308525378767779e-05   4.050226602995716e-06   -1.199825563099224e-05
-1.3308525378767779e-05   4.050226602995716e-06   -1.199825563099224e-05
-1.548037233923188e-05   3.1164652524227985e-06   -7.818253886541604e-06
-1.548037233923188e-05   3.1164652524227985e-06   -7.818253886541604e-06
-1.548037233923188e-05   3.1164652524227985e-06   -7.818253886541604e-06
-1.548037233923188e-05   3.1164652524227985e-06   -7.818253886541604e-06
-1.3308525378767806e-05   2.5430076225411947e-06   -4.5611619282401165e-06
-1.3308525378767806e-05   2.5430076225411947e-06   -4.5611619282401165e-06
-1.3308525378767806e-05   2.5430076225411947e-06   -4.5611619282401165e-06
-1.3308525378767806e-05   2.5430076225411947e-06   -4.5611619282401165e-06
-1.7770781600418963e-05   4.050226602995716e-06   -1.1093924242719464e-05
-1.7770781600418963e-05   4.050226602995716e-06   -1.1093924242719464e-05
-1.7770781600418963e-05   4.050226602995716e-06   -1.1093924242719464e-05
-1.7770781600418963e-05   4.050226602995716e-06   -1.1093924242719464e-05
-1.678613939499e-05   2.9179514045974244e-06   -2.7858155013903694e-06
-1.678613939499e-05   2.9179514045974244e-06   -2.7858155013903694e-06
-1.678613939499e-05   2.9179514045974244e-06   -2.7858155013903694e-06
-1.678613939499e-05   2.9179514045974244e-06   -2.7858155013903694e-06
-1.2947065004153505e-05   4.300767881410309e-06   -1.001396270553889e-05
-1.2947065004153505e-05   4.300767881410309e-06   -1.001396270553889e-05
-1.2947065004153505e-05   4.300767881410309e-06   -1.001396270553889e-05
-1.2947065004153505e-05   4.300767881410309e-06   -1.001396270553889e-05
-1.4697066666156143e-05   3.236974533935965e-06   -6.459017260383566e-06
-1.4697066666156143e-05   3.236974533935965e-06   -6.459017260383566e-06
-1.4697066666156143e-05   3.236974533935965e-06   -6.459017260383566e-06
-1.4697066666156143e-05   3.236974533935965e-06   -6.459017260383566e-06
1.4798616402872513e-05   -1.937282343911738e-06   -1.7178563908176736e-08
1.4798616402872513e-05   -1.937282343911738e-06   -1.7178563908176736e-08
1.4798616402872513e-05   -1.937282343911738e-06   -1.7178563908176736e-08
1.4798616402872513e-05   -1.937282343911738e-06   -1.7178563908176736e-08
6.290422581993631e-06   -3.4820549807571075e-06   -1.5124365180813363e-05
6.290422581993631e-06   -3.4820549807571075e-06   -1.5124365180813363e-05
6.290422581993631e-06   -3.4820549807571075e-06   -1.5124365180813363e-05
6.290422581993631e-06   -3.4820549807571075e-06   -1.5124365180813363e-05
6.727581343402242e-06   -1.5934947778931726e-06   -1.5729580379865394e-06
6.727581343402242e-06   -1.5934947778931726e-06   -1.5729580379865394e-06
6.727581343402242e-06   -1.5934947778931726e-06   -1.5729580379865394e-06
6.727581343402242e-06   -1.5934947778931726e-06   -1.5729580379865394e-06
1.5903361703823495e-05   -3.2397671591492903e-06   -1.587816187660179e-05
1.5903361703823495e-05   -3.2397671591492903e-06   -1.587816187660179e-05
1.5903361703823495e-05   -3.2397671591492903e-06   -1.587816187660179e-05
1.5903361703823495e-05   -3.2397671591492903e-06   -1.587816187660179e-05
1.0488418300384069e-05   -2.298869864986652e-06   -7.4177945807003495e-06
1.0488418300384069e-05   -2.298869864986652e-06   -7.4177945807003495e-06
1.0488418300384069e-05   -2.298869864986652e-06   -7.4177945807003495e-06
1.0488418300384069e-05   -2.298869864986652e-06   -7.4177945807003495e-06
1.5903361703823495e-05   -1.5934947778931726e-06   -5.851946092329122e-07
1.5903361703823495e-05   -1.5934947778931726e-06   -5.851946092329122e-07
1.5903361703823495e-05   -1.5934947778931726e-06   -5.851946092329122e-07
1.5903361703823495e-05   -1.5934947778931726e-06   -5.851946092329122e-07
6.727581343402215e-06   -3.2397671591492903e-06   -1.686592530535531e-05
6.727581343402215e-06   -3.2397671591492903e-06   -1.686592530535531e-05
6.727581343402215e-06   -3.2397671591492903e-06   -1.686592530535531e-05
6.727581343402215e-06   -3.2397671591492903e-06   -1.686592530535531e-05
7.212321517463896e-06   -1.3628650067254054e-06   -2.2575825083280066e-06
7.212321517463896e-06   -1.3628650067254054e-06   -2.2575825083280066e-06
7.212321517463896e-06   -1.3628650067254054e-06   -2.2575825083280066e-06
7.212321517463896e-06   -1.3628650067254054e-06   -2.2575825083280066e-06
1.682954153268523e-05   -3.0297547169179633e-06   -1.728614870758139e-05
1.682954153268523e-05   -3.0297547169179633e-06   -1.728614870758139e-05
1.682954153268523e-05   -3.0297547169179633e-06   -1.728614870758139e-05
1.682954153268523e-05   -3.0297547169179633e-06   -1.728614870758139e-05
1.1317878322099412e-05   -2.2052717844878427e-06   -8.59473311606317e-06
1.1317878322099412e-05   -2.2052717844878427e-06   -8.59473311606317e-06
1.1317878322099412e-05   -2.2052717844878427e-06   -8.59473311606317e-06
1.1317878322099412e-05   -2.2052717844878427e-06   -8.59473311606317e-06
1.682954153268523e-05   -1.3628650067254054e-06   -1.2574486822125369e-06
1.682954153268523e-05   -1.3628650067254054e-06   -1.2574486822125369e-06
1.682954153268523e-05   -1.3628650067254054e-06   -1.2574486822125369e-06
1.682954153268523e-05   -1.3628650067254054e-06   -1.2574486822125369e-06
7.212321517463882e-06   -3.0297547169179633e-06   -1.828628253369702e-05
7.212321517463882e-06   -3.0297547169179633e-06   -1.828628253369702e-05
7.212321517463882e-06   -3.0297547169179633e-06   -1.828628253369702e-05
7.212321517463882e-06   -3.0297547169179633e-06   -1.828628253369702e-05
7.611541227097189e-06   -7.831339617939918e-07   -3.8318193993457225e-06
7.611541227097189e-06   -7.831339617939918e-07   -3.8318193993457225e-06
7.611541227097189e-06   -7.831339617939918e-07   -3.8318193993457225e-06
7.611541227097189e-06   -7.831339617939918e-07   -3.8318193993457225e-06
1.7905205476392058e-05   -2.3676182480411676e-06   -2.0037235909755745e-05
1.7905205476392058e-05   -2.3676182480411676e-06   -2.0037235909755745e-05
1.7905205476392058e-05   -2.3676182480411676e-06   -2.0037235909755745e-05
1.7905205476392058e-05   -2.3676182480411676e-06   -2.0037235909755745e-05
1.1762073515147488e-05   -1.9447865686943264e-06   -1.0052381648623245e-05
1.1762073515147488e-05   -1.9447865686943264e-06   -1.0052381648623245e-05
1.1762073515147488e-05   -1.9447865686943264e-06   -1.0052381648623245e-05
1.1762073515147488e-05   -1.9447865686943264e-06   -1.0052381648623245e-05
6.290422581993645e-06   -7.604001794912557e-07   -1.0154771846914248e-05
6.290422581993645e-06   -7.604001794912557e-07   -1.0154771846914248e-05
6.290422581993645e-06   -7.604001794912557e-07   -1.0154771846914248e-05
6.290422581993645e-06   -7.604001794912557e-07   -1.0154771846914248e-05
-2.698309076370014e-06   -1.6213833547275638e-06   -2.5652581182662086e-05
-2.698309076370014e-06   -1.6213833547275638e-06   -2.5652581182662086e-05
-2.698309076370014e-06   -1.6213833547275638e-06   -2.5652581182662086e-05
-2.698309076370014e-06   -1.6213833547275638e-06   -2.5652581182662086e-05
-2.292614326713412e-06   -2.874956751202718e-07   -1.0365704302043362e-05
-2.292614326713412e-06   -2.874956751202718e-07   -1.0365704302043362e-05
-2.292614326713412e-06   -2.874956751202718e-07   -1.0365704302043362e-05
-2.292614326713412e-06   -2.874956751202718e-07   -1.0365704302043362e-05
6.727581343402228e-06   -1.2819772457703122e-06   -2.480267480984587e-05
6.727581343402228e-06   -1.2819772457703122e-06   -2.480267480984587e-05
6.727581343402228e-06   -1.2819772457703122e-06   -2.480267480984587e-05
6.727581343402228e-06   -1.2819772457703122e-06   -2.480267480984587e-05
2.0286252686565074e-06   -7.822836982922417e-07   -1.7270897480423314e-05
2.0286252686565074e-06   -7.822836982922417e-07   -1.7270897480423314e-05
2.0286252686565074e-06   -7.822836982922417e-07   -1.7270897480423314e-05
2.0286252686565074e-06   -7.822836982922417e-07   -1.7270897480423314e-05
6.727581343402242e-06   -2.874956751202718e-07   -9.769015359653186e-06
6.727581343402242e-06   -2.874956751202718e-07   -9.769015359653186e-06
6.727581343402242e-06   -2.874956751202718e-07   -9.769015359653186e-06
6.727581343402242e-06   -2.874956751202718e-07   -9.769015359653186e-06
-2.292614326713412e-06   -1.2819772457703122e-06   -2.539936375223602e-05
-2.292614326713412e-06   -1.2819772457703122e-06   -2.539936375223602e-05
-2.292614326713412e-06   -1.2819772457703122e-06   -2.539936375223602e-05
-2.292614326713412e-06   -1.2819772457703122e-06   -2.539936375223602e-05
-1.9052975421394487e-06   2.0200155714399006e-07   -1.0501974973029285e-05
-1.9052975421394487e-06   2.0200155714399006e-07   -1.0501974973029285e-05
-1.9052975421394487e-06   2.0200155714399006e-07   -1.0501974973029285e-05
-1.9052975421394487e-06   2.0200155714399006e-07   -1.0501974973029285e-05
7.212321517463882e-06   -8.673680861681979e-07   -2.505638495304752e-05
7.212321517463882e-06   -8.673680861681979e-07   -2.505638495304752e-05
7.212321517463882e-06   -8.673680861681979e-07   -2.505638495304752e-05
7.212321517463882e-06   -8.673680861681979e-07   -2.505638495304752e-05
2.3491646049729497e-06   -4.813875821947297e-07   -1.7182711734613058e-05
2.3491646049729497e-06   -4.813875821947297e-07   -1.7182711734613058e-05
2.3491646049729497e-06   -4.813875821947297e-07   -1.7182711734613058e-05
2.3491646049729497e-06   -4.813875821947297e-07   -1.7182711734613058e-05
7.212321517463896e-06   2.0200155714399006e-07   -9.860353187041886e-06
7.212321517463896e-06   2.0200155714399006e-07   -9.860353187041886e-06
7.212321517463896e-06   2.0200155714399006e-07   -9.860353187041886e-06
7.212321517463896e-06   2.0200155714399006e-07   -9.860353187041886e-06
-1.9052975421394487e-06   -8.673680861681979e-07   -2.569800673903489e-05
-1.9052975421394487e-06   -8.673680861681979e-07   -2.569800673903489e-05
-1.9052975421394487e-06   -8.673680861681979e-07   -2.569800673903489e-05
-1.9052975421394487e-06   -8.673680861681979e-07   -2.569800673903489e-05
-1.541869755497527e-06   7.824648113124392e-07   -1.0862889846958751e-05
-1.541869755497527e-06   7.824648113124392e-07   -1.0862889846958751e-05
-1.541869755497527e-06   7.824648113124392e-07   -1.0862889846958751e-05
-1.541869755497527e-06   7.824648113124392e-07   -1.0862889846958751e-05
7.611541227097189e-06   -3.450759792327906e-07   -2.5442050343622694e-05
7.611541227097189e-06   -3.450759792327906e-07   -2.5442050343622694e-05
7.611541227097189e-06   -3.450759792327906e-07   -2.5442050343622694e-05
7.611541227097189e-06   -3.450759792327906e-07   -2.5442050343622694e-05
2.7512254278679293e-06   -1.0987944038280337e-07   -1.7482641934884297e-05
2.7512254278679293e-06   -1.0987944038280337e-07   -1.7482641934884297e-05
2.7512254278679293e-06   -1.0987944038280337e-07   -1.7482641934884297e-05
2.7512254278679293e-06   -1.0987944038280337e-07   -1.7482641934884297e-05
-2.6983090763700276e-06   5.959031224442779e-07   -1.3089964290470915e-05
-2.6983090763700276e-06   5.959031224442779e-07   -1.3089964290470915e-05
-2.6983090763700276e-06   5.959031224442779e-07   -1.3089964290470915e-05
-2.6983090763700276e-06   5.959031224442779e-07   -1.3089964290470915e-05
-1.1528643424790097e-05   3.1346086540188015e-07   -2.79766535587299e-05
-1.1528643424790097e-05   3.1346086540188015e-07   -2.79766535587299e-05
-1.1528643424790097e-05   3.1346086540188015e-07   -2.79766535587299e-05
-1.1528643424790097e-05   3.1346086540188015e-07   -2.79766535587299e-05
-1.1092110594533323e-05   1.0972530412416397e-06   -1.2993904528641538e-05
-1.1092110594533323e-05   1.0972530412416397e-06   -1.2993904528641538e-05
-1.1092110594533323e-05   1.0972530412416397e-06   -1.2993904528641538e-05
-1.1092110594533323e-05   1.0972530412416397e-06   -1.2993904528641538e-05
-2.292614326713412e-06   6.953683005176802e-07   -2.7418600797240558e-05
-2.292614326713412e-06   6.953683005176802e-07   -2.7418600797240558e-05
-2.292614326713412e-06   6.953683005176802e-07   -2.7418600797240558e-05
-2.292614326713412e-06   6.953683005176802e-07   -2.7418600797240558e-05
-6.856028747560032e-06   8.177915281127636e-07   -1.988636403238649e-05
-6.856028747560032e-06   8.177915281127636e-07   -1.988636403238649e-05
-6.856028747560032e-06   8.177915281127636e-07   -1.988636403238649e-05
-6.856028747560032e-06   8.177915281127636e-07   -1.988636403238649e-05
-2.292614326713412e-06   1.0972530412416397e-06   -1.275277368420751e-05
-2.292614326713412e-06   1.0972530412416397e-06   -1.275277368420751e-05
-2.292614326713412e-06   1.0972530412416397e-06   -1.275277368420751e-05
-2.292614326713412e-06   1.0972530412416397e-06   -1.275277368420751e-05
-1.1092110594533323e-05   6.953683005176802e-07   -2.7659731641674844e-05
-1.1092110594533323e-05   6.953683005176802e-07   -2.7659731641674844e-05
-1.1092110594533323e-05   6.953683005176802e-07   -2.7659731641674844e-05
-1.1092110594533323e-05   6.953683005176802e-07   -2.7659731641674844e-05
-1.0670822579835265e-05   1.6275852825873996e-06   -1.2974414601624965e-05
-1.0670822579835265e-05   1.6275852825873996e-06   -1.2974414601624965e-05
-1.0670822579835265e-05   1.6275852825873996e-06   -1.2974414601624965e-05
-1.0670822579835265e-05   1.6275852825873996e-06   -1.2974414601624965e-05
-1.9052975421394487e-06   1.1365973841509329e-06   -2.7289030258722844e-05
-1.9052975421394487e-06   1.1365973841509329e-06   -2.7289030258722844e-05
-1.9052975421394487e-06   1.1365973841509329e-06   -2.7289030258722844e-05
-1.9052975421394487e-06   1.1365973841509329e-06   -2.7289030258722844e-05
-6.480929001143749e-06   1.1755254748146635e-06   -1.968633468144731e-05
-6.480929001143749e-06   1.1755254748146635e-06   -1.968633468144731e-05
-6.480929001143749e-06   1.1755254748146635e-06   -1.968633468144731e-05
-6.480929001143749e-06   1.1755254748146635e-06   -1.968633468144731e-05
-1.9052975421394487e-06   1.6275852825873996e-06   -1.2679821862563172e-05
-1.9052975421394487e-06   1.6275852825873996e-06   -1.2679821862563172e-05
-1.9052975421394487e-06   1.6275852825873996e-06   -1.2679821862563172e-05
-1.9052975421394487e-06   1.6275852825873996e-06   -1.2679821862563172e-05
-1.0670822579835265e-05   1.136597384150716e-06   -2.7583622997784732e-05
-1.0670822579835265e-05   1.136597384150716e-06   -2.7583622997784732e-05
-1.0670822579835265e-05   1.136597384150716e-06   -2.7583622997784732e-05
-1.0670822579835265e-05   1.136597384150716e-06   -2.7583622997784732e-05
-1.0281571654755578e-05   2.167135547259365e-06   -1.328172121023213e-05
-1.0281571654755578e-05   2.167135547259365e-06   -1.328172121023213e-05
-1.0281571654755578e-05   2.167135547259365e-06   -1.328172121023213e-05
-1.0281571654755578e-05   2.167135547259365e-06   -1.328172121023213e-05
-1.541869755497527e-06   1.5923984787481749e-06   -2.7503048801222257e-05
-1.541869755497527e-06   1.5923984787481749e-06   -2.7503048801222257e-05
-1.541869755497527e-06   1.5923984787481749e-06   -2.7503048801222257e-05
-1.541869755497527e-06   1.5923984787481749e-06   -2.7503048801222257e-05
-6.146277721352627e-06   1.5425640777129174e-06   -1.979913488417626e-05
-6.146277721352627e-06   1.5425640777129174e-06   -1.979913488417626e-05
-6.146277721352627e-06   1.5425640777129174e-06   -1.979913488417626e-05
-6.146277721352627e-06   1.5425640777129174e-06   -1.979913488417626e-05
-1.152864342479012e-05   1.9148746358496355e-06   -1.061064420661425e-05
-1.152864342479012e-05   1.9148746358496355e-06   -1.061064420661425e-05
-1.152864342479012e-05   1.9148746358496355e-06   -1.061064420661425e-05
-1.152864342479012e-05   1.9148746358496355e-06   -1.061064420661425e-05
-2.0206013579326475e-05   2.317904540508845e-06   -2.4831109854712573e-05
-2.0206013579326475e-05   2.317904540508845e-06   -2.4831109854712573e-05
-2.0206013579326475e-05   2.317904540508845e-06   -2.4831109854712573e-05
-2.0206013579326475e-05   2.317904540508845e-06   -2.4831109854712573e-05
-1.9679184219830822e-05   2.4500974305478743e-06   -9.96023285585704e-06
-1.9679184219830822e-05   2.4500974305478743e-06   -9.96023285585704e-06
-1.9679184219830822e-05   2.4500974305478743e-06   -9.96023285585704e-06
-1.9679184219830822e-05   2.4500974305478743e-06   -9.96023285585704e-06
-1.1092110594533343e-05   2.80159716924285e-06   -2.4482922074569768e-05
-1.1092110594533343e-05   2.80159716924285e-06   -2.4482922074569768e-05
-1.1092110594533343e-05   2.80159716924285e-06   -2.4482922074569768e-05
-1.1092110594533343e-05   2.80159716924285e-06   -2.4482922074569768e-05
-1.5512536816973255e-05   2.470670477337355e-06   -1.6916989022026645e-05
-1.5512536816973255e-05   2.470670477337355e-06   -1.6916989022026645e-05
-1.5512536816973255e-05   2.470670477337355e-06   -1.6916989022026645e-05
-1.5512536816973255e-05   2.470670477337355e-06   -1.6916989022026645e-05
-1.1092110594533343e-05   2.4500974305478743e-06   -1.017113269907396e-05
-1.1092110594533343e-05   2.4500974305478743e-06   -1.017113269907396e-05
-1.1092110594533343e-05   2.4500974305478743e-06   -1.017113269907396e-05
-1.1092110594533343e-05   2.4500974305478743e-06   -1.017113269907396e-05
-1.9679184219830822e-05   2.80159716924285e-06   -2.4272022231352814e-05
-1.9679184219830822e-05   2.80159716924285e-06   -2.4272022231352814e-05
-1.9679184219830822e-05   2.80159716924285e-06   -2.4272022231352814e-05
-1.9679184219830822e-05   2.80159716924285e-06   -2.4272022231352814e-05
-1.9094743488389422e-05   2.9316602598200873e-06   -9.598200764460271e-06
-1.9094743488389422e-05   2.9316602598200873e-06   -9.598200764460271e-06
-1.9094743488389422e-05   2.9316602598200873e-06   -9.598200764460271e-06
-1.9094743488389422e-05   2.9316602598200873e-06   -9.598200764460271e-06
-1.0670822579835282e-05   3.2179573483909034e-06   -2.380984719852628e-05
-1.0670822579835282e-05   3.2179573483909034e-06   -2.380984719852628e-05
-1.0670822579835282e-05   3.2179573483909034e-06   -2.380984719852628e-05
-1.0670822579835282e-05   3.2179573483909034e-06   -2.380984719852628e-05
-1.497813846299437e-05   2.848076072731404e-06   -1.640905862786553e-05
-1.497813846299437e-05   2.848076072731404e-06   -1.640905862786553e-05
-1.497813846299437e-05   2.848076072731404e-06   -1.640905862786553e-05
-1.497813846299437e-05   2.848076072731404e-06   -1.640905862786553e-05
-1.0670822579835272e-05   2.9316602598200873e-06   -9.769979017602523e-06
-1.0670822579835272e-05   2.9316602598200873e-06   -9.769979017602523e-06
-1.0670822579835272e-05   2.9316602598200873e-06   -9.769979017602523e-06
-1.0670822579835272e-05   2.9316602598200873e-06   -9.769979017602523e-06
-1.9094743488389422e-05   3.2179573483909034e-06   -2.3638068945383995e-05
-1.9094743488389422e-05   3.2179573483909034e-06   -2.3638068945383995e-05
-1.9094743488389422e-05   3.2179573483909034e-06   -2.3638068945383995e-05
-1.9094743488389422e-05   3.2179573483909034e-06   -2.3638068945383995e-05
-1.8601281084169365e-05   3.4692738953487606e-06   -9.82070248763101e-06
-1.8601281084169365e-05   3.4692738953487606e-06   -9.82070248763101e-06
-1.8601281084169365e-05   3.4692738953487606e-06   -9.82070248763101e-06
-1.8601281084169365e-05   3.4692738953487606e-06   -9.82070248763101e-06
-1.0281571654755595e-05   3.6775510998451194e-06   -2.381185119268509e-05
-1.0281571654755595e-05   3.6775510998451194e-06   -2.381185119268509e-05
-1.0281571654755595e-05   3.6775510998451194e-06   -2.381185119268509e-05
-1.0281571654755595e-05   3.6775510998451194e-06   -2.381185119268509e-05
-1.4649409910143116e-05   3.1953032918405344e-06   -1.624277208223639e-05
-1.4649409910143116e-05   3.1953032918405344e-06   -1.624277208223639e-05
-1.4649409910143116e-05   3.1953032918405344e-06   -1.624277208223639e-05
-1.4649409910143116e-05   3.1953032918405344e-06   -1.624277208223639e-05
-2.0206013579326475e-05   3.2938211325812252e-06   -5.307456747611055e-06
-2.0206013579326475e-05   3.2938211325812252e-06   -5.307456747611055e-06
-2.0206013579326475e-05   3.2938211325812252e-06   -5.307456747611055e-06
-2.0206013579326475e-05   3.2938211325812252e-06   -5.307456747611055e-06
-2.9360561495924643e-05   4.540732943189357e-06   -1.9816889522243164e-05
-2.9360561495924643e-05   4.540732943189357e-06   -1.9816889522243164e-05
-2.9360561495924643e-05   4.540732943189357e-06   -1.9816889522243164e-05
-2.9360561495924643e-05   4.540732943189357e-06   -1.9816889522243164e-05
-2.814015563763626e-05   3.850459824509644e-06   -1.6284861276660541e-06
-2.814015563763626e-05   3.850459824509644e-06   -1.6284861276660541e-06
-2.814015563763626e-05   3.850459824509644e-06   -1.6284861276660541e-06
-2.814015563763626e-05   3.850459824509644e-06   -1.6284861276660541e-06
-1.967918421983079e-05   5.183596653413058e-06   -1.6529987254683953e-05
-1.967918421983079e-05   5.183596653413058e-06   -1.6529987254683953e-05
-1.967918421983079e-05   5.183596653413058e-06   -1.6529987254683953e-05
-1.967918421983079e-05   5.183596653413058e-06   -1.6529987254683953e-05
-2.3340559068751732e-05   4.325378384806462e-06   -9.912764878651623e-06
-2.3340559068751732e-05   4.325378384806462e-06   -9.912764878651623e-06
-2.3340559068751732e-05   4.325378384806462e-06   -9.912764878651623e-06
-2.3340559068751732e-05   4.325378384806462e-06   -9.912764878651623e-06
-1.9679184219830806e-05   3.850459824509644e-06   -2.4283682250080593e-06
-1.9679184219830806e-05   3.850459824509644e-06   -2.4283682250080593e-06
-1.9679184219830806e-05   3.850459824509644e-06   -2.4283682250080593e-06
-1.9679184219830806e-05   3.850459824509644e-06   -2.4283682250080593e-06
-2.814015563763622e-05   5.183596653413058e-06   -1.573010515734186e-05
-2.814015563763622e-05   5.183596653413058e-06   -1.573010515734186e-05
-2.814015563763622e-05   5.183596653413058e-06   -1.573010515734186e-05
-2.814015563763622e-05   5.183596653413058e-06   -1.573010515734186e-05
-2.713610196583144e-05   4.050226602995716e-06   -8.707742174432313e-08
-2.713610196583144e-05   4.050226602995716e-06   -8.707742174432313e-08
-2.713610196583144e-05   4.050226602995716e-06   -8.707742174432313e-08
-2.713610196583144e-05   4.050226602995716e-06   -8.707742174432313e-08
-1.9094743488389422e-05   5.353274981621282e-06   -1.4271170577989568e-05
-1.9094743488389422e-05   5.353274981621282e-06   -1.4271170577989568e-05
-1.9094743488389422e-05   5.353274981621282e-06   -1.4271170577989568e-05
-1.9094743488389422e-05   5.353274981621282e-06   -1.4271170577989568e-05
-2.2933125608956584e-05   4.583314761265507e-06   -7.411890911497286e-06
-2.2933125608956584e-05   4.583314761265507e-06   -7.411890911497286e-06
-2.2933125608956584e-05   4.583314761265507e-06   -7.411890911497286e-06
-2.2933125608956584e-05   4.583314761265507e-06   -7.411890911497286e-06
-1.9094743488389422e-05   4.050226602995716e-06   -8.689064489196194e-07
-1.9094743488389422e-05   4.050226602995716e-06   -8.689064489196194e-07
-1.9094743488389422e-05   4.050226602995716e-06   -8.689064489196194e-07
-1.9094743488389422e-05   4.050226602995716e-06   -8.689064489196194e-07
-2.7136101965831333e-05   5.3532749816210656e-06   -1.3489341550814316e-05
-2.7136101965831333e-05   5.3532749816210656e-06   -1.3489341550814316e-05
-2.7136101965831333e-05   5.3532749816210656e-06   -1.3489341550814316e-05
-2.7136101965831333e-05   5.3532749816210656e-06   -1.3489341550814316e-05
-2.6050277108832486e-05   4.300767881410309e-06   1.8766277106763455e-06
-2.6050277108832486e-05   4.300767881410309e-06   1.8766277106763455e-06
-2.6050277108832486e-05   4.300767881410309e-06   1.8766277106763455e-06
-2.6050277108832486e-05   4.300767881410309e-06   1.8766277106763455e-06
-1.8601281084169365e-05   5.4963014956275254e-06   -1.1255685832292535e-05
-1.8601281084169365e-05   5.4963014956275254e-06   -1.1255685832292535e-05
-1.8601281084169365e-05   5.4963014956275254e-06   -1.1255685832292535e-05
-1.8601281084169365e-05   5.4963014956275254e-06   -1.1255685832292535e-05
-2.1910653662480817e-05   4.6249517192821065e-06   -5.217255002633119e-06
-2.1910653662480817e-05   4.6249517192821065e-06   -5.217255002633119e-06
-2.1910653662480817e-05   4.6249517192821065e-06   -5.217255002633119e-06
-2.1910653662480817e-05   4.6249517192821065e-06   -5.217255002633119e-06
2.5010240730289875e-05   -3.4820549807571075e-06   5.0513633446167125e-06
2.5010240730289875e-05   -3.4820549807571075e-06   5.0513633446167125e-06
2.5010240730289875e-05   -3.4820549807571075e-06   5.0513633446167125e-06
2.5010240730289875e-05   -3.4820549807571075e-06   5.0513633446167125e-06
1.2032009483013437e-05   -5.141849713694111e-06   -1.7574898907272854e-05
1.2032009483013437e-05   -5.141849713694111e-06   -1.7574898907272854e-05
1.2032009483013437e-05   -5.141849713694111e-06   -1.7574898907272854e-05
1.2032009483013437e-05   -5.141849713694111e-06   -1.7574898907272854e-05
1.2515917822068548e-05   -3.2397671591492903e-06   2.484884797566674e-06
1.2515917822068548e-05   -3.2397671591492903e-06   2.484884797566674e-06
1.2515917822068548e-05   -3.2397671591492903e-06   2.484884797566674e-06
1.2515917822068548e-05   -3.2397671591492903e-06   2.484884797566674e-06
2.6141892325086684e-05   -5.023424752720459e-06   -1.915487815132088e-05
2.6141892325086684e-05   -5.023424752720459e-06   -1.915487815132088e-05
2.6141892325086684e-05   -5.023424752720459e-06   -1.915487815132088e-05
2.6141892325086684e-05   -5.023424752720459e-06   -1.915487815132088e-05
1.815460543365469e-05   -3.8094380743710667e-06   -6.571125339277018e-06
1.815460543365469e-05   -3.8094380743710667e-06   -6.571125339277018e-06
1.815460543365469e-05   -3.8094380743710667e-06   -6.571125339277018e-06
1.815460543365469e-05   -3.8094380743710667e-06   -6.571125339277018e-06
2.614189232508671e-05   -3.2397671591492903e-06   3.555079353709397e-06
2.614189232508671e-05   -3.2397671591492903e-06   3.555079353709397e-06
2.614189232508671e-05   -3.2397671591492903e-06   3.555079353709397e-06
2.614189232508671e-05   -3.2397671591492903e-06   3.555079353709397e-06
1.2515917822068521e-05   -5.023424752720459e-06   -2.0225072707463548e-05
1.2515917822068521e-05   -5.023424752720459e-06   -2.0225072707463548e-05
1.2515917822068521e-05   -5.023424752720459e-06   -2.0225072707463548e-05
1.2515917822068521e-05   -5.023424752720459e-06   -2.0225072707463548e-05
1.2997525395633329e-05   -3.0297547169179633e-06   1.2253856256894645e-06
1.2997525395633329e-05   -3.0297547169179633e-06   1.2253856256894645e-06
1.2997525395633329e-05   -3.0297547169179633e-06   1.2253856256894645e-06
1.2997525395633329e-05   -3.0297547169179633e-06   1.2253856256894645e-06
2.7009261539218165e-05   -4.848468339658076e-06   -2.103627977330792e-05
2.7009261539218165e-05   -4.848468339658076e-06   -2.103627977330792e-05
2.7009261539218165e-05   -4.848468339658076e-06   -2.103627977330792e-05
2.7009261539218165e-05   -4.848468339658076e-06   -2.103627977330792e-05
1.9109025744415676e-05   -3.796497055982666e-06   -8.500402885508988e-06
1.9109025744415676e-05   -3.796497055982666e-06   -8.500402885508988e-06
1.9109025744415676e-05   -3.796497055982666e-06   -8.500402885508988e-06
1.9109025744415676e-05   -3.796497055982666e-06   -8.500402885508988e-06
2.7009261539218165e-05   -3.0297547169179633e-06   2.3166137993334453e-06
2.7009261539218165e-05   -3.0297547169179633e-06   2.3166137993334453e-06
2.7009261539218165e-05   -3.0297547169179633e-06   2.3166137993334453e-06
2.7009261539218165e-05   -3.0297547169179633e-06   2.3166137993334453e-06
1.2997525395633329e-05   -4.848468339657859e-06   -2.212750794695201e-05
1.2997525395633329e-05   -4.848468339657859e-06   -2.212750794695201e-05
1.2997525395633329e-05   -4.848468339657859e-06   -2.212750794695201e-05
1.2997525395633329e-05   -4.848468339657859e-06   -2.212750794695201e-05
1.332322038533461e-05   -2.3676182480411676e-06   -1.3049633073801935e-06
1.332322038533461e-05   -2.3676182480411676e-06   -1.3049633073801935e-06
1.332322038533461e-05   -2.3676182480411676e-06   -1.3049633073801935e-06
1.332322038533461e-05   -2.3676182480411676e-06   -1.3049633073801935e-06
2.7926913594142005e-05   -4.168078082009315e-06   -2.4564176088345108e-05
2.7926913594142005e-05   -4.168078082009315e-06   -2.4564176088345108e-05
2.7926913594142005e-05   -4.168078082009315e-06   -2.4564176088345108e-05
2.7926913594142005e-05   -4.168078082009315e-06   -2.4564176088345108e-05
1.9369550980495932e-05   -3.5036396775732503e-06   -1.0700568108263384e-05
1.9369550980495932e-05   -3.5036396775732503e-06   -1.0700568108263384e-05
1.9369550980495932e-05   -3.5036396775732503e-06   -1.0700568108263384e-05
1.9369550980495932e-05   -3.5036396775732503e-06   -1.0700568108263384e-05
1.203200948301345e-05   -1.6213833547275638e-06   -5.956139591852504e-06
1.203200948301345e-05   -1.6213833547275638e-06   -5.956139591852504e-06
1.203200948301345e-05   -1.6213833547275638e-06   -5.956139591852504e-06
1.203200948301345e-05   -1.6213833547275638e-06   -5.956139591852504e-06
-7.653555919751465e-07   -3.3098639934752393e-06   -2.829816976674868e-05
-7.653555919751465e-07   -3.3098639934752393e-06   -2.829816976674868e-05
-7.653555919751465e-07   -3.3098639934752393e-06   -2.829816976674868e-05
-7.653555919751465e-07   -3.3098639934752393e-06   -2.829816976674868e-05
-2.694367851803649e-07   -1.2819772457703122e-06   -6.571662342478852e-06
-2.694367851803649e-07   -1.2819772457703122e-06   -6.571662342478852e-06
-2.694367851803649e-07   -1.2819772457703122e-06   -6.571662342478852e-06
-2.694367851803649e-07   -1.2819772457703122e-06   -6.571662342478852e-06
1.2515917822068548e-05   -3.1483066383623977e-06   -2.6760789052338735e-05
1.2515917822068548e-05   -3.1483066383623977e-06   -2.6760789052338735e-05
1.2515917822068548e-05   -3.1483066383623977e-06   -2.6760789052338735e-05
1.2515917822068548e-05   -3.1483066383623977e-06   -2.6760789052338735e-05
5.895275484056943e-06   -2.003474634494455e-06   -1.6413284357973373e-05
5.895275484056943e-06   -2.003474634494455e-06   -1.6413284357973373e-05
5.895275484056943e-06   -2.003474634494455e-06   -1.6413284357973373e-05
5.895275484056943e-06   -2.003474634494455e-06   -1.6413284357973373e-05
1.2515917822068535e-05   -1.2819772457703122e-06   -5.451864706923753e-06
1.2515917822068535e-05   -1.2819772457703122e-06   -5.451864706923753e-06
1.2515917822068535e-05   -1.2819772457703122e-06   -5.451864706923753e-06
1.2515917822068535e-05   -1.2819772457703122e-06   -5.451864706923753e-06
-2.694367851803649e-07   -3.1483066383623977e-06   -2.788058668789378e-05
-2.694367851803649e-07   -3.1483066383623977e-06   -2.788058668789378e-05
-2.694367851803649e-07   -3.1483066383623977e-06   -2.788058668789378e-05
-2.694367851803649e-07   -3.1483066383623977e-06   -2.788058668789378e-05
1.6729774729521687e-07   -8.673680861681979e-07   -6.73417455597763e-06
1.6729774729521687e-07   -8.673680861681979e-07   -6.73417455597763e-06
1.6729774729521687e-07   -8.673680861681979e-07   -6.73417455597763e-06
1.6729774729521687e-07   -8.673680861681979e-07   -6.73417455597763e-06
1.2997525395633329e-05   -2.8497976900291287e-06   -2.6928429540891283e-05
1.2997525395633329e-05   -2.8497976900291287e-06   -2.6928429540891283e-05
1.2997525395633329e-05   -2.8497976900291287e-06   -2.6928429540891283e-05
1.2997525395633329e-05   -2.8497976900291287e-06   -2.6928429540891283e-05
6.230918794279584e-06   -1.8357947890632834e-06   -1.625915361254751e-05
6.230918794279584e-06   -1.8357947890632834e-06   -1.625915361254751e-05
6.230918794279584e-06   -1.8357947890632834e-06   -1.625915361254751e-05
6.230918794279584e-06   -1.8357947890632834e-06   -1.625915361254751e-05
1.2997525395633329e-05   -8.673680861681979e-07   -5.544716793661115e-06
1.2997525395633329e-05   -8.673680861681979e-07   -5.544716793661115e-06
1.2997525395633329e-05   -8.673680861681979e-07   -5.544716793661115e-06
1.2997525395633329e-05   -8.673680861681979e-07   -5.544716793661115e-06
1.6729774729523042e-07   -2.8497976900291287e-06   -2.8117887303207825e-05
1.6729774729523042e-07   -2.8497976900291287e-06   -2.8117887303207825e-05
1.6729774729523042e-07   -2.8497976900291287e-06   -2.8117887303207825e-05
1.6729774729523042e-07   -2.8497976900291287e-06   -2.8117887303207825e-05
4.775453986923705e-07   -3.450759792330074e-07   -7.006987698613483e-06
4.775453986923705e-07   -3.450759792330074e-07   -7.006987698613483e-06
4.775453986923705e-07   -3.450759792330074e-07   -7.006987698613483e-06
4.775453986923705e-07   -3.450759792330074e-07   -7.006987698613483e-06
1.3323220385334637e-05   -2.424910194423523e-06   -2.7168545480569454e-05
1.3323220385334637e-05   -2.424910194423523e-06   -2.7168545480569454e-05
1.3323220385334637e-05   -2.424910194423523e-06   -2.7168545480569454e-05
1.3323220385334637e-05   -2.424910194423523e-06   -2.7168545480569454e-05
6.635638982551922e-06   -1.5417355240198143e-06   -1.6552481278174242e-05
6.635638982551922e-06   -1.5417355240198143e-06   -1.6552481278174242e-05
6.635638982551922e-06   -1.5417355240198143e-06   -1.6552481278174242e-05
6.635638982551922e-06   -1.5417355240198143e-06   -1.6552481278174242e-05
-7.653555919751465e-07   3.134608654016633e-07   -9.123834996943212e-06
-7.653555919751465e-07   3.134608654016633e-07   -9.123834996943212e-06
-7.653555919751465e-07   3.134608654016633e-07   -9.123834996943212e-06
-7.653555919751465e-07   3.134608654016633e-07   -9.123834996943212e-06
-1.3373782003691147e-05   -1.7034830564366821e-06   -3.134804536957306e-05
-1.3373782003691147e-05   -1.7034830564366821e-06   -3.134804536957306e-05
-1.3373782003691147e-05   -1.7034830564366821e-06   -3.134804536957306e-05
-1.3373782003691147e-05   -1.7034830564366821e-06   -3.134804536957306e-05
-1.277847181677521e-05   6.953683005176802e-07   -9.915414611400973e-06
-1.277847181677521e-05   6.953683005176802e-07   -9.915414611400973e-06
-1.277847181677521e-05   6.953683005176802e-07   -9.915414611400973e-06
-1.277847181677521e-05   6.953683005176802e-07   -9.915414611400973e-06
-2.694367851803649e-07   -1.5121570726779523e-06   -2.9439291106808175e-05
-2.694367851803649e-07   -1.5121570726779523e-06   -2.9439291106808175e-05
-2.694367851803649e-07   -1.5121570726779523e-06   -2.9439291106808175e-05
-2.694367851803649e-07   -1.5121570726779523e-06   -2.9439291106808175e-05
-6.717313576183456e-06   -3.0690211850971545e-07   -1.941598276097075e-05
-6.717313576183456e-06   -3.0690211850971545e-07   -1.941598276097075e-05
-6.717313576183456e-06   -3.0690211850971545e-07   -1.941598276097075e-05
-6.717313576183456e-06   -3.0690211850971545e-07   -1.941598276097075e-05
-2.694367851803649e-07   6.953683005176802e-07   -8.590899387483377e-06
-2.694367851803649e-07   6.953683005176802e-07   -8.590899387483377e-06
-2.694367851803649e-07   6.953683005176802e-07   -8.590899387483377e-06
-2.694367851803649e-07   6.953683005176802e-07   -8.590899387483377e-06
-1.277847181677521e-05   -1.5121570726779523e-06   -3.076380633072577e-05
-1.277847181677521e-05   -1.5121570726779523e-06   -3.076380633072577e-05
-1.277847181677521e-05   -1.5121570726779523e-06   -3.076380633072577e-05
-1.277847181677521e-05   -1.5121570726779523e-06   -3.076380633072577e-05
-1.2232341582292576e-05   1.1365973841509329e-06   -9.737706892235616e-06
-1.2232341582292576e-05   1.1365973841509329e-06   -9.737706892235616e-06
-1.2232341582292576e-05   1.1365973841509329e-06   -9.737706892235616e-06
-1.2232341582292576e-05   1.1365973841509329e-06   -9.737706892235616e-06
1.6729774729523042e-07   -1.217583976799181e-06   -2.8991263624978652e-05
1.6729774729523042e-07   -1.217583976799181e-06   -2.8991263624978652e-05
1.6729774729523042e-07   -1.217583976799181e-06   -2.8991263624978652e-05
1.6729774729523042e-07   -1.217583976799181e-06   -2.8991263624978652e-05
-6.233114116543834e-06   -8.906526493884445e-08   -1.9001021745696447e-05
-6.233114116543834e-06   -8.906526493884445e-08   -1.9001021745696447e-05
-6.233114116543834e-06   -8.906526493884445e-08   -1.9001021745696447e-05
-6.233114116543834e-06   -8.906526493884445e-08   -1.9001021745696447e-05
1.6729774729523042e-07   1.1365973841509329e-06   -8.325198075665569e-06
1.6729774729523042e-07   1.1365973841509329e-06   -8.325198075665569e-06
1.6729774729523042e-07   1.1365973841509329e-06   -8.325198075665569e-06
1.6729774729523042e-07   1.1365973841509329e-06   -8.325198075665569e-06
-1.2232341582292576e-05   -1.2175839767993978e-06   -3.0403772441548686e-05
-1.2232341582292576e-05   -1.2175839767993978e-06   -3.0403772441548686e-05
-1.2232341582292576e-05   -1.2175839767993978e-06   -3.0403772441548686e-05
-1.2232341582292576e-05   -1.2175839767993978e-06   -3.0403772441548686e-05
-1.1864387947456725e-05   1.5923984787481749e-06   -9.90956903241017e-06
-1.1864387947456725e-05   1.5923984787481749e-06   -9.90956903241017e-06
-1.1864387947456725e-05   1.5923984787481749e-06   -9.90956903241017e-06
-1.1864387947456725e-05   1.5923984787481749e-06   -9.90956903241017e-06
4.775453986923705e-07   -9.377804387924842e-07   -2.8961350592134476e-05
4.775453986923705e-07   -9.377804387924842e-07   -2.8961350592134476e-05
4.775453986923705e-07   -9.377804387924842e-07   -2.8961350592134476e-05
4.775453986923705e-07   -9.377804387924842e-07   -2.8961350592134476e-05
-5.8884766537669785e-06   1.5510978329026127e-07   -1.9007047971285408e-05
-5.8884766537669785e-06   1.5510978329026127e-07   -1.9007047971285408e-05
-5.8884766537669785e-06   1.5510978329026127e-07   -1.9007047971285408e-05
-5.8884766537669785e-06   1.5510978329026127e-07   -1.9007047971285408e-05
-1.3373782003691147e-05   2.317904540508845e-06   -7.430275588824332e-06
-1.3373782003691147e-05   2.317904540508845e-06   -7.430275588824332e-06
-1.3373782003691147e-05   2.317904540508845e-06   -7.430275588824332e-06
-1.3373782003691147e-05   2.317904540508845e-06   -7.430275588824332e-06
-2.616257541636895e-05   5.06412029855274e-07   -2.9831826783012624e-05
-2.616257541636895e-05   5.06412029855274e-07   -2.9831826783012624e-05
-2.616257541636895e-05   5.06412029855274e-07   -2.9831826783012624e-05
-2.616257541636895e-05   5.06412029855274e-07   -2.9831826783012624e-05
-2.531471766794209e-05   2.80159716924285e-06   -7.90619981322284e-06
-2.531471766794209e-05   2.80159716924285e-06   -7.90619981322284e-06
-2.531471766794209e-05   2.80159716924285e-06   -7.90619981322284e-06
-2.531471766794209e-05   2.80159716924285e-06   -7.90619981322284e-06
-1.277847181677521e-05   8.556058876982124e-07   -2.7632348129574128e-05
-1.277847181677521e-05   8.556058876982124e-07   -2.7632348129574128e-05
-1.277847181677521e-05   8.556058876982124e-07   -2.7632348129574128e-05
-1.277847181677521e-05   8.556058876982124e-07   -2.7632348129574128e-05
-1.9207724565859962e-05   1.7839104735533143e-06   -1.7473909632612472e-05
-1.9207724565859962e-05   1.7839104735533143e-06   -1.7473909632612472e-05
-1.9207724565859962e-05   1.7839104735533143e-06   -1.7473909632612472e-05
-1.9207724565859962e-05   1.7839104735533143e-06   -1.7473909632612472e-05
-1.277847181677521e-05   2.80159716924285e-06   -6.738605044295971e-06
-1.277847181677521e-05   2.80159716924285e-06   -6.738605044295971e-06
-1.277847181677521e-05   2.80159716924285e-06   -6.738605044295971e-06
-1.277847181677521e-05   2.80159716924285e-06   -6.738605044295971e-06
-2.5314717667942132e-05   8.556058876982124e-07   -2.8799942898500848e-05
-2.5314717667942132e-05   8.556058876982124e-07   -2.8799942898500848e-05
-2.5314717667942132e-05   8.556058876982124e-07   -2.8799942898500848e-05
-2.5314717667942132e-05   8.556058876982124e-07   -2.8799942898500848e-05
-2.449355360056123e-05   3.2179573483909034e-06   -7.188756087804331e-06
-2.449355360056123e-05   3.2179573483909034e-06   -7.188756087804331e-06
-2.449355360056123e-05   3.2179573483909034e-06   -7.188756087804331e-06
-2.449355360056123e-05   3.2179573483909034e-06   -7.188756087804331e-06
-1.22323415822926e-05   1.1765823570125244e-06   -2.6399284456758254e-05
-1.22323415822926e-05   1.1765823570125244e-06   -2.6399284456758254e-05
-1.22323415822926e-05   1.1765823570125244e-06   -2.6399284456758254e-05
-1.22323415822926e-05   1.1765823570125244e-06   -2.6399284456758254e-05
-1.8439147771829537e-05   2.087804342452461e-06   -1.660134066546073e-05
-1.8439147771829537e-05   2.087804342452461e-06   -1.660134066546073e-05
-1.8439147771829537e-05   2.087804342452461e-06   -1.660134066546073e-05
-1.8439147771829537e-05   2.087804342452461e-06   -1.660134066546073e-05
-1.223234158229257e-05   3.2179573483909034e-06   -5.963931092977238e-06
-1.223234158229257e-05   3.2179573483909034e-06   -5.963931092977238e-06
-1.223234158229257e-05   3.2179573483909034e-06   -5.963931092977238e-06
-1.223234158229257e-05   3.2179573483909034e-06   -5.963931092977238e-06
-2.449355360056127e-05   1.1765823570125244e-06   -2.7624109451585346e-05
-2.449355360056127e-05   1.1765823570125244e-06   -2.7624109451585346e-05
-2.449355360056127e-05   1.1765823570125244e-06   -2.7624109451585346e-05
-2.449355360056127e-05   1.1765823570125244e-06   -2.7624109451585346e-05
-2.3872889086638382e-05   3.6775510998451194e-06   -7.211818235122801e-06
-2.3872889086638382e-05   3.6775510998451194e-06   -7.211818235122801e-06
-2.3872889086638382e-05   3.6775510998451194e-06   -7.211818235122801e-06
-2.3872889086638382e-05   3.6775510998451194e-06   -7.211818235122801e-06
-1.1864387947456749e-05   1.4470693459175867e-06   -2.5887697748069058e-05
-1.1864387947456749e-05   1.4470693459175867e-06   -2.5887697748069058e-05
-1.1864387947456749e-05   1.4470693459175867e-06   -2.5887697748069058e-05
-1.1864387947456749e-05   1.4470693459175867e-06   -2.5887697748069058e-05
-1.801386767303608e-05   2.300215879470118e-06   -1.6150452792234926e-05
-1.801386767303608e-05   2.300215879470118e-06   -1.6150452792234926e-05
-1.801386767303608e-05   2.300215879470118e-06   -1.6150452792234926e-05
-1.801386767303608e-05   2.300215879470118e-06   -1.6150452792234926e-05
-2.616257541636895e-05   4.540732943189357e-06   -4.251097849112097e-06
-2.616257541636895e-05   4.540732943189357e-06   -4.251097849112097e-06
-2.616257541636895e-05   4.540732943189357e-06   -4.251097849112097e-06
-2.616257541636895e-05   4.540732943189357e-06   -4.251097849112097e-06
-3.9537464429569656e-05   4.301178693339814e-06   -2.668631208768994e-05
-3.9537464429569656e-05   4.301178693339814e-06   -2.668631208768994e-05
-3.9537464429569656e-05   4.301178693339814e-06   -2.668631208768994e-05
-3.9537464429569656e-05   4.301178693339814e-06   -2.668631208768994e-05
-3.78525039586001e-05   5.183596653413058e-06   -1.914400612188817e-08
-3.78525039586001e-05   5.183596653413058e-06   -1.914400612188817e-08
-3.78525039586001e-05   5.183596653413058e-06   -1.914400612188817e-08
-3.78525039586001e-05   5.183596653413058e-06   -1.914400612188817e-08
-2.5314717667942047e-05   5.4252980374663255e-06   -2.106047532098387e-05
-2.5314717667942047e-05   5.4252980374663255e-06   -2.106047532098387e-05
-2.5314717667942047e-05   5.4252980374663255e-06   -2.106047532098387e-05
-2.5314717667942047e-05   5.4252980374663255e-06   -2.106047532098387e-05
-3.0828225898358494e-05   5.1129213643320934e-06   -1.1683868933075886e-05
-3.0828225898358494e-05   5.1129213643320934e-06   -1.1683868933075886e-05
-3.0828225898358494e-05   5.1129213643320934e-06   -1.1683868933075886e-05
-3.0828225898358494e-05   5.1129213643320934e-06   -1.1683868933075886e-05
-2.531471766794211e-05   5.183596653413058e-06   -1.6416483655378334e-07
-2.531471766794211e-05   5.183596653413058e-06   -1.6416483655378334e-07
-2.531471766794211e-05   5.183596653413058e-06   -1.6416483655378334e-07
-2.531471766794211e-05   5.183596653413058e-06   -1.6416483655378334e-07
-3.785250395860003e-05   5.4252980374663255e-06   -2.0915454490552004e-05
-3.785250395860003e-05   5.4252980374663255e-06   -2.0915454490552004e-05
-3.785250395860003e-05   5.4252980374663255e-06   -2.0915454490552004e-05
-3.785250395860003e-05   5.4252980374663255e-06   -2.0915454490552004e-05
-3.645687526893084e-05   5.3532749816210656e-06   2.373472095073604e-06
-3.645687526893084e-05   5.3532749816210656e-06   2.373472095073604e-06
-3.645687526893084e-05   5.3532749816210656e-06   2.373472095073604e-06
-3.645687526893084e-05   5.3532749816210656e-06   2.373472095073604e-06
-2.449355360056123e-05   5.678824674093617e-06   -1.7760727167692735e-05
-2.449355360056123e-05   5.678824674093617e-06   -1.7760727167692735e-05
-2.449355360056123e-05   5.678824674093617e-06   -1.7760727167692735e-05
-2.449355360056123e-05   5.678824674093617e-06   -1.7760727167692735e-05
-3.0201472514380173e-05   5.482233388161024e-06   -8.129574206434736e-06
-3.0201472514380173e-05   5.482233388161024e-06   -8.129574206434736e-06
-3.0201472514380173e-05   5.482233388161024e-06   -8.129574206434736e-06
-3.0201472514380173e-05   5.482233388161024e-06   -8.129574206434736e-06
-2.449355360056127e-05   5.3532749816210656e-06   2.1781422795900517e-06
-2.449355360056127e-05   5.3532749816210656e-06   2.1781422795900517e-06
-2.449355360056127e-05   5.3532749816210656e-06   2.1781422795900517e-06
-2.449355360056127e-05   5.3532749816210656e-06   2.1781422795900517e-06
-3.6456875268930906e-05   5.678824674093617e-06   -1.7565397352209172e-05
-3.6456875268930906e-05   5.678824674093617e-06   -1.7565397352209172e-05
-3.6456875268930906e-05   5.678824674093617e-06   -1.7565397352209172e-05
-3.6456875268930906e-05   5.678824674093617e-06   -1.7565397352209172e-05
-3.4995266613343286e-05   5.496301495627309e-06   5.586605060878269e-06
-3.4995266613343286e-05   5.496301495627309e-06   5.586605060878269e-06
-3.4995266613343286e-05   5.496301495627309e-06   5.586605060878269e-06
-3.4995266613343286e-05   5.496301495627309e-06   5.586605060878269e-06
-2.387288908663843e-05   6.1083419261381226e-06   -1.3317915075269676e-05
-2.387288908663843e-05   6.1083419261381226e-06   -1.3317915075269676e-05
-2.387288908663843e-05   6.1083419261381226e-06   -1.3317915075269676e-05
-2.387288908663843e-05   6.1083419261381226e-06   -1.3317915075269676e-05
-2.8786372244432746e-05   5.6039576049207816e-06   -4.826145886215689e-06
-2.8786372244432746e-05   5.6039576049207816e-06   -4.826145886215689e-06
-2.8786372244432746e-05   5.6039576049207816e-06   -4.826145886215689e-06
-2.8786372244432746e-05   5.6039576049207816e-06   -4.826145886215689e-06
3.4302434142490876e-05   -5.141849713694111e-06   1.1775620145048488e-05
3.4302434142490876e-05   -5.141849713694111e-06   1.1775620145048488e-05
3.4302434142490876e-05   -5.141849713694111e-06   1.1775620145048488e-05
3.4302434142490876e-05   -5.141849713694111e-06   1.1775620145048488e-05
1.7220216278073942e-05   -6.491726638845844e-06   -1.7504669117404063e-05
1.7220216278073942e-05   -6.491726638845844e-06   -1.7504669117404063e-05
1.7220216278073942e-05   -6.491726638845844e-06   -1.7504669117404063e-05
1.7220216278073942e-05   -6.491726638845844e-06   -1.7504669117404063e-05
1.7633563418210197e-05   -5.023424752720459e-06   8.464695300051278e-06
1.7633563418210197e-05   -5.023424752720459e-06   8.464695300051278e-06
1.7633563418210197e-05   -5.023424752720459e-06   8.464695300051278e-06
1.7633563418210197e-05   -5.023424752720459e-06   8.464695300051278e-06
3.5147623331782424e-05   -6.6541997203681e-06   -1.974693957531391e-05
3.5147623331782424e-05   -6.6541997203681e-06   -1.974693957531391e-05
3.5147623331782424e-05   -6.6541997203681e-06   -1.974693957531391e-05
3.5147623331782424e-05   -6.6541997203681e-06   -1.974693957531391e-05
2.5035653309955173e-05   -5.251892741828983e-06   -3.735040392725288e-06
2.5035653309955173e-05   -5.251892741828983e-06   -3.735040392725288e-06
2.5035653309955173e-05   -5.251892741828983e-06   -3.735040392725288e-06
2.5035653309955173e-05   -5.251892741828983e-06   -3.735040392725288e-06
3.5147623331782424e-05   -5.023424752720459e-06   9.443160280639927e-06
3.5147623331782424e-05   -5.023424752720459e-06   9.443160280639927e-06
3.5147623331782424e-05   -5.023424752720459e-06   9.443160280639927e-06
3.5147623331782424e-05   -5.023424752720459e-06   9.443160280639927e-06
1.7633563418210197e-05   -6.6541997203681e-06   -2.0725404555902425e-05
1.7633563418210197e-05   -6.6541997203681e-06   -2.0725404555902425e-05
1.7633563418210197e-05   -6.6541997203681e-06   -2.0725404555902425e-05
1.7633563418210197e-05   -6.6541997203681e-06   -2.0725404555902425e-05
1.7982770109623348e-05   -4.848468339657859e-06   6.688544402296925e-06
1.7982770109623348e-05   -4.848468339657859e-06   6.688544402296925e-06
1.7982770109623348e-05   -4.848468339657859e-06   6.688544402296925e-06
1.7982770109623348e-05   -4.848468339657859e-06   6.688544402296925e-06
3.567360116911882e-05   -6.592473793999186e-06   -2.1749770757590724e-05
3.567360116911882e-05   -6.592473793999186e-06   -2.1749770757590724e-05
3.567360116911882e-05   -6.592473793999186e-06   -2.1749770757590724e-05
3.567360116911882e-05   -6.592473793999186e-06   -2.1749770757590724e-05
2.5911632784475233e-05   -5.416004399731288e-06   -6.185705086412076e-06
2.5911632784475233e-05   -5.416004399731288e-06   -6.185705086412076e-06
2.5911632784475233e-05   -5.416004399731288e-06   -6.185705086412076e-06
2.5911632784475233e-05   -5.416004399731288e-06   -6.185705086412076e-06
3.567360116911882e-05   -4.848468339657859e-06   7.734947674901678e-06
3.567360116911882e-05   -4.848468339657859e-06   7.734947674901678e-06
3.567360116911882e-05   -4.848468339657859e-06   7.734947674901678e-06
3.567360116911882e-05   -4.848468339657859e-06   7.734947674901678e-06
1.7982770109623348e-05   -6.592473793999186e-06   -2.2796174030195477e-05
1.7982770109623348e-05   -6.592473793999186e-06   -2.2796174030195477e-05
1.7982770109623348e-05   -6.592473793999186e-06   -2.2796174030195477e-05
1.7982770109623348e-05   -6.592473793999186e-06   -2.2796174030195477e-05
1.8346523971235774e-05   -4.168078082009098e-06   3.2506444449432624e-06
1.8346523971235774e-05   -4.168078082009098e-06   3.2506444449432624e-06
1.8346523971235774e-05   -4.168078082009098e-06   3.2506444449432624e-06
1.8346523971235774e-05   -4.168078082009098e-06   3.2506444449432624e-06
3.619159695141157e-05   -6.221535753370968e-06   -2.525906925253258e-05
3.619159695141157e-05   -6.221535753370968e-06   -2.525906925253258e-05
3.619159695141157e-05   -6.221535753370968e-06   -2.525906925253258e-05
3.619159695141157e-05   -6.221535753370968e-06   -2.525906925253258e-05
2.591739405578553e-05   -5.210002251377537e-06   -8.742317861018816e-06
2.591739405578553e-05   -5.210002251377537e-06   -8.742317861018816e-06
2.591739405578553e-05   -5.210002251377537e-06   -8.742317861018816e-06
2.591739405578553e-05   -5.210002251377537e-06   -8.742317861018816e-06
1.7220216278073942e-05   -3.3098639934750224e-06   1.2555115137302718e-06
1.7220216278073942e-05   -3.3098639934750224e-06   1.2555115137302718e-06
1.7220216278073942e-05   -3.3098639934750224e-06   1.2555115137302718e-06
1.7220216278073942e-05   -3.3098639934750224e-06   1.2555115137302718e-06
1.983715430075382e-06   -6.459487753720985e-06   -2.602843082241495e-05
1.983715430075382e-06   -6.459487753720985e-06   -2.602843082241495e-05
1.983715430075382e-06   -6.459487753720985e-06   -2.602843082241495e-05
1.983715430075382e-06   -6.459487753720985e-06   -2.602843082241495e-05
2.464764685288e-06   -3.148306638362181e-06   -3.6096875853609475e-08
2.464764685288e-06   -3.148306638362181e-06   -3.6096875853609475e-08
2.464764685288e-06   -3.148306638362181e-06   -3.6096875853609475e-08
2.464764685288e-06   -3.148306638362181e-06   -3.6096875853609475e-08
1.7633563418210224e-05   -6.423433023411591e-06   -2.3352352266361022e-05
1.7633563418210224e-05   -6.423433023411591e-06   -2.3352352266361022e-05
1.7633563418210224e-05   -6.423433023411591e-06   -2.3352352266361022e-05
1.7633563418210224e-05   -6.423433023411591e-06   -2.3352352266361022e-05
9.862484850691214e-06   -4.3609655544889214e-06   -1.1638035135182726e-05
9.862484850691214e-06   -4.3609655544889214e-06   -1.1638035135182726e-05
9.862484850691214e-06   -4.3609655544889214e-06   -1.1638035135182726e-05
9.862484850691214e-06   -4.3609655544889214e-06   -1.1638035135182726e-05
1.7633563418210184e-05   -3.148306638362181e-06   1.928978955176037e-06
1.7633563418210184e-05   -3.148306638362181e-06   1.928978955176037e-06
1.7633563418210184e-05   -3.148306638362181e-06   1.928978955176037e-06
1.7633563418210184e-05   -3.148306638362181e-06   1.928978955176037e-06
2.464764685288e-06   -6.423433023411591e-06   -2.5317428097390614e-05
2.464764685288e-06   -6.423433023411591e-06   -2.5317428097390614e-05
2.464764685288e-06   -6.423433023411591e-06   -2.5317428097390614e-05
2.464764685288e-06   -6.423433023411591e-06   -2.5317428097390614e-05
2.898902264120498e-06   -2.8497976900291287e-06   -2.0246651491581842e-07
2.898902264120498e-06   -2.8497976900291287e-06   -2.0246651491581842e-07
2.898902264120498e-06   -2.8497976900291287e-06   -2.0246651491581842e-07
2.898902264120498e-06   -2.8497976900291287e-06   -2.0246651491581842e-07
1.7982770109623348e-05   -6.333279895484904e-06   -2.3252156934147156e-05
1.7982770109623348e-05   -6.333279895484904e-06   -2.3252156934147156e-05
1.7982770109623348e-05   -6.333279895484904e-06   -2.3252156934147156e-05
1.7982770109623348e-05   -6.333279895484904e-06   -2.3252156934147156e-05
1.0133107330218477e-05   -4.40546363664196e-06   -1.1326075390444355e-05
1.0133107330218477e-05   -4.40546363664196e-06   -1.1326075390444355e-05
1.0133107330218477e-05   -4.40546363664196e-06   -1.1326075390444355e-05
1.0133107330218477e-05   -4.40546363664196e-06   -1.1326075390444355e-05
1.7982770109623348e-05   -2.8497976900291287e-06   1.887622808357625e-06
1.7982770109623348e-05   -2.8497976900291287e-06   1.887622808357625e-06
1.7982770109623348e-05   -2.8497976900291287e-06   1.887622808357625e-06
1.7982770109623348e-05   -2.8497976900291287e-06   1.887622808357625e-06
2.898902264120498e-06   -6.333279895484904e-06   -2.5342246257420518e-05
2.898902264120498e-06   -6.333279895484904e-06   -2.5342246257420518e-05
2.898902264120498e-06   -6.333279895484904e-06   -2.5342246257420518e-05
2.898902264120498e-06   -6.333279895484904e-06   -2.5342246257420518e-05
3.5474373424762513e-06   -2.424910194423523e-06   -5.119324967907445e-07
3.5474373424762513e-06   -2.424910194423523e-06   -5.119324967907445e-07
3.5474373424762513e-06   -2.424910194423523e-06   -5.119324967907445e-07
3.5474373424762513e-06   -2.424910194423523e-06   -5.119324967907445e-07
1.834652397123576e-05   -6.155715944241051e-06   -2.2938593428166134e-05
1.834652397123576e-05   -6.155715944241051e-06   -2.2938593428166134e-05
1.834652397123576e-05   -6.155715944241051e-06   -2.2938593428166134e-05
1.834652397123576e-05   -6.155715944241051e-06   -2.2938593428166134e-05
1.0655483642286788e-05   -4.3324831305083765e-06   -1.1214132568157465e-05
1.0655483642286788e-05   -4.3324831305083765e-06   -1.1214132568157465e-05
1.0655483642286788e-05   -4.3324831305083765e-06   -1.1214132568157465e-05
1.0655483642286788e-05   -4.3324831305083765e-06   -1.1214132568157465e-05
1.983715430075382e-06   -1.7034830564366821e-06   -2.4739719921384844e-06
1.983715430075382e-06   -1.7034830564366821e-06   -2.4739719921384844e-06
1.983715430075382e-06   -1.7034830564366821e-06   -2.4739719921384844e-06
1.983715430075382e-06   -1.7034830564366821e-06   -2.4739719921384844e-06
-1.3092762237026267e-05   -7.736110766895813e-06   -3.122101139691673e-05
-1.3092762237026267e-05   -7.736110766895813e-06   -3.122101139691673e-05
-1.3092762237026267e-05   -7.736110766895813e-06   -3.122101139691673e-05
-1.3092762237026267e-05   -7.736110766895813e-06   -3.122101139691673e-05
-1.2342788483824386e-05   -1.5121570726779523e-06   -5.4291620803795454e-06
-1.2342788483824386e-05   -1.5121570726779523e-06   -5.4291620803795454e-06
-1.2342788483824386e-05   -1.5121570726779523e-06   -5.4291620803795454e-06
-1.2342788483824386e-05   -1.5121570726779523e-06   -5.4291620803795454e-06
2.464764685288e-06   -7.902758382030521e-06   -2.6274056576622022e-05
2.464764685288e-06   -7.902758382030521e-06   -2.6274056576622022e-05
2.464764685288e-06   -7.902758382030521e-06   -2.6274056576622022e-05
2.464764685288e-06   -7.902758382030521e-06   -2.6274056576622022e-05
-5.075240708622202e-06   -4.360189077681157e-06   -1.5832922502714646e-05
-5.075240708622202e-06   -4.360189077681157e-06   -1.5832922502714646e-05
-5.075240708622202e-06   -4.360189077681157e-06   -1.5832922502714646e-05
-5.075240708622202e-06   -4.360189077681157e-06   -1.5832922502714646e-05
2.464764685288e-06   -1.5121570726779523e-06   -1.5948012947680041e-06
2.464764685288e-06   -1.5121570726779523e-06   -1.5948012947680041e-06
2.464764685288e-06   -1.5121570726779523e-06   -1.5948012947680041e-06
2.464764685288e-06   -1.5121570726779523e-06   -1.5948012947680041e-06
-1.2342788483824407e-05   -7.902758382030521e-06   -3.0108417362233468e-05
-1.2342788483824407e-05   -7.902758382030521e-06   -3.0108417362233468e-05
-1.2342788483824407e-05   -7.902758382030521e-06   -3.0108417362233468e-05
-1.2342788483824407e-05   -7.902758382030521e-06   -3.0108417362233468e-05
-1.1695776588489454e-05   -1.217583976799181e-06   -5.061552109186709e-06
-1.1695776588489454e-05   -1.217583976799181e-06   -5.061552109186709e-06
-1.1695776588489454e-05   -1.217583976799181e-06   -5.061552109186709e-06
-1.1695776588489454e-05   -1.217583976799181e-06   -5.061552109186709e-06
2.898902264120498e-06   -7.860432764299381e-06   -2.540030759103651e-05
2.898902264120498e-06   -7.860432764299381e-06   -2.540030759103651e-05
2.898902264120498e-06   -7.860432764299381e-06   -2.540030759103651e-05
2.898902264120498e-06   -7.860432764299381e-06   -2.540030759103651e-05
-4.543033033404581e-06   -4.455143198410158e-06   -1.5040255834694919e-05
-4.543033033404581e-06   -4.455143198410158e-06   -1.5040255834694919e-05
-4.543033033404581e-06   -4.455143198410158e-06   -1.5040255834694919e-05
-4.543033033404581e-06   -4.455143198410158e-06   -1.5040255834694919e-05
2.898902264120498e-06   -1.2175839767993978e-06   -1.0758428366865235e-06
2.898902264120498e-06   -1.2175839767993978e-06   -1.0758428366865235e-06
2.898902264120498e-06   -1.2175839767993978e-06   -1.0758428366865235e-06
2.898902264120498e-06   -1.2175839767993978e-06   -1.0758428366865235e-06
-1.1695776588489495e-05   -7.860432764299381e-06   -2.9386016863536778e-05
-1.1695776588489495e-05   -7.860432764299381e-06   -2.9386016863536778e-05
-1.1695776588489495e-05   -7.860432764299381e-06   -2.9386016863536778e-05
-1.1695776588489495e-05   -7.860432764299381e-06   -2.9386016863536778e-05
-1.0578978571223151e-05   -9.377804387924842e-07   -5.041287999632831e-06
-1.0578978571223151e-05   -9.377804387924842e-07   -5.041287999632831e-06
-1.0578978571223151e-05   -9.377804387924842e-07   -5.041287999632831e-06
-1.0578978571223151e-05   -9.377804387924842e-07   -5.041287999632831e-06
3.547437342476265e-06   -7.5785319727786e-06   -2.4600863602073562e-05
3.547437342476265e-06   -7.5785319727786e-06   -2.4600863602073562e-05
3.547437342476265e-06   -7.5785319727786e-06   -2.4600863602073562e-05
3.547437342476265e-06   -7.5785319727786e-06   -2.4600863602073562e-05
-3.851116715518209e-06   -4.351446060343054e-06   -1.4206191719544082e-05
-3.851116715518209e-06   -4.351446060343054e-06   -1.4206191719544082e-05
-3.851116715518209e-06   -4.351446060343054e-06   -1.4206191719544082e-05
-3.851116715518209e-06   -4.351446060343054e-06   -1.4206191719544082e-05
-1.309276223702624e-05   5.06412029855274e-07   -3.4904345254617095e-06
-1.309276223702624e-05   5.06412029855274e-07   -3.4904345254617095e-06
-1.309276223702624e-05   5.06412029855274e-07   -3.4904345254617095e-06
-1.309276223702624e-05   5.06412029855274e-07   -3.4904345254617095e-06
-2.9890555054566406e-05   -9.590790267008159e-06   -3.7545077266146654e-05
-2.9890555054566406e-05   -9.590790267008159e-06   -3.7545077266146654e-05
-2.9890555054566406e-05   -9.590790267008159e-06   -3.7545077266146654e-05
-2.9890555054566406e-05   -9.590790267008159e-06   -3.7545077266146654e-05
-2.8990552231051928e-05   8.556058876982124e-07   -9.24997902897965e-06
-2.8990552231051928e-05   8.556058876982124e-07   -9.24997902897965e-06
-2.8990552231051928e-05   8.556058876982124e-07   -9.24997902897965e-06
-2.8990552231051928e-05   8.556058876982124e-07   -9.24997902897965e-06
-1.2342788483824386e-05   -1.0731519361888283e-05   -3.0043976791273758e-05
-1.2342788483824386e-05   -1.0731519361888283e-05   -3.0043976791273758e-05
-1.2342788483824386e-05   -1.0731519361888283e-05   -3.0043976791273758e-05
-1.2342788483824386e-05   -1.0731519361888283e-05   -3.0043976791273758e-05
-2.077885818332699e-05   -4.848608823910779e-06   -1.9513606948222544e-05
-2.077885818332699e-05   -4.848608823910779e-06   -1.9513606948222544e-05
-2.077885818332699e-05   -4.848608823910779e-06   -1.9513606948222544e-05
-2.077885818332699e-05   -4.848608823910779e-06   -1.9513606948222544e-05
-1.2342788483824386e-05   8.556058876982124e-07   -2.29770387922797e-06
-1.2342788483824386e-05   8.556058876982124e-07   -2.29770387922797e-06
-1.2342788483824386e-05   8.556058876982124e-07   -2.29770387922797e-06
-1.2342788483824386e-05   8.556058876982124e-07   -2.29770387922797e-06
-2.8990552231051976e-05   -1.0731519361888283e-05   -3.6996251941025736e-05
-2.8990552231051976e-05   -1.0731519361888283e-05   -3.6996251941025736e-05
-2.8990552231051976e-05   -1.0731519361888283e-05   -3.6996251941025736e-05
-2.8990552231051976e-05   -1.0731519361888283e-05   -3.6996251941025736e-05
-2.8128301632318338e-05   1.1765823570127412e-06   -8.234599366961962e-06
-2.8128301632318338e-05   1.1765823570127412e-06   -8.234599366961962e-06
-2.8128301632318338e-05   1.1765823570127412e-06   -8.234599366961962e-06
-2.8128301632318338e-05   1.1765823570127412e-06   -8.234599366961962e-06
-1.1695776588489474e-05   -1.078597638059695e-05   -2.8444605864111146e-05
-1.1695776588489474e-05   -1.078597638059695e-05   -2.8444605864111146e-05
-1.1695776588489474e-05   -1.078597638059695e-05   -2.8444605864111146e-05
-1.1695776588489474e-05   -1.078597638059695e-05   -2.8444605864111146e-05
-1.9901163204783565e-05   -4.860157265444568e-06   -1.8324452972712273e-05
-1.9901163204783565e-05   -4.860157265444568e-06   -1.8324452972712273e-05
-1.9901163204783565e-05   -4.860157265444568e-06   -1.8324452972712273e-05
-1.9901163204783565e-05   -4.860157265444568e-06   -1.8324452972712273e-05
-1.169577658848946e-05   1.1765823570127412e-06   -1.0570641243963855e-06
-1.169577658848946e-05   1.1765823570127412e-06   -1.0570641243963855e-06
-1.169577658848946e-05   1.1765823570127412e-06   -1.0570641243963855e-06
-1.169577658848946e-05   1.1765823570127412e-06   -1.0570641243963855e-06
-2.8128301632318385e-05   -1.078597638059695e-05   -3.5622141106676926e-05
-2.8128301632318385e-05   -1.078597638059695e-05   -3.5622141106676926e-05
-2.8128301632318385e-05   -1.078597638059695e-05   -3.5622141106676926e-05
-2.8128301632318385e-05   -1.078597638059695e-05   -3.5622141106676926e-05
-2.6711630047131995e-05   1.4470693459173699e-06   -7.204428329774665e-06
-2.6711630047131995e-05   1.4470693459173699e-06   -7.204428329774665e-06
-2.6711630047131995e-05   1.4470693459173699e-06   -7.204428329774665e-06
-2.6711630047131995e-05   1.4470693459173699e-06   -7.204428329774665e-06
-1.0578978571223165e-05   -9.811098195301694e-06   -2.7337280264891264e-05
-1.0578978571223165e-05   -9.811098195301694e-06   -2.7337280264891264e-05
-1.0578978571223165e-05   -9.811098195301694e-06   -2.7337280264891264e-05
-1.0578978571223165e-05   -9.811098195301694e-06   -2.7337280264891264e-05
-1.9038600216837823e-05   -4.269597377941706e-06   -1.656281134594904e-05
-1.9038600216837823e-05   -4.269597377941706e-06   -1.656281134594904e-05
-1.9038600216837823e-05   -4.269597377941706e-06   -1.656281134594904e-05
-1.9038600216837823e-05   -4.269597377941706e-06   -1.656281134594904e-05
-2.9890555054566406e-05   4.301178693339814e-06   -6.259508658347209e-06
-2.9890555054566406e-05   4.301178693339814e-06   -6.259508658347209e-06
-2.9890555054566406e-05   4.301178693339814e-06   -6.259508658347209e-06
-2.9890555054566406e-05   4.301178693339814e-06   -6.259508658347209e-06
-5.1340097945714195e-05   0.0   -4.458945402626422e-05
-5.1340097945714195e-05   0.0   -4.458945402626422e-05
-5.1340097945714195e-05   0.0   -4.458945402626422e-05
-5.1340097945714195e-05   0.0   -4.458945402626422e-05
-5.002723988690759e-05   5.4252980374663255e-06   -4.765690273942497e-06
-5.002723988690759e-05   5.4252980374663255e-06   -4.765690273942497e-06
-5.002723988690759e-05   5.4252980374663255e-06   -4.765690273942497e-06
-5.002723988690759e-05   5.4252980374663255e-06   -4.765690273942497e-06
-2.8990552231051928e-05   0.0   -3.657165754455544e-05
-2.8990552231051928e-05   0.0   -3.657165754455544e-05
-2.8990552231051928e-05   0.0   -3.657165754455544e-05
-2.8990552231051928e-05   0.0   -3.657165754455544e-05
-3.836103232033956e-05   1.669572712414101e-06   -2.1955934356524513e-05
-3.836103232033956e-05   1.669572712414101e-06   -2.1955934356524513e-05
-3.836103232033956e-05   1.669572712414101e-06   -2.1955934356524513e-05
-3.836103232033956e-05   1.669572712414101e-06   -2.1955934356524513e-05
-2.8990552231051955e-05   5.4252980374663255e-06   -1.5105114514628098e-06
-2.8990552231051955e-05   5.4252980374663255e-06   -1.5105114514628098e-06
-2.8990552231051955e-05   5.4252980374663255e-06   -1.5105114514628098e-06
-2.8990552231051955e-05   5.4252980374663255e-06   -1.5105114514628098e-06
-5.00272398869075e-05   0.0   -3.9826836367035275e-05
-5.00272398869075e-05   0.0   -3.9826836367035275e-05
-5.00272398869075e-05   0.0   -3.9826836367035275e-05
-5.00272398869075e-05   0.0   -3.9826836367035275e-05
-4.8914046153746325e-05   5.6788246740934e-06   -1.7785118875254455e-06
-4.8914046153746325e-05   5.6788246740934e-06   -1.7785118875254455e-06
-4.8914046153746325e-05   5.6788246740934e-06   -1.7785118875254455e-06
-4.8914046153746325e-05   5.6788246740934e-06   -1.7785118875254455e-06
-2.8128301632318385e-05   0.0   -3.301412461878272e-05
-2.8128301632318385e-05   0.0   -3.301412461878272e-05
-2.8128301632318385e-05   0.0   -3.301412461878272e-05
-2.8128301632318385e-05   0.0   -3.301412461878272e-05
-3.7980742927198614e-05   2.6299602557261492e-06   -1.817136528075089e-05
-3.7980742927198614e-05   2.6299602557261492e-06   -1.817136528075089e-05
-3.7980742927198614e-05   2.6299602557261492e-06   -1.817136528075089e-05
-3.7980742927198614e-05   2.6299602557261492e-06   -1.817136528075089e-05
-2.8128301632318385e-05   5.678824674093617e-06   1.6287829169306595e-06
-2.8128301632318385e-05   5.678824674093617e-06   1.6287829169306595e-06
-2.8128301632318385e-05   5.678824674093617e-06   1.6287829169306595e-06
-2.8128301632318385e-05   5.678824674093617e-06   1.6287829169306595e-06
-4.891404615374624e-05   0.0   -3.6421419423238784e-05
-4.891404615374624e-05   0.0   -3.6421419423238784e-05
-4.891404615374624e-05   0.0   -3.6421419423238784e-05
-4.891404615374624e-05   0.0   -3.6421419423238784e-05
-4.669036304614382e-05   6.1083419261381226e-06   3.038638239698417e-06
-4.669036304614382e-05   6.1083419261381226e-06   3.038638239698417e-06
-4.669036304614382e-05   6.1083419261381226e-06   3.038638239698417e-06
-4.669036304614382e-05   6.1083419261381226e-06   3.038638239698417e-06
-2.6711630047132036e-05   0.0   -2.6594244936305162e-05
-2.6711630047132036e-05   0.0   -2.6594244936305162e-05
-2.6711630047132036e-05   0.0   -2.6594244936305162e-05
-2.6711630047132036e-05   0.0   -2.6594244936305162e-05
-3.6030822405879216e-05   3.2392684764447847e-06   -1.3005818757593365e-05
-3.6030822405879216e-05   3.2392684764447847e-06   -1.3005818757593365e-05
-3.6030822405879216e-05   3.2392684764447847e-06   -1.3005818757593365e-05
-3.6030822405879216e-05   3.2392684764447847e-06   -1.3005818757593365e-05
3.794825317849506e-05   -6.491726638845844e-06   2.260710778902229e-05
3.794825317849506e-05   -6.491726638845844e-06   2.260710778902229e-05
3.794825317849506e-05   -6.491726638845844e-06   2.260710778902229e-05
3.794825317849506e-05   -6.491726638845844e-06   2.260710778902229e-05
1.965989476213777e-05   -5.024777672501439e-06   -6.993320191766607e-06
1.965989476213777e-05   -5.024777672501439e-06   -6.993320191766607e-06
1.965989476213777e-05   -5.024777672501439e-06   -6.993320191766607e-06
1.965989476213777e-05   -5.024777672501439e-06   -6.993320191766607e-06
1.9171206519246965e-05   -6.6541997203681e-06   1.994015100744795e-05
1.9171206519246965e-05   -6.6541997203681e-06   1.994015100744795e-05
1.9171206519246965e-05   -6.6541997203681e-06   1.994015100744795e-05
1.9171206519246965e-05   -6.6541997203681e-06   1.994015100744795e-05
3.755056824800134e-05   -5.520372217627774e-06   -1.1372415042120015e-05
3.755056824800134e-05   -5.520372217627774e-06   -1.1372415042120015e-05
3.755056824800134e-05   -5.520372217627774e-06   -1.1372415042120015e-05
3.755056824800134e-05   -5.520372217627774e-06   -1.1372415042120015e-05
2.7411463353898e-05   -5.605798011549526e-06   5.577348591071716e-06
2.7411463353898e-05   -5.605798011549526e-06   5.577348591071716e-06
2.7411463353898e-05   -5.605798011549526e-06   5.577348591071716e-06
2.7411463353898e-05   -5.605798011549526e-06   5.577348591071716e-06
3.755056824800134e-05   -6.6541997203681e-06   1.9259854505803884e-05
3.755056824800134e-05   -6.6541997203681e-06   1.9259854505803884e-05
3.755056824800134e-05   -6.6541997203681e-06   1.9259854505803884e-05
3.755056824800134e-05   -6.6541997203681e-06   1.9259854505803884e-05
1.9171206519246965e-05   -5.520372217627774e-06   -1.069211854047591e-05
1.9171206519246965e-05   -5.520372217627774e-06   -1.069211854047591e-05
1.9171206519246965e-05   -5.520372217627774e-06   -1.069211854047591e-05
1.9171206519246965e-05   -5.520372217627774e-06   -1.069211854047591e-05
1.872857288225162e-05   -6.592473793999186e-06   1.7889687115672835e-05
1.872857288225162e-05   -6.592473793999186e-06   1.7889687115672835e-05
1.872857288225162e-05   -6.592473793999186e-06   1.7889687115672835e-05
1.872857288225162e-05   -6.592473793999186e-06   1.7889687115672835e-05
3.708850307494428e-05   -5.564270776680811e-06   -1.3327118349206008e-05
3.708850307494428e-05   -5.564270776680811e-06   -1.3327118349206008e-05
3.708850307494428e-05   -5.564270776680811e-06   -1.3327118349206008e-05
3.708850307494428e-05   -5.564270776680811e-06   -1.3327118349206008e-05
2.7397621055937203e-05   -5.70417205676731e-06   2.9082924505243076e-06
2.7397621055937203e-05   -5.70417205676731e-06   2.9082924505243076e-06
2.7397621055937203e-05   -5.70417205676731e-06   2.9082924505243076e-06
2.7397621055937203e-05   -5.70417205676731e-06   2.9082924505243076e-06
3.708850307494434e-05   -6.592473793999186e-06   1.7272765305281854e-05
3.708850307494434e-05   -6.592473793999186e-06   1.7272765305281854e-05
3.708850307494434e-05   -6.592473793999186e-06   1.7272765305281854e-05
3.708850307494434e-05   -6.592473793999186e-06   1.7272765305281854e-05
1.872857288225162e-05   -5.564270776680811e-06   -1.2710196538814932e-05
1.872857288225162e-05   -5.564270776680811e-06   -1.2710196538814932e-05
1.872857288225162e-05   -5.564270776680811e-06   -1.2710196538814932e-05
1.872857288225162e-05   -5.564270776680811e-06   -1.2710196538814932e-05
1.8188248434829948e-05   -6.221535753370968e-06   1.4553696648095813e-05
1.8188248434829948e-05   -6.221535753370968e-06   1.4553696648095813e-05
1.8188248434829948e-05   -6.221535753370968e-06   1.4553696648095813e-05
1.8188248434829948e-05   -6.221535753370968e-06   1.4553696648095813e-05
3.6364332754300994e-05   -5.4423709516891045e-06   -1.6207276098698526e-05
3.6364332754300994e-05   -5.4423709516891045e-06   -1.6207276098698526e-05
3.6364332754300994e-05   -5.4423709516891045e-06   -1.6207276098698526e-05
3.6364332754300994e-05   -5.4423709516891045e-06   -1.6207276098698526e-05
2.64685862801552e-05   -5.4234801137515495e-06   2.743001887819447e-07
2.64685862801552e-05   -5.4234801137515495e-06   2.743001887819447e-07
2.64685862801552e-05   -5.4234801137515495e-06   2.743001887819447e-07
2.64685862801552e-05   -5.4234801137515495e-06   2.743001887819447e-07
1.965989476213777e-05   -6.459487753720985e-06   1.6853289719965733e-05
1.965989476213777e-05   -6.459487753720985e-06   1.6853289719965733e-05
1.965989476213777e-05   -6.459487753720985e-06   1.6853289719965733e-05
1.965989476213777e-05   -6.459487753720985e-06   1.6853289719965733e-05
4.105725298538462e-06   -3.0812536775694493e-06   -7.043385607008652e-06
4.105725298538462e-06   -3.0812536775694493e-06   -7.043385607008652e-06
4.105725298538462e-06   -3.0812536775694493e-06   -7.043385607008652e-06
4.105725298538462e-06   -3.0812536775694493e-06   -7.043385607008652e-06
3.3324413187415077e-06   -6.423433023411591e-06   1.9207476575164458e-05
3.3324413187415077e-06   -6.423433023411591e-06   1.9207476575164458e-05
3.3324413187415077e-06   -6.423433023411591e-06   1.9207476575164458e-05
3.3324413187415077e-06   -6.423433023411591e-06   1.9207476575164458e-05
1.9171206519246965e-05   -3.2663108931200915e-06   -9.084738703852871e-06
1.9171206519246965e-05   -3.2663108931200915e-06   -9.084738703852871e-06
1.9171206519246965e-05   -3.2663108931200915e-06   -9.084738703852871e-06
1.9171206519246965e-05   -3.2663108931200915e-06   -9.084738703852871e-06
1.1550013466988063e-05   -4.629208638535186e-06   4.434988363827784e-06
1.1550013466988063e-05   -4.629208638535186e-06   4.434988363827784e-06
1.1550013466988063e-05   -4.629208638535186e-06   4.434988363827784e-06
1.1550013466988063e-05   -4.629208638535186e-06   4.434988363827784e-06
1.917120651924695e-05   -6.423433023411591e-06   1.7313203296989623e-05
1.917120651924695e-05   -6.423433023411591e-06   1.7313203296989623e-05
1.917120651924695e-05   -6.423433023411591e-06   1.7313203296989623e-05
1.917120651924695e-05   -6.423433023411591e-06   1.7313203296989623e-05
3.3324413187415077e-06   -3.2663108931200915e-06   -7.190465425677942e-06
3.3324413187415077e-06   -3.2663108931200915e-06   -7.190465425677942e-06
3.3324413187415077e-06   -3.2663108931200915e-06   -7.190465425677942e-06
3.3324413187415077e-06   -3.2663108931200915e-06   -7.190465425677942e-06
2.780100488702805e-06   -6.333279895484904e-06   1.922588074739439e-05
2.780100488702805e-06   -6.333279895484904e-06   1.922588074739439e-05
2.780100488702805e-06   -6.333279895484904e-06   1.922588074739439e-05
2.780100488702805e-06   -6.333279895484904e-06   1.922588074739439e-05
1.872857288225162e-05   -3.346319002695995e-06   -9.147083110860112e-06
1.872857288225162e-05   -3.346319002695995e-06   -9.147083110860112e-06
1.872857288225162e-05   -3.346319002695995e-06   -9.147083110860112e-06
1.872857288225162e-05   -3.346319002695995e-06   -9.147083110860112e-06
1.0884993436737675e-05   -4.532625064007515e-06   4.637332935116911e-06
1.0884993436737675e-05   -4.532625064007515e-06   4.637332935116911e-06
1.0884993436737675e-05   -4.532625064007515e-06   4.637332935116911e-06
1.0884993436737675e-05   -4.532625064007515e-06   4.637332935116911e-06
1.872857288225164e-05   -6.333279895484904e-06   1.743370421172113e-05
1.872857288225164e-05   -6.333279895484904e-06   1.743370421172113e-05
1.872857288225164e-05   -6.333279895484904e-06   1.743370421172113e-05
1.872857288225164e-05   -6.333279895484904e-06   1.743370421172113e-05
2.780100488702805e-06   -3.346319002695995e-06   -7.354906575186989e-06
2.780100488702805e-06   -3.346319002695995e-06   -7.354906575186989e-06
2.780100488702805e-06   -3.346319002695995e-06   -7.354906575186989e-06
2.780100488702805e-06   -3.346319002695995e-06   -7.354906575186989e-06
2.16604683107496e-06   -6.155715944241051e-06   1.983959435358448e-05
2.16604683107496e-06   -6.155715944241051e-06   1.983959435358448e-05
2.16604683107496e-06   -6.155715944241051e-06   1.983959435358448e-05
2.16604683107496e-06   -6.155715944241051e-06   1.983959435358448e-05
1.8188248434829928e-05   -3.2668038137326216e-06   -8.597422264312193e-06
1.8188248434829928e-05   -3.2668038137326216e-06   -8.597422264312193e-06
1.8188248434829928e-05   -3.2668038137326216e-06   -8.597422264312193e-06
1.8188248434829928e-05   -3.2668038137326216e-06   -8.597422264312193e-06
1.048008038127197e-05   -4.330618703334314e-06   4.887813425378753e-06
1.048008038127197e-05   -4.330618703334314e-06   4.887813425378753e-06
1.048008038127197e-05   -4.330618703334314e-06   4.887813425378753e-06
1.048008038127197e-05   -4.330618703334314e-06   4.887813425378753e-06
4.105725298538475e-06   -7.736110766895813e-06   1.7307226217430464e-05
4.105725298538475e-06   -7.736110766895813e-06   1.7307226217430464e-05
4.105725298538475e-06   -7.736110766895813e-06   1.7307226217430464e-05
4.105725298538475e-06   -7.736110766895813e-06   1.7307226217430464e-05
-1.0841884166175204e-05   -1.2560333479221236e-06   -3.7174097723749727e-06
-1.0841884166175204e-05   -1.2560333479221236e-06   -3.7174097723749727e-06
-1.0841884166175204e-05   -1.2560333479221236e-06   -3.7174097723749727e-06
-1.0841884166175204e-05   -1.2560333479221236e-06   -3.7174097723749727e-06
-1.2044138921316394e-05   -7.902758382030521e-06   2.219747717176982e-05
-1.2044138921316394e-05   -7.902758382030521e-06   2.219747717176982e-05
-1.2044138921316394e-05   -7.902758382030521e-06   2.219747717176982e-05
-1.2044138921316394e-05   -7.902758382030521e-06   2.219747717176982e-05
3.3324413187415077e-06   -1.3250432556362064e-06   -7.376785637496741e-06
3.3324413187415077e-06   -1.3250432556362064e-06   -7.376785637496741e-06
3.3324413187415077e-06   -1.3250432556362064e-06   -7.376785637496741e-06
3.3324413187415077e-06   -1.3250432556362064e-06   -7.376785637496741e-06
-3.7304487441420344e-06   -4.407442299310567e-06   6.244137226847185e-06
-3.7304487441420344e-06   -4.407442299310567e-06   6.244137226847185e-06
-3.7304487441420344e-06   -4.407442299310567e-06   6.244137226847185e-06
-3.7304487441420344e-06   -4.407442299310567e-06   6.244137226847185e-06
3.3324413187415077e-06   -7.902758382030521e-06   1.8250848095933037e-05
3.3324413187415077e-06   -7.902758382030521e-06   1.8250848095933037e-05
3.3324413187415077e-06   -7.902758382030521e-06   1.8250848095933037e-05
3.3324413187415077e-06   -7.902758382030521e-06   1.8250848095933037e-05
-1.2044138921316367e-05   -1.3250432556362064e-06   -3.430156561660025e-06
-1.2044138921316367e-05   -1.3250432556362064e-06   -3.430156561660025e-06
-1.2044138921316367e-05   -1.3250432556362064e-06   -3.430156561660025e-06
-1.2044138921316367e-05   -1.3250432556362064e-06   -3.430156561660025e-06
-1.2780465755860884e-05   -7.860432764299381e-06   2.303796913285085e-05
-1.2780465755860884e-05   -7.860432764299381e-06   2.303796913285085e-05
-1.2780465755860884e-05   -7.860432764299381e-06   2.303796913285085e-05
-1.2780465755860884e-05   -7.860432764299381e-06   2.303796913285085e-05
2.780100488702805e-06   -1.4101832325119287e-06   -6.766457660494364e-06
2.780100488702805e-06   -1.4101832325119287e-06   -6.766457660494364e-06
2.780100488702805e-06   -1.4101832325119287e-06   -6.766457660494364e-06
2.780100488702805e-06   -1.4101832325119287e-06   -6.766457660494364e-06
-4.5451021421123185e-06   -4.389300476976025e-06   7.229683737542707e-06
-4.5451021421123185e-06   -4.389300476976025e-06   7.229683737542707e-06
-4.5451021421123185e-06   -4.389300476976025e-06   7.229683737542707e-06
-4.5451021421123185e-06   -4.389300476976025e-06   7.229683737542707e-06
2.780100488702805e-06   -7.860432764299381e-06   1.916781941377853e-05
2.780100488702805e-06   -7.860432764299381e-06   1.916781941377853e-05
2.780100488702805e-06   -7.860432764299381e-06   1.916781941377853e-05
2.780100488702805e-06   -7.860432764299381e-06   1.916781941377853e-05
-1.278046575586087e-05   -1.4101832325119287e-06   -2.8963079414218813e-06
-1.278046575586087e-05   -1.4101832325119287e-06   -2.8963079414218813e-06
-1.278046575586087e-05   -1.4101832325119287e-06   -2.8963079414218813e-06
-1.278046575586087e-05   -1.4101832325119287e-06   -2.8963079414218813e-06
-1.3644704911832404e-05   -7.5785319727786e-06   2.412376825112778e-05
-1.3644704911832404e-05   -7.5785319727786e-06   2.412376825112778e-05
-1.3644704911832404e-05   -7.5785319727786e-06   2.412376825112778e-05
-1.3644704911832404e-05   -7.5785319727786e-06   2.412376825112778e-05
2.16604683107496e-06   -1.3985976035114922e-06   -5.935445275278078e-06
2.16604683107496e-06   -1.3985976035114922e-06   -5.935445275278078e-06
2.16604683107496e-06   -1.3985976035114922e-06   -5.935445275278078e-06
2.16604683107496e-06   -1.3985976035114922e-06   -5.935445275278078e-06
-5.2092493040763864e-06   -4.209116413771228e-06   8.043026236129972e-06
-5.2092493040763864e-06   -4.209116413771228e-06   8.043026236129972e-06
-5.2092493040763864e-06   -4.209116413771228e-06   8.043026236129972e-06
-5.2092493040763864e-06   -4.209116413771228e-06   8.043026236129972e-06
-1.0841884166175204e-05   -9.590790267008159e-06   2.092952817770268e-05
-1.0841884166175204e-05   -9.590790267008159e-06   2.092952817770268e-05
-1.0841884166175204e-05   -9.590790267008159e-06   2.092952817770268e-05
-1.0841884166175204e-05   -9.590790267008159e-06   2.092952817770268e-05
-2.78186805670533e-05   1.4639775755968028e-06   -7.322717848646122e-07
-2.78186805670533e-05   1.4639775755968028e-06   -7.322717848646122e-07
-2.78186805670533e-05   1.4639775755968028e-06   -7.322717848646122e-07
-2.78186805670533e-05   1.4639775755968028e-06   -7.322717848646122e-07
-2.9269006585630913e-05   -1.0731519361888283e-05   2.9532946346663767e-05
-2.9269006585630913e-05   -1.0731519361888283e-05   2.9532946346663767e-05
-2.9269006585630913e-05   -1.0731519361888283e-05   2.9532946346663767e-05
-2.9269006585630913e-05   -1.0731519361888283e-05   2.9532946346663767e-05
-1.2044138921316367e-05   1.386861644668948e-06   -6.446195031127965e-06
-1.2044138921316367e-05   1.386861644668948e-06   -6.446195031127965e-06
-1.2044138921316367e-05   1.386861644668948e-06   -6.446195031127965e-06
-1.2044138921316367e-05   1.386861644668948e-06   -6.446195031127965e-06
-1.9717631790034678e-05   -3.9300107455037415e-06   9.533083184172785e-06
-1.9717631790034678e-05   -3.9300107455037415e-06   9.533083184172785e-06
-1.9717631790034678e-05   -3.9300107455037415e-06   9.533083184172785e-06
-1.9717631790034678e-05   -3.9300107455037415e-06   9.533083184172785e-06
-1.2044138921316394e-05   -1.0731519361888283e-05   2.226191774272945e-05
-1.2044138921316394e-05   -1.0731519361888283e-05   2.226191774272945e-05
-1.2044138921316394e-05   -1.0731519361888283e-05   2.226191774272945e-05
-1.2044138921316394e-05   -1.0731519361888283e-05   2.226191774272945e-05
-2.926900658563085e-05   1.386861644668948e-06   8.2483357280623e-07
-2.926900658563085e-05   1.386861644668948e-06   8.2483357280623e-07
-2.926900658563085e-05   1.386861644668948e-06   8.2483357280623e-07
-2.926900658563085e-05   1.386861644668948e-06   8.2483357280623e-07
-3.0151882742016104e-05   -1.078597638059695e-05   3.119350762220208e-05
-3.0151882742016104e-05   -1.078597638059695e-05   3.119350762220208e-05
-3.0151882742016104e-05   -1.078597638059695e-05   3.119350762220208e-05
-3.0151882742016104e-05   -1.078597638059695e-05   3.119350762220208e-05
-1.278046575586087e-05   1.2375694359457318e-06   -4.972981511315575e-06
-1.278046575586087e-05   1.2375694359457318e-06   -4.972981511315575e-06
-1.278046575586087e-05   1.2375694359457318e-06   -4.972981511315575e-06
-1.278046575586087e-05   1.2375694359457318e-06   -4.972981511315575e-06
-2.065600962667907e-05   -4.543537429979507e-06   1.162158905960333e-05
-2.065600962667907e-05   -4.543537429979507e-06   1.162158905960333e-05
-2.065600962667907e-05   -4.543537429979507e-06   1.162158905960333e-05
-2.065600962667907e-05   -4.543537429979507e-06   1.162158905960333e-05
-1.278046575586085e-05   -1.078597638059695e-05   2.3979380132276495e-05
-1.278046575586085e-05   -1.078597638059695e-05   2.3979380132276495e-05
-1.278046575586085e-05   -1.078597638059695e-05   2.3979380132276495e-05
-1.278046575586085e-05   -1.078597638059695e-05   2.3979380132276495e-05
-3.0151882742016043e-05   1.2375694359457318e-06   2.2411459786099994e-06
-3.0151882742016043e-05   1.2375694359457318e-06   2.2411459786099994e-06
-3.0151882742016043e-05   1.2375694359457318e-06   2.2411459786099994e-06
-3.0151882742016043e-05   1.2375694359457318e-06   2.2411459786099994e-06
-3.110442696222126e-05   -9.811098195301694e-06   3.1899027533963445e-05
-3.110442696222126e-05   -9.811098195301694e-06   3.1899027533963445e-05
-3.110442696222126e-05   -9.811098195301694e-06   3.1899027533963445e-05
-3.110442696222126e-05   -9.811098195301694e-06   3.1899027533963445e-05
-1.3644704911832383e-05   1.067610180134496e-06   -3.7277342419463907e-06
-1.3644704911832383e-05   1.067610180134496e-06   -3.7277342419463907e-06
-1.3644704911832383e-05   1.067610180134496e-06   -3.7277342419463907e-06
-1.3644704911832383e-05   1.067610180134496e-06   -3.7277342419463907e-06
-2.1627406474108107e-05   -4.573941911357191e-06   1.2961699616741818e-05
-2.1627406474108107e-05   -4.573941911357191e-06   1.2961699616741818e-05
-2.1627406474108107e-05   -4.573941911357191e-06   1.2961699616741818e-05
-2.1627406474108107e-05   -4.573941911357191e-06   1.2961699616741818e-05
-2.7818680567053197e-05   0.0   2.3098719339151763e-05
-2.7818680567053197e-05   0.0   2.3098719339151763e-05
-2.7818680567053197e-05   0.0   2.3098719339151763e-05
-2.7818680567053197e-05   0.0   2.3098719339151763e-05
-4.8862329079922127e-05   6.422053690122295e-06   -8.120795968222998e-06
-4.8862329079922127e-05   6.422053690122295e-06   -8.120795968222998e-06
-4.8862329079922127e-05   6.422053690122295e-06   -8.120795968222998e-06
-4.8862329079922127e-05   6.422053690122295e-06   -8.120795968222998e-06
-5.085192704468991e-05   0.0   3.368410371928411e-05
-5.085192704468991e-05   0.0   3.368410371928411e-05
-5.085192704468991e-05   0.0   3.368410371928411e-05
-5.085192704468991e-05   0.0   3.368410371928411e-05
-2.926900658563085e-05   6.210938293583872e-06   -6.0139933552981896e-06
-2.926900658563085e-05   6.210938293583872e-06   -6.0139933552981896e-06
-2.926900658563085e-05   6.210938293583872e-06   -6.0139933552981896e-06
-2.926900658563085e-05   6.210938293583872e-06   -6.0139933552981896e-06
-3.7531011037828085e-05   3.8092292944339346e-06   9.197039464520587e-06
-3.7531011037828085e-05   3.8092292944339346e-06   9.197039464520587e-06
-3.7531011037828085e-05   3.8092292944339346e-06   9.197039464520587e-06
-3.7531011037828085e-05   3.8092292944339346e-06   9.197039464520587e-06
-2.9269006585630825e-05   0.0   2.99575407431337e-05
-2.9269006585630825e-05   0.0   2.99575407431337e-05
-2.9269006585630825e-05   0.0   2.99575407431337e-05
-2.9269006585630825e-05   0.0   2.99575407431337e-05
-5.085192704469e-05   6.210938293583872e-06   -2.2874303791479153e-06
-5.085192704469e-05   6.210938293583872e-06   -2.2874303791479153e-06
-5.085192704469e-05   6.210938293583872e-06   -2.2874303791479153e-06
-5.085192704469e-05   6.210938293583872e-06   -2.2874303791479153e-06
-5.185265499986074e-05   0.0   3.7435333470576615e-05
-5.185265499986074e-05   0.0   3.7435333470576615e-05
-5.185265499986074e-05   0.0   3.7435333470576615e-05
-5.185265499986074e-05   0.0   3.7435333470576615e-05
-3.0151882742016043e-05   6.056348934134351e-06   -2.366429652978557e-06
-3.0151882742016043e-05   6.056348934134351e-06   -2.366429652978557e-06
-3.0151882742016043e-05   6.056348934134351e-06   -2.366429652978557e-06
-3.0151882742016043e-05   6.056348934134351e-06   -2.366429652978557e-06
-3.946380296033147e-05   3.1841944050515613e-06   1.487673009499726e-05
-3.946380296033147e-05   3.1841944050515613e-06   1.487673009499726e-05
-3.946380296033147e-05   3.1841944050515613e-06   1.487673009499726e-05
-3.946380296033147e-05   3.1841944050515613e-06   1.487673009499726e-05
-3.0151882742016043e-05   0.0   3.380152411009622e-05
-3.0151882742016043e-05   0.0   3.380152411009622e-05
-3.0151882742016043e-05   0.0   3.380152411009622e-05
-3.0151882742016043e-05   0.0   3.380152411009622e-05
-5.1852654999860825e-05   6.056348934134351e-06   1.2673797075020941e-06
-5.1852654999860825e-05   6.056348934134351e-06   1.2673797075020941e-06
-5.1852654999860825e-05   6.056348934134351e-06   1.2673797075020941e-06
-5.1852654999860825e-05   6.056348934134351e-06   1.2673797075020941e-06
-5.296205991686494e-05   0.0   4.2434933241705425e-05
-5.296205991686494e-05   0.0   4.2434933241705425e-05
-5.296205991686494e-05   0.0   4.2434933241705425e-05
-5.296205991686494e-05   0.0   4.2434933241705425e-05
-3.110442696222126e-05   5.063283090707589e-06   2.9675751295412143e-06
-3.110442696222126e-05   5.063283090707589e-06   2.9675751295412143e-06
-3.110442696222126e-05   5.063283090707589e-06   2.9675751295412143e-06
-3.110442696222126e-05   5.063283090707589e-06   2.9675751295412143e-06
-3.977495563488059e-05   2.2444640136744763e-06   1.9109747696859975e-05
-3.977495563488059e-05   2.2444640136744763e-06   1.9109747696859975e-05
-3.977495563488059e-05   2.2444640136744763e-06   1.9109747696859975e-05
-3.977495563488059e-05   2.2444640136744763e-06   1.9109747696859975e-05
3.347513207388804e-05   -5.024777672501439e-06   2.3680328723114908e-05
3.347513207388804e-05   -5.024777672501439e-06   2.3680328723114908e-05
3.347513207388804e-05   -5.024777672501439e-06   2.3680328723114908e-05
3.347513207388804e-05   -5.024777672501439e-06   2.3680328723114908e-05
1.6909990172658998e-05   -3.8080833179392464e-06   -3.1982244995295813e-06
1.6909990172658998e-05   -3.8080833179392464e-06   -3.1982244995295813e-06
1.6909990172658998e-05   -3.8080833179392464e-06   -3.1982244995295813e-06
1.6909990172658998e-05   -3.8080833179392464e-06   -3.1982244995295813e-06
1.646943617952152e-05   -5.520372217627774e-06   2.0650943385691384e-05
1.646943617952152e-05   -5.520372217627774e-06   2.0650943385691384e-05
1.646943617952152e-05   -5.520372217627774e-06   2.0650943385691384e-05
1.646943617952152e-05   -5.520372217627774e-06   2.0650943385691384e-05
3.2691078415554096e-05   -4.311101948297575e-06   -7.110689169294506e-06
3.2691078415554096e-05   -4.311101948297575e-06   -7.110689169294506e-06
3.2691078415554096e-05   -4.311101948297575e-06   -7.110689169294506e-06
3.2691078415554096e-05   -4.311101948297575e-06   -7.110689169294506e-06
2.3778515975533243e-05   -4.481040084107664e-06   7.845544445559712e-06
2.3778515975533243e-05   -4.481040084107664e-06   7.845544445559712e-06
2.3778515975533243e-05   -4.481040084107664e-06   7.845544445559712e-06
2.3778515975533243e-05   -4.481040084107664e-06   7.845544445559712e-06
3.269107841555404e-05   -5.520372217627774e-06   1.9925381224093156e-05
3.269107841555404e-05   -5.520372217627774e-06   1.9925381224093156e-05
3.269107841555404e-05   -5.520372217627774e-06   1.9925381224093156e-05
3.269107841555404e-05   -5.520372217627774e-06   1.9925381224093156e-05
1.6469436179521552e-05   -4.311101948297575e-06   -6.385127007696163e-06
1.6469436179521552e-05   -4.311101948297575e-06   -6.385127007696163e-06
1.6469436179521552e-05   -4.311101948297575e-06   -6.385127007696163e-06
1.6469436179521552e-05   -4.311101948297575e-06   -6.385127007696163e-06
1.5901866831182092e-05   -5.564270776680811e-06   1.852472102673887e-05
1.5901866831182092e-05   -5.564270776680811e-06   1.852472102673887e-05
1.5901866831182092e-05   -5.564270776680811e-06   1.852472102673887e-05
1.5901866831182092e-05   -5.564270776680811e-06   1.852472102673887e-05
3.189694628650934e-05   -4.384689675673414e-06   -8.84149339274429e-06
3.189694628650934e-05   -4.384689675673414e-06   -8.84149339274429e-06
3.189694628650934e-05   -4.384689675673414e-06   -8.84149339274429e-06
3.189694628650934e-05   -4.384689675673414e-06   -8.84149339274429e-06
2.356423888220963e-05   -4.675555713953795e-06   5.2208719040567605e-06
2.356423888220963e-05   -4.675555713953795e-06   5.2208719040567605e-06
2.356423888220963e-05   -4.675555713953795e-06   5.2208719040567605e-06
2.356423888220963e-05   -4.675555713953795e-06   5.2208719040567605e-06
3.189694628650934e-05   -5.564270776680811e-06   1.7816972366134476e-05
3.189694628650934e-05   -5.564270776680811e-06   1.7816972366134476e-05
3.189694628650934e-05   -5.564270776680811e-06   1.7816972366134476e-05
3.189694628650934e-05   -5.564270776680811e-06   1.7816972366134476e-05
1.5901866831182092e-05   -4.384689675673414e-06   -8.1337447321399e-06
1.5901866831182092e-05   -4.384689675673414e-06   -8.1337447321399e-06
1.5901866831182092e-05   -4.384689675673414e-06   -8.1337447321399e-06
1.5901866831182092e-05   -4.384689675673414e-06   -8.1337447321399e-06
1.5305954153295155e-05   -5.4423709516891045e-06   1.5366380219280487e-05
1.5305954153295155e-05   -5.4423709516891045e-06   1.5366380219280487e-05
1.5305954153295155e-05   -5.4423709516891045e-06   1.5366380219280487e-05
1.5305954153295155e-05   -5.4423709516891045e-06   1.5366380219280487e-05
3.090250413582229e-05   -4.351707911677723e-06   -1.1282267575604873e-05
3.090250413582229e-05   -4.351707911677723e-06   -1.1282267575604873e-05
3.090250413582229e-05   -4.351707911677723e-06   -1.1282267575604873e-05
3.090250413582229e-05   -4.351707911677723e-06   -1.1282267575604873e-05
2.2523583681781186e-05   -4.551407269559864e-06   2.8024194625266073e-06
2.2523583681781186e-05   -4.551407269559864e-06   2.8024194625266073e-06
2.2523583681781186e-05   -4.551407269559864e-06   2.8024194625266073e-06
2.2523583681781186e-05   -4.551407269559864e-06   2.8024194625266073e-06
1.6909990172658998e-05   -3.0812536775694493e-06   2.233333947491891e-05
1.6909990172658998e-05   -3.0812536775694493e-06   2.233333947491891e-05
1.6909990172658998e-05   -3.0812536775694493e-06   2.233333947491891e-05
1.6909990172658998e-05   -3.0812536775694493e-06   2.233333947491891e-05
1.8046612914570439e-06   -1.337240886658186e-06   -1.7958009858710195e-06
1.8046612914570439e-06   -1.337240886658186e-06   -1.7958009858710195e-06
1.8046612914570439e-06   -1.337240886658186e-06   -1.7958009858710195e-06
1.8046612914570439e-06   -1.337240886658186e-06   -1.7958009858710195e-06
1.3664429155521216e-06   -3.2663108931200915e-06   2.3254273752395757e-05
1.3664429155521216e-06   -3.2663108931200915e-06   2.3254273752395757e-05
1.3664429155521216e-06   -3.2663108931200915e-06   2.3254273752395757e-05
1.3664429155521216e-06   -3.2663108931200915e-06   2.3254273752395757e-05
1.6469436179521552e-05   -1.6063933429846192e-06   -2.913332217634469e-06
1.6469436179521552e-05   -1.6063933429846192e-06   -2.913332217634469e-06
1.6469436179521552e-05   -1.6063933429846192e-06   -2.913332217634469e-06
1.6469436179521552e-05   -1.6063933429846192e-06   -2.913332217634469e-06
9.049764102200885e-06   -2.160635826600971e-06   9.785333401403045e-06
9.049764102200885e-06   -2.160635826600971e-06   9.785333401403045e-06
9.049764102200885e-06   -2.160635826600971e-06   9.785333401403045e-06
9.049764102200885e-06   -2.160635826600971e-06   9.785333401403045e-06
1.6469436179521532e-05   -3.2663108931200915e-06   2.2258323222314408e-05
1.6469436179521532e-05   -3.2663108931200915e-06   2.2258323222314408e-05
1.6469436179521532e-05   -3.2663108931200915e-06   2.2258323222314408e-05
1.6469436179521532e-05   -3.2663108931200915e-06   2.2258323222314408e-05
1.3664429155521216e-06   -1.6063933429846192e-06   -1.9173816875532428e-06
1.3664429155521216e-06   -1.6063933429846192e-06   -1.9173816875532428e-06
1.3664429155521216e-06   -1.6063933429846192e-06   -1.9173816875532428e-06
1.3664429155521216e-06   -1.6063933429846192e-06   -1.9173816875532428e-06
8.076657632618563e-07   -3.346319002695995e-06   2.302684846115441e-05
8.076657632618563e-07   -3.346319002695995e-06   2.302684846115441e-05
8.076657632618563e-07   -3.346319002695995e-06   2.302684846115441e-05
8.076657632618563e-07   -3.346319002695995e-06   2.302684846115441e-05
1.5901866831182092e-05   -1.7812956585947903e-06   -3.0691673251734183e-06
1.5901866831182092e-05   -1.7812956585947903e-06   -3.0691673251734183e-06
1.5901866831182092e-05   -1.7812956585947903e-06   -3.0691673251734183e-06
1.5901866831182092e-05   -1.7812956585947903e-06   -3.0691673251734183e-06
8.493037307632815e-06   -2.2616726273220426e-06   9.567108061978906e-06
8.493037307632815e-06   -2.2616726273220426e-06   9.567108061978906e-06
8.493037307632815e-06   -2.2616726273220426e-06   9.567108061978906e-06
8.493037307632815e-06   -2.2616726273220426e-06   9.567108061978906e-06
1.5901866831182065e-05   -3.346319002695778e-06   2.2087834454693773e-05
1.5901866831182065e-05   -3.346319002695778e-06   2.2087834454693773e-05
1.5901866831182065e-05   -3.346319002695778e-06   2.2087834454693773e-05
1.5901866831182065e-05   -3.346319002695778e-06   2.2087834454693773e-05
8.076657632618563e-07   -1.7812956585947903e-06   -2.1301533187126874e-06
8.076657632618563e-07   -1.7812956585947903e-06   -2.1301533187126874e-06
8.076657632618563e-07   -1.7812956585947903e-06   -2.1301533187126874e-06
8.076657632618563e-07   -1.7812956585947903e-06   -2.1301533187126874e-06
1.9046265650998263e-07   -3.2668038137326216e-06   2.3356473398906323e-05
1.9046265650998263e-07   -3.2668038137326216e-06   2.3356473398906323e-05
1.9046265650998263e-07   -3.2668038137326216e-06   2.3356473398906323e-05
1.9046265650998263e-07   -3.2668038137326216e-06   2.3356473398906323e-05
1.530595415329515e-05   -1.8539067699844137e-06   -2.683750655317732e-06
1.530595415329515e-05   -1.8539067699844137e-06   -2.683750655317732e-06
1.530595415329515e-05   -1.8539067699844137e-06   -2.683750655317732e-06
1.530595415329515e-05   -1.8539067699844137e-06   -2.683750655317732e-06
8.04207066335162e-06   -2.2379898422188096e-06   9.6531716712623e-06
8.04207066335162e-06   -2.2379898422188096e-06   9.6531716712623e-06
8.04207066335162e-06   -2.2379898422188096e-06   9.6531716712623e-06
8.04207066335162e-06   -2.2379898422188096e-06   9.6531716712623e-06
1.8046612914570439e-06   -1.2560333479223404e-06   2.2817676532715437e-05
1.8046612914570439e-06   -1.2560333479223404e-06   2.2817676532715437e-05
1.8046612914570439e-06   -1.2560333479223404e-06   2.2817676532715437e-05
1.8046612914570439e-06   -1.2560333479223404e-06   2.2817676532715437e-05
-1.283385517858351e-05   1.2024107957011188e-06   -1.0478443117811938e-07
-1.283385517858351e-05   1.2024107957011188e-06   -1.0478443117811938e-07
-1.283385517858351e-05   1.2024107957011188e-06   -1.0478443117811938e-07
-1.283385517858351e-05   1.2024107957011188e-06   -1.0478443117811938e-07
-1.3327839589253592e-05   -1.3250432556362064e-06   2.446209647458651e-05
-1.3327839589253592e-05   -1.3250432556362064e-06   2.446209647458651e-05
-1.3327839589253592e-05   -1.3250432556362064e-06   2.446209647458651e-05
-1.3327839589253592e-05   -1.3250432556362064e-06   2.446209647458651e-05
1.3664429155521216e-06   9.985283010464571e-07   -1.4225173007659177e-06
1.3664429155521216e-06   9.985283010464571e-07   -1.4225173007659177e-06
1.3664429155521216e-06   9.985283010464571e-07   -1.4225173007659177e-06
1.3664429155521216e-06   9.985283010464571e-07   -1.4225173007659177e-06
-5.73731646932346e-06   1.2387539850009302e-08   1.1008766130744498e-05
-5.73731646932346e-06   1.2387539850009302e-08   1.1008766130744498e-05
-5.73731646932346e-06   1.2387539850009302e-08   1.1008766130744498e-05
-5.73731646932346e-06   1.2387539850009302e-08   1.1008766130744498e-05
1.3664429155521216e-06   -1.3250432556362064e-06   2.306795354057689e-05
1.3664429155521216e-06   -1.3250432556362064e-06   2.306795354057689e-05
1.3664429155521216e-06   -1.3250432556362064e-06   2.306795354057689e-05
1.3664429155521216e-06   -1.3250432556362064e-06   2.306795354057689e-05
-1.3327839589253592e-05   9.985283010464571e-07   -2.8374366756460552e-08
-1.3327839589253592e-05   9.985283010464571e-07   -2.8374366756460552e-08
-1.3327839589253592e-05   9.985283010464571e-07   -2.8374366756460552e-08
-1.3327839589253592e-05   9.985283010464571e-07   -2.8374366756460552e-08
-1.3988687494046368e-05   -1.4101832325121456e-06   2.4946659912973416e-05
-1.3988687494046368e-05   -1.4101832325121456e-06   2.4946659912973416e-05
-1.3988687494046368e-05   -1.4101832325121456e-06   2.4946659912973416e-05
-1.3988687494046368e-05   -1.4101832325121456e-06   2.4946659912973416e-05
8.076657632618563e-07   8.087543293653927e-07   -1.04529138633352e-06
8.076657632618563e-07   8.087543293653927e-07   -1.04529138633352e-06
8.076657632618563e-07   8.087543293653927e-07   -1.04529138633352e-06
8.076657632618563e-07   8.087543293653927e-07   -1.04529138633352e-06
-6.2242052150526605e-06   -4.3460917617142367e-08   1.118582272571371e-05
-6.2242052150526605e-06   -4.3460917617142367e-08   1.118582272571371e-05
-6.2242052150526605e-06   -4.3460917617142367e-08   1.118582272571371e-05
-6.2242052150526605e-06   -4.3460917617142367e-08   1.118582272571371e-05
8.076657632618563e-07   -1.4101832325119287e-06   2.361529737584698e-05
8.076657632618563e-07   -1.4101832325119287e-06   2.361529737584698e-05
8.076657632618563e-07   -1.4101832325119287e-06   2.361529737584698e-05
8.076657632618563e-07   -1.4101832325119287e-06   2.361529737584698e-05
-1.3988687494046368e-05   8.087543293653927e-07   2.860711507929976e-07
-1.3988687494046368e-05   8.087543293653927e-07   2.860711507929976e-07
-1.3988687494046368e-05   8.087543293653927e-07   2.860711507929976e-07
-1.3988687494046368e-05   8.087543293653927e-07   2.860711507929976e-07
-1.4692737442984229e-05   -1.3985976035114922e-06   2.5527814670494925e-05
-1.4692737442984229e-05   -1.3985976035114922e-06   2.5527814670494925e-05
-1.4692737442984229e-05   -1.3985976035114922e-06   2.5527814670494925e-05
-1.4692737442984229e-05   -1.3985976035114922e-06   2.5527814670494925e-05
1.9046265650998263e-07   6.725883312538958e-07   -5.202303895216034e-07
1.9046265650998263e-07   6.725883312538958e-07   -5.202303895216034e-07
1.9046265650998263e-07   6.725883312538958e-07   -5.202303895216034e-07
1.9046265650998263e-07   6.725883312538958e-07   -5.202303895216034e-07
-6.844575681544614e-06   -8.273755668433691e-08   1.1658029039999357e-05
-6.844575681544614e-06   -8.273755668433691e-08   1.1658029039999357e-05
-6.844575681544614e-06   -8.273755668433691e-08   1.1658029039999357e-05
-6.844575681544614e-06   -8.273755668433691e-08   1.1658029039999357e-05
-1.2833855178583442e-05   1.4639775755968028e-06   2.0645020300836766e-05
-1.2833855178583442e-05   1.4639775755968028e-06   2.0645020300836766e-05
-1.2833855178583442e-05   1.4639775755968028e-06   2.0645020300836766e-05
-1.2833855178583442e-05   1.4639775755968028e-06   2.0645020300836766e-05
-2.7191102649816698e-05   3.898869788613972e-06   -1.8227901567415342e-06
-2.7191102649816698e-05   3.898869788613972e-06   -1.8227901567415342e-06
-2.7191102649816698e-05   3.898869788613972e-06   -1.8227901567415342e-06
-2.7191102649816698e-05   3.898869788613972e-06   -1.8227901567415342e-06
-2.7907549067737026e-05   1.386861644668948e-06   2.283133386852892e-05
-2.7907549067737026e-05   1.386861644668948e-06   2.283133386852892e-05
-2.7907549067737026e-05   1.386861644668948e-06   2.283133386852892e-05
-2.7907549067737026e-05   1.386861644668948e-06   2.283133386852892e-05
-1.3327839589253565e-05   3.6956547503528506e-06   -2.853457792353838e-06
-1.3327839589253565e-05   3.6956547503528506e-06   -2.853457792353838e-06
-1.3327839589253565e-05   3.6956547503528506e-06   -2.853457792353838e-06
-1.3327839589253565e-05   3.6956547503528506e-06   -2.853457792353838e-06
-2.0156924169010065e-05   2.65351993279238e-06   9.153630731109945e-06
-2.0156924169010065e-05   2.65351993279238e-06   9.153630731109945e-06
-2.0156924169010065e-05   2.65351993279238e-06   9.153630731109945e-06
-2.0156924169010065e-05   2.65351993279238e-06   9.153630731109945e-06
-1.3327839589253592e-05   1.386861644668948e-06   2.1446058005118555e-05
-1.3327839589253592e-05   1.386861644668948e-06   2.1446058005118555e-05
-1.3327839589253592e-05   1.386861644668948e-06   2.1446058005118555e-05
-1.3327839589253592e-05   1.386861644668948e-06   2.1446058005118555e-05
-2.7907549067736985e-05   3.6956547503528506e-06   -1.4681819289433934e-06
-2.7907549067736985e-05   3.6956547503528506e-06   -1.4681819289433934e-06
-2.7907549067736985e-05   3.6956547503528506e-06   -1.4681819289433934e-06
-2.7907549067736985e-05   3.6956547503528506e-06   -1.4681819289433934e-06
-2.87865904461389e-05   1.2375694359459486e-06   2.4231421089480443e-05
-2.87865904461389e-05   1.2375694359459486e-06   2.4231421089480443e-05
-2.87865904461389e-05   1.2375694359459486e-06   2.4231421089480443e-05
-2.87865904461389e-05   1.2375694359459486e-06   2.4231421089480443e-05
-1.3988687494046368e-05   3.506627346613585e-06   -1.7931852437409886e-06
-1.3988687494046368e-05   3.506627346613585e-06   -1.7931852437409886e-06
-1.3988687494046368e-05   3.506627346613585e-06   -1.7931852437409886e-06
-1.3988687494046368e-05   3.506627346613585e-06   -1.7931852437409886e-06
-2.0688488473629468e-05   2.60911104375686e-06   9.911659503944762e-06
-2.0688488473629468e-05   2.60911104375686e-06   9.911659503944762e-06
-2.0688488473629468e-05   2.60911104375686e-06   9.911659503944762e-06
-2.0688488473629468e-05   2.60911104375686e-06   9.911659503944762e-06
-1.3988687494046368e-05   1.2375694359457318e-06   2.2869986343079817e-05
-1.3988687494046368e-05   1.2375694359457318e-06   2.2869986343079817e-05
-1.3988687494046368e-05   1.2375694359457318e-06   2.2869986343079817e-05
-1.3988687494046368e-05   1.2375694359457318e-06   2.2869986343079817e-05
-2.878659044613886e-05   3.506627346613585e-06   -4.317504973404447e-07
-2.878659044613886e-05   3.506627346613585e-06   -4.317504973404447e-07
-2.878659044613886e-05   3.506627346613585e-06   -4.317504973404447e-07
-2.878659044613886e-05   3.506627346613585e-06   -4.317504973404447e-07
-2.971552807053196e-05   1.0676101801342791e-06   2.533776642226382e-05
-2.971552807053196e-05   1.0676101801342791e-06   2.533776642226382e-05
-2.971552807053196e-05   1.0676101801342791e-06   2.533776642226382e-05
-2.971552807053196e-05   1.0676101801342791e-06   2.533776642226382e-05
-1.4692737442984201e-05   3.251279080130438e-06   -1.0104192969798327e-06
-1.4692737442984201e-05   3.251279080130438e-06   -1.0104192969798327e-06
-1.4692737442984201e-05   3.251279080130438e-06   -1.0104192969798327e-06
-1.4692737442984201e-05   3.251279080130438e-06   -1.0104192969798327e-06
-2.158122042947301e-05   2.4566083384270146e-06   1.0947188125524275e-05
-2.158122042947301e-05   2.4566083384270146e-06   1.0947188125524275e-05
-2.158122042947301e-05   2.4566083384270146e-06   1.0947188125524275e-05
-2.158122042947301e-05   2.4566083384270146e-06   1.0947188125524275e-05
-2.7191102649816698e-05   6.422053690122295e-06   1.0864199231215262e-05
-2.7191102649816698e-05   6.422053690122295e-06   1.0864199231215262e-05
-2.7191102649816698e-05   6.422053690122295e-06   1.0864199231215262e-05
-2.7191102649816698e-05   6.422053690122295e-06   1.0864199231215262e-05
-4.0961324664377634e-05   6.340876892155754e-06   -1.2134876871832973e-05
-4.0961324664377634e-05   6.340876892155754e-06   -1.2134876871832973e-05
-4.0961324664377634e-05   6.340876892155754e-06   -1.2134876871832973e-05
-4.0961324664377634e-05   6.340876892155754e-06   -1.2134876871832973e-05
-4.224915702927394e-05   6.210938293583655e-06   1.6146740361069846e-05
-4.224915702927394e-05   6.210938293583655e-06   1.6146740361069846e-05
-4.224915702927394e-05   6.210938293583655e-06   1.6146740361069846e-05
-4.224915702927394e-05   6.210938293583655e-06   1.6146740361069846e-05
-2.7907549067736985e-05   6.467993994659603e-06   -7.91017299547054e-06
-2.7907549067736985e-05   6.467993994659603e-06   -7.91017299547054e-06
-2.7907549067736985e-05   6.467993994659603e-06   -7.91017299547054e-06
-2.7907549067736985e-05   6.467993994659603e-06   -7.91017299547054e-06
-3.318547304459692e-05   6.455678058541869e-06   8.937565276332022e-07
-3.318547304459692e-05   6.455678058541869e-06   8.937565276332022e-07
-3.318547304459692e-05   6.455678058541869e-06   8.937565276332022e-07
-3.318547304459692e-05   6.455678058541869e-06   8.937565276332022e-07
-2.7907549067736958e-05   6.210938293583872e-06   1.5992506940424472e-05
-2.7907549067736958e-05   6.210938293583872e-06   1.5992506940424472e-05
-2.7907549067736958e-05   6.210938293583872e-06   1.5992506940424472e-05
-2.7907549067736958e-05   6.210938293583872e-06   1.5992506940424472e-05
-4.224915702927394e-05   6.467993994659603e-06   -7.755939574825193e-06
-4.224915702927394e-05   6.467993994659603e-06   -7.755939574825193e-06
-4.224915702927394e-05   6.467993994659603e-06   -7.755939574825193e-06
-4.224915702927394e-05   6.467993994659603e-06   -7.755939574825193e-06
-4.3511947313871875e-05   6.056348934134351e-06   1.9843953076058578e-05
-4.3511947313871875e-05   6.056348934134351e-06   1.9843953076058578e-05
-4.3511947313871875e-05   6.056348934134351e-06   1.9843953076058578e-05
-4.3511947313871875e-05   6.056348934134351e-06   1.9843953076058578e-05
-2.878659044613886e-05   6.423194964412212e-06   -4.918415988330096e-06
-2.878659044613886e-05   6.423194964412212e-06   -4.918415988330096e-06
-2.878659044613886e-05   6.423194964412212e-06   -4.918415988330096e-06
-2.878659044613886e-05   6.423194964412212e-06   -4.918415988330096e-06
-3.46716462577829e-05   6.459565579605394e-06   4.868187995294484e-06
-3.46716462577829e-05   6.459565579605394e-06   4.868187995294484e-06
-3.46716462577829e-05   6.459565579605394e-06   4.868187995294484e-06
-3.46716462577829e-05   6.459565579605394e-06   4.868187995294484e-06
-2.878659044613886e-05   6.056348934134351e-06   1.9623845457891818e-05
-2.878659044613886e-05   6.056348934134351e-06   1.9623845457891818e-05
-2.878659044613886e-05   6.056348934134351e-06   1.9623845457891818e-05
-2.878659044613886e-05   6.056348934134351e-06   1.9623845457891818e-05
-4.3511947313871956e-05   6.423194964412212e-06   -4.698308370163309e-06
-4.3511947313871956e-05   6.423194964412212e-06   -4.698308370163309e-06
-4.3511947313871956e-05   6.423194964412212e-06   -4.698308370163309e-06
-4.3511947313871956e-05   6.423194964412212e-06   -4.698308370163309e-06
-4.5002143566263384e-05   5.063283090707589e-06   2.60189583596173e-05
-4.5002143566263384e-05   5.063283090707589e-06   2.60189583596173e-05
-4.5002143566263384e-05   5.063283090707589e-06   2.60189583596173e-05
-4.5002143566263384e-05   5.063283090707589e-06   2.60189583596173e-05
-2.9715528070531905e-05   5.918462409253188e-06   2.815827560392046e-08
-2.9715528070531905e-05   5.918462409253188e-06   2.815827560392046e-08
-2.9715528070531905e-05   5.918462409253188e-06   2.815827560392046e-08
-2.9715528070531905e-05   5.918462409253188e-06   2.815827560392046e-08
-3.519078166004074e-05   6.1568952467469604e-06   9.010521222289447e-06
-3.519078166004074e-05   6.1568952467469604e-06   9.010521222289447e-06
-3.519078166004074e-05   6.1568952467469604e-06   9.010521222289447e-06
-3.519078166004074e-05   6.1568952467469604e-06   9.010521222289447e-06
2.7256393537091177e-05   -3.8080833179392464e-06   2.094437223102699e-05
2.7256393537091177e-05   -3.8080833179392464e-06   2.094437223102699e-05
2.7256393537091177e-05   -3.8080833179392464e-06   2.094437223102699e-05
2.7256393537091177e-05   -3.8080833179392464e-06   2.094437223102699e-05
1.347789688946585e-05   -2.806206289350348e-06   -1.418662631195132e-06
1.347789688946585e-05   -2.806206289350348e-06   -1.418662631195132e-06
1.347789688946585e-05   -2.806206289350348e-06   -1.418662631195132e-06
1.347789688946585e-05   -2.806206289350348e-06   -1.418662631195132e-06
1.2970106605992263e-05   -4.3111019482973585e-06   1.8199974416592437e-05
1.2970106605992263e-05   -4.3111019482973585e-06   1.8199974416592437e-05
1.2970106605992263e-05   -4.3111019482973585e-06   1.8199974416592437e-05
1.2970106605992263e-05   -4.3111019482973585e-06   1.8199974416592437e-05
2.6323301232501808e-05   -3.251569045588116e-06   -4.691069702548932e-06
2.6323301232501808e-05   -3.251569045588116e-06   -4.691069702548932e-06
2.6323301232501808e-05   -3.251569045588116e-06   -4.691069702548932e-06
2.6323301232501808e-05   -3.251569045588116e-06   -4.691069702548932e-06
1.909123175296841e-05   -3.5076510379989344e-06   7.516028625453205e-06
1.909123175296841e-05   -3.5076510379989344e-06   7.516028625453205e-06
1.909123175296841e-05   -3.5076510379989344e-06   7.516028625453205e-06
1.909123175296841e-05   -3.5076510379989344e-06   7.516028625453205e-06
2.6323301232501764e-05   -4.3111019482973585e-06   1.756425467496685e-05
2.6323301232501764e-05   -4.3111019482973585e-06   1.756425467496685e-05
2.6323301232501764e-05   -4.3111019482973585e-06   1.756425467496685e-05
2.6323301232501764e-05   -4.3111019482973585e-06   1.756425467496685e-05
1.297010660599231e-05   -3.251569045588116e-06   -4.0553499609234005e-06
1.297010660599231e-05   -3.251569045588116e-06   -4.0553499609234005e-06
1.297010660599231e-05   -3.251569045588116e-06   -4.0553499609234005e-06
1.297010660599231e-05   -3.251569045588116e-06   -4.0553499609234005e-06
1.2405375805445954e-05   -4.384689675673414e-06   1.6301816421947874e-05
1.2405375805445954e-05   -4.384689675673414e-06   1.6301816421947874e-05
1.2405375805445954e-05   -4.384689675673414e-06   1.6301816421947874e-05
1.2405375805445954e-05   -4.384689675673414e-06   1.6301816421947874e-05
2.547735716881101e-05   -3.340241348182872e-06   -6.111488180154951e-06
2.547735716881101e-05   -3.340241348182872e-06   -6.111488180154951e-06
2.547735716881101e-05   -3.340241348182872e-06   -6.111488180154951e-06
2.547735716881101e-05   -3.340241348182872e-06   -6.111488180154951e-06
1.8745386168168085e-05   -3.6806156039296406e-06   5.31268804103145e-06
1.8745386168168085e-05   -3.6806156039296406e-06   5.31268804103145e-06
1.8745386168168085e-05   -3.6806156039296406e-06   5.31268804103145e-06
1.8745386168168085e-05   -3.6806156039296406e-06   5.31268804103145e-06
2.547735716881092e-05   -4.384689675673197e-06   1.5675147425453398e-05
2.547735716881092e-05   -4.384689675673197e-06   1.5675147425453398e-05
2.547735716881092e-05   -4.384689675673197e-06   1.5675147425453398e-05
2.547735716881092e-05   -4.384689675673197e-06   1.5675147425453398e-05
1.2405375805445977e-05   -3.340241348182872e-06   -5.4848191836605114e-06
1.2405375805445977e-05   -3.340241348182872e-06   -5.4848191836605114e-06
1.2405375805445977e-05   -3.340241348182872e-06   -5.4848191836605114e-06
1.2405375805445977e-05   -3.340241348182872e-06   -5.4848191836605114e-06
1.1861770450943292e-05   -4.351707911677506e-06   1.364820926177848e-05
1.1861770450943292e-05   -4.351707911677506e-06   1.364820926177848e-05
1.1861770450943292e-05   -4.351707911677506e-06   1.364820926177848e-05
1.1861770450943292e-05   -4.351707911677506e-06   1.364820926177848e-05
2.4518312706102858e-05   -3.372011894297363e-06   -8.033845440582155e-06
2.4518312706102858e-05   -3.372011894297363e-06   -8.033845440582155e-06
2.4518312706102858e-05   -3.372011894297363e-06   -8.033845440582155e-06
2.4518312706102858e-05   -3.372011894297363e-06   -8.033845440582155e-06
1.7790962008156103e-05   -3.6167533697343407e-06   3.325250607924989e-06
1.7790962008156103e-05   -3.6167533697343407e-06   3.325250607924989e-06
1.7790962008156103e-05   -3.6167533697343407e-06   3.325250607924989e-06
1.7790962008156103e-05   -3.6167533697343407e-06   3.325250607924989e-06
1.347789688946585e-05   -1.337240886658186e-06   2.1901514287292283e-05
1.347789688946585e-05   -1.337240886658186e-06   2.1901514287292283e-05
1.347789688946585e-05   -1.337240886658186e-06   2.1901514287292283e-05
1.347789688946585e-05   -1.337240886658186e-06   2.1901514287292283e-05
5.438723403596002e-07   -5.383478685651311e-07   8.24142516304277e-07
5.438723403596002e-07   -5.383478685651311e-07   8.24142516304277e-07
5.438723403596002e-07   -5.383478685651311e-07   8.24142516304277e-07
5.438723403596002e-07   -5.383478685651311e-07   8.24142516304277e-07
5.590249741188483e-08   -1.6063933429846192e-06   2.2123728733181632e-05
5.590249741188483e-08   -1.6063933429846192e-06   2.2123728733181632e-05
5.590249741188483e-08   -1.6063933429846192e-06   2.2123728733181632e-05
5.590249741188483e-08   -1.6063933429846192e-06   2.2123728733181632e-05
1.297010660599231e-05   -8.531274654386897e-07   1.4809569235327155e-07
1.297010660599231e-05   -8.531274654386897e-07   1.4809569235327155e-07
1.297010660599231e-05   -8.531274654386897e-07   1.4809569235327155e-07
1.297010660599231e-05   -8.531274654386897e-07   1.4809569235327155e-07
6.679615060150465e-06   -1.0441810952236275e-06   1.074688044662733e-05
6.679615060150465e-06   -1.0441810952236275e-06   1.074688044662733e-05
6.679615060150465e-06   -1.0441810952236275e-06   1.074688044662733e-05
6.679615060150465e-06   -1.0441810952236275e-06   1.074688044662733e-05
1.29701066059923e-05   -1.606393342984836e-06   2.1671769206654118e-05
1.29701066059923e-05   -1.606393342984836e-06   2.1671769206654118e-05
1.29701066059923e-05   -1.606393342984836e-06   2.1671769206654118e-05
1.29701066059923e-05   -1.606393342984836e-06   2.1671769206654118e-05
5.590249741188483e-08   -8.531274654386897e-07   6.000552188809146e-07
5.590249741188483e-08   -8.531274654386897e-07   6.000552188809146e-07
5.590249741188483e-08   -8.531274654386897e-07   6.000552188809146e-07
5.590249741188483e-08   -8.531274654386897e-07   6.000552188809146e-07
-4.5134859622814993e-07   -1.7812956585947903e-06   2.1783769794931837e-05
-4.5134859622814993e-07   -1.7812956585947903e-06   2.1783769794931837e-05
-4.5134859622814993e-07   -1.7812956585947903e-06   2.1783769794931837e-05
-4.5134859622814993e-07   -1.7812956585947903e-06   2.1783769794931837e-05
1.2405375805445977e-05   -1.0856690485655258e-06   -6.148017387583136e-08
1.2405375805445977e-05   -1.0856690485655258e-06   -6.148017387583136e-08
1.2405375805445977e-05   -1.0856690485655258e-06   -6.148017387583136e-08
1.2405375805445977e-05   -1.0856690485655258e-06   -6.148017387583136e-08
6.118261439147776e-06   -1.2085174390741651e-06   1.049075280425985e-05
6.118261439147776e-06   -1.2085174390741651e-06   1.049075280425985e-05
6.118261439147776e-06   -1.2085174390741651e-06   1.049075280425985e-05
6.118261439147776e-06   -1.2085174390741651e-06   1.049075280425985e-05
1.2405375805445954e-05   -1.7812956585947903e-06   2.1366393828914452e-05
1.2405375805445954e-05   -1.7812956585947903e-06   2.1366393828914452e-05
1.2405375805445954e-05   -1.7812956585947903e-06   2.1366393828914452e-05
1.2405375805445954e-05   -1.7812956585947903e-06   2.1366393828914452e-05
-4.5134859622814993e-07   -1.0856690485655258e-06   3.5589579214169616e-07
-4.5134859622814993e-07   -1.0856690485655258e-06   3.5589579214169616e-07
-4.5134859622814993e-07   -1.0856690485655258e-06   3.5589579214169616e-07
-4.5134859622814993e-07   -1.0856690485655258e-06   3.5589579214169616e-07
-9.794467638904754e-07   -1.8539067699846305e-06   2.1944138567022743e-05
-9.794467638904754e-07   -1.8539067699846305e-06   2.1944138567022743e-05
-9.794467638904754e-07   -1.8539067699846305e-06   2.1944138567022743e-05
-9.794467638904754e-07   -1.8539067699846305e-06   2.1944138567022743e-05
1.186177045094332e-05   -1.267556421711332e-06   1.9029966666901877e-07
1.186177045094332e-05   -1.267556421711332e-06   1.9029966666901877e-07
1.186177045094332e-05   -1.267556421711332e-06   1.9029966666901877e-07
1.186177045094332e-05   -1.267556421711332e-06   1.9029966666901877e-07
5.698225225850833e-06   -1.2952047799572129e-06   1.0479464056771206e-05
5.698225225850833e-06   -1.2952047799572129e-06   1.0479464056771206e-05
5.698225225850833e-06   -1.2952047799572129e-06   1.0479464056771206e-05
5.698225225850833e-06   -1.2952047799572129e-06   1.0479464056771206e-05
5.438723403596002e-07   1.2024107957011188e-06   2.2596800166666702e-05
5.438723403596002e-07   1.2024107957011188e-06   2.2596800166666702e-05
5.438723403596002e-07   1.2024107957011188e-06   2.2596800166666702e-05
5.438723403596002e-07   1.2024107957011188e-06   2.2596800166666702e-05
-1.2015881860253752e-05   1.7349187394117855e-06   1.983381265204193e-06
-1.2015881860253752e-05   1.7349187394117855e-06   1.983381265204193e-06
-1.2015881860253752e-05   1.7349187394117855e-06   1.983381265204193e-06
-1.2015881860253752e-05   1.7349187394117855e-06   1.983381265204193e-06
-1.2526031514475066e-05   9.985283010464571e-07   2.2904160692223548e-05
-1.2526031514475066e-05   9.985283010464571e-07   2.2904160692223548e-05
-1.2526031514475066e-05   9.985283010464571e-07   2.2904160692223548e-05
-1.2526031514475066e-05   9.985283010464571e-07   2.2904160692223548e-05
5.590249741188483e-08   1.4744742548038377e-06   1.6487031001575174e-06
5.590249741188483e-08   1.4744742548038377e-06   1.6487031001575174e-06
5.590249741188483e-08   1.4744742548038377e-06   1.6487031001575174e-06
5.590249741188483e-08   1.4744742548038377e-06   1.6487031001575174e-06
-5.994689924865519e-06   1.3666320358039427e-06   1.1797729135353137e-05
-5.994689924865519e-06   1.3666320358039427e-06   1.1797729135353137e-05
-5.994689924865519e-06   1.3666320358039427e-06   1.1797729135353137e-05
-5.994689924865519e-06   1.3666320358039427e-06   1.1797729135353137e-05
5.590249741188483e-08   9.985283010464571e-07   2.261859311996901e-05
5.590249741188483e-08   9.985283010464571e-07   2.261859311996901e-05
5.590249741188483e-08   9.985283010464571e-07   2.261859311996901e-05
5.590249741188483e-08   9.985283010464571e-07   2.261859311996901e-05
-1.2526031514475066e-05   1.4744742548038377e-06   1.9342706724119864e-06
-1.2526031514475066e-05   1.4744742548038377e-06   1.9342706724119864e-06
-1.2526031514475066e-05   1.4744742548038377e-06   1.9342706724119864e-06
-1.2526031514475066e-05   1.4744742548038377e-06   1.9342706724119864e-06
-1.3064340114229853e-05   8.087543293653927e-07   2.31163693309649e-05
-1.3064340114229853e-05   8.087543293653927e-07   2.31163693309649e-05
-1.3064340114229853e-05   8.087543293653927e-07   2.31163693309649e-05
-1.3064340114229853e-05   8.087543293653927e-07   2.31163693309649e-05
-4.5134859622814993e-07   1.2216503354554441e-06   1.8469791973080584e-06
-4.5134859622814993e-07   1.2216503354554441e-06   1.8469791973080584e-06
-4.5134859622814993e-07   1.2216503354554441e-06   1.8469791973080584e-06
-4.5134859622814993e-07   1.2216503354554441e-06   1.8469791973080584e-06
-6.468337110465776e-06   1.2187834411937423e-06   1.187701352426135e-05
-6.468337110465776e-06   1.2187834411937423e-06   1.187701352426135e-05
-6.468337110465776e-06   1.2187834411937423e-06   1.187701352426135e-05
-6.468337110465776e-06   1.2187834411937423e-06   1.187701352426135e-05
-4.5134859622814993e-07   8.087543293653927e-07   2.2868631727310977e-05
-4.5134859622814993e-07   8.087543293653927e-07   2.2868631727310977e-05
-4.5134859622814993e-07   8.087543293653927e-07   2.2868631727310977e-05
-4.5134859622814993e-07   8.087543293653927e-07   2.2868631727310977e-05
-1.3064340114229853e-05   1.2216503354554441e-06   2.09471680096213e-06
-1.3064340114229853e-05   1.2216503354554441e-06   2.09471680096213e-06
-1.3064340114229853e-05   1.2216503354554441e-06   2.09471680096213e-06
-1.3064340114229853e-05   1.2216503354554441e-06   2.09471680096213e-06
-1.3619603476904509e-05   6.725883312538958e-07   2.3454387972307502e-05
-1.3619603476904509e-05   6.725883312538958e-07   2.3454387972307502e-05
-1.3619603476904509e-05   6.725883312538958e-07   2.3454387972307502e-05
-1.3619603476904509e-05   6.725883312538958e-07   2.3454387972307502e-05
-9.794467638904754e-07   9.967006074829057e-07   2.1929927515468712e-06
-9.794467638904754e-07   9.967006074829057e-07   2.1929927515468712e-06
-9.794467638904754e-07   9.967006074829057e-07   2.1929927515468712e-06
-9.794467638904754e-07   9.967006074829057e-07   2.1929927515468712e-06
-6.980939299342754e-06   1.077310597741906e-06   1.214711431647899e-05
-6.980939299342754e-06   1.077310597741906e-06   1.214711431647899e-05
-6.980939299342754e-06   1.077310597741906e-06   1.214711431647899e-05
-6.980939299342754e-06   1.077310597741906e-06   1.214711431647899e-05
-1.2015881860253779e-05   3.898869788613972e-06   1.973736387951943e-05
-1.2015881860253779e-05   3.898869788613972e-06   1.973736387951943e-05
-1.2015881860253779e-05   3.898869788613972e-06   1.973736387951943e-05
-1.2015881860253779e-05   3.898869788613972e-06   1.973736387951943e-05
-2.419528668490751e-05   3.948573399377821e-06   -5.318219951118549e-07
-2.419528668490751e-05   3.948573399377821e-06   -5.318219951118549e-07
-2.419528668490751e-05   3.948573399377821e-06   -5.318219951118549e-07
-2.419528668490751e-05   3.948573399377821e-06   -5.318219951118549e-07
-2.478734152129149e-05   3.6956547503528506e-06   2.008240045854484e-05
-2.478734152129149e-05   3.6956547503528506e-06   2.008240045854484e-05
-2.478734152129149e-05   3.6956547503528506e-06   2.008240045854484e-05
-2.478734152129149e-05   3.6956547503528506e-06   2.008240045854484e-05
-1.2526031514475093e-05   3.7011934035508214e-06   -3.564394114011671e-07
-1.2526031514475093e-05   3.7011934035508214e-06   -3.564394114011671e-07
-1.2526031514475093e-05   3.7011934035508214e-06   -3.564394114011671e-07
-1.2526031514475093e-05   3.7011934035508214e-06   -3.564394114011671e-07
-1.8299064740247508e-05   3.799940111657435e-06   9.206034606689035e-06
-1.8299064740247508e-05   3.799940111657435e-06   9.206034606689035e-06
-1.8299064740247508e-05   3.799940111657435e-06   9.206034606689035e-06
-1.8299064740247508e-05   3.799940111657435e-06   9.206034606689035e-06
-1.2526031514475093e-05   3.6956547503528506e-06   2.0079077266626144e-05
-1.2526031514475093e-05   3.6956547503528506e-06   2.0079077266626144e-05
-1.2526031514475093e-05   3.6956547503528506e-06   2.0079077266626144e-05
-1.2526031514475093e-05   3.6956547503528506e-06   2.0079077266626144e-05
-2.478734152129149e-05   3.7011934035508214e-06   -3.5311621948241716e-07
-2.478734152129149e-05   3.7011934035508214e-06   -3.5311621948241716e-07
-2.478734152129149e-05   3.7011934035508214e-06   -3.5311621948241716e-07
-2.478734152129149e-05   3.7011934035508214e-06   -3.5311621948241716e-07
-2.54427883905591e-05   3.506627346613585e-06   2.1016334895430726e-05
-2.54427883905591e-05   3.506627346613585e-06   2.1016334895430726e-05
-2.54427883905591e-05   3.506627346613585e-06   2.1016334895430726e-05
-2.54427883905591e-05   3.506627346613585e-06   2.1016334895430726e-05
-1.306434011422988e-05   3.4719972782793884e-06   4.063658092157596e-07
-1.306434011422988e-05   3.4719972782793884e-06   4.063658092157596e-07
-1.306434011422988e-05   3.4719972782793884e-06   4.063658092157596e-07
-1.306434011422988e-05   3.4719972782793884e-06   4.063658092157596e-07
-1.872478014525482e-05   3.6609951634251382e-06   9.72703379650315e-06
-1.872478014525482e-05   3.6609951634251382e-06   9.72703379650315e-06
-1.872478014525482e-05   3.6609951634251382e-06   9.72703379650315e-06
-1.872478014525482e-05   3.6609951634251382e-06   9.72703379650315e-06
-1.3064340114229866e-05   3.506627346613585e-06   2.103711293643094e-05
-1.3064340114229866e-05   3.506627346613585e-06   2.103711293643094e-05
-1.3064340114229866e-05   3.506627346613585e-06   2.103711293643094e-05
-1.3064340114229866e-05   3.506627346613585e-06   2.103711293643094e-05
-2.54427883905591e-05   3.4719972782793884e-06   3.8558776821538254e-07
-2.54427883905591e-05   3.4719972782793884e-06   3.8558776821538254e-07
-2.54427883905591e-05   3.4719972782793884e-06   3.8558776821538254e-07
-2.54427883905591e-05   3.4719972782793884e-06   3.8558776821538254e-07
-2.6067017471340448e-05   3.251279080130655e-06   2.1685356890078383e-05
-2.6067017471340448e-05   3.251279080130655e-06   2.1685356890078383e-05
-2.6067017471340448e-05   3.251279080130655e-06   2.1685356890078383e-05
-2.6067017471340448e-05   3.251279080130655e-06   2.1685356890078383e-05
-1.3619603476904509e-05   3.1910613902778884e-06   9.75797513263311e-07
-1.3619603476904509e-05   3.1910613902778884e-06   9.75797513263311e-07
-1.3619603476904509e-05   3.1910613902778884e-06   9.75797513263311e-07
-1.3619603476904509e-05   3.1910613902778884e-06   9.75797513263311e-07
-1.9407235277696623e-05   3.4790356328328643e-06   1.0449065969051424e-05
-1.9407235277696623e-05   3.4790356328328643e-06   1.0449065969051424e-05
-1.9407235277696623e-05   3.4790356328328643e-06   1.0449065969051424e-05
-1.9407235277696623e-05   3.4790356328328643e-06   1.0449065969051424e-05
-2.4195286684907443e-05   6.340876892155754e-06   9.50380540966616e-06
-2.4195286684907443e-05   6.340876892155754e-06   9.50380540966616e-06
-2.4195286684907443e-05   6.340876892155754e-06   9.50380540966616e-06
-2.4195286684907443e-05   6.340876892155754e-06   9.50380540966616e-06
-3.579508807046789e-05   5.697937988335044e-06   -1.0214960241893792e-05
-3.579508807046789e-05   5.697937988335044e-06   -1.0214960241893792e-05
-3.579508807046789e-05   5.697937988335044e-06   -1.0214960241893792e-05
-3.579508807046789e-05   5.697937988335044e-06   -1.0214960241893792e-05
-3.672775775331207e-05   6.467993994659386e-06   1.3217132569406345e-05
-3.672775775331207e-05   6.467993994659386e-06   1.3217132569406345e-05
-3.672775775331207e-05   6.467993994659386e-06   1.3217132569406345e-05
-3.672775775331207e-05   6.467993994659386e-06   1.3217132569406345e-05
-2.478734152129149e-05   5.76253262364059e-06   -6.2602843280167085e-06
-2.478734152129149e-05   5.76253262364059e-06   -6.2602843280167085e-06
-2.478734152129149e-05   5.76253262364059e-06   -6.2602843280167085e-06
-2.478734152129149e-05   5.76253262364059e-06   -6.2602843280167085e-06
-2.9212558397649352e-05   6.029530794689946e-06   9.548782299501123e-07
-2.9212558397649352e-05   6.029530794689946e-06   9.548782299501123e-07
-2.9212558397649352e-05   6.029530794689946e-06   9.548782299501123e-07
-2.9212558397649352e-05   6.029530794689946e-06   9.548782299501123e-07
-2.4787341521291436e-05   6.467993994659603e-06   1.3640409392017667e-05
-2.4787341521291436e-05   6.467993994659603e-06   1.3640409392017667e-05
-2.4787341521291436e-05   6.467993994659603e-06   1.3640409392017667e-05
-2.4787341521291436e-05   6.467993994659603e-06   1.3640409392017667e-05
-3.6727757753312126e-05   5.76253262364059e-06   -6.68356115062803e-06
-3.6727757753312126e-05   5.76253262364059e-06   -6.68356115062803e-06
-3.6727757753312126e-05   5.76253262364059e-06   -6.68356115062803e-06
-3.6727757753312126e-05   5.76253262364059e-06   -6.68356115062803e-06
-3.7637364600688026e-05   6.423194964412212e-06   1.6095917385614998e-05
-3.7637364600688026e-05   6.423194964412212e-06   1.6095917385614998e-05
-3.7637364600688026e-05   6.423194964412212e-06   1.6095917385614998e-05
-3.7637364600688026e-05   6.423194964412212e-06   1.6095917385614998e-05
-2.54427883905591e-05   5.700274933035732e-06   -3.794624279107302e-06
-2.54427883905591e-05   5.700274933035732e-06   -3.794624279107302e-06
-2.54427883905591e-05   5.700274933035732e-06   -3.794624279107302e-06
-2.54427883905591e-05   5.700274933035732e-06   -3.794624279107302e-06
-3.0366125581066156e-05   6.141219252190494e-06   4.146371113578789e-06
-3.0366125581066156e-05   6.141219252190494e-06   4.146371113578789e-06
-3.0366125581066156e-05   6.141219252190494e-06   4.146371113578789e-06
-3.0366125581066156e-05   6.141219252190494e-06   4.146371113578789e-06
-2.54427883905591e-05   6.423194964412212e-06   1.652966940444121e-05
-2.54427883905591e-05   6.423194964412212e-06   1.652966940444121e-05
-2.54427883905591e-05   6.423194964412212e-06   1.652966940444121e-05
-2.54427883905591e-05   6.423194964412212e-06   1.652966940444121e-05
-3.763736460068808e-05   5.700274933035732e-06   -4.22837629793319e-06
-3.763736460068808e-05   5.700274933035732e-06   -4.22837629793319e-06
-3.763736460068808e-05   5.700274933035732e-06   -4.22837629793319e-06
-3.763736460068808e-05   5.700274933035732e-06   -4.22837629793319e-06
-3.8698571808473415e-05   5.918462409253405e-06   2.102087634738806e-05
-3.8698571808473415e-05   5.918462409253405e-06   2.102087634738806e-05
-3.8698571808473415e-05   5.918462409253405e-06   2.102087634738806e-05
-3.8698571808473415e-05   5.918462409253405e-06   2.102087634738806e-05
-2.6067017471340448e-05   5.2637011171260874e-06   3.6114256077592033e-07
-2.6067017471340448e-05   5.2637011171260874e-06   3.6114256077592033e-07
-2.6067017471340448e-05   5.2637011171260874e-06   3.6114256077592033e-07
-2.6067017471340448e-05   5.2637011171260874e-06   3.6114256077592033e-07
-3.0647724067355024e-05   5.960845494396884e-06   7.577366927771626e-06
-3.0647724067355024e-05   5.960845494396884e-06   7.577366927771626e-06
-3.0647724067355024e-05   5.960845494396884e-06   7.577366927771626e-06
-3.0647724067355024e-05   5.960845494396884e-06   7.577366927771626e-06
2.0792310983192018e-05   -2.806206289350348e-06   1.7559360331879134e-05
2.0792310983192018e-05   -2.806206289350348e-06   1.7559360331879134e-05
2.0792310983192018e-05   -2.806206289350348e-06   1.7559360331879134e-05
2.0792310983192018e-05   -2.806206289350348e-06   1.7559360331879134e-05
9.779484691907438e-06   -1.866987528925711e-06   -2.3181889734051348e-07
9.779484691907438e-06   -1.866987528925711e-06   -2.3181889734051348e-07
9.779484691907438e-06   -1.866987528925711e-06   -2.3181889734051348e-07
9.779484691907438e-06   -1.866987528925711e-06   -2.3181889734051348e-07
9.325109367973431e-06   -3.251569045588116e-06   1.5418030208412276e-05
9.325109367973431e-06   -3.251569045588116e-06   1.5418030208412276e-05
9.325109367973431e-06   -3.251569045588116e-06   1.5418030208412276e-05
9.325109367973431e-06   -3.251569045588116e-06   1.5418030208412276e-05
1.991249670754234e-05   -2.2614878834635935e-06   -2.821664054810569e-06
1.991249670754234e-05   -2.2614878834635935e-06   -2.821664054810569e-06
1.991249670754234e-05   -2.2614878834635935e-06   -2.821664054810569e-06
1.991249670754234e-05   -2.2614878834635935e-06   -2.821664054810569e-06
1.4249342867567344e-05   -2.56508691475984e-06   6.7990850972588095e-06
1.4249342867567344e-05   -2.56508691475984e-06   6.7990850972588095e-06
1.4249342867567344e-05   -2.56508691475984e-06   6.7990850972588095e-06
1.4249342867567344e-05   -2.56508691475984e-06   6.7990850972588095e-06
1.991249670754234e-05   -3.251569045588116e-06   1.4823981511137736e-05
1.991249670754234e-05   -3.251569045588116e-06   1.4823981511137736e-05
1.991249670754234e-05   -3.251569045588116e-06   1.4823981511137736e-05
1.991249670754234e-05   -3.251569045588116e-06   1.4823981511137736e-05
9.325109367973445e-06   -2.2614878834635935e-06   -2.2276153575358053e-06
9.325109367973445e-06   -2.2614878834635935e-06   -2.2276153575358053e-06
9.325109367973445e-06   -2.2614878834635935e-06   -2.2276153575358053e-06
9.325109367973445e-06   -2.2614878834635935e-06   -2.2276153575358053e-06
8.822921005044824e-06   -3.3402413481826553e-06   1.3913955786058535e-05
8.822921005044824e-06   -3.3402413481826553e-06   1.3913955786058535e-05
8.822921005044824e-06   -3.3402413481826553e-06   1.3913955786058535e-05
8.822921005044824e-06   -3.3402413481826553e-06   1.3913955786058535e-05
1.91405835313978e-05   -2.3662040784086426e-06   -3.866570786394081e-06
1.91405835313978e-05   -2.3662040784086426e-06   -3.866570786394081e-06
1.91405835313978e-05   -2.3662040784086426e-06   -3.866570786394081e-06
1.91405835313978e-05   -2.3662040784086426e-06   -3.866570786394081e-06
1.3889363137060026e-05   -2.7255218588021282e-06   5.101053872405208e-06
1.3889363137060026e-05   -2.7255218588021282e-06   5.101053872405208e-06
1.3889363137060026e-05   -2.7255218588021282e-06   5.101053872405208e-06
1.3889363137060026e-05   -2.7255218588021282e-06   5.101053872405208e-06
1.9140583531397766e-05   -3.3402413481826553e-06   1.3329533424194322e-05
1.9140583531397766e-05   -3.3402413481826553e-06   1.3329533424194322e-05
1.9140583531397766e-05   -3.3402413481826553e-06   1.3329533424194322e-05
1.9140583531397766e-05   -3.3402413481826553e-06   1.3329533424194322e-05
8.82292100504484e-06   -2.3662040784086426e-06   -3.2821484245297875e-06
8.82292100504484e-06   -2.3662040784086426e-06   -3.2821484245297875e-06
8.82292100504484e-06   -2.3662040784086426e-06   -3.2821484245297875e-06
8.82292100504484e-06   -2.3662040784086426e-06   -3.2821484245297875e-06
8.358840509459548e-06   -3.372011894297363e-06   1.187060763340516e-05
8.358840509459548e-06   -3.372011894297363e-06   1.187060763340516e-05
8.358840509459548e-06   -3.372011894297363e-06   1.187060763340516e-05
8.358840509459548e-06   -3.372011894297363e-06   1.187060763340516e-05
1.827688798542188e-05   -2.46093983758593e-06   -5.2061147272258314e-06
1.827688798542188e-05   -2.46093983758593e-06   -5.2061147272258314e-06
1.827688798542188e-05   -2.46093983758593e-06   -5.2061147272258314e-06
1.827688798542188e-05   -2.46093983758593e-06   -5.2061147272258314e-06
1.3078829772810378e-05   -2.7083363146242906e-06   3.60575351335003e-06
1.3078829772810378e-05   -2.7083363146242906e-06   3.60575351335003e-06
1.3078829772810378e-05   -2.7083363146242906e-06   3.60575351335003e-06
1.3078829772810378e-05   -2.7083363146242906e-06   3.60575351335003e-06
9.779484691907404e-06   -5.383478685651311e-07   1.9886360924777362e-05
9.779484691907404e-06   -5.383478685651311e-07   1.9886360924777362e-05
9.779484691907404e-06   -5.383478685651311e-07   1.9886360924777362e-05
9.779484691907404e-06   -5.383478685651311e-07   1.9886360924777362e-05
-6.39240953722461e-07   -1.6100973170615068e-08   2.8351663192977125e-06
-6.39240953722461e-07   -1.6100973170615068e-08   2.8351663192977125e-06
-6.39240953722461e-07   -1.6100973170615068e-08   2.8351663192977125e-06
-6.39240953722461e-07   -1.6100973170615068e-08   2.8351663192977125e-06
-1.0667910544076402e-06   -8.531274654386897e-07   1.991851187257217e-05
-1.0667910544076402e-06   -8.531274654386897e-07   1.991851187257217e-05
-1.0667910544076402e-06   -8.531274654386897e-07   1.991851187257217e-05
-1.0667910544076402e-06   -8.531274654386897e-07   1.991851187257217e-05
9.325109367973445e-06   -3.5806744730013107e-07   2.301641824387261e-06
9.325109367973445e-06   -3.5806744730013107e-07   2.301641824387261e-06
9.325109367973445e-06   -3.5806744730013107e-07   2.301641824387261e-06
9.325109367973445e-06   -3.5806744730013107e-07   2.301641824387261e-06
4.278972405724412e-06   -4.540162854354494e-07   1.0769439397683567e-05
4.278972405724412e-06   -4.540162854354494e-07   1.0769439397683567e-05
4.278972405724412e-06   -4.540162854354494e-07   1.0769439397683567e-05
4.278972405724412e-06   -4.540162854354494e-07   1.0769439397683567e-05
9.325109367973407e-06   -8.531274654386897e-07   1.9621475861689077e-05
9.325109367973407e-06   -8.531274654386897e-07   1.9621475861689077e-05
9.325109367973407e-06   -8.531274654386897e-07   1.9621475861689077e-05
9.325109367973407e-06   -8.531274654386897e-07   1.9621475861689077e-05
-1.0667910544076402e-06   -3.5806744730013107e-07   2.5986778352703665e-06
-1.0667910544076402e-06   -3.5806744730013107e-07   2.5986778352703665e-06
-1.0667910544076402e-06   -3.5806744730013107e-07   2.5986778352703665e-06
-1.0667910544076402e-06   -3.5806744730013107e-07   2.5986778352703665e-06
-1.5035906415768825e-06   -1.0856690485655258e-06   1.9612796047373e-05
-1.5035906415768825e-06   -1.0856690485655258e-06   1.9612796047373e-05
-1.5035906415768825e-06   -1.0856690485655258e-06   1.9612796047373e-05
-1.5035906415768825e-06   -1.0856690485655258e-06   1.9612796047373e-05
8.82292100504484e-06   -6.265002960158684e-07   2.1264420514736386e-06
8.82292100504484e-06   -6.265002960158684e-07   2.1264420514736386e-06
8.82292100504484e-06   -6.265002960158684e-07   2.1264420514736386e-06
8.82292100504484e-06   -6.265002960158684e-07   2.1264420514736386e-06
3.798381650917131e-06   -6.64471123706066e-07   1.052345680496795e-05
3.798381650917131e-06   -6.64471123706066e-07   1.052345680496795e-05
3.798381650917131e-06   -6.64471123706066e-07   1.052345680496795e-05
3.798381650917131e-06   -6.64471123706066e-07   1.052345680496795e-05
8.822921005044824e-06   -1.0856690485655258e-06   1.933729479584325e-05
8.822921005044824e-06   -1.0856690485655258e-06   1.933729479584325e-05
8.822921005044824e-06   -1.0856690485655258e-06   1.933729479584325e-05
8.822921005044824e-06   -1.0856690485655258e-06   1.933729479584325e-05
-1.5035906415768825e-06   -6.265002960158684e-07   2.4019433030034914e-06
-1.5035906415768825e-06   -6.265002960158684e-07   2.4019433030034914e-06
-1.5035906415768825e-06   -6.265002960158684e-07   2.4019433030034914e-06
-1.5035906415768825e-06   -6.265002960158684e-07   2.4019433030034914e-06
-1.942853536946758e-06   -1.267556421711332e-06   1.974323796130801e-05
-1.942853536946758e-06   -1.267556421711332e-06   1.974323796130801e-05
-1.942853536946758e-06   -1.267556421711332e-06   1.974323796130801e-05
-1.942853536946758e-06   -1.267556421711332e-06   1.974323796130801e-05
8.358840509459558e-06   -8.73718369911276e-07   2.337445052884318e-06
8.358840509459558e-06   -8.73718369911276e-07   2.337445052884318e-06
8.358840509459558e-06   -8.73718369911276e-07   2.337445052884318e-06
8.358840509459558e-06   -8.73718369911276e-07   2.337445052884318e-06
3.4330480325422796e-06   -8.189220375095802e-07   1.0514221381639028e-05
3.4330480325422796e-06   -8.189220375095802e-07   1.0514221381639028e-05
3.4330480325422796e-06   -8.189220375095802e-07   1.0514221381639028e-05
3.4330480325422796e-06   -8.189220375095802e-07   1.0514221381639028e-05
-6.39240953722461e-07   1.7349187394115687e-06   2.103944304468789e-05
-6.39240953722461e-07   1.7349187394115687e-06   2.103944304468789e-05
-6.39240953722461e-07   1.7349187394115687e-06   2.103944304468789e-05
-6.39240953722461e-07   1.7349187394115687e-06   2.103944304468789e-05
-1.0839226333093959e-05   1.7882659823001672e-06   4.071475758135167e-06
-1.0839226333093959e-05   1.7882659823001672e-06   4.071475758135167e-06
-1.0839226333093959e-05   1.7882659823001672e-06   4.071475758135167e-06
-1.0839226333093959e-05   1.7882659823001672e-06   4.071475758135167e-06
-1.1269455351842336e-05   1.4744742548038377e-06   2.09758999277171e-05
-1.1269455351842336e-05   1.4744742548038377e-06   2.09758999277171e-05
-1.1269455351842336e-05   1.4744742548038377e-06   2.09758999277171e-05
-1.1269455351842336e-05   1.4744742548038377e-06   2.09758999277171e-05
-1.0667910544076402e-06   1.489041211251126e-06   3.9627192581241974e-06
-1.0667910544076402e-06   1.489041211251126e-06   3.9627192581241974e-06
-1.0667910544076402e-06   1.489041211251126e-06   3.9627192581241974e-06
-1.0667910544076402e-06   1.489041211251126e-06   3.9627192581241974e-06
-5.9690483962269775e-06   1.592577909200442e-06   1.2071026142386894e-05
-5.9690483962269775e-06   1.592577909200442e-06   1.2071026142386894e-05
-5.9690483962269775e-06   1.592577909200442e-06   1.2071026142386894e-05
-5.9690483962269775e-06   1.592577909200442e-06   1.2071026142386894e-05
-1.0667910544076402e-06   1.4744742548040545e-06   2.0967159753848812e-05
-1.0667910544076402e-06   1.4744742548040545e-06   2.0967159753848812e-05
-1.0667910544076402e-06   1.4744742548040545e-06   2.0967159753848812e-05
-1.0667910544076402e-06   1.4744742548040545e-06   2.0967159753848812e-05
-1.1269455351842336e-05   1.489041211251126e-06   3.971459431992633e-06
-1.1269455351842336e-05   1.489041211251126e-06   3.971459431992633e-06
-1.1269455351842336e-05   1.489041211251126e-06   3.971459431992633e-06
-1.1269455351842336e-05   1.489041211251126e-06   3.971459431992633e-06
-1.1710222809566419e-05   1.2216503354554441e-06   2.1087663732691675e-05
-1.1710222809566419e-05   1.2216503354554441e-06   2.1087663732691675e-05
-1.1710222809566419e-05   1.2216503354554441e-06   2.1087663732691675e-05
-1.1710222809566419e-05   1.2216503354554441e-06   2.1087663732691675e-05
-1.5035906415768825e-06   1.1946241357091957e-06   4.092825839223667e-06
-1.5035906415768825e-06   1.1946241357091957e-06   4.092825839223667e-06
-1.5035906415768825e-06   1.1946241357091957e-06   4.092825839223667e-06
-1.5035906415768825e-06   1.1946241357091957e-06   4.092825839223667e-06
-6.368153987101198e-06   1.3919463194831706e-06   1.2082038104833427e-05
-6.368153987101198e-06   1.3919463194831706e-06   1.2082038104833427e-05
-6.368153987101198e-06   1.3919463194831706e-06   1.2082038104833427e-05
-6.368153987101198e-06   1.3919463194831706e-06   1.2082038104833427e-05
-1.5035906415768825e-06   1.2216503354554441e-06   2.1103879452539728e-05
-1.5035906415768825e-06   1.2216503354554441e-06   2.1103879452539728e-05
-1.5035906415768825e-06   1.2216503354554441e-06   2.1103879452539728e-05
-1.5035906415768825e-06   1.2216503354554441e-06   2.1103879452539728e-05
-1.1710222809566446e-05   1.1946241357091957e-06   4.076610119375804e-06
-1.1710222809566446e-05   1.1946241357091957e-06   4.076610119375804e-06
-1.1710222809566446e-05   1.1946241357091957e-06   4.076610119375804e-06
-1.1710222809566446e-05   1.1946241357091957e-06   4.076610119375804e-06
-1.2150627242419948e-05   9.967006074829057e-07   2.1345306796043627e-05
-1.2150627242419948e-05   9.967006074829057e-07   2.1345306796043627e-05
-1.2150627242419948e-05   9.967006074829057e-07   2.1345306796043627e-05
-1.2150627242419948e-05   9.967006074829057e-07   2.1345306796043627e-05
-1.942853536946758e-06   9.153438721857046e-07   4.381164661433208e-06
-1.942853536946758e-06   9.153438721857046e-07   4.381164661433208e-06
-1.942853536946758e-06   9.153438721857046e-07   4.381164661433208e-06
-1.942853536946758e-06   9.153438721857046e-07   4.381164661433208e-06
-6.786154802281005e-06   1.1966034251748112e-06   1.228457770519734e-05
-6.786154802281005e-06   1.1966034251748112e-06   1.228457770519734e-05
-6.786154802281005e-06   1.1966034251748112e-06   1.228457770519734e-05
-6.786154802281005e-06   1.1966034251748112e-06   1.228457770519734e-05
-1.0839226333093932e-05   3.948573399377821e-06   1.852642596364667e-05
-1.0839226333093932e-05   3.948573399377821e-06   1.852642596364667e-05
-1.0839226333093932e-05   3.948573399377821e-06   1.852642596364667e-05
-1.0839226333093932e-05   3.948573399377821e-06   1.852642596364667e-05
-2.0824601690499117e-05   3.52644959834272e-06   1.6308594206837848e-06
-2.0824601690499117e-05   3.52644959834272e-06   1.6308594206837848e-06
-2.0824601690499117e-05   3.52644959834272e-06   1.6308594206837848e-06
-2.0824601690499117e-05   3.52644959834272e-06   1.6308594206837848e-06
-2.128785644984335e-05   3.7011934035508214e-06   1.840905334771876e-05
-2.128785644984335e-05   3.7011934035508214e-06   1.840905334771876e-05
-2.128785644984335e-05   3.7011934035508214e-06   1.840905334771876e-05
-2.128785644984335e-05   3.7011934035508214e-06   1.840905334771876e-05
-1.1269455351842363e-05   3.2409659099087544e-06   1.987854680568946e-06
-1.1269455351842363e-05   3.2409659099087544e-06   1.987854680568946e-06
-1.1269455351842363e-05   3.2409659099087544e-06   1.987854680568946e-06
-1.1269455351842363e-05   3.2409659099087544e-06   1.987854680568946e-06
-1.600194703202488e-05   3.555977445291727e-06   9.68633389297684e-06
-1.600194703202488e-05   3.555977445291727e-06   9.68633389297684e-06
-1.600194703202488e-05   3.555977445291727e-06   9.68633389297684e-06
-1.600194703202488e-05   3.555977445291727e-06   9.68633389297684e-06
-1.1269455351842336e-05   3.7011934035506046e-06   1.8685189843904e-05
-1.1269455351842336e-05   3.7011934035506046e-06   1.8685189843904e-05
-1.1269455351842336e-05   3.7011934035506046e-06   1.8685189843904e-05
-1.1269455351842336e-05   3.7011934035506046e-06   1.8685189843904e-05
-2.1287856449843324e-05   3.2409659099087544e-06   1.7117181843837059e-06
-2.1287856449843324e-05   3.2409659099087544e-06   1.7117181843837059e-06
-2.1287856449843324e-05   3.2409659099087544e-06   1.7117181843837059e-06
-2.1287856449843324e-05   3.2409659099087544e-06   1.7117181843837059e-06
-2.179731828010016e-05   3.4719972782793884e-06   1.910048769908281e-05
-2.179731828010016e-05   3.4719972782793884e-06   1.910048769908281e-05
-2.179731828010016e-05   3.4719972782793884e-06   1.910048769908281e-05
-2.179731828010016e-05   3.4719972782793884e-06   1.910048769908281e-05
-1.1710222809566446e-05   2.9739555418419137e-06   2.5874869567223623e-06
-1.1710222809566446e-05   2.9739555418419137e-06   2.5874869567223623e-06
-1.1710222809566446e-05   2.9739555418419137e-06   2.5874869567223623e-06
-1.1710222809566446e-05   2.9739555418419137e-06   2.5874869567223623e-06
-1.633232614346539e-05   3.374175018826253e-06   1.0050860827030535e-05
-1.633232614346539e-05   3.374175018826253e-06   1.0050860827030535e-05
-1.633232614346539e-05   3.374175018826253e-06   1.0050860827030535e-05
-1.633232614346539e-05   3.374175018826253e-06   1.0050860827030535e-05
-1.1710222809566432e-05   3.4719972782793884e-06   1.9399312740945142e-05
-1.1710222809566432e-05   3.4719972782793884e-06   1.9399312740945142e-05
-1.1710222809566432e-05   3.4719972782793884e-06   1.9399312740945142e-05
-1.1710222809566432e-05   3.4719972782793884e-06   1.9399312740945142e-05
-2.1797318280100106e-05   2.9739555418419137e-06   2.288661914859921e-06
-2.1797318280100106e-05   2.9739555418419137e-06   2.288661914859921e-06
-2.1797318280100106e-05   2.9739555418419137e-06   2.288661914859921e-06
-2.1797318280100106e-05   2.9739555418419137e-06   2.288661914859921e-06
-2.2262544108984564e-05   3.1910613902778884e-06   1.9616262325392064e-05
-2.2262544108984564e-05   3.1910613902778884e-06   1.9616262325392064e-05
-2.2262544108984564e-05   3.1910613902778884e-06   1.9616262325392064e-05
-2.2262544108984564e-05   3.1910613902778884e-06   1.9616262325392064e-05
-1.2150627242419975e-05   2.662091612559833e-06   3.080449414415192e-06
-1.2150627242419975e-05   2.662091612559833e-06   3.080449414415192e-06
-1.2150627242419975e-05   2.662091612559833e-06   3.080449414415192e-06
-1.2150627242419975e-05   2.662091612559833e-06   3.080449414415192e-06
-1.686242280324027e-05   3.1679854989982627e-06   1.0629905683920123e-05
-1.686242280324027e-05   3.1679854989982627e-06   1.0629905683920123e-05
-1.686242280324027e-05   3.1679854989982627e-06   1.0629905683920123e-05
-1.686242280324027e-05   3.1679854989982627e-06   1.0629905683920123e-05
-2.0824601690499117e-05   5.697937988335044e-06   8.975776778536284e-06
-2.0824601690499117e-05   5.697937988335044e-06   8.975776778536284e-06
-2.0824601690499117e-05   5.697937988335044e-06   8.975776778536284e-06
-2.0824601690499117e-05   5.697937988335044e-06   8.975776778536284e-06
-3.03312496696786e-05   4.873241758576339e-06   -7.363454257951435e-06
-3.03312496696786e-05   4.873241758576339e-06   -7.363454257951435e-06
-3.03312496696786e-05   4.873241758576339e-06   -7.363454257951435e-06
-3.03312496696786e-05   4.873241758576339e-06   -7.363454257951435e-06
-3.116500446240201e-05   5.76253262364059e-06   1.1956021602643101e-05
-3.116500446240201e-05   5.76253262364059e-06   1.1956021602643101e-05
-3.116500446240201e-05   5.76253262364059e-06   1.1956021602643101e-05
-3.116500446240201e-05   5.76253262364059e-06   1.1956021602643101e-05
-2.128785644984335e-05   4.852759896071699e-06   -3.960028115080152e-06
-2.128785644984335e-05   4.852759896071699e-06   -3.960028115080152e-06
-2.128785644984335e-05   4.852759896071699e-06   -3.960028115080152e-06
-2.128785644984335e-05   4.852759896071699e-06   -3.960028115080152e-06
-2.4916146678220286e-05   5.217504886548003e-06   1.8682752712623034e-06
-2.4916146678220286e-05   5.217504886548003e-06   1.8682752712623034e-06
-2.4916146678220286e-05   5.217504886548003e-06   1.8682752712623034e-06
-2.4916146678220286e-05   5.217504886548003e-06   1.8682752712623034e-06
-2.128785644984335e-05   5.7625326236408064e-06   1.2501885239184522e-05
-2.128785644984335e-05   5.7625326236408064e-06   1.2501885239184522e-05
-2.128785644984335e-05   5.7625326236408064e-06   1.2501885239184522e-05
-2.128785644984335e-05   5.7625326236408064e-06   1.2501885239184522e-05
-3.116500446240209e-05   4.852759896071699e-06   -4.5058917516214644e-06
-3.116500446240209e-05   4.852759896071699e-06   -4.5058917516214644e-06
-3.116500446240209e-05   4.852759896071699e-06   -4.5058917516214644e-06
-3.116500446240209e-05   4.852759896071699e-06   -4.5058917516214644e-06
-3.1910391533906545e-05   5.700274933035732e-06   1.4353207619815047e-05
-3.1910391533906545e-05   5.700274933035732e-06   1.4353207619815047e-05
-3.1910391533906545e-05   5.700274933035732e-06   1.4353207619815047e-05
-3.1910391533906545e-05   5.700274933035732e-06   1.4353207619815047e-05
-2.179731828010016e-05   4.755161546460621e-06   -1.934846437917409e-06
-2.179731828010016e-05   4.755161546460621e-06   -1.934846437917409e-06
-2.179731828010016e-05   4.755161546460621e-06   -1.934846437917409e-06
-2.179731828010016e-05   4.755161546460621e-06   -1.934846437917409e-06
-2.5879976501005572e-05   5.276540509782787e-06   4.556756552266e-06
-2.5879976501005572e-05   5.276540509782787e-06   4.556756552266e-06
-2.5879976501005572e-05   5.276540509782787e-06   4.556756552266e-06
-2.5879976501005572e-05   5.276540509782787e-06   4.556756552266e-06
-2.179731828010016e-05   5.700274933035732e-06   1.4920275651760179e-05
-2.179731828010016e-05   5.700274933035732e-06   1.4920275651760179e-05
-2.179731828010016e-05   5.700274933035732e-06   1.4920275651760179e-05
-2.179731828010016e-05   5.700274933035732e-06   1.4920275651760179e-05
-3.19103915339066e-05   4.755161546460621e-06   -2.5019144698624866e-06
-3.19103915339066e-05   4.755161546460621e-06   -2.5019144698624866e-06
-3.19103915339066e-05   4.755161546460621e-06   -2.5019144698624866e-06
-3.19103915339066e-05   4.755161546460621e-06   -2.5019144698624866e-06
-3.276580810578097e-05   5.2637011171260874e-06   1.8472438258902214e-05
-3.276580810578097e-05   5.2637011171260874e-06   1.8472438258902214e-05
-3.276580810578097e-05   5.2637011171260874e-06   1.8472438258902214e-05
-3.276580810578097e-05   5.2637011171260874e-06   1.8472438258902214e-05
-2.2262544108984564e-05   4.321534903936304e-06   1.5322979921554179e-06
-2.2262544108984564e-05   4.321534903936304e-06   1.5322979921554179e-06
-2.2262544108984564e-05   4.321534903936304e-06   1.5322979921554179e-06
-2.2262544108984564e-05   4.321534903936304e-06   1.5322979921554179e-06
-2.6077096224281392e-05   5.096381951424488e-06   7.42497662249101e-06
-2.6077096224281392e-05   5.096381951424488e-06   7.42497662249101e-06
-2.6077096224281392e-05   5.096381951424488e-06   7.42497662249101e-06
-2.6077096224281392e-05   5.096381951424488e-06   7.42497662249101e-06
1.4420799046768409e-05   -1.8669875289254942e-06   1.4359833204457607e-05
1.4420799046768409e-05   -1.8669875289254942e-06   1.4359833204457607e-05
1.4420799046768409e-05   -1.8669875289254942e-06   1.4359833204457607e-05
1.4420799046768409e-05   -1.8669875289254942e-06   1.4359833204457607e-05
5.989747070468025e-06   -9.314541064869191e-07   8.693999640868285e-07
5.989747070468025e-06   -9.314541064869191e-07   8.693999640868285e-07
5.989747070468025e-06   -9.314541064869191e-07   8.693999640868285e-07
5.989747070468025e-06   -9.314541064869191e-07   8.693999640868285e-07
5.623092115084002e-06   -2.2614878834635935e-06   1.2899704165407e-05
5.623092115084002e-06   -2.2614878834635935e-06   1.2899704165407e-05
5.623092115084002e-06   -2.2614878834635935e-06   1.2899704165407e-05
5.623092115084002e-06   -2.2614878834635935e-06   1.2899704165407e-05
1.3638782045707917e-05   -1.285803944729106e-06   -1.045189415540274e-06
1.3638782045707917e-05   -1.285803944729106e-06   -1.045189415540274e-06
1.3638782045707917e-05   -1.285803944729106e-06   -1.045189415540274e-06
1.3638782045707917e-05   -1.285803944729106e-06   -1.045189415540274e-06
9.425297748768666e-06   -1.6236568160764298e-06   6.179996135500478e-06
9.425297748768666e-06   -1.6236568160764298e-06   6.179996135500478e-06
9.425297748768666e-06   -1.6236568160764298e-06   6.179996135500478e-06
9.425297748768666e-06   -1.6236568160764298e-06   6.179996135500478e-06
1.363878204570794e-05   -2.2614878834635935e-06   1.231429380216633e-05
1.363878204570794e-05   -2.2614878834635935e-06   1.231429380216633e-05
1.363878204570794e-05   -2.2614878834635935e-06   1.231429380216633e-05
1.363878204570794e-05   -2.2614878834635935e-06   1.231429380216633e-05
5.623092115083983e-06   -1.285803944729106e-06   -4.597790522995219e-07
5.623092115083983e-06   -1.285803944729106e-06   -4.597790522995219e-07
5.623092115083983e-06   -1.285803944729106e-06   -4.597790522995219e-07
5.623092115083983e-06   -1.285803944729106e-06   -4.597790522995219e-07
5.2105265517827726e-06   -2.3662040784086426e-06   1.1816876791741204e-05
5.2105265517827726e-06   -2.3662040784086426e-06   1.1816876791741204e-05
5.2105265517827726e-06   -2.3662040784086426e-06   1.1816876791741204e-05
5.2105265517827726e-06   -2.3662040784086426e-06   1.1816876791741204e-05
1.2966695841797384e-05   -1.4069989921806653e-06   -1.6855950766865032e-06
1.2966695841797384e-05   -1.4069989921806653e-06   -1.6855950766865032e-06
1.2966695841797384e-05   -1.4069989921806653e-06   -1.6855950766865032e-06
1.2966695841797384e-05   -1.4069989921806653e-06   -1.6855950766865032e-06
9.081170986119784e-06   -1.7742398434410743e-06   5.010624193532644e-06
9.081170986119784e-06   -1.7742398434410743e-06   5.010624193532644e-06
9.081170986119784e-06   -1.7742398434410743e-06   5.010624193532644e-06
9.081170986119784e-06   -1.7742398434410743e-06   5.010624193532644e-06
1.2966695841797408e-05   -2.3662040784086426e-06   1.1241353740004461e-05
1.2966695841797408e-05   -2.3662040784086426e-06   1.1241353740004461e-05
1.2966695841797408e-05   -2.3662040784086426e-06   1.1241353740004461e-05
1.2966695841797408e-05   -2.3662040784086426e-06   1.1241353740004461e-05
5.210526551782766e-06   -1.4069989921806653e-06   -1.110072024949611e-06
5.210526551782766e-06   -1.4069989921806653e-06   -1.110072024949611e-06
5.210526551782766e-06   -1.4069989921806653e-06   -1.110072024949611e-06
5.210526551782766e-06   -1.4069989921806653e-06   -1.110072024949611e-06
4.840383387436006e-06   -2.46093983758593e-06   1.0404976559274734e-05
4.840383387436006e-06   -2.46093983758593e-06   1.0404976559274734e-05
4.840383387436006e-06   -2.46093983758593e-06   1.0404976559274734e-05
4.840383387436006e-06   -2.46093983758593e-06   1.0404976559274734e-05
1.2203085583799035e-05   -1.564672175286149e-06   -2.403954365376627e-06
1.2203085583799035e-05   -1.564672175286149e-06   -2.403954365376627e-06
1.2203085583799035e-05   -1.564672175286149e-06   -2.403954365376627e-06
1.2203085583799035e-05   -1.564672175286149e-06   -2.403954365376627e-06
8.432464892193745e-06   -1.802012046319421e-06   4.022817376585415e-06
8.432464892193745e-06   -1.802012046319421e-06   4.022817376585415e-06
8.432464892193745e-06   -1.802012046319421e-06   4.022817376585415e-06
8.432464892193745e-06   -1.802012046319421e-06   4.022817376585415e-06
5.989747070468045e-06   -1.6100973170398228e-08   1.7674790337322463e-05
5.989747070468045e-06   -1.6100973170398228e-08   1.7674790337322463e-05
5.989747070468045e-06   -1.6100973170398228e-08   1.7674790337322463e-05
5.989747070468045e-06   -1.6100973170398228e-08   1.7674790337322463e-05
-1.914810518235111e-06   4.6101831962554185e-07   4.786799265161547e-06
-1.914810518235111e-06   4.6101831962554185e-07   4.786799265161547e-06
-1.914810518235111e-06   4.6101831962554185e-07   4.786799265161547e-06
-1.914810518235111e-06   4.6101831962554185e-07   4.786799265161547e-06
-2.2520467406803143e-06   -3.5806744730013107e-07   1.7706013804397332e-05
-2.2520467406803143e-06   -3.5806744730013107e-07   1.7706013804397332e-05
-2.2520467406803143e-06   -3.5806744730013107e-07   1.7706013804397332e-05
-2.2520467406803143e-06   -3.5806744730013107e-07   1.7706013804397332e-05
5.623092115083983e-06   1.0368664781206394e-07   4.3037299210563425e-06
5.623092115083983e-06   1.0368664781206394e-07   4.3037299210563425e-06
5.623092115083983e-06   1.0368664781206394e-07   4.3037299210563425e-06
5.623092115083983e-06   1.0368664781206394e-07   4.3037299210563425e-06
1.8048883634927865e-06   1.6607016219659376e-08   1.071965061933078e-05
1.8048883634927865e-06   1.6607016219659376e-08   1.071965061933078e-05
1.8048883634927865e-06   1.6607016219659376e-08   1.071965061933078e-05
1.8048883634927865e-06   1.6607016219659376e-08   1.071965061933078e-05
5.623092115083995e-06   -3.5806744730013107e-07   1.7428961347329972e-05
5.623092115083995e-06   -3.5806744730013107e-07   1.7428961347329972e-05
5.623092115083995e-06   -3.5806744730013107e-07   1.7428961347329972e-05
5.623092115083995e-06   -3.5806744730013107e-07   1.7428961347329972e-05
-2.2520467406803143e-06   1.0368664781217236e-07   4.580782378123564e-06
-2.2520467406803143e-06   1.0368664781217236e-07   4.580782378123564e-06
-2.2520467406803143e-06   1.0368664781217236e-07   4.580782378123564e-06
-2.2520467406803143e-06   1.0368664781217236e-07   4.580782378123564e-06
-2.597016453100969e-06   -6.265002960158684e-07   1.7488775518273588e-05
-2.597016453100969e-06   -6.265002960158684e-07   1.7488775518273588e-05
-2.597016453100969e-06   -6.265002960158684e-07   1.7488775518273588e-05
-2.597016453100969e-06   -6.265002960158684e-07   1.7488775518273588e-05
5.210526551782766e-06   -1.8765321180096422e-07   4.21289559293846e-06
5.210526551782766e-06   -1.8765321180096422e-07   4.21289559293846e-06
5.210526551782766e-06   -1.8765321180096422e-07   4.21289559293846e-06
5.210526551782766e-06   -1.8765321180096422e-07   4.21289559293846e-06
1.4333545065900496e-06   -2.21096161422585e-07   1.0528248104699916e-05
1.4333545065900496e-06   -2.21096161422585e-07   1.0528248104699916e-05
1.4333545065900496e-06   -2.21096161422585e-07   1.0528248104699916e-05
1.4333545065900496e-06   -2.21096161422585e-07   1.0528248104699916e-05
5.210526551782781e-06   -6.265002960158684e-07   1.7225467267744732e-05
5.210526551782781e-06   -6.265002960158684e-07   1.7225467267744732e-05
5.210526551782781e-06   -6.265002960158684e-07   1.7225467267744732e-05
5.210526551782781e-06   -6.265002960158684e-07   1.7225467267744732e-05
-2.5970164531009826e-06   -1.8765321180096422e-07   4.47620384346739e-06
-2.5970164531009826e-06   -1.8765321180096422e-07   4.47620384346739e-06
-2.5970164531009826e-06   -1.8765321180096422e-07   4.47620384346739e-06
-2.5970164531009826e-06   -1.8765321180096422e-07   4.47620384346739e-06
-2.9392172844832596e-06   -8.73718369911276e-07   1.7642072428409737e-05
-2.9392172844832596e-06   -8.73718369911276e-07   1.7642072428409737e-05
-2.9392172844832596e-06   -8.73718369911276e-07   1.7642072428409737e-05
-2.9392172844832596e-06   -8.73718369911276e-07   1.7642072428409737e-05
4.840383387435986e-06   -4.734194981583992e-07   4.435891985492376e-06
4.840383387435986e-06   -4.734194981583992e-07   4.435891985492376e-06
4.840383387435986e-06   -4.734194981583992e-07   4.435891985492376e-06
4.840383387435986e-06   -4.734194981583992e-07   4.435891985492376e-06
1.1410777322507015e-06   -4.1800252852314864e-07   1.0568151229020136e-05
1.1410777322507015e-06   -4.1800252852314864e-07   1.0568151229020136e-05
1.1410777322507015e-06   -4.1800252852314864e-07   1.0568151229020136e-05
1.1410777322507015e-06   -4.1800252852314864e-07   1.0568151229020136e-05
-1.914810518235111e-06   1.7882659823001672e-06   1.9165363006104258e-05
-1.914810518235111e-06   1.7882659823001672e-06   1.9165363006104258e-05
-1.914810518235111e-06   1.7882659823001672e-06   1.9165363006104258e-05
-1.914810518235111e-06   1.7882659823001672e-06   1.9165363006104258e-05
-9.686500089841921e-06   1.7633961623489142e-06   6.197625161455367e-06
-9.686500089841921e-06   1.7633961623489142e-06   6.197625161455367e-06
-9.686500089841921e-06   1.7633961623489142e-06   6.197625161455367e-06
-9.686500089841921e-06   1.7633961623489142e-06   6.197625161455367e-06
-1.0019582031829119e-05   1.489041211251126e-06   1.9040548576026626e-05
-1.0019582031829119e-05   1.489041211251126e-06   1.9040548576026626e-05
-1.0019582031829119e-05   1.489041211251126e-06   1.9040548576026626e-05
-1.0019582031829119e-05   1.489041211251126e-06   1.9040548576026626e-05
-2.252046740680301e-06   1.4398634592101625e-06   6.12416307533653e-06
-2.252046740680301e-06   1.4398634592101625e-06   6.12416307533653e-06
-2.252046740680301e-06   1.4398634592101625e-06   6.12416307533653e-06
-2.252046740680301e-06   1.4398634592101625e-06   6.12416307533653e-06
-5.9832359775082995e-06   1.5791963008120104e-06   1.2259212098422408e-05
-5.9832359775082995e-06   1.5791963008120104e-06   1.2259212098422408e-05
-5.9832359775082995e-06   1.5791963008120104e-06   1.2259212098422408e-05
-5.9832359775082995e-06   1.5791963008120104e-06   1.2259212098422408e-05
-2.2520467406803143e-06   1.489041211251126e-06   1.9070055227251204e-05
-2.2520467406803143e-06   1.489041211251126e-06   1.9070055227251204e-05
-2.2520467406803143e-06   1.489041211251126e-06   1.9070055227251204e-05
-2.2520467406803143e-06   1.489041211251126e-06   1.9070055227251204e-05
-1.0019582031829119e-05   1.439863459210054e-06   6.094656424112006e-06
-1.0019582031829119e-05   1.439863459210054e-06   6.094656424112006e-06
-1.0019582031829119e-05   1.439863459210054e-06   6.094656424112006e-06
-1.0019582031829119e-05   1.439863459210054e-06   6.094656424112006e-06
-1.0360525613516648e-05   1.1946241357091957e-06   1.913493101951655e-05
-1.0360525613516648e-05   1.1946241357091957e-06   1.913493101951655e-05
-1.0360525613516648e-05   1.1946241357091957e-06   1.913493101951655e-05
-1.0360525613516648e-05   1.1946241357091957e-06   1.913493101951655e-05
-2.597016453100969e-06   1.1200790774136332e-06   6.240476120467577e-06
-2.597016453100969e-06   1.1200790774136332e-06   6.240476120467577e-06
-2.597016453100969e-06   1.1200790774136332e-06   6.240476120467577e-06
-2.597016453100969e-06   1.1200790774136332e-06   6.240476120467577e-06
-6.287917167490063e-06   1.3448708070116968e-06   1.2257102273357644e-05
-6.287917167490063e-06   1.3448708070116968e-06   1.2257102273357644e-05
-6.287917167490063e-06   1.3448708070116968e-06   1.2257102273357644e-05
-6.287917167490063e-06   1.3448708070116968e-06   1.2257102273357644e-05
-2.5970164531009826e-06   1.1946241357091957e-06   1.9179658054493736e-05
-2.5970164531009826e-06   1.1946241357091957e-06   1.9179658054493736e-05
-2.5970164531009826e-06   1.1946241357091957e-06   1.9179658054493736e-05
-2.5970164531009826e-06   1.1946241357091957e-06   1.9179658054493736e-05
-1.0360525613516648e-05   1.1200790774136332e-06   6.195749085490432e-06
-1.0360525613516648e-05   1.1200790774136332e-06   6.195749085490432e-06
-1.0360525613516648e-05   1.1200790774136332e-06   6.195749085490432e-06
-1.0360525613516648e-05   1.1200790774136332e-06   6.195749085490432e-06
-1.0697351157551086e-05   9.153438721857046e-07   1.9387711754103622e-05
-1.0697351157551086e-05   9.153438721857046e-07   1.9387711754103622e-05
-1.0697351157551086e-05   9.153438721857046e-07   1.9387711754103622e-05
-1.0697351157551086e-05   9.153438721857046e-07   1.9387711754103622e-05
-2.939217284483246e-06   8.123814525609358e-07   6.519266084099005e-06
-2.939217284483246e-06   8.123814525609358e-07   6.519266084099005e-06
-2.939217284483246e-06   8.123814525609358e-07   6.519266084099005e-06
-2.939217284483246e-06   8.123814525609358e-07   6.519266084099005e-06
-6.606800434350424e-06   1.116186056467983e-06   1.2449621904866704e-05
-6.606800434350424e-06   1.116186056467983e-06   1.2449621904866704e-05
-6.606800434350424e-06   1.116186056467983e-06   1.2449621904866704e-05
-6.606800434350424e-06   1.116186056467983e-06   1.2449621904866704e-05
-9.686500089841921e-06   3.52644959834272e-06   1.696309905730299e-05
-9.686500089841921e-06   3.52644959834272e-06   1.696309905730299e-05
-9.686500089841921e-06   3.52644959834272e-06   1.696309905730299e-05
-9.686500089841921e-06   3.52644959834272e-06   1.696309905730299e-05
-1.7335320719242067e-05   3.031297549478673e-06   3.917973445651001e-06
-1.7335320719242067e-05   3.031297549478673e-06   3.917973445651001e-06
-1.7335320719242067e-05   3.031297549478673e-06   3.917973445651001e-06
-1.7335320719242067e-05   3.031297549478673e-06   3.917973445651001e-06
-1.7693048326168257e-05   3.2409659099087544e-06   1.6741997619596004e-05
-1.7693048326168257e-05   3.2409659099087544e-06   1.6741997619596004e-05
-1.7693048326168257e-05   3.2409659099087544e-06   1.6741997619596004e-05
-1.7693048326168257e-05   3.2409659099087544e-06   1.6741997619596004e-05
-1.0019582031829091e-05   2.7160555682305106e-06   4.267833334037753e-06
-1.0019582031829091e-05   2.7160555682305106e-06   4.267833334037753e-06
-1.0019582031829091e-05   2.7160555682305106e-06   4.267833334037753e-06
-1.0019582031829091e-05   2.7160555682305106e-06   4.267833334037753e-06
-1.3644692718859217e-05   3.0742301972985515e-06   1.00947797016475e-05
-1.3644692718859217e-05   3.0742301972985515e-06   1.00947797016475e-05
-1.3644692718859217e-05   3.0742301972985515e-06   1.00947797016475e-05
-1.3644692718859217e-05   3.0742301972985515e-06   1.00947797016475e-05
-1.0019582031829119e-05   3.2409659099087544e-06   1.7056943824603102e-05
-1.0019582031829119e-05   3.2409659099087544e-06   1.7056943824603102e-05
-1.0019582031829119e-05   3.2409659099087544e-06   1.7056943824603102e-05
-1.0019582031829119e-05   3.2409659099087544e-06   1.7056943824603102e-05
-1.7693048326168203e-05   2.7160555682305106e-06   3.952887129030872e-06
-1.7693048326168203e-05   2.7160555682305106e-06   3.952887129030872e-06
-1.7693048326168203e-05   2.7160555682305106e-06   3.952887129030872e-06
-1.7693048326168203e-05   2.7160555682305106e-06   3.952887129030872e-06
-1.8095242021667988e-05   2.9739555418419137e-06   1.7315535138157263e-05
-1.8095242021667988e-05   2.9739555418419137e-06   1.7315535138157263e-05
-1.8095242021667988e-05   2.9739555418419137e-06   1.7315535138157263e-05
-1.8095242021667988e-05   2.9739555418419137e-06   1.7315535138157263e-05
-1.0360525613516621e-05   2.423501010665667e-06   4.754613843277602e-06
-1.0360525613516621e-05   2.423501010665667e-06   4.754613843277602e-06
-1.0360525613516621e-05   2.423501010665667e-06   4.754613843277602e-06
-1.0360525613516621e-05   2.423501010665667e-06   4.754613843277602e-06
-1.3890698540509064e-05   2.8598604698392826e-06   1.0376419712761193e-05
-1.3890698540509064e-05   2.8598604698392826e-06   1.0376419712761193e-05
-1.3890698540509064e-05   2.8598604698392826e-06   1.0376419712761193e-05
-1.3890698540509064e-05   2.8598604698392826e-06   1.0376419712761193e-05
-1.0360525613516648e-05   2.9739555418419137e-06   1.7645807856863055e-05
-1.0360525613516648e-05   2.9739555418419137e-06   1.7645807856863055e-05
-1.0360525613516648e-05   2.9739555418419137e-06   1.7645807856863055e-05
-1.0360525613516648e-05   2.9739555418419137e-06   1.7645807856863055e-05
-1.8095242021667988e-05   2.4235010106657753e-06   4.424341124571892e-06
-1.8095242021667988e-05   2.4235010106657753e-06   4.424341124571892e-06
-1.8095242021667988e-05   2.4235010106657753e-06   4.424341124571892e-06
-1.8095242021667988e-05   2.4235010106657753e-06   4.424341124571892e-06
-1.845218607392346e-05   2.662091612559833e-06   1.7795923190403276e-05
-1.845218607392346e-05   2.662091612559833e-06   1.7795923190403276e-05
-1.845218607392346e-05   2.662091612559833e-06   1.7795923190403276e-05
-1.845218607392346e-05   2.662091612559833e-06   1.7795923190403276e-05
-1.0697351157551058e-05   2.0956126827922222e-06   5.211085687643262e-06
-1.0697351157551058e-05   2.0956126827922222e-06   5.211085687643262e-06
-1.0697351157551058e-05   2.0956126827922222e-06   5.211085687643262e-06
-1.0697351157551058e-05   2.0956126827922222e-06   5.211085687643262e-06
-1.4294805885700277e-05   2.6332586939852194e-06   1.0884255961176394e-05
-1.4294805885700277e-05   2.6332586939852194e-06   1.0884255961176394e-05
-1.4294805885700277e-05   2.6332586939852194e-06   1.0884255961176394e-05
-1.4294805885700277e-05   2.6332586939852194e-06   1.0884255961176394e-05
-1.7335320719242067e-05   4.873241758576339e-06   8.166511887204597e-06
-1.7335320719242067e-05   4.873241758576339e-06   8.166511887204597e-06
-1.7335320719242067e-05   4.873241758576339e-06   8.166511887204597e-06
-1.7335320719242067e-05   4.873241758576339e-06   8.166511887204597e-06
-2.4530093430920428e-05   3.9887313767087785e-06   -4.3554821947131895e-06
-2.4530093430920428e-05   3.9887313767087785e-06   -4.3554821947131895e-06
-2.4530093430920428e-05   3.9887313767087785e-06   -4.3554821947131895e-06
-2.4530093430920428e-05   3.9887313767087785e-06   -4.3554821947131895e-06
-2.5279700808906064e-05   4.852759896071699e-06   1.0492469233676295e-05
-2.5279700808906064e-05   4.852759896071699e-06   1.0492469233676295e-05
-2.5279700808906064e-05   4.852759896071699e-06   1.0492469233676295e-05
-2.5279700808906064e-05   4.852759896071699e-06   1.0492469233676295e-05
-1.7693048326168176e-05   3.889789751978525e-06   -1.5741694844308932e-06
-1.7693048326168176e-05   3.889789751978525e-06   -1.5741694844308932e-06
-1.7693048326168176e-05   3.889789751978525e-06   -1.5741694844308932e-06
-1.7693048326168176e-05   3.889789751978525e-06   -1.5741694844308932e-06
-2.0414104382533404e-05   4.319614222882432e-06   2.703029260302627e-06
-2.0414104382533404e-05   4.319614222882432e-06   2.703029260302627e-06
-2.0414104382533404e-05   4.319614222882432e-06   2.703029260302627e-06
-2.0414104382533404e-05   4.319614222882432e-06   2.703029260302627e-06
-1.769304832616823e-05   4.852759896071699e-06   1.1070251320132092e-05
-1.769304832616823e-05   4.852759896071699e-06   1.1070251320132092e-05
-1.769304832616823e-05   4.852759896071699e-06   1.1070251320132092e-05
-1.769304832616823e-05   4.852759896071699e-06   1.1070251320132092e-05
-2.527970080890609e-05   3.889789751978633e-06   -2.151951570886852e-06
-2.527970080890609e-05   3.889789751978633e-06   -2.151951570886852e-06
-2.527970080890609e-05   3.889789751978633e-06   -2.151951570886852e-06
-2.527970080890609e-05   3.889789751978633e-06   -2.151951570886852e-06
-2.5932623053475995e-05   4.755161546460621e-06   1.2498274555700225e-05
-2.5932623053475995e-05   4.755161546460621e-06   1.2498274555700225e-05
-2.5932623053475995e-05   4.755161546460621e-06   1.2498274555700225e-05
-2.5932623053475995e-05   4.755161546460621e-06   1.2498274555700225e-05
-1.8095242021667934e-05   3.7655744969944394e-06   2.9725065699886047e-08
-1.8095242021667934e-05   3.7655744969944394e-06   2.9725065699886047e-08
-1.8095242021667934e-05   3.7655744969944394e-06   2.9725065699886047e-08
-1.8095242021667934e-05   3.7655744969944394e-06   2.9725065699886047e-08
-2.12116508195766e-05   4.324022111336086e-06   4.8886711602767535e-06
-2.12116508195766e-05   4.324022111336086e-06   4.8886711602767535e-06
-2.12116508195766e-05   4.324022111336086e-06   4.8886711602767535e-06
-2.12116508195766e-05   4.324022111336086e-06   4.8886711602767535e-06
-1.8095242021667988e-05   4.755161546460621e-06   1.3092026785380042e-05
-1.8095242021667988e-05   4.755161546460621e-06   1.3092026785380042e-05
-1.8095242021667988e-05   4.755161546460621e-06   1.3092026785380042e-05
-1.8095242021667988e-05   4.755161546460621e-06   1.3092026785380042e-05
-2.5932623053476076e-05   3.7655744969944394e-06   -5.640271639797685e-07
-2.5932623053476076e-05   3.7655744969944394e-06   -5.640271639797685e-07
-2.5932623053476076e-05   3.7655744969944394e-06   -5.640271639797685e-07
-2.5932623053476076e-05   3.7655744969944394e-06   -5.640271639797685e-07
-2.6689054585703106e-05   4.321534903936304e-06   1.597994348863027e-05
-2.6689054585703106e-05   4.321534903936304e-06   1.597994348863027e-05
-2.6689054585703106e-05   4.321534903936304e-06   1.597994348863027e-05
-2.6689054585703106e-05   4.321534903936304e-06   1.597994348863027e-05
-1.8452186073923406e-05   3.346184660362947e-06   2.8370394484748145e-06
-1.8452186073923406e-05   3.346184660362947e-06   2.8370394484748145e-06
-1.8452186073923406e-05   3.346184660362947e-06   2.8370394484748145e-06
-1.8452186073923406e-05   3.346184660362947e-06   2.8370394484748145e-06
-2.1382776706521412e-05   4.1411354857843075e-06   7.244386674218578e-06
-2.1382776706521412e-05   4.1411354857843075e-06   7.244386674218578e-06
-2.1382776706521412e-05   4.1411354857843075e-06   7.244386674218578e-06
-2.1382776706521412e-05   4.1411354857843075e-06   7.244386674218578e-06
8.110094230133138e-06   -9.314541064869191e-07   1.1356219791237203e-05
8.110094230133138e-06   -9.314541064869191e-07   1.1356219791237203e-05
8.110094230133138e-06   -9.314541064869191e-07   1.1356219791237203e-05
8.110094230133138e-06   -9.314541064869191e-07   1.1356219791237203e-05
2.160076742410281e-06   -1.091152073318287e-09   1.9977417510139107e-06
2.160076742410281e-06   -1.091152073318287e-09   1.9977417510139107e-06
2.160076742410281e-06   -1.091152073318287e-09   1.9977417510139107e-06
2.160076742410281e-06   -1.091152073318287e-09   1.9977417510139107e-06
1.8841999974001862e-06   -1.2858039447292144e-06   1.057456140350887e-05
1.8841999974001862e-06   -1.2858039447292144e-06   1.057456140350887e-05
1.8841999974001862e-06   -1.2858039447292144e-06   1.057456140350887e-05
1.8841999974001862e-06   -1.2858039447292144e-06   1.057456140350887e-05
7.4270169534880945e-06   -3.1959373680281403e-07   7.568070186066763e-07
7.4270169534880945e-06   -3.1959373680281403e-07   7.568070186066763e-07
7.4270169534880945e-06   -3.1959373680281403e-07   7.568070186066763e-07
7.4270169534880945e-06   -3.1959373680281403e-07   7.568070186066763e-07
4.608180304447352e-06   -6.795476561605044e-07   5.670840451956272e-06
4.608180304447352e-06   -6.795476561605044e-07   5.670840451956272e-06
4.608180304447352e-06   -6.795476561605044e-07   5.670840451956272e-06
4.608180304447352e-06   -6.795476561605044e-07   5.670840451956272e-06
7.427016953488108e-06   -1.2858039447292144e-06   9.994835278753105e-06
7.427016953488108e-06   -1.2858039447292144e-06   9.994835278753105e-06
7.427016953488108e-06   -1.2858039447292144e-06   9.994835278753105e-06
7.427016953488108e-06   -1.2858039447292144e-06   9.994835278753105e-06
1.8841999974001828e-06   -3.1959373680281403e-07   1.3365331433624677e-06
1.8841999974001828e-06   -3.1959373680281403e-07   1.3365331433624677e-06
1.8841999974001828e-06   -3.1959373680281403e-07   1.3365331433624677e-06
1.8841999974001828e-06   -3.1959373680281403e-07   1.3365331433624677e-06
1.5619891511112431e-06   -1.4069989921806653e-06   9.91568479406156e-06
1.5619891511112431e-06   -1.4069989921806653e-06   9.91568479406156e-06
1.5619891511112431e-06   -1.4069989921806653e-06   9.91568479406156e-06
1.5619891511112431e-06   -1.4069989921806653e-06   9.91568479406156e-06
6.847859052730112e-06   -4.5580251378741967e-07   5.35183737661012e-07
6.847859052730112e-06   -4.5580251378741967e-07   5.35183737661012e-07
6.847859052730112e-06   -4.5580251378741967e-07   5.35183737661012e-07
6.847859052730112e-06   -4.5580251378741967e-07   5.35183737661012e-07
4.28078005997876e-06   -8.186852270285249e-07   5.0313783535245425e-06
4.28078005997876e-06   -8.186852270285249e-07   5.0313783535245425e-06
4.28078005997876e-06   -8.186852270285249e-07   5.0313783535245425e-06
4.28078005997876e-06   -8.186852270285249e-07   5.0313783535245425e-06
6.847859052730119e-06   -1.4069989921807738e-06   9.34496690702558e-06
6.847859052730119e-06   -1.4069989921807738e-06   9.34496690702558e-06
6.847859052730119e-06   -1.4069989921807738e-06   9.34496690702558e-06
6.847859052730119e-06   -1.4069989921807738e-06   9.34496690702558e-06
1.561989151111238e-06   -4.5580251378741967e-07   1.1059016246969377e-06
1.561989151111238e-06   -4.5580251378741967e-07   1.1059016246969377e-06
1.561989151111238e-06   -4.5580251378741967e-07   1.1059016246969377e-06
1.561989151111238e-06   -4.5580251378741967e-07   1.1059016246969377e-06
1.2824570026285184e-06   -1.5646721752862573e-06   9.147391564064199e-06
1.2824570026285184e-06   -1.5646721752862573e-06   9.147391564064199e-06
1.2824570026285184e-06   -1.5646721752862573e-06   9.147391564064199e-06
1.2824570026285184e-06   -1.5646721752862573e-06   9.147391564064199e-06
6.168511946131706e-06   -6.805756454877389e-07   4.735087403466776e-07
6.168511946131706e-06   -6.805756454877389e-07   4.735087403466776e-07
6.168511946131706e-06   -6.805756454877389e-07   4.735087403466776e-07
6.168511946131706e-06   -6.805756454877389e-07   4.735087403466776e-07
3.7908168520821494e-06   -8.884228817644321e-07   4.5610422388619875e-06
3.7908168520821494e-06   -8.884228817644321e-07   4.5610422388619875e-06
3.7908168520821494e-06   -8.884228817644321e-07   4.5610422388619875e-06
3.7908168520821494e-06   -8.884228817644321e-07   4.5610422388619875e-06
2.1600767424102845e-06   4.6101831962554185e-07   1.5545565289282345e-05
2.1600767424102845e-06   4.6101831962554185e-07   1.5545565289282345e-05
2.1600767424102845e-06   4.6101831962554185e-07   1.5545565289282345e-05
2.1600767424102845e-06   4.6101831962554185e-07   1.5545565289282345e-05
-3.254006527420226e-06   8.845740211878284e-07   6.776226593835496e-06
-3.254006527420226e-06   8.845740211878284e-07   6.776226593835496e-06
-3.254006527420226e-06   8.845740211878284e-07   6.776226593835496e-06
-3.254006527420226e-06   8.845740211878284e-07   6.776226593835496e-06
-3.4967379513721507e-06   1.0368664781206394e-07   1.5591548690812424e-05
-3.4967379513721507e-06   1.0368664781206394e-07   1.5591548690812424e-05
-3.4967379513721507e-06   1.0368664781206394e-07   1.5591548690812424e-05
-3.4967379513721507e-06   1.0368664781206394e-07   1.5591548690812424e-05
1.8841999974001828e-06   5.261505043917605e-07   6.369840462244264e-06
1.8841999974001828e-06   5.261505043917605e-07   6.369840462244264e-06
1.8841999974001828e-06   5.261505043917605e-07   6.369840462244264e-06
1.8841999974001828e-06   5.261505043917605e-07   6.369840462244264e-06
-7.175830394125793e-07   4.5748430424930476e-07   1.0747345243684793e-05
-7.175830394125793e-07   4.5748430424930476e-07   1.0747345243684793e-05
-7.175830394125793e-07   4.5748430424930476e-07   1.0747345243684793e-05
-7.175830394125793e-07   4.5748430424930476e-07   1.0747345243684793e-05
1.8841999974001845e-06   1.0368664781217236e-07   1.533807037686465e-05
1.8841999974001845e-06   1.0368664781217236e-07   1.533807037686465e-05
1.8841999974001845e-06   1.0368664781217236e-07   1.533807037686465e-05
1.8841999974001845e-06   1.0368664781217236e-07   1.533807037686465e-05
-3.4967379513721507e-06   5.26150504391869e-07   6.62331877619211e-06
-3.4967379513721507e-06   5.26150504391869e-07   6.62331877619211e-06
-3.4967379513721507e-06   5.26150504391869e-07   6.62331877619211e-06
-3.4967379513721507e-06   5.26150504391869e-07   6.62331877619211e-06
-3.7467171643925837e-06   -1.8765321180096422e-07   1.5485338248490718e-05
-3.7467171643925837e-06   -1.8765321180096422e-07   1.5485338248490718e-05
-3.7467171643925837e-06   -1.8765321180096422e-07   1.5485338248490718e-05
-3.7467171643925837e-06   -1.8765321180096422e-07   1.5485338248490718e-05
1.561989151111238e-06   2.2348984910056015e-07   6.390808552776807e-06
1.561989151111238e-06   2.2348984910056015e-07   6.390808552776807e-06
1.561989151111238e-06   2.2348984910056015e-07   6.390808552776807e-06
1.561989151111238e-06   2.2348984910056015e-07   6.390808552776807e-06
-9.771439824573783e-07   2.0819938591947265e-07   1.0631871386633382e-05
-9.771439824573783e-07   2.0819938591947265e-07   1.0631871386633382e-05
-9.771439824573783e-07   2.0819938591947265e-07   1.0631871386633382e-05
-9.771439824573783e-07   2.0819938591947265e-07   1.0631871386633382e-05
1.5619891511112431e-06   -1.8765321180096422e-07   1.523865241194976e-05
1.5619891511112431e-06   -1.8765321180096422e-07   1.523865241194976e-05
1.5619891511112431e-06   -1.8765321180096422e-07   1.523865241194976e-05
1.5619891511112431e-06   -1.8765321180096422e-07   1.523865241194976e-05
-3.7467171643925837e-06   2.2348984910045173e-07   6.6374943893177715e-06
-3.7467171643925837e-06   2.2348984910045173e-07   6.6374943893177715e-06
-3.7467171643925837e-06   2.2348984910045173e-07   6.6374943893177715e-06
-3.7467171643925837e-06   2.2348984910045173e-07   6.6374943893177715e-06
-3.993149331642809e-06   -4.7341949815829076e-07   1.5682855004965418e-05
-3.993149331642809e-06   -4.7341949815829076e-07   1.5682855004965418e-05
-3.993149331642809e-06   -4.7341949815829076e-07   1.5682855004965418e-05
-3.993149331642809e-06   -4.7341949815829076e-07   1.5682855004965418e-05
1.282457002628515e-06   -8.445668580518793e-08   6.65680009376816e-06
1.282457002628515e-06   -8.445668580518793e-08   6.65680009376816e-06
1.282457002628515e-06   -8.445668580518793e-08   6.65680009376816e-06
1.282457002628515e-06   -8.445668580518793e-08   6.65680009376816e-06
-1.1961858251825985e-06   -1.4240486030615493e-08   1.0745741753588801e-05
-1.1961858251825985e-06   -1.4240486030615493e-08   1.0745741753588801e-05
-1.1961858251825985e-06   -1.4240486030615493e-08   1.0745741753588801e-05
-1.1961858251825985e-06   -1.4240486030615493e-08   1.0745741753588801e-05
-3.254006527420226e-06   1.7633961623489142e-06   1.7225446498484397e-05
-3.254006527420226e-06   1.7633961623489142e-06   1.7225446498484397e-05
-3.254006527420226e-06   1.7633961623489142e-06   1.7225446498484397e-05
-3.254006527420226e-06   1.7633961623489142e-06   1.7225446498484397e-05
-8.572033067476964e-06   1.6658146164740808e-06   8.303520004198316e-06
-8.572033067476964e-06   1.6658146164740808e-06   8.303520004198316e-06
-8.572033067476964e-06   1.6658146164740808e-06   8.303520004198316e-06
-8.572033067476964e-06   1.6658146164740808e-06   8.303520004198316e-06
-8.805270213509318e-06   1.4398634592101625e-06   1.7072911035557244e-05
-8.805270213509318e-06   1.4398634592101625e-06   1.7072911035557244e-05
-8.805270213509318e-06   1.4398634592101625e-06   1.7072911035557244e-05
-8.805270213509318e-06   1.4398634592101625e-06   1.7072911035557244e-05
-3.4967379513721507e-06   1.3364995384297206e-06   8.287375617797063e-06
-3.4967379513721507e-06   1.3364995384297206e-06   8.287375617797063e-06
-3.4967379513721507e-06   1.3364995384297206e-06   8.287375617797063e-06
-3.4967379513721507e-06   1.3364995384297206e-06   8.287375617797063e-06
-6.043600932711947e-06   1.5133018201386218e-06   1.2426065884338464e-05
-6.043600932711947e-06   1.5133018201386218e-06   1.2426065884338464e-05
-6.043600932711947e-06   1.5133018201386218e-06   1.2426065884338464e-05
-6.043600932711947e-06   1.5133018201386218e-06   1.2426065884338464e-05
-3.4967379513721507e-06   1.4398634592101625e-06   1.7134929388025553e-05
-3.4967379513721507e-06   1.4398634592101625e-06   1.7134929388025553e-05
-3.4967379513721507e-06   1.4398634592101625e-06   1.7134929388025553e-05
-3.4967379513721507e-06   1.4398634592101625e-06   1.7134929388025553e-05
-8.805270213509304e-06   1.3364995384296122e-06   8.225357265328754e-06
-8.805270213509304e-06   1.3364995384296122e-06   8.225357265328754e-06
-8.805270213509304e-06   1.3364995384296122e-06   8.225357265328754e-06
-8.805270213509304e-06   1.3364995384296122e-06   8.225357265328754e-06
-9.046023646966093e-06   1.1200790774136332e-06   1.718290538290203e-05
-9.046023646966093e-06   1.1200790774136332e-06   1.718290538290203e-05
-9.046023646966093e-06   1.1200790774136332e-06   1.718290538290203e-05
-9.046023646966093e-06   1.1200790774136332e-06   1.718290538290203e-05
-3.7467171643925837e-06   1.0089038397654432e-06   8.41743305453525e-06
-3.7467171643925837e-06   1.0089038397654432e-06   8.41743305453525e-06
-3.7467171643925837e-06   1.0089038397654432e-06   8.41743305453525e-06
-3.7467171643925837e-06   1.0089038397654432e-06   8.41743305453525e-06
-6.250998724194135e-06   1.2633343891118231e-06   1.2438577324596609e-05
-6.250998724194135e-06   1.2633343891118231e-06   1.2438577324596609e-05
-6.250998724194135e-06   1.2633343891118231e-06   1.2438577324596609e-05
-6.250998724194135e-06   1.2633343891118231e-06   1.2438577324596609e-05
-3.7467171643925837e-06   1.1200790774136332e-06   1.7249610525490945e-05
-3.7467171643925837e-06   1.1200790774136332e-06   1.7249610525490945e-05
-3.7467171643925837e-06   1.1200790774136332e-06   1.7249610525490945e-05
-3.7467171643925837e-06   1.1200790774136332e-06   1.7249610525490945e-05
-9.04602364696608e-06   1.0089038397654432e-06   8.35072791194639e-06
-9.04602364696608e-06   1.0089038397654432e-06   8.35072791194639e-06
-9.04602364696608e-06   1.0089038397654432e-06   8.35072791194639e-06
-9.04602364696608e-06   1.0089038397654432e-06   8.35072791194639e-06
-9.282927694517854e-06   8.123814525609358e-07   1.745592985315605e-05
-9.282927694517854e-06   8.123814525609358e-07   1.745592985315605e-05
-9.282927694517854e-06   8.123814525609358e-07   1.745592985315605e-05
-9.282927694517854e-06   8.123814525609358e-07   1.745592985315605e-05
-3.993149331642809e-06   6.955149069538726e-07   8.709752509061954e-06
-3.993149331642809e-06   6.955149069538726e-07   8.709752509061954e-06
-3.993149331642809e-06   6.955149069538726e-07   8.709752509061954e-06
-3.993149331642809e-06   6.955149069538726e-07   8.709752509061954e-06
-6.471751414805689e-06   1.0185213306819485e-06   1.2646952126763391e-05
-6.471751414805689e-06   1.0185213306819485e-06   1.2646952126763391e-05
-6.471751414805689e-06   1.0185213306819485e-06   1.2646952126763391e-05
-6.471751414805689e-06   1.0185213306819485e-06   1.2646952126763391e-05
-8.572033067476964e-06   3.031297549478673e-06   1.5184337084473516e-05
-8.572033067476964e-06   3.031297549478673e-06   1.5184337084473516e-05
-8.572033067476964e-06   3.031297549478673e-06   1.5184337084473516e-05
-8.572033067476964e-06   3.031297549478673e-06   1.5184337084473516e-05
-1.3799383111814972e-05   2.482180135076717e-06   6.142616561935618e-06
-1.3799383111814972e-05   2.482180135076717e-06   6.142616561935618e-06
-1.3799383111814972e-05   2.482180135076717e-06   6.142616561935618e-06
-1.3799383111814972e-05   2.482180135076717e-06   6.142616561935618e-06
-1.405397868232234e-05   2.7160555682305106e-06   1.4906803872548357e-05
-1.405397868232234e-05   2.7160555682305106e-06   1.4906803872548357e-05
-1.405397868232234e-05   2.7160555682305106e-06   1.4906803872548357e-05
-1.405397868232234e-05   2.7160555682305106e-06   1.4906803872548357e-05
-8.805270213509291e-06   2.1505821133393273e-06   6.498240497461455e-06
-8.805270213509291e-06   2.1505821133393273e-06   6.498240497461455e-06
-8.805270213509291e-06   2.1505821133393273e-06   6.498240497461455e-06
-8.805270213509291e-06   2.1505821133393273e-06   6.498240497461455e-06
-1.128024721822327e-05   2.5514026137055546e-06   1.0382709871765668e-05
-1.128024721822327e-05   2.5514026137055546e-06   1.0382709871765668e-05
-1.128024721822327e-05   2.5514026137055546e-06   1.0382709871765668e-05
-1.128024721822327e-05   2.5514026137055546e-06   1.0382709871765668e-05
-8.805270213509318e-06   2.7160555682305106e-06   1.5246087945483045e-05
-8.805270213509318e-06   2.7160555682305106e-06   1.5246087945483045e-05
-8.805270213509318e-06   2.7160555682305106e-06   1.5246087945483045e-05
-8.805270213509318e-06   2.7160555682305106e-06   1.5246087945483045e-05
-1.4053978682322313e-05   2.1505821133394358e-06   6.158956424526848e-06
-1.4053978682322313e-05   2.1505821133394358e-06   6.158956424526848e-06
-1.4053978682322313e-05   2.1505821133394358e-06   6.158956424526848e-06
-1.4053978682322313e-05   2.1505821133394358e-06   6.158956424526848e-06
-1.4355046217234325e-05   2.423501010665667e-06   1.5396699590853116e-05
-1.4355046217234325e-05   2.423501010665667e-06   1.5396699590853116e-05
-1.4355046217234325e-05   2.423501010665667e-06   1.5396699590853116e-05
-1.4355046217234325e-05   2.423501010665667e-06   1.5396699590853116e-05
-9.046023646966053e-06   1.8483834276056786e-06   6.893399190242226e-06
-9.046023646966053e-06   1.8483834276056786e-06   6.893399190242226e-06
-9.046023646966053e-06   1.8483834276056786e-06   6.893399190242226e-06
-9.046023646966053e-06   1.8483834276056786e-06   6.893399190242226e-06
-1.1444069786038447e-05   2.3172645791083493e-06   1.0608814064461299e-05
-1.1444069786038447e-05   2.3172645791083493e-06   1.0608814064461299e-05
-1.1444069786038447e-05   2.3172645791083493e-06   1.0608814064461299e-05
-1.1444069786038447e-05   2.3172645791083493e-06   1.0608814064461299e-05
-9.046023646966066e-06   2.423501010665667e-06   1.5741770140689066e-05
-9.046023646966066e-06   2.423501010665667e-06   1.5741770140689066e-05
-9.046023646966066e-06   2.423501010665667e-06   1.5741770140689066e-05
-9.046023646966066e-06   2.423501010665667e-06   1.5741770140689066e-05
-1.4355046217234298e-05   1.848383427605787e-06   6.548328640406249e-06
-1.4355046217234298e-05   1.848383427605787e-06   6.548328640406249e-06
-1.4355046217234298e-05   1.848383427605787e-06   6.548328640406249e-06
-1.4355046217234298e-05   1.848383427605787e-06   6.548328640406249e-06
-1.4612837571465392e-05   2.0956126827922222e-06   1.586696358231595e-05
-1.4612837571465392e-05   2.0956126827922222e-06   1.586696358231595e-05
-1.4612837571465392e-05   2.0956126827922222e-06   1.586696358231595e-05
-1.4612837571465392e-05   2.0956126827922222e-06   1.586696358231595e-05
-9.282927694517827e-06   1.5246738058599923e-06   7.326343780229562e-06
-9.282927694517827e-06   1.5246738058599923e-06   7.326343780229562e-06
-9.282927694517827e-06   1.5246738058599923e-06   7.326343780229562e-06
-9.282927694517827e-06   1.5246738058599923e-06   7.326343780229562e-06
-1.172793990530647e-05   2.0819660927818597e-06   1.106698875939148e-05
-1.172793990530647e-05   2.0819660927818597e-06   1.106698875939148e-05
-1.172793990530647e-05   2.0819660927818597e-06   1.106698875939148e-05
-1.172793990530647e-05   2.0819660927818597e-06   1.106698875939148e-05
-1.3799383111814999e-05   3.9887313767087785e-06   7.11211722458885e-06
-1.3799383111814999e-05   3.9887313767087785e-06   7.11211722458885e-06
-1.3799383111814999e-05   3.9887313767087785e-06   7.11211722458885e-06
-1.3799383111814999e-05   3.9887313767087785e-06   7.11211722458885e-06
-1.8536666761953714e-05   3.065661066657048e-06   -1.337197711673494e-06
-1.8536666761953714e-05   3.065661066657048e-06   -1.337197711673494e-06
-1.8536666761953714e-05   3.065661066657048e-06   -1.337197711673494e-06
-1.8536666761953714e-05   3.065661066657048e-06   -1.337197711673494e-06
-1.9190342463573976e-05   3.889789751978633e-06   8.783990458653842e-06
-1.9190342463573976e-05   3.889789751978633e-06   8.783990458653842e-06
-1.9190342463573976e-05   3.889789751978633e-06   8.783990458653842e-06
-1.9190342463573976e-05   3.889789751978633e-06   8.783990458653842e-06
-1.4053978682322313e-05   2.896861751257437e-06   8.191409570005139e-07
-1.4053978682322313e-05   2.896861751257437e-06   8.191409570005139e-07
-1.4053978682322313e-05   2.896861751257437e-06   8.191409570005139e-07
-1.4053978682322313e-05   2.896861751257437e-06   8.191409570005139e-07
-1.5797396291683576e-05   3.395081326035103e-06   3.425905227736779e-06
-1.5797396291683576e-05   3.395081326035103e-06   3.425905227736779e-06
-1.5797396291683576e-05   3.395081326035103e-06   3.425905227736779e-06
-1.5797396291683576e-05   3.395081326035103e-06   3.425905227736779e-06
-1.4053978682322286e-05   3.889789751978633e-06   9.379747259086538e-06
-1.4053978682322286e-05   3.889789751978633e-06   9.379747259086538e-06
-1.4053978682322286e-05   3.889789751978633e-06   9.379747259086538e-06
-1.4053978682322286e-05   3.889789751978633e-06   9.379747259086538e-06
-1.9190342463574003e-05   2.896861751257437e-06   2.2338415656787203e-07
-1.9190342463574003e-05   2.896861751257437e-06   2.2338415656787203e-07
-1.9190342463574003e-05   2.896861751257437e-06   2.2338415656787203e-07
-1.9190342463574003e-05   2.896861751257437e-06   2.2338415656787203e-07
-1.9752126128191546e-05   3.7655744969944394e-06   1.0395353276038046e-05
-1.9752126128191546e-05   3.7655744969944394e-06   1.0395353276038046e-05
-1.9752126128191546e-05   3.7655744969944394e-06   1.0395353276038046e-05
-1.9752126128191546e-05   3.7655744969944394e-06   1.0395353276038046e-05
-1.435504621723427e-05   2.754357403755782e-06   2.006950347052661e-06
-1.435504621723427e-05   2.754357403755782e-06   2.006950347052661e-06
-1.435504621723427e-05   2.754357403755782e-06   2.006950347052661e-06
-1.435504621723427e-05   2.754357403755782e-06   2.006950347052661e-06
-1.642723180954649e-05   3.352296594972843e-06   5.101829486176283e-06
-1.642723180954649e-05   3.352296594972843e-06   5.101829486176283e-06
-1.642723180954649e-05   3.352296594972843e-06   5.101829486176283e-06
-1.642723180954649e-05   3.352296594972843e-06   5.101829486176283e-06
-1.4355046217234298e-05   3.7655744969944394e-06   1.1002083531981219e-05
-1.4355046217234298e-05   3.7655744969944394e-06   1.1002083531981219e-05
-1.4355046217234298e-05   3.7655744969944394e-06   1.1002083531981219e-05
-1.4355046217234298e-05   3.7655744969944394e-06   1.1002083531981219e-05
-1.9752126128191546e-05   2.754357403755782e-06   1.4002200911093798e-06
-1.9752126128191546e-05   2.754357403755782e-06   1.4002200911093798e-06
-1.9752126128191546e-05   2.754357403755782e-06   1.4002200911093798e-06
-1.9752126128191546e-05   2.754357403755782e-06   1.4002200911093798e-06
-2.04233563703053e-05   3.346184660362947e-06   1.3243715187412244e-05
-2.04233563703053e-05   3.346184660362947e-06   1.3243715187412244e-05
-2.04233563703053e-05   3.346184660362947e-06   1.3243715187412244e-05
-2.04233563703053e-05   3.346184660362947e-06   1.3243715187412244e-05
-1.4612837571465338e-05   2.3643688043701065e-06   4.148606702941509e-06
-1.4612837571465338e-05   2.3643688043701065e-06   4.148606702941509e-06
-1.4612837571465338e-05   2.3643688043701065e-06   4.148606702941509e-06
-1.4612837571465338e-05   2.3643688043701065e-06   4.148606702941509e-06
-1.6579573436591483e-05   3.1749396882650195e-06   6.940157281148322e-06
-1.6579573436591483e-05   3.1749396882650195e-06   6.940157281148322e-06
-1.6579573436591483e-05   3.1749396882650195e-06   6.940157281148322e-06
-1.6579573436591483e-05   3.1749396882650195e-06   6.940157281148322e-06
1.7713464295593832e-06   -1.091152073318287e-09   8.526719342188157e-06
1.7713464295593832e-06   -1.091152073318287e-09   8.526719342188157e-06
1.7713464295593832e-06   -1.091152073318287e-09   8.526719342188157e-06
1.7713464295593832e-06   -1.091152073318287e-09   8.526719342188157e-06
-1.6771270699262308e-06   8.957942232898884e-07   3.317394734930041e-06
-1.6771270699262308e-06   8.957942232898884e-07   3.317394734930041e-06
-1.6771270699262308e-06   8.957942232898884e-07   3.317394734930041e-06
-1.6771270699262308e-06   8.957942232898884e-07   3.317394734930041e-06
-1.8747451297780317e-06   -3.195937368027056e-07   8.39160794970312e-06
-1.8747451297780317e-06   -3.195937368027056e-07   8.39160794970312e-06
-1.8747451297780317e-06   -3.195937368027056e-07   8.39160794970312e-06
-1.8747451297780317e-06   -3.195937368027056e-07   8.39160794970312e-06
1.1717496274335926e-06   5.985192303094473e-07   2.763248907416407e-06
1.1717496274335926e-06   5.985192303094473e-07   2.763248907416407e-06
1.1717496274335926e-06   5.985192303094473e-07   2.763248907416407e-06
1.1717496274335926e-06   5.985192303094473e-07   2.763248907416407e-06
-2.3706589361116865e-07   2.419717937741407e-07   5.3252032377456135e-06
-2.3706589361116865e-07   2.419717937741407e-07   5.3252032377456135e-06
-2.3706589361116865e-07   2.419717937741407e-07   5.3252032377456135e-06
-2.3706589361116865e-07   2.419717937741407e-07   5.3252032377456135e-06
1.1717496274335926e-06   -3.195937368027056e-07   7.840740169435677e-06
1.1717496274335926e-06   -3.195937368027056e-07   7.840740169435677e-06
1.1717496274335926e-06   -3.195937368027056e-07   7.840740169435677e-06
1.1717496274335926e-06   -3.195937368027056e-07   7.840740169435677e-06
-1.8747451297780317e-06   5.985192303094473e-07   3.314116687683742e-06
-1.8747451297780317e-06   5.985192303094473e-07   3.314116687683742e-06
-1.8747451297780317e-06   5.985192303094473e-07   3.314116687683742e-06
-1.8747451297780317e-06   5.985192303094473e-07   3.314116687683742e-06
-2.119241327249172e-06   -4.5580251378731125e-07   8.160319893032693e-06
-2.119241327249172e-06   -4.5580251378731125e-07   8.160319893032693e-06
-2.119241327249172e-06   -4.5580251378731125e-07   8.160319893032693e-06
-2.119241327249172e-06   -4.5580251378731125e-07   8.160319893032693e-06
6.504732142527517e-07   4.3646117947908e-07   3.008770774569599e-06
6.504732142527517e-07   4.3646117947908e-07   3.008770774569599e-06
6.504732142527517e-07   4.3646117947908e-07   3.008770774569599e-06
6.504732142527517e-07   4.3646117947908e-07   3.008770774569599e-06
-5.58995314994181e-07   1.1542238071977733e-07   5.217174935903187e-06
-5.58995314994181e-07   1.1542238071977733e-07   5.217174935903187e-06
-5.58995314994181e-07   1.1542238071977733e-07   5.217174935903187e-06
-5.58995314994181e-07   1.1542238071977733e-07   5.217174935903187e-06
6.504732142527517e-07   -4.5580251378741967e-07   7.624961677072685e-06
6.504732142527517e-07   -4.5580251378741967e-07   7.624961677072685e-06
6.504732142527517e-07   -4.5580251378741967e-07   7.624961677072685e-06
6.504732142527517e-07   -4.5580251378741967e-07   7.624961677072685e-06
-2.1192413272491688e-06   4.3646117947908e-07   3.544128990529431e-06
-2.1192413272491688e-06   4.3646117947908e-07   3.544128990529431e-06
-2.1192413272491688e-06   4.3646117947908e-07   3.544128990529431e-06
-2.1192413272491688e-06   4.3646117947908e-07   3.544128990529431e-06
-2.3242154327260087e-06   -6.805756454877389e-07   8.060762393077706e-06
-2.3242154327260087e-06   -6.805756454877389e-07   8.060762393077706e-06
-2.3242154327260087e-06   -6.805756454877389e-07   8.060762393077706e-06
-2.3242154327260087e-06   -6.805756454877389e-07   8.060762393077706e-06
-4.274752383945639e-09   9.427344507080201e-08   3.7292851381725314e-06
-4.274752383945639e-09   9.427344507080201e-08   3.7292851381725314e-06
-4.274752383945639e-09   9.427344507080201e-08   3.7292851381725314e-06
-4.274752383945639e-09   9.427344507080201e-08   3.7292851381725314e-06
-9.113048057759606e-07   1.7384518647767591e-09   5.29652288974953e-06
-9.113048057759606e-07   1.7384518647767591e-09   5.29652288974953e-06
-9.113048057759606e-07   1.7384518647767591e-09   5.29652288974953e-06
-9.113048057759606e-07   1.7384518647767591e-09   5.29652288974953e-06
-1.6771270699262308e-06   8.845740211878284e-07   1.3589201989290306e-05
-1.6771270699262308e-06   8.845740211878284e-07   1.3589201989290306e-05
-1.6771270699262308e-06   8.845740211878284e-07   1.3589201989290306e-05
-1.6771270699262308e-06   8.845740211878284e-07   1.3589201989290306e-05
-4.5604143619676135e-06   1.064542239946468e-06   8.891704100476511e-06
-4.5604143619676135e-06   1.064542239946468e-06   8.891704100476511e-06
-4.5604143619676135e-06   1.064542239946468e-06   8.891704100476511e-06
-4.5604143619676135e-06   1.064542239946468e-06   8.891704100476511e-06
-4.710235358548217e-06   5.26150504391869e-07   1.3549274195104896e-05
-4.710235358548217e-06   5.26150504391869e-07   1.3549274195104896e-05
-4.710235358548217e-06   5.26150504391869e-07   1.3549274195104896e-05
-4.710235358548217e-06   5.26150504391869e-07   1.3549274195104896e-05
-1.8747451297780317e-06   7.334153819249772e-07   8.699098220634621e-06
-1.8747451297780317e-06   7.334153819249772e-07   8.699098220634621e-06
-1.8747451297780317e-06   7.334153819249772e-07   8.699098220634621e-06
-1.8747451297780317e-06   7.334153819249772e-07   8.699098220634621e-06
-3.2263609886397764e-06   7.628662520868437e-07   1.0934120796640459e-05
-3.2263609886397764e-06   7.628662520868437e-07   1.0934120796640459e-05
-3.2263609886397764e-06   7.628662520868437e-07   1.0934120796640459e-05
-3.2263609886397764e-06   7.628662520868437e-07   1.0934120796640459e-05
-1.8747451297780266e-06   5.261505043917605e-07   1.3424915268584717e-05
-1.8747451297780266e-06   5.261505043917605e-07   1.3424915268584717e-05
-1.8747451297780266e-06   5.261505043917605e-07   1.3424915268584717e-05
-1.8747451297780266e-06   5.261505043917605e-07   1.3424915268584717e-05
-4.710235358548203e-06   7.334153819249772e-07   8.823457147154638e-06
-4.710235358548203e-06   7.334153819249772e-07   8.823457147154638e-06
-4.710235358548203e-06   7.334153819249772e-07   8.823457147154638e-06
-4.710235358548203e-06   7.334153819249772e-07   8.823457147154638e-06
-4.864880012962633e-06   2.2348984910045173e-07   1.3568635714188094e-05
-4.864880012962633e-06   2.2348984910045173e-07   1.3568635714188094e-05
-4.864880012962633e-06   2.2348984910045173e-07   1.3568635714188094e-05
-4.864880012962633e-06   2.2348984910045173e-07   1.3568635714188094e-05
-2.1192413272491688e-06   4.291713375595158e-07   8.869162344923528e-06
-2.1192413272491688e-06   4.291713375595158e-07   8.869162344923528e-06
-2.1192413272491688e-06   4.291713375595158e-07   8.869162344923528e-06
-2.1192413272491688e-06   4.291713375595158e-07   8.869162344923528e-06
-3.379582153697256e-06   5.217249434345643e-07   1.09141982254787e-05
-3.379582153697256e-06   5.217249434345643e-07   1.09141982254787e-05
-3.379582153697256e-06   5.217249434345643e-07   1.09141982254787e-05
-3.379582153697256e-06   5.217249434345643e-07   1.09141982254787e-05
-2.1192413272491688e-06   2.2348984910056015e-07   1.3445226821112515e-05
-2.1192413272491688e-06   2.2348984910056015e-07   1.3445226821112515e-05
-2.1192413272491688e-06   2.2348984910056015e-07   1.3445226821112515e-05
-2.1192413272491688e-06   2.2348984910056015e-07   1.3445226821112515e-05
-4.86488001296262e-06   4.291713375595158e-07   8.992571237998945e-06
-4.86488001296262e-06   4.291713375595158e-07   8.992571237998945e-06
-4.86488001296262e-06   4.291713375595158e-07   8.992571237998945e-06
-4.86488001296262e-06   4.291713375595158e-07   8.992571237998945e-06
-5.016875473917246e-06   -8.445668580518793e-08   1.3824907708315422e-05
-5.016875473917246e-06   -8.445668580518793e-08   1.3824907708315422e-05
-5.016875473917246e-06   -8.445668580518793e-08   1.3824907708315422e-05
-5.016875473917246e-06   -8.445668580518793e-08   1.3824907708315422e-05
-2.324215432726002e-06   1.0106311368687521e-07   9.225829093301579e-06
-2.324215432726002e-06   1.0106311368687521e-07   9.225829093301579e-06
-2.324215432726002e-06   1.0106311368687521e-07   9.225829093301579e-06
-2.324215432726002e-06   1.0106311368687521e-07   9.225829093301579e-06
-3.532114144883773e-06   2.8607216626271546e-07   1.1127988182018883e-05
-3.532114144883773e-06   2.8607216626271546e-07   1.1127988182018883e-05
-3.532114144883773e-06   2.8607216626271546e-07   1.1127988182018883e-05
-3.532114144883773e-06   2.8607216626271546e-07   1.1127988182018883e-05
-4.5604143619676e-06   1.6658146164739724e-06   1.52830252584332e-05
-4.5604143619676e-06   1.6658146164739724e-06   1.52830252584332e-05
-4.5604143619676e-06   1.6658146164739724e-06   1.52830252584332e-05
-4.5604143619676e-06   1.6658146164739724e-06   1.52830252584332e-05
-7.425906196023227e-06   1.285962375923485e-06   1.0279294190676812e-05
-7.425906196023227e-06   1.285962375923485e-06   1.0279294190676812e-05
-7.425906196023227e-06   1.285962375923485e-06   1.0279294190676812e-05
-7.425906196023227e-06   1.285962375923485e-06   1.0279294190676812e-05
-7.5532258500733305e-06   1.3364995384296122e-06   1.499956985587551e-05
-7.5532258500733305e-06   1.3364995384296122e-06   1.499956985587551e-05
-7.5532258500733305e-06   1.3364995384296122e-06   1.499956985587551e-05
-7.5532258500733305e-06   1.3364995384296122e-06   1.499956985587551e-05
-4.710235358548203e-06   9.80230903706021e-07   1.0475013550834605e-05
-4.710235358548203e-06   9.80230903706021e-07   1.0475013550834605e-05
-4.710235358548203e-06   9.80230903706021e-07   1.0475013550834605e-05
-4.710235358548203e-06   9.80230903706021e-07   1.0475013550834605e-05
-6.066035529307882e-06   1.2905426400076176e-06   1.2548493460319673e-05
-6.066035529307882e-06   1.2905426400076176e-06   1.2548493460319673e-05
-6.066035529307882e-06   1.2905426400076176e-06   1.2548493460319673e-05
-6.066035529307882e-06   1.2905426400076176e-06   1.2548493460319673e-05
-4.710235358548203e-06   1.3364995384297206e-06   1.5213331036709795e-05
-4.710235358548203e-06   1.3364995384297206e-06   1.5213331036709795e-05
-4.710235358548203e-06   1.3364995384297206e-06   1.5213331036709795e-05
-4.710235358548203e-06   1.3364995384297206e-06   1.5213331036709795e-05
-7.5532258500733305e-06   9.80230903706021e-07   1.0261252370000375e-05
-7.5532258500733305e-06   9.80230903706021e-07   1.0261252370000375e-05
-7.5532258500733305e-06   9.80230903706021e-07   1.0261252370000375e-05
-7.5532258500733305e-06   9.80230903706021e-07   1.0261252370000375e-05
-7.689456192047937e-06   1.0089038397654432e-06   1.5145003271257985e-05
-7.689456192047937e-06   1.0089038397654432e-06   1.5145003271257985e-05
-7.689456192047937e-06   1.0089038397654432e-06   1.5145003271257985e-05
-7.689456192047937e-06   1.0089038397654432e-06   1.5145003271257985e-05
-4.86488001296262e-06   6.696186595195721e-07   1.0640947414263327e-05
-4.86488001296262e-06   6.696186595195721e-07   1.0640947414263327e-05
-4.86488001296262e-06   6.696186595195721e-07   1.0640947414263327e-05
-4.86488001296262e-06   6.696186595195721e-07   1.0640947414263327e-05
-6.174850810541261e-06   1.0463314268963336e-06   1.2598204416468104e-05
-6.174850810541261e-06   1.0463314268963336e-06   1.2598204416468104e-05
-6.174850810541261e-06   1.0463314268963336e-06   1.2598204416468104e-05
-6.174850810541261e-06   1.0463314268963336e-06   1.2598204416468104e-05
-4.86488001296262e-06   1.0089038397654432e-06   1.5348574379405355e-05
-4.86488001296262e-06   1.0089038397654432e-06   1.5348574379405355e-05
-4.86488001296262e-06   1.0089038397654432e-06   1.5348574379405355e-05
-4.86488001296262e-06   1.0089038397654432e-06   1.5348574379405355e-05
-7.689456192047937e-06   6.696186595195721e-07   1.0437376306115847e-05
-7.689456192047937e-06   6.696186595195721e-07   1.0437376306115847e-05
-7.689456192047937e-06   6.696186595195721e-07   1.0437376306115847e-05
-7.689456192047937e-06   6.696186595195721e-07   1.0437376306115847e-05
-7.822886122009503e-06   6.955149069538726e-07   1.5452604631398226e-05
-7.822886122009503e-06   6.955149069538726e-07   1.5452604631398226e-05
-7.822886122009503e-06   6.955149069538726e-07   1.5452604631398226e-05
-7.822886122009503e-06   6.955149069538726e-07   1.5452604631398226e-05
-5.016875473917232e-06   3.7571856562209315e-07   1.0967798022710296e-05
-5.016875473917232e-06   3.7571856562209315e-07   1.0967798022710296e-05
-5.016875473917232e-06   3.7571856562209315e-07   1.0967798022710296e-05
-5.016875473917232e-06   3.7571856562209315e-07   1.0967798022710296e-05
-6.296047992987292e-06   8.060260430792655e-07   1.2841567734685986e-05
-6.296047992987292e-06   8.060260430792655e-07   1.2841567734685986e-05
-6.296047992987292e-06   8.060260430792655e-07   1.2841567734685986e-05
-6.296047992987292e-06   8.060260430792655e-07   1.2841567734685986e-05
-7.425906196023254e-06   2.482180135076717e-06   1.3223680920481382e-05
-7.425906196023254e-06   2.482180135076717e-06   1.3223680920481382e-05
-7.425906196023254e-06   2.482180135076717e-06   1.3223680920481382e-05
-7.425906196023254e-06   2.482180135076717e-06   1.3223680920481382e-05
-1.0247966374135213e-05   1.7445690827285615e-06   8.077680658885887e-06
-1.0247966374135213e-05   1.7445690827285615e-06   8.077680658885887e-06
-1.0247966374135213e-05   1.7445690827285615e-06   8.077680658885887e-06
-1.0247966374135213e-05   1.7445690827285615e-06   8.077680658885887e-06
-1.0388039677637406e-05   2.1505821133394358e-06   1.2835934082175969e-05
-1.0388039677637406e-05   2.1505821133394358e-06   1.2835934082175969e-05
-1.0388039677637406e-05   2.1505821133394358e-06   1.2835934082175969e-05
-1.0388039677637406e-05   2.1505821133394358e-06   1.2835934082175969e-05
-7.5532258500733305e-06   1.423050436951995e-06   8.547763375401599e-06
-7.5532258500733305e-06   1.423050436951995e-06   8.547763375401599e-06
-7.5532258500733305e-06   1.423050436951995e-06   8.547763375401599e-06
-7.5532258500733305e-06   1.423050436951995e-06   8.547763375401599e-06
-8.884893492391448e-06   1.9319269688455876e-06   1.0461883526795637e-05
-8.884893492391448e-06   1.9319269688455876e-06   1.0461883526795637e-05
-8.884893492391448e-06   1.9319269688455876e-06   1.0461883526795637e-05
-8.884893492391448e-06   1.9319269688455876e-06   1.0461883526795637e-05
-7.5532258500733305e-06   2.1505821133394358e-06   1.3272453088008238e-05
-7.5532258500733305e-06   2.1505821133394358e-06   1.3272453088008238e-05
-7.5532258500733305e-06   2.1505821133394358e-06   1.3272453088008238e-05
-7.5532258500733305e-06   2.1505821133394358e-06   1.3272453088008238e-05
-1.0388039677637352e-05   1.423050436951995e-06   8.11124436956914e-06
-1.0388039677637352e-05   1.423050436951995e-06   8.11124436956914e-06
-1.0388039677637352e-05   1.423050436951995e-06   8.11124436956914e-06
-1.0388039677637352e-05   1.423050436951995e-06   8.11124436956914e-06
-1.0580545869977987e-05   1.848383427605787e-06   1.3260519845963441e-05
-1.0580545869977987e-05   1.848383427605787e-06   1.3260519845963441e-05
-1.0580545869977987e-05   1.848383427605787e-06   1.3260519845963441e-05
-1.0580545869977987e-05   1.848383427605787e-06   1.3260519845963441e-05
-7.689456192047937e-06   1.1364589216215134e-06   8.869191753003855e-06
-7.689456192047937e-06   1.1364589216215134e-06   8.869191753003855e-06
-7.689456192047937e-06   1.1364589216215134e-06   8.869191753003855e-06
-7.689456192047937e-06   1.1364589216215134e-06   8.869191753003855e-06
-8.960954481419909e-06   1.6952845726411845e-06   1.0653060178011779e-05
-8.960954481419909e-06   1.6952845726411845e-06   1.0653060178011779e-05
-8.960954481419909e-06   1.6952845726411845e-06   1.0653060178011779e-05
-8.960954481419909e-06   1.6952845726411845e-06   1.0653060178011779e-05
-7.68945619204791e-06   1.848383427605787e-06   1.3687674549553767e-05
-7.68945619204791e-06   1.848383427605787e-06   1.3687674549553767e-05
-7.68945619204791e-06   1.848383427605787e-06   1.3687674549553767e-05
-7.68945619204791e-06   1.848383427605787e-06   1.3687674549553767e-05
-1.0580545869977933e-05   1.1364589216215134e-06   8.442037049413286e-06
-1.0580545869977933e-05   1.1364589216215134e-06   8.442037049413286e-06
-1.0580545869977933e-05   1.1364589216215134e-06   8.442037049413286e-06
-1.0580545869977933e-05   1.1364589216215134e-06   8.442037049413286e-06
-1.0734624170285074e-05   1.5246738058599923e-06   1.3730858089475119e-05
-1.0734624170285074e-05   1.5246738058599923e-06   1.3730858089475119e-05
-1.0734624170285074e-05   1.5246738058599923e-06   1.3730858089475119e-05
-1.0734624170285074e-05   1.5246738058599923e-06   1.3730858089475119e-05
-7.822886122009476e-06   8.439109051018275e-07   9.286419082804218e-06
-7.822886122009476e-06   8.439109051018275e-07   9.286419082804218e-06
-7.822886122009476e-06   8.439109051018275e-07   9.286419082804218e-06
-7.822886122009476e-06   8.439109051018275e-07   9.286419082804218e-06
-9.120993130596906e-06   1.4696064261964046e-06   1.1074513451126691e-05
-9.120993130596906e-06   1.4696064261964046e-06   1.1074513451126691e-05
-9.120993130596906e-06   1.4696064261964046e-06   1.1074513451126691e-05
-9.120993130596906e-06   1.4696064261964046e-06   1.1074513451126691e-05
-1.0247966374135213e-05   3.0656610666569394e-06   5.855142201494372e-06
-1.0247966374135213e-05   3.0656610666569394e-06   5.855142201494372e-06
-1.0247966374135213e-05   3.0656610666569394e-06   5.855142201494372e-06
-1.0247966374135213e-05   3.0656610666569394e-06   5.855142201494372e-06
-1.249107856996935e-05   2.071697683954962e-06   1.5202438454829485e-06
-1.249107856996935e-05   2.071697683954962e-06   1.5202438454829485e-06
-1.249107856996935e-05   2.071697683954962e-06   1.5202438454829485e-06
-1.249107856996935e-05   2.071697683954962e-06   1.5202438454829485e-06
-1.3019043167498756e-05   2.896861751257437e-06   6.872746855611208e-06
-1.3019043167498756e-05   2.896861751257437e-06   6.872746855611208e-06
-1.3019043167498756e-05   2.896861751257437e-06   6.872746855611208e-06
-1.3019043167498756e-05   2.896861751257437e-06   6.872746855611208e-06
-1.0388039677637379e-05   1.8579088195266533e-06   3.1111127982139976e-06
-1.0388039677637379e-05   1.8579088195266533e-06   3.1111127982139976e-06
-1.0388039677637379e-05   1.8579088195266533e-06   3.1111127982139976e-06
-1.0388039677637379e-05   1.8579088195266533e-06   3.1111127982139976e-06
-1.113557834036256e-05   2.446136313903331e-06   4.004074072796614e-06
-1.113557834036256e-05   2.446136313903331e-06   4.004074072796614e-06
-1.113557834036256e-05   2.446136313903331e-06   4.004074072796614e-06
-1.113557834036256e-05   2.446136313903331e-06   4.004074072796614e-06
-1.0388039677637379e-05   2.896861751257437e-06   7.496118614649472e-06
-1.0388039677637379e-05   2.896861751257437e-06   7.496118614649472e-06
-1.0388039677637379e-05   2.896861751257437e-06   7.496118614649472e-06
-1.0388039677637379e-05   2.896861751257437e-06   7.496118614649472e-06
-1.3019043167498756e-05   1.8579088195266533e-06   2.487741039175625e-06
-1.3019043167498756e-05   1.8579088195266533e-06   2.487741039175625e-06
-1.3019043167498756e-05   1.8579088195266533e-06   2.487741039175625e-06
-1.3019043167498756e-05   1.8579088195266533e-06   2.487741039175625e-06
-1.3471516042109035e-05   2.754357403755782e-06   8.092878956096942e-06
-1.3471516042109035e-05   2.754357403755782e-06   8.092878956096942e-06
-1.3471516042109035e-05   2.754357403755782e-06   8.092878956096942e-06
-1.3471516042109035e-05   2.754357403755782e-06   8.092878956096942e-06
-1.058054586997796e-05   1.7105864095678588e-06   3.900857932391348e-06
-1.058054586997796e-05   1.7105864095678588e-06   3.900857932391348e-06
-1.058054586997796e-05   1.7105864095678588e-06   3.900857932391348e-06
-1.058054586997796e-05   1.7105864095678588e-06   3.900857932391348e-06
-1.1584315329015533e-05   2.363291720774833e-06   5.18218384406308e-06
-1.1584315329015533e-05   2.363291720774833e-06   5.18218384406308e-06
-1.1584315329015533e-05   2.363291720774833e-06   5.18218384406308e-06
-1.1584315329015533e-05   2.363291720774833e-06   5.18218384406308e-06
-1.058054586997796e-05   2.7543574037556737e-06   8.719141552609663e-06
-1.058054586997796e-05   2.7543574037556737e-06   8.719141552609663e-06
-1.058054586997796e-05   2.7543574037556737e-06   8.719141552609663e-06
-1.058054586997796e-05   2.7543574037556737e-06   8.719141552609663e-06
-1.3471516042109035e-05   1.7105864095677504e-06   3.2745953358785727e-06
-1.3471516042109035e-05   1.7105864095677504e-06   3.2745953358785727e-06
-1.3471516042109035e-05   1.7105864095677504e-06   3.2745953358785727e-06
-1.3471516042109035e-05   1.7105864095677504e-06   3.2745953358785727e-06
-1.4045882368908833e-05   2.3643688043701065e-06   1.0298964429603943e-05
-1.4045882368908833e-05   2.3643688043701065e-06   1.0298964429603943e-05
-1.4045882368908833e-05   2.3643688043701065e-06   1.0298964429603943e-05
-1.4045882368908833e-05   2.3643688043701065e-06   1.0298964429603943e-05
-1.0734624170285074e-05   1.3698356231325176e-06   5.376920673973444e-06
-1.0734624170285074e-05   1.3698356231325176e-06   5.376920673973444e-06
-1.0734624170285074e-05   1.3698356231325176e-06   5.376920673973444e-06
-1.0734624170285074e-05   1.3698356231325176e-06   5.376920673973444e-06
-1.1710305706206451e-05   2.2011365758997474e-06   6.5042759955154e-06
-1.1710305706206451e-05   2.2011365758997474e-06   6.5042759955154e-06
-1.1710305706206451e-05   2.2011365758997474e-06   6.5042759955154e-06
-1.1710305706206451e-05   2.2011365758997474e-06   6.5042759955154e-06
-4.8682282157284075e-06   8.957942232898884e-07   6.132633079515787e-06
-4.8682282157284075e-06   8.957942232898884e-07   6.132633079515787e-06
-4.8682282157284075e-06   8.957942232898884e-07   6.132633079515787e-06
-4.8682282157284075e-06   8.957942232898884e-07   6.132633079515787e-06
-5.430929609286862e-06   1.711449174936013e-06   5.68419039457277e-06
-5.430929609286862e-06   1.711449174936013e-06   5.68419039457277e-06
-5.430929609286862e-06   1.711449174936013e-06   5.68419039457277e-06
-5.430929609286862e-06   1.711449174936013e-06   5.68419039457277e-06
-5.5759884163708894e-06   5.985192303094473e-07   6.558480307123108e-06
-5.5759884163708894e-06   5.985192303094473e-07   6.558480307123108e-06
-5.5759884163708894e-06   5.985192303094473e-07   6.558480307123108e-06
-5.5759884163708894e-06   5.985192303094473e-07   6.558480307123108e-06
-5.468100099597247e-06   1.3332124829212953e-06   5.937850494266574e-06
-5.468100099597247e-06   1.3332124829212953e-06   5.937850494266574e-06
-5.468100099597247e-06   1.3332124829212953e-06   5.937850494266574e-06
-5.468100099597247e-06   1.3332124829212953e-06   5.937850494266574e-06
-5.206485488414498e-06   1.0586326730414137e-06   5.666574028223249e-06
-5.206485488414498e-06   1.0586326730414137e-06   5.666574028223249e-06
-5.206485488414498e-06   1.0586326730414137e-06   5.666574028223249e-06
-5.206485488414498e-06   1.0586326730414137e-06   5.666574028223249e-06
-5.468100099597254e-06   5.985192303095558e-07   6.1176643555560105e-06
-5.468100099597254e-06   5.985192303095558e-07   6.1176643555560105e-06
-5.468100099597254e-06   5.985192303095558e-07   6.1176643555560105e-06
-5.468100099597254e-06   5.985192303095558e-07   6.1176643555560105e-06
-5.5759884163708894e-06   1.3332124829212953e-06   6.378666445833712e-06
-5.5759884163708894e-06   1.3332124829212953e-06   6.378666445833712e-06
-5.5759884163708894e-06   1.3332124829212953e-06   6.378666445833712e-06
-5.5759884163708894e-06   1.3332124829212953e-06   6.378666445833712e-06
-5.764053389647901e-06   4.3646117947908e-07   6.748950595709621e-06
-5.764053389647901e-06   4.3646117947908e-07   6.748950595709621e-06
-5.764053389647901e-06   4.3646117947908e-07   6.748950595709621e-06
-5.764053389647901e-06   4.3646117947908e-07   6.748950595709621e-06
-6.052774705569974e-06   1.073273841420495e-06   6.848065191748199e-06
-6.052774705569974e-06   1.073273841420495e-06   6.848065191748199e-06
-6.052774705569974e-06   1.073273841420495e-06   6.848065191748199e-06
-6.052774705569974e-06   1.073273841420495e-06   6.848065191748199e-06
-5.5629361018541244e-06   8.959491751099266e-07   6.1380623186748325e-06
-5.5629361018541244e-06   8.959491751099266e-07   6.1380623186748325e-06
-5.5629361018541244e-06   8.959491751099266e-07   6.1380623186748325e-06
-5.5629361018541244e-06   8.959491751099266e-07   6.1380623186748325e-06
-6.052774705569988e-06   4.3646117947908e-07   6.366862998544696e-06
-6.052774705569988e-06   4.3646117947908e-07   6.366862998544696e-06
-6.052774705569988e-06   4.3646117947908e-07   6.366862998544696e-06
-6.052774705569988e-06   4.3646117947908e-07   6.366862998544696e-06
-5.764053389647901e-06   1.073273841420495e-06   7.230152788913083e-06
-5.764053389647901e-06   1.073273841420495e-06   7.230152788913083e-06
-5.764053389647901e-06   1.073273841420495e-06   7.230152788913083e-06
-5.764053389647901e-06   1.073273841420495e-06   7.230152788913083e-06
-5.885703923755079e-06   9.427344507080201e-08   7.387800867744384e-06
-5.885703923755079e-06   9.427344507080201e-08   7.387800867744384e-06
-5.885703923755079e-06   9.427344507080201e-08   7.387800867744384e-06
-5.885703923755079e-06   9.427344507080201e-08   7.387800867744384e-06
-6.676078405477662e-06   4.3478053119957224e-07   8.500787418937986e-06
-6.676078405477662e-06   4.3478053119957224e-07   8.500787418937986e-06
-6.676078405477662e-06   4.3478053119957224e-07   8.500787418937986e-06
-6.676078405477662e-06   4.3478053119957224e-07   8.500787418937986e-06
-5.818786080621923e-06   6.98223219828078e-07   6.913901264334464e-06
-5.818786080621923e-06   6.98223219828078e-07   6.913901264334464e-06
-5.818786080621923e-06   6.98223219828078e-07   6.913901264334464e-06
-5.818786080621923e-06   6.98223219828078e-07   6.913901264334464e-06
-5.430929609286862e-06   1.064542239946468e-06   1.2088354484794759e-05
-5.430929609286862e-06   1.064542239946468e-06   1.2088354484794759e-05
-5.430929609286862e-06   1.064542239946468e-06   1.2088354484794759e-05
-5.430929609286862e-06   1.064542239946468e-06   1.2088354484794759e-05
-5.57050924753981e-06   4.439840105534688e-07   1.1483386816737371e-05
-5.57050924753981e-06   4.439840105534688e-07   1.1483386816737371e-05
-5.57050924753981e-06   4.439840105534688e-07   1.1483386816737371e-05
-5.57050924753981e-06   4.439840105534688e-07   1.1483386816737371e-05
-5.61824290188849e-06   7.334153819249772e-07   1.1629309186718254e-05
-5.61824290188849e-06   7.334153819249772e-07   1.1629309186718254e-05
-5.61824290188849e-06   7.334153819249772e-07   1.1629309186718254e-05
-5.61824290188849e-06   7.334153819249772e-07   1.1629309186718254e-05
-5.5759884163708894e-06   2.0982762633214294e-07   1.1873037697544711e-05
-5.5759884163708894e-06   2.0982762633214294e-07   1.1873037697544711e-05
-5.5759884163708894e-06   2.0982762633214294e-07   1.1873037697544711e-05
-5.5759884163708894e-06   2.0982762633214294e-07   1.1873037697544711e-05
-5.533367498354641e-06   5.408334035580161e-07   1.1603399367848718e-05
-5.533367498354641e-06   5.408334035580161e-07   1.1603399367848718e-05
-5.533367498354641e-06   5.408334035580161e-07   1.1603399367848718e-05
-5.533367498354641e-06   5.408334035580161e-07   1.1603399367848718e-05
-5.5759884163708945e-06   7.334153819249772e-07   1.1943461840073933e-05
-5.5759884163708945e-06   7.334153819249772e-07   1.1943461840073933e-05
-5.5759884163708945e-06   7.334153819249772e-07   1.1943461840073933e-05
-5.5759884163708945e-06   7.334153819249772e-07   1.1943461840073933e-05
-5.61824290188849e-06   2.0982762633214294e-07   1.1558885044188951e-05
-5.61824290188849e-06   2.0982762633214294e-07   1.1558885044188951e-05
-5.61824290188849e-06   2.0982762633214294e-07   1.1558885044188951e-05
-5.61824290188849e-06   2.0982762633214294e-07   1.1558885044188951e-05
-5.6768227524647136e-06   4.2917133755962424e-07   1.1781126369389604e-05
-5.6768227524647136e-06   4.2917133755962424e-07   1.1781126369389604e-05
-5.6768227524647136e-06   4.2917133755962424e-07   1.1781126369389604e-05
-5.6768227524647136e-06   4.2917133755962424e-07   1.1781126369389604e-05
-5.764053389647901e-06   -5.8924630297232505e-08   1.2219368345408976e-05
-5.764053389647901e-06   -5.8924630297232505e-08   1.2219368345408976e-05
-5.764053389647901e-06   -5.8924630297232505e-08   1.2219368345408976e-05
-5.764053389647901e-06   -5.8924630297232505e-08   1.2219368345408976e-05
-5.591249395216365e-06   3.483577197235842e-07   1.1686992278010745e-05
-5.591249395216365e-06   3.483577197235842e-07   1.1686992278010745e-05
-5.591249395216365e-06   3.483577197235842e-07   1.1686992278010745e-05
-5.591249395216365e-06   3.483577197235842e-07   1.1686992278010745e-05
-5.764053389647901e-06   4.2917133755962424e-07   1.207398395010361e-05
-5.764053389647901e-06   4.2917133755962424e-07   1.207398395010361e-05
-5.764053389647901e-06   4.2917133755962424e-07   1.207398395010361e-05
-5.764053389647901e-06   4.2917133755962424e-07   1.207398395010361e-05
-5.6768227524647136e-06   -5.8924630297232505e-08   1.192651076469491e-05
-5.6768227524647136e-06   -5.8924630297232505e-08   1.192651076469491e-05
-5.6768227524647136e-06   -5.8924630297232505e-08   1.192651076469491e-05
-5.6768227524647136e-06   -5.8924630297232505e-08   1.192651076469491e-05
-5.721080492265395e-06   1.0106311368687521e-07   1.2112567022233415e-05
-5.721080492265395e-06   1.0106311368687521e-07   1.2112567022233415e-05
-5.721080492265395e-06   1.0106311368687521e-07   1.2112567022233415e-05
-5.721080492265395e-06   1.0106311368687521e-07   1.2112567022233415e-05
-5.885703923755066e-06   -4.103841301544473e-07   1.2693807754354237e-05
-5.885703923755066e-06   -4.103841301544473e-07   1.2693807754354237e-05
-5.885703923755066e-06   -4.103841301544473e-07   1.2693807754354237e-05
-5.885703923755066e-06   -4.103841301544473e-07   1.2693807754354237e-05
-5.6801333629961105e-06   1.2384318028512645e-07   1.2030653766825403e-05
-5.6801333629961105e-06   1.2384318028512645e-07   1.2030653766825403e-05
-5.6801333629961105e-06   1.2384318028512645e-07   1.2030653766825403e-05
-5.6801333629961105e-06   1.2384318028512645e-07   1.2030653766825403e-05
-5.570509247539824e-06   1.285962375923485e-06   1.3331520981689536e-05
-5.570509247539824e-06   1.285962375923485e-06   1.3331520981689536e-05
-5.570509247539824e-06   1.285962375923485e-06   1.3331520981689536e-05
-5.570509247539824e-06   1.285962375923485e-06   1.3331520981689536e-05
-6.051836627264185e-06   1.2494138722078142e-07   1.1832696088927416e-05
-6.051836627264185e-06   1.2494138722078142e-07   1.1832696088927416e-05
-6.051836627264185e-06   1.2494138722078142e-07   1.1832696088927416e-05
-6.051836627264185e-06   1.2494138722078142e-07   1.1832696088927416e-05
-6.070716063917851e-06   9.80230903706021e-07   1.2650044493021906e-05
-6.070716063917851e-06   9.80230903706021e-07   1.2650044493021906e-05
-6.070716063917851e-06   9.80230903706021e-07   1.2650044493021906e-05
-6.070716063917851e-06   9.80230903706021e-07   1.2650044493021906e-05
-5.61824290188849e-06   -7.113759192128866e-08   1.2526743653682614e-05
-5.61824290188849e-06   -7.113759192128866e-08   1.2526743653682614e-05
-5.61824290188849e-06   -7.113759192128866e-08   1.2526743653682614e-05
-5.61824290188849e-06   -7.113759192128866e-08   1.2526743653682614e-05
-5.818577407750977e-06   5.595460993198099e-07   1.248222428204215e-05
-5.818577407750977e-06   5.595460993198099e-07   1.248222428204215e-05
-5.818577407750977e-06   5.595460993198099e-07   1.248222428204215e-05
-5.818577407750977e-06   5.595460993198099e-07   1.248222428204215e-05
-5.61824290188849e-06   9.80230903706021e-07   1.3280865590398249e-05
-5.61824290188849e-06   9.80230903706021e-07   1.3280865590398249e-05
-5.61824290188849e-06   9.80230903706021e-07   1.3280865590398249e-05
-5.61824290188849e-06   9.80230903706021e-07   1.3280865590398249e-05
-6.070716063917824e-06   -7.113759192128866e-08   1.1895922556306299e-05
-6.070716063917824e-06   -7.113759192128866e-08   1.1895922556306299e-05
-6.070716063917824e-06   -7.113759192128866e-08   1.1895922556306299e-05
-6.070716063917824e-06   -7.113759192128866e-08   1.1895922556306299e-05
-6.101758640572239e-06   6.696186595195721e-07   1.2844247406483132e-05
-6.101758640572239e-06   6.696186595195721e-07   1.2844247406483132e-05
-6.101758640572239e-06   6.696186595195721e-07   1.2844247406483132e-05
-6.101758640572239e-06   6.696186595195721e-07   1.2844247406483132e-05
-5.6768227524647136e-06   -3.0580657243192266e-07   1.2721276065474777e-05
-5.6768227524647136e-06   -3.0580657243192266e-07   1.2721276065474777e-05
-5.6768227524647136e-06   -3.0580657243192266e-07   1.2721276065474777e-05
-5.6768227524647136e-06   -3.0580657243192266e-07   1.2721276065474777e-05
-5.82579865025365e-06   3.6607040341477687e-07   1.2566443042948345e-05
-5.82579865025365e-06   3.6607040341477687e-07   1.2566443042948345e-05
-5.82579865025365e-06   3.6607040341477687e-07   1.2566443042948345e-05
-5.82579865025365e-06   3.6607040341477687e-07   1.2566443042948345e-05
-5.6768227524647136e-06   6.696186595195721e-07   1.3429502545653932e-05
-5.6768227524647136e-06   6.696186595195721e-07   1.3429502545653932e-05
-5.6768227524647136e-06   6.696186595195721e-07   1.3429502545653932e-05
-5.6768227524647136e-06   6.696186595195721e-07   1.3429502545653932e-05
-6.101758640572239e-06   -3.0580657243192266e-07   1.2136020926303869e-05
-6.101758640572239e-06   -3.0580657243192266e-07   1.2136020926303869e-05
-6.101758640572239e-06   -3.0580657243192266e-07   1.2136020926303869e-05
-6.101758640572239e-06   -3.0580657243192266e-07   1.2136020926303869e-05
-6.123260357293961e-06   3.7571856562209315e-07   1.319356773744814e-05
-6.123260357293961e-06   3.7571856562209315e-07   1.319356773744814e-05
-6.123260357293961e-06   3.7571856562209315e-07   1.319356773744814e-05
-6.123260357293961e-06   3.7571856562209315e-07   1.319356773744814e-05
-5.7210804922653815e-06   -5.403753252093799e-07   1.3072924296899285e-05
-5.7210804922653815e-06   -5.403753252093799e-07   1.3072924296899285e-05
-5.7210804922653815e-06   -5.403753252093799e-07   1.3072924296899285e-05
-5.7210804922653815e-06   -5.403753252093799e-07   1.3072924296899285e-05
-5.842923714884045e-06   1.6739560574529277e-07   1.2851333776023885e-05
-5.842923714884045e-06   1.6739560574529277e-07   1.2851333776023885e-05
-5.842923714884045e-06   1.6739560574529277e-07   1.2851333776023885e-05
-5.842923714884045e-06   1.6739560574529277e-07   1.2851333776023885e-05
-6.051836627264185e-06   1.7445690827285615e-06   1.0875861488086034e-05
-6.051836627264185e-06   1.7445690827285615e-06   1.0875861488086034e-05
-6.051836627264185e-06   1.7445690827285615e-06   1.0875861488086034e-05
-6.051836627264185e-06   1.7445690827285615e-06   1.0875861488086034e-05
-6.724104183334972e-06   5.758200363389638e-07   9.05416613346759e-06
-6.724104183334972e-06   5.758200363389638e-07   9.05416613346759e-06
-6.724104183334972e-06   5.758200363389638e-07   9.05416613346759e-06
-6.724104183334972e-06   5.758200363389638e-07   9.05416613346759e-06
-6.7394132602165385e-06   1.423050436951995e-06   1.0272868510588073e-05
-6.7394132602165385e-06   1.423050436951995e-06   1.0272868510588073e-05
-6.7394132602165385e-06   1.423050436951995e-06   1.0272868510588073e-05
-6.7394132602165385e-06   1.423050436951995e-06   1.0272868510588073e-05
-6.070716063917851e-06   3.169054572268169e-07   9.82206017125867e-06
-6.070716063917851e-06   3.169054572268169e-07   9.82206017125867e-06
-6.070716063917851e-06   3.169054572268169e-07   9.82206017125867e-06
-6.070716063917851e-06   3.169054572268169e-07   9.82206017125867e-06
-6.379922324027551e-06   1.0376972238341792e-06   9.90492887814376e-06
-6.379922324027551e-06   1.0376972238341792e-06   9.90492887814376e-06
-6.379922324027551e-06   1.0376972238341792e-06   9.90492887814376e-06
-6.379922324027551e-06   1.0376972238341792e-06   9.90492887814376e-06
-6.070716063917851e-06   1.423050436951995e-06   1.0936555498423104e-05
-6.070716063917851e-06   1.423050436951995e-06   1.0936555498423104e-05
-6.070716063917851e-06   1.423050436951995e-06   1.0936555498423104e-05
-6.070716063917851e-06   1.423050436951995e-06   1.0936555498423104e-05
-6.739413260216566e-06   3.169054572268169e-07   9.158373183423585e-06
-6.739413260216566e-06   3.169054572268169e-07   9.158373183423585e-06
-6.739413260216566e-06   3.169054572268169e-07   9.158373183423585e-06
-6.739413260216566e-06   3.169054572268169e-07   9.158373183423585e-06
-6.815952146567287e-06   1.1364589216215134e-06   1.0651113621995144e-05
-6.815952146567287e-06   1.1364589216215134e-06   1.0651113621995144e-05
-6.815952146567287e-06   1.1364589216215134e-06   1.0651113621995144e-05
-6.815952146567287e-06   1.1364589216215134e-06   1.0651113621995144e-05
-6.101758640572239e-06   9.487686932814097e-08   1.0085740343379412e-05
-6.101758640572239e-06   9.487686932814097e-08   1.0085740343379412e-05
-6.101758640572239e-06   9.487686932814097e-08   1.0085740343379412e-05
-6.101758640572239e-06   9.487686932814097e-08   1.0085740343379412e-05
-6.365540651819793e-06   8.257935227557302e-07   1.0086827036735453e-05
-6.365540651819793e-06   8.257935227557302e-07   1.0086827036735453e-05
-6.365540651819793e-06   8.257935227557302e-07   1.0086827036735453e-05
-6.365540651819793e-06   8.257935227557302e-07   1.0086827036735453e-05
-6.101758640572239e-06   1.1364589216215134e-06   1.127606285337095e-05
-6.101758640572239e-06   1.1364589216215134e-06   1.127606285337095e-05
-6.101758640572239e-06   1.1364589216215134e-06   1.127606285337095e-05
-6.101758640572239e-06   1.1364589216215134e-06   1.127606285337095e-05
-6.815952146567287e-06   9.487686932814097e-08   9.460791112003415e-06
-6.815952146567287e-06   9.487686932814097e-08   9.460791112003415e-06
-6.815952146567287e-06   9.487686932814097e-08   9.460791112003415e-06
-6.815952146567287e-06   9.487686932814097e-08   9.460791112003415e-06
-6.862748161022016e-06   8.439109051018275e-07   1.1120226989531218e-05
-6.862748161022016e-06   8.439109051018275e-07   1.1120226989531218e-05
-6.862748161022016e-06   8.439109051018275e-07   1.1120226989531218e-05
-6.862748161022016e-06   8.439109051018275e-07   1.1120226989531218e-05
-6.123260357293961e-06   -1.2915511624794242e-07   1.0471586929460859e-05
-6.123260357293961e-06   -1.2915511624794242e-07   1.0471586929460859e-05
-6.123260357293961e-06   -1.2915511624794242e-07   1.0471586929460859e-05
-6.123260357293961e-06   -1.2915511624794242e-07   1.0471586929460859e-05
-6.401530535400302e-06   6.36091511836993e-07   1.0476222582786931e-05
-6.401530535400302e-06   6.36091511836993e-07   1.0476222582786931e-05
-6.401530535400302e-06   6.36091511836993e-07   1.0476222582786931e-05
-6.401530535400302e-06   6.36091511836993e-07   1.0476222582786931e-05
-6.724104183334972e-06   2.071697683954962e-06   4.213553276470464e-06
-6.724104183334972e-06   2.071697683954962e-06   4.213553276470464e-06
-6.724104183334972e-06   2.071697683954962e-06   4.213553276470464e-06
-6.724104183334972e-06   2.071697683954962e-06   4.213553276470464e-06
-6.7013031209242646e-06   9.562274573937765e-07   3.5822729112183033e-06
-6.7013031209242646e-06   9.562274573937765e-07   3.5822729112183033e-06
-6.7013031209242646e-06   9.562274573937765e-07   3.5822729112183033e-06
-6.7013031209242646e-06   9.562274573937765e-07   3.5822729112183033e-06
-7.046197171900362e-06   1.8579088195267617e-06   4.621243192167368e-06
-7.046197171900362e-06   1.8579088195267617e-06   4.621243192167368e-06
-7.046197171900362e-06   1.8579088195267617e-06   4.621243192167368e-06
-7.046197171900362e-06   1.8579088195267617e-06   4.621243192167368e-06
-6.739413260216566e-06   7.720859077510315e-07   4.7614304197598285e-06
-6.739413260216566e-06   7.720859077510315e-07   4.7614304197598285e-06
-6.739413260216566e-06   7.720859077510315e-07   4.7614304197598285e-06
-6.739413260216566e-06   7.720859077510315e-07   4.7614304197598285e-06
-6.581169894176862e-06   1.4601537830416424e-06   4.084850751185981e-06
-6.581169894176862e-06   1.4601537830416424e-06   4.084850751185981e-06
-6.581169894176862e-06   1.4601537830416424e-06   4.084850751185981e-06
-6.581169894176862e-06   1.4601537830416424e-06   4.084850751185981e-06
-6.7394132602165385e-06   1.8579088195267617e-06   5.272736939232795e-06
-6.7394132602165385e-06   1.8579088195267617e-06   5.272736939232795e-06
-6.7394132602165385e-06   1.8579088195267617e-06   5.272736939232795e-06
-6.7394132602165385e-06   1.8579088195267617e-06   5.272736939232795e-06
-7.046197171900362e-06   7.720859077510315e-07   4.109936672694401e-06
-7.046197171900362e-06   7.720859077510315e-07   4.109936672694401e-06
-7.046197171900362e-06   7.720859077510315e-07   4.109936672694401e-06
-7.046197171900362e-06   7.720859077510315e-07   4.109936672694401e-06
-7.348584768291418e-06   1.7105864095677504e-06   5.474727906024514e-06
-7.348584768291418e-06   1.7105864095677504e-06   5.474727906024514e-06
-7.348584768291418e-06   1.7105864095677504e-06   5.474727906024514e-06
-7.348584768291418e-06   1.7105864095677504e-06   5.474727906024514e-06
-6.81595214656726e-06   6.519087446533707e-07   5.22221346876614e-06
-6.81595214656726e-06   6.519087446533707e-07   5.22221346876614e-06
-6.81595214656726e-06   6.519087446533707e-07   5.22221346876614e-06
-6.81595214656726e-06   6.519087446533707e-07   5.22221346876614e-06
-6.8285198245311674e-06   1.35402011542155e-06   4.821892776245306e-06
-6.8285198245311674e-06   1.35402011542155e-06   4.821892776245306e-06
-6.8285198245311674e-06   1.35402011542155e-06   4.821892776245306e-06
-6.8285198245311674e-06   1.35402011542155e-06   4.821892776245306e-06
-6.81595214656726e-06   1.7105864095678588e-06   6.109934504973044e-06
-6.81595214656726e-06   1.7105864095678588e-06   6.109934504973044e-06
-6.81595214656726e-06   1.7105864095678588e-06   6.109934504973044e-06
-6.81595214656726e-06   1.7105864095678588e-06   6.109934504973044e-06
-7.3485847682914726e-06   6.519087446533707e-07   4.587006869817529e-06
-7.3485847682914726e-06   6.519087446533707e-07   4.587006869817529e-06
-7.3485847682914726e-06   6.519087446533707e-07   4.587006869817529e-06
-7.3485847682914726e-06   6.519087446533707e-07   4.587006869817529e-06
-7.794579774701433e-06   1.3698356231325176e-06   7.041814349363607e-06
-7.794579774701433e-06   1.3698356231325176e-06   7.041814349363607e-06
-7.794579774701433e-06   1.3698356231325176e-06   7.041814349363607e-06
-7.794579774701433e-06   1.3698356231325176e-06   7.041814349363607e-06
-6.862748161021989e-06   4.075490034796247e-07   6.066133631689582e-06
-6.862748161021989e-06   4.075490034796247e-07   6.066133631689582e-06
-6.862748161021989e-06   4.075490034796247e-07   6.066133631689582e-06
-6.862748161021989e-06   4.075490034796247e-07   6.066133631689582e-06
-6.912501560643716e-06   1.2257653311457234e-06   5.658126167792216e-06
-6.912501560643716e-06   1.2257653311457234e-06   5.658126167792216e-06
-6.912501560643716e-06   1.2257653311457234e-06   5.658126167792216e-06
-6.912501560643716e-06   1.2257653311457234e-06   5.658126167792216e-06
-1.291506317791717e-05   1.711449174936013e-06   5.1686655607601525e-06
-1.291506317791717e-05   1.711449174936013e-06   5.1686655607601525e-06
-1.291506317791717e-05   1.711449174936013e-06   5.1686655607601525e-06
-1.291506317791717e-05   1.711449174936013e-06   5.1686655607601525e-06
-8.767398237891085e-06   2.3638961562747482e-06   1.2472908649606863e-05
-8.767398237891085e-06   2.3638961562747482e-06   1.2472908649606863e-05
-8.767398237891085e-06   2.3638961562747482e-06   1.2472908649606863e-05
-8.767398237891085e-06   2.3638961562747482e-06   1.2472908649606863e-05
-8.766546515807436e-06   1.3332124829212953e-06   5.8263260481686155e-06
-8.766546515807436e-06   1.3332124829212953e-06   5.8263260481686155e-06
-8.766546515807436e-06   1.3332124829212953e-06   5.8263260481686155e-06
-8.766546515807436e-06   1.3332124829212953e-06   5.8263260481686155e-06
-1.4252849830745213e-05   9.339044979942703e-07   1.5209749697354472e-05
-1.4252849830745213e-05   9.339044979942703e-07   1.5209749697354472e-05
-1.4252849830745213e-05   9.339044979942703e-07   1.5209749697354472e-05
-1.4252849830745213e-05   9.339044979942703e-07   1.5209749697354472e-05
-1.0597775480834756e-05   1.395299662803641e-06   8.841122015284743e-06
-1.0597775480834756e-05   1.395299662803641e-06   8.841122015284743e-06
-1.0597775480834756e-05   1.395299662803641e-06   8.841122015284743e-06
-1.0597775480834756e-05   1.395299662803641e-06   8.841122015284743e-06
-1.4252849830745236e-05   1.3332124829213495e-06   6.065910839124722e-06
-1.4252849830745236e-05   1.3332124829213495e-06   6.065910839124722e-06
-1.4252849830745236e-05   1.3332124829213495e-06   6.065910839124722e-06
-1.4252849830745236e-05   1.3332124829213495e-06   6.065910839124722e-06
-8.766546515807422e-06   9.339044979942703e-07   1.497016490639827e-05
-8.766546515807422e-06   9.339044979942703e-07   1.497016490639827e-05
-8.766546515807422e-06   9.339044979942703e-07   1.497016490639827e-05
-8.766546515807422e-06   9.339044979942703e-07   1.497016490639827e-05
-8.894607924203863e-06   1.073273841420495e-06   6.495740254558685e-06
-8.894607924203863e-06   1.073273841420495e-06   6.495740254558685e-06
-8.894607924203863e-06   1.073273841420495e-06   6.495740254558685e-06
-8.894607924203863e-06   1.073273841420495e-06   6.495740254558685e-06
-1.4310696465883494e-05   6.61728531382112e-07   1.576948167671443e-05
-1.4310696465883494e-05   6.61728531382112e-07   1.576948167671443e-05
-1.4310696465883494e-05   6.61728531382112e-07   1.576948167671443e-05
-1.4310696465883494e-05   6.61728531382112e-07   1.576948167671443e-05
-1.1322283418358233e-05   8.62974733042564e-07   1.0668045543175947e-05
-1.1322283418358233e-05   8.62974733042564e-07   1.0668045543175947e-05
-1.1322283418358233e-05   8.62974733042564e-07   1.0668045543175947e-05
-1.1322283418358233e-05   8.62974733042564e-07   1.0668045543175947e-05
-1.4310696465883514e-05   1.073273841420495e-06   6.742667440581791e-06
-1.4310696465883514e-05   1.073273841420495e-06   6.742667440581791e-06
-1.4310696465883514e-05   1.073273841420495e-06   6.742667440581791e-06
-1.4310696465883514e-05   1.073273841420495e-06   6.742667440581791e-06
-8.89460792420385e-06   6.61728531382112e-07   1.5522554490691418e-05
-8.89460792420385e-06   6.61728531382112e-07   1.5522554490691418e-05
-8.89460792420385e-06   6.61728531382112e-07   1.5522554490691418e-05
-8.89460792420385e-06   6.61728531382112e-07   1.5522554490691418e-05
-8.80800916896916e-06   4.3478053119957224e-07   7.664964993256553e-06
-8.80800916896916e-06   4.3478053119957224e-07   7.664964993256553e-06
-8.80800916896916e-06   4.3478053119957224e-07   7.664964993256553e-06
-8.80800916896916e-06   4.3478053119957224e-07   7.664964993256553e-06
-1.447883038451601e-05   -5.007107688356457e-07   1.767762846585567e-05
-1.447883038451601e-05   -5.007107688356457e-07   1.767762846585567e-05
-1.447883038451601e-05   -5.007107688356457e-07   1.767762846585567e-05
-1.447883038451601e-05   -5.007107688356457e-07   1.767762846585567e-05
-1.1158073000485479e-05   4.079423220366019e-07   1.1597840971281465e-05
-1.1158073000485479e-05   4.079423220366019e-07   1.1597840971281465e-05
-1.1158073000485479e-05   4.079423220366019e-07   1.1597840971281465e-05
-1.1158073000485479e-05   4.079423220366019e-07   1.1597840971281465e-05
-8.767398237891102e-06   4.4398401055352303e-07   1.1731665109363811e-05
-8.767398237891102e-06   4.4398401055352303e-07   1.1731665109363811e-05
-8.767398237891102e-06   4.4398401055352303e-07   1.1731665109363811e-05
-8.767398237891102e-06   4.4398401055352303e-07   1.1731665109363811e-05
-5.402777980843864e-06   -2.745651998107293e-06   1.542558393257941e-05
-5.402777980843864e-06   -2.745651998107293e-06   1.542558393257941e-05
-5.402777980843864e-06   -2.745651998107293e-06   1.542558393257941e-05
-5.402777980843864e-06   -2.745651998107293e-06   1.542558393257941e-05
-5.419174456318854e-06   2.0982762633214294e-07   9.841093583571193e-06
-5.419174456318854e-06   2.0982762633214294e-07   9.841093583571193e-06
-5.419174456318854e-06   2.0982762633214294e-07   9.841093583571193e-06
-5.419174456318854e-06   2.0982762633214294e-07   9.841093583571193e-06
-8.766546515807422e-06   -2.2561785675151718e-06   1.689965073236055e-05
-8.766546515807422e-06   -2.2561785675151718e-06   1.689965073236055e-05
-8.766546515807422e-06   -2.2561785675151718e-06   1.689965073236055e-05
-8.766546515807422e-06   -2.2561785675151718e-06   1.689965073236055e-05
-7.053405013504251e-06   -1.3593519352752864e-06   1.350631891584465e-05
-7.053405013504251e-06   -1.3593519352752864e-06   1.350631891584465e-05
-7.053405013504251e-06   -1.3593519352752864e-06   1.350631891584465e-05
-7.053405013504251e-06   -1.3593519352752864e-06   1.350631891584465e-05
-8.766546515807426e-06   2.0982762633214294e-07   1.1320697299879425e-05
-8.766546515807426e-06   2.0982762633214294e-07   1.1320697299879425e-05
-8.766546515807426e-06   2.0982762633214294e-07   1.1320697299879425e-05
-8.766546515807426e-06   2.0982762633214294e-07   1.1320697299879425e-05
-5.419174456318854e-06   -2.2561785675151718e-06   1.542004701605217e-05
-5.419174456318854e-06   -2.2561785675151718e-06   1.542004701605217e-05
-5.419174456318854e-06   -2.2561785675151718e-06   1.542004701605217e-05
-5.419174456318854e-06   -2.2561785675151718e-06   1.542004701605217e-05
-5.448236777090589e-06   -5.8924630297232505e-08   1.0137508245560507e-05
-5.448236777090589e-06   -5.8924630297232505e-08   1.0137508245560507e-05
-5.448236777090589e-06   -5.8924630297232505e-08   1.0137508245560507e-05
-5.448236777090589e-06   -5.8924630297232505e-08   1.0137508245560507e-05
-8.89460792420385e-06   -2.304670572787304e-06   1.7228907722910053e-05
-8.89460792420385e-06   -2.304670572787304e-06   1.7228907722910053e-05
-8.89460792420385e-06   -2.304670572787304e-06   1.7228907722910053e-05
-8.89460792420385e-06   -2.304670572787304e-06   1.7228907722910053e-05
-7.007492895897182e-06   -1.1880359098923586e-06   1.3413735211328628e-05
-7.007492895897182e-06   -1.1880359098923586e-06   1.3413735211328628e-05
-7.007492895897182e-06   -1.1880359098923586e-06   1.3413735211328628e-05
-7.007492895897182e-06   -1.1880359098923586e-06   1.3413735211328628e-05
-8.894607924203863e-06   -5.8924630297232505e-08   1.148495581105468e-05
-8.894607924203863e-06   -5.8924630297232505e-08   1.148495581105468e-05
-8.894607924203863e-06   -5.8924630297232505e-08   1.148495581105468e-05
-8.894607924203863e-06   -5.8924630297232505e-08   1.148495581105468e-05
-5.4482367770905754e-06   -2.304670572787304e-06   1.5881460157415975e-05
-5.4482367770905754e-06   -2.304670572787304e-06   1.5881460157415975e-05
-5.4482367770905754e-06   -2.304670572787304e-06   1.5881460157415975e-05
-5.4482367770905754e-06   -2.304670572787304e-06   1.5881460157415975e-05
-5.404384065776379e-06   -4.103841301544473e-07   1.0509040391161028e-05
-5.404384065776379e-06   -4.103841301544473e-07   1.0509040391161028e-05
-5.404384065776379e-06   -4.103841301544473e-07   1.0509040391161028e-05
-5.404384065776379e-06   -4.103841301544473e-07   1.0509040391161028e-05
-8.80800916896914e-06   -2.3181186065452265e-06   1.7326389582316747e-05
-8.80800916896914e-06   -2.3181186065452265e-06   1.7326389582316747e-05
-8.80800916896914e-06   -2.3181186065452265e-06   1.7326389582316747e-05
-8.80800916896914e-06   -2.3181186065452265e-06   1.7326389582316747e-05
-7.048366019876332e-06   -1.3288338276754561e-06   1.3800080133173558e-05
-7.048366019876332e-06   -1.3288338276754561e-06   1.3800080133173558e-05
-7.048366019876332e-06   -1.3288338276754561e-06   1.3800080133173558e-05
-7.048366019876332e-06   -1.3288338276754561e-06   1.3800080133173558e-05
-5.402777980843864e-06   1.2494138722078142e-07   1.0863805369578977e-05
-5.402777980843864e-06   1.2494138722078142e-07   1.0863805369578977e-05
-5.402777980843864e-06   1.2494138722078142e-07   1.0863805369578977e-05
-5.402777980843864e-06   1.2494138722078142e-07   1.0863805369578977e-05
-4.003683257823457e-06   -2.1457658412145017e-06   1.183320557088511e-05
-4.003683257823457e-06   -2.1457658412145017e-06   1.183320557088511e-05
-4.003683257823457e-06   -2.1457658412145017e-06   1.183320557088511e-05
-4.003683257823457e-06   -2.1457658412145017e-06   1.183320557088511e-05
-3.974236901960789e-06   -7.113759192128866e-08   9.587177066656396e-06
-3.974236901960789e-06   -7.113759192128866e-08   9.587177066656396e-06
-3.974236901960789e-06   -7.113759192128866e-08   9.587177066656396e-06
-3.974236901960789e-06   -7.113759192128866e-08   9.587177066656396e-06
-5.419174456318854e-06   -2.1074294692688216e-06   1.3217181450328333e-05
-5.419174456318854e-06   -2.1074294692688216e-06   1.3217181450328333e-05
-5.419174456318854e-06   -2.1074294692688216e-06   1.3217181450328333e-05
-5.419174456318854e-06   -2.1074294692688216e-06   1.3217181450328333e-05
-4.67204508457698e-06   -1.0826837904116772e-06   1.1357118423444289e-05
-4.67204508457698e-06   -1.0826837904116772e-06   1.1357118423444289e-05
-4.67204508457698e-06   -1.0826837904116772e-06   1.1357118423444289e-05
-4.67204508457698e-06   -1.0826837904116772e-06   1.1357118423444289e-05
-5.419174456318854e-06   -7.113759192128866e-08   1.0808952193064775e-05
-5.419174456318854e-06   -7.113759192128866e-08   1.0808952193064775e-05
-5.419174456318854e-06   -7.113759192128866e-08   1.0808952193064775e-05
-5.419174456318854e-06   -7.113759192128866e-08   1.0808952193064775e-05
-3.974236901960789e-06   -2.1074294692688216e-06   1.1995406323919833e-05
-3.974236901960789e-06   -2.1074294692688216e-06   1.1995406323919833e-05
-3.974236901960789e-06   -2.1074294692688216e-06   1.1995406323919833e-05
-3.974236901960789e-06   -2.1074294692688216e-06   1.1995406323919833e-05
-3.951110212205441e-06   -3.0580657243192266e-07   9.81361727630522e-06
-3.951110212205441e-06   -3.0580657243192266e-07   9.81361727630522e-06
-3.951110212205441e-06   -3.0580657243192266e-07   9.81361727630522e-06
-3.951110212205441e-06   -3.0580657243192266e-07   9.81361727630522e-06
-5.4482367770905754e-06   -2.1702336891572056e-06   1.342748448781558e-05
-5.4482367770905754e-06   -2.1702336891572056e-06   1.342748448781558e-05
-5.4482367770905754e-06   -2.1702336891572056e-06   1.342748448781558e-05
-5.4482367770905754e-06   -2.1702336891572056e-06   1.342748448781558e-05
-4.637171576324515e-06   -1.1511699515254171e-06   1.1464270910626273e-05
-4.637171576324515e-06   -1.1511699515254171e-06   1.1464270910626273e-05
-4.637171576324515e-06   -1.1511699515254171e-06   1.1464270910626273e-05
-4.637171576324515e-06   -1.1511699515254171e-06   1.1464270910626273e-05
-5.4482367770905754e-06   -3.0580657243186845e-07   1.0932273546340483e-05
-5.4482367770905754e-06   -3.0580657243186845e-07   1.0932273546340483e-05
-5.4482367770905754e-06   -3.0580657243186845e-07   1.0932273546340483e-05
-5.4482367770905754e-06   -3.0580657243186845e-07   1.0932273546340483e-05
-3.951110212205441e-06   -2.1702336891572056e-06   1.2308828217780414e-05
-3.951110212205441e-06   -2.1702336891572056e-06   1.2308828217780414e-05
-3.951110212205441e-06   -2.1702336891572056e-06   1.2308828217780414e-05
-3.951110212205441e-06   -2.1702336891572056e-06   1.2308828217780414e-05
-3.882519277848885e-06   -5.403753252093799e-07   1.0165242544696914e-05
-3.882519277848885e-06   -5.403753252093799e-07   1.0165242544696914e-05
-3.882519277848885e-06   -5.403753252093799e-07   1.0165242544696914e-05
-3.882519277848885e-06   -5.403753252093799e-07   1.0165242544696914e-05
-5.404384065776379e-06   -2.256679884065835e-06   1.3731466593223268e-05
-5.404384065776379e-06   -2.256679884065835e-06   1.3731466593223268e-05
-5.404384065776379e-06   -2.256679884065835e-06   1.3731466593223268e-05
-5.404384065776379e-06   -2.256679884065835e-06   1.3731466593223268e-05
-4.596882175934971e-06   -1.2525497044534864e-06   1.1783152002386852e-05
-4.596882175934971e-06   -1.2525497044534864e-06   1.1783152002386852e-05
-4.596882175934971e-06   -1.2525497044534864e-06   1.1783152002386852e-05
-4.596882175934971e-06   -1.2525497044534864e-06   1.1783152002386852e-05
-4.003683257823457e-06   5.758200363389638e-07   7.424100504891724e-06
-4.003683257823457e-06   5.758200363389638e-07   7.424100504891724e-06
-4.003683257823457e-06   5.758200363389638e-07   7.424100504891724e-06
-4.003683257823457e-06   5.758200363389638e-07   7.424100504891724e-06
-3.3720168890962626e-06   -8.833950560687754e-07   7.601348730659161e-06
-3.3720168890962626e-06   -8.833950560687754e-07   7.601348730659161e-06
-3.3720168890962626e-06   -8.833950560687754e-07   7.601348730659161e-06
-3.3720168890962626e-06   -8.833950560687754e-07   7.601348730659161e-06
-3.3068715871382493e-06   3.169054572268169e-07   6.704349548992462e-06
-3.3068715871382493e-06   3.169054572268169e-07   6.704349548992462e-06
-3.3068715871382493e-06   3.169054572268169e-07   6.704349548992462e-06
-3.3068715871382493e-06   3.169054572268169e-07   6.704349548992462e-06
-3.974236901960789e-06   -1.031369763800278e-06   8.625590206313001e-06
-3.974236901960789e-06   -1.031369763800278e-06   8.625590206313001e-06
-3.974236901960789e-06   -1.031369763800278e-06   8.625590206313001e-06
-3.974236901960789e-06   -1.031369763800278e-06   8.625590206313001e-06
-3.6377896228819925e-06   -2.0200693757446622e-07   7.567227045446182e-06
-3.6377896228819925e-06   -2.0200693757446622e-07   7.567227045446182e-06
-3.6377896228819925e-06   -2.0200693757446622e-07   7.567227045446182e-06
-3.6377896228819925e-06   -2.0200693757446622e-07   7.567227045446182e-06
-3.974236901960789e-06   3.169054572268169e-07   7.513314681608659e-06
-3.974236901960789e-06   3.169054572268169e-07   7.513314681608659e-06
-3.974236901960789e-06   3.169054572268169e-07   7.513314681608659e-06
-3.974236901960789e-06   3.169054572268169e-07   7.513314681608659e-06
-3.3068715871382493e-06   -1.031369763800278e-06   7.816625073696722e-06
-3.3068715871382493e-06   -1.031369763800278e-06   7.816625073696722e-06
-3.3068715871382493e-06   -1.031369763800278e-06   7.816625073696722e-06
-3.3068715871382493e-06   -1.031369763800278e-06   7.816625073696722e-06
-3.2817555619205356e-06   9.487686932814097e-08   7.019308767709732e-06
-3.2817555619205356e-06   9.487686932814097e-08   7.019308767709732e-06
-3.2817555619205356e-06   9.487686932814097e-08   7.019308767709732e-06
-3.2817555619205356e-06   9.487686932814097e-08   7.019308767709732e-06
-3.951110212205441e-06   -1.1451696734569015e-06   8.878927777188929e-06
-3.951110212205441e-06   -1.1451696734569015e-06   8.878927777188929e-06
-3.951110212205441e-06   -1.1451696734569015e-06   8.878927777188929e-06
-3.951110212205441e-06   -1.1451696734569015e-06   8.878927777188929e-06
-3.5729509333660666e-06   -3.5868403879012797e-07   7.776770931656378e-06
-3.5729509333660666e-06   -3.5868403879012797e-07   7.776770931656378e-06
-3.5729509333660666e-06   -3.5868403879012797e-07   7.776770931656378e-06
-3.5729509333660666e-06   -3.5868403879012797e-07   7.776770931656378e-06
-3.951110212205468e-06   9.487686932814097e-08   7.763336693380736e-06
-3.951110212205468e-06   9.487686932814097e-08   7.763336693380736e-06
-3.951110212205468e-06   9.487686932814097e-08   7.763336693380736e-06
-3.951110212205468e-06   9.487686932814097e-08   7.763336693380736e-06
-3.2817555619205356e-06   -1.1451696734569015e-06   8.134899851517925e-06
-3.2817555619205356e-06   -1.1451696734569015e-06   8.134899851517925e-06
-3.2817555619205356e-06   -1.1451696734569015e-06   8.134899851517925e-06
-3.2817555619205356e-06   -1.1451696734569015e-06   8.134899851517925e-06
-3.2356460804773177e-06   -1.2915511624794242e-07   7.414813424458128e-06
-3.2356460804773177e-06   -1.2915511624794242e-07   7.414813424458128e-06
-3.2356460804773177e-06   -1.2915511624794242e-07   7.414813424458128e-06
-3.2356460804773177e-06   -1.2915511624794242e-07   7.414813424458128e-06
-3.882519277848885e-06   -1.2937352617466721e-06   9.191683507376593e-06
-3.882519277848885e-06   -1.2937352617466721e-06   9.191683507376593e-06
-3.882519277848885e-06   -1.2937352617466721e-06   9.191683507376593e-06
-3.882519277848885e-06   -1.2937352617466721e-06   9.191683507376593e-06
-3.525302429811057e-06   -4.966743934794321e-07   8.118085573020125e-06
-3.525302429811057e-06   -4.966743934794321e-07   8.118085573020125e-06
-3.525302429811057e-06   -4.966743934794321e-07   8.118085573020125e-06
-3.525302429811057e-06   -4.966743934794321e-07   8.118085573020125e-06
-3.3720168890962626e-06   9.562274573937765e-07   1.7459603631345209e-06
-3.3720168890962626e-06   9.562274573937765e-07   1.7459603631345209e-06
-3.3720168890962626e-06   9.562274573937765e-07   1.7459603631345209e-06
-3.3720168890962626e-06   9.562274573937765e-07   1.7459603631345209e-06
-2.0027331293406272e-06   -9.414407214450326e-08   3.3978770450043382e-06
-2.0027331293406272e-06   -9.414407214450326e-08   3.3978770450043382e-06
-2.0027331293406272e-06   -9.414407214450326e-08   3.3978770450043382e-06
-2.0027331293406272e-06   -9.414407214450326e-08   3.3978770450043382e-06
-2.1222041736281092e-06   7.720859077510315e-07   1.7642160332814521e-06
-2.1222041736281092e-06   7.720859077510315e-07   1.7642160332814521e-06
-2.1222041736281092e-06   7.720859077510315e-07   1.7642160332814521e-06
-2.1222041736281092e-06   7.720859077510315e-07   1.7642160332814521e-06
-3.3068715871382493e-06   -1.3323201232792238e-07   4.281852474512335e-06
-3.3068715871382493e-06   -1.3323201232792238e-07   4.281852474512335e-06
-3.3068715871382493e-06   -1.3323201232792238e-07   4.281852474512335e-06
-3.3068715871382493e-06   -1.3323201232792238e-07   4.281852474512335e-06
-2.607922234968633e-06   4.927355843794266e-07   2.741356329538636e-06
-2.607922234968633e-06   4.927355843794266e-07   2.741356329538636e-06
-2.607922234968633e-06   4.927355843794266e-07   2.741356329538636e-06
-2.607922234968633e-06   4.927355843794266e-07   2.741356329538636e-06
-3.3068715871382764e-06   7.720859077510315e-07   2.307406785328624e-06
-3.3068715871382764e-06   7.720859077510315e-07   2.307406785328624e-06
-3.3068715871382764e-06   7.720859077510315e-07   2.307406785328624e-06
-3.3068715871382764e-06   7.720859077510315e-07   2.307406785328624e-06
-2.1222041736281092e-06   -1.3323201232792238e-07   3.738661722465001e-06
-2.1222041736281092e-06   -1.3323201232792238e-07   3.738661722465001e-06
-2.1222041736281092e-06   -1.3323201232792238e-07   3.738661722465001e-06
-2.1222041736281092e-06   -1.3323201232792238e-07   3.738661722465001e-06
-2.2212049954842424e-06   6.519087446533707e-07   2.27829078281957e-06
-2.2212049954842424e-06   6.519087446533707e-07   2.27829078281957e-06
-2.2212049954842424e-06   6.519087446533707e-07   2.27829078281957e-06
-2.2212049954842424e-06   6.519087446533707e-07   2.27829078281957e-06
-3.2817555619205356e-06   -1.8549182476812606e-07   4.548315401866243e-06
-3.2817555619205356e-06   -1.8549182476812606e-07   4.548315401866243e-06
-3.2817555619205356e-06   -1.8549182476812606e-07   4.548315401866243e-06
-3.2817555619205356e-06   -1.8549182476812606e-07   4.548315401866243e-06
-2.6614834566086296e-06   4.028594499374204e-07   3.1615177948564224e-06
-2.6614834566086296e-06   4.028594499374204e-07   3.1615177948564224e-06
-2.6614834566086296e-06   4.028594499374204e-07   3.1615177948564224e-06
-2.6614834566086296e-06   4.028594499374204e-07   3.1615177948564224e-06
-3.2817555619205356e-06   6.519087446533707e-07   2.780731124472593e-06
-3.2817555619205356e-06   6.519087446533707e-07   2.780731124472593e-06
-3.2817555619205356e-06   6.519087446533707e-07   2.780731124472593e-06
-3.2817555619205356e-06   6.519087446533707e-07   2.780731124472593e-06
-2.2212049954842424e-06   -1.8549182476812606e-07   4.045875060213383e-06
-2.2212049954842424e-06   -1.8549182476812606e-07   4.045875060213383e-06
-2.2212049954842424e-06   -1.8549182476812606e-07   4.045875060213383e-06
-2.2212049954842424e-06   -1.8549182476812606e-07   4.045875060213383e-06
-2.4523394731919713e-06   4.075490034796247e-07   3.1979919841846043e-06
-2.4523394731919713e-06   4.075490034796247e-07   3.1979919841846043e-06
-2.4523394731919713e-06   4.075490034796247e-07   3.1979919841846043e-06
-2.4523394731919713e-06   4.075490034796247e-07   3.1979919841846043e-06
-3.2356460804773177e-06   -2.511305887072687e-07   4.898710751639001e-06
-3.2356460804773177e-06   -2.511305887072687e-07   4.898710751639001e-06
-3.2356460804773177e-06   -2.511305887072687e-07   4.898710751639001e-06
-3.2356460804773177e-06   -2.511305887072687e-07   4.898710751639001e-06
-2.673882613543239e-06   3.4087707934604087e-07   3.6072337059169044e-06
-2.673882613543239e-06   3.4087707934604087e-07   3.6072337059169044e-06
-2.673882613543239e-06   3.4087707934604087e-07   3.6072337059169044e-06
-2.673882613543239e-06   3.4087707934604087e-07   3.6072337059169044e-06
-3.0520976833045095e-05   2.3638961562747482e-06   1.3389542854866477e-05
-3.0520976833045095e-05   2.3638961562747482e-06   1.3389542854866477e-05
-3.0520976833045095e-05   2.3638961562747482e-06   1.3389542854866477e-05
-3.0520976833045095e-05   2.3638961562747482e-06   1.3389542854866477e-05
-7.139392473985512e-06   -1.529473270802436e-05   4.1763672801386346e-05
-7.139392473985512e-06   -1.529473270802436e-05   4.1763672801386346e-05
-7.139392473985512e-06   -1.529473270802436e-05   4.1763672801386346e-05
-7.139392473985512e-06   -1.529473270802436e-05   4.1763672801386346e-05
-8.40429133718313e-06   9.339044979942703e-07   7.318730233612483e-06
-8.40429133718313e-06   9.339044979942703e-07   7.318730233612483e-06
-8.40429133718313e-06   9.339044979942703e-07   7.318730233612483e-06
-8.40429133718313e-06   9.339044979942703e-07   7.318730233612483e-06
-2.7836264414888547e-05   -1.1945301459998855e-05   4.7432875604584e-05
-2.7836264414888547e-05   -1.1945301459998855e-05   4.7432875604584e-05
-2.7836264414888547e-05   -1.1945301459998855e-05   4.7432875604584e-05
-2.7836264414888547e-05   -1.1945301459998855e-05   4.7432875604584e-05
-1.855028553163067e-05   -5.944411728031114e-06   2.83557102933069e-05
-1.855028553163067e-05   -5.944411728031114e-06   2.83557102933069e-05
-1.855028553163067e-05   -5.944411728031114e-06   2.83557102933069e-05
-1.855028553163067e-05   -5.944411728031114e-06   2.83557102933069e-05
-2.78362644148885e-05   9.339044979942703e-07   1.504625380840835e-05
-2.78362644148885e-05   9.339044979942703e-07   1.504625380840835e-05
-2.78362644148885e-05   9.339044979942703e-07   1.504625380840835e-05
-2.78362644148885e-05   9.339044979942703e-07   1.504625380840835e-05
-8.40429133718314e-06   -1.1945301459998855e-05   3.9705352029788126e-05
-8.40429133718314e-06   -1.1945301459998855e-05   3.9705352029788126e-05
-8.40429133718314e-06   -1.1945301459998855e-05   3.9705352029788126e-05
-8.40429133718314e-06   -1.1945301459998855e-05   3.9705352029788126e-05
-8.606559063887078e-06   6.61728531382112e-07   8.044623880382122e-06
-8.606559063887078e-06   6.61728531382112e-07   8.044623880382122e-06
-8.606559063887078e-06   6.61728531382112e-07   8.044623880382122e-06
-8.606559063887078e-06   6.61728531382112e-07   8.044623880382122e-06
-2.6266982329298446e-05   -1.03390279296208e-05   4.407911653266943e-05
-2.6266982329298446e-05   -1.03390279296208e-05   4.407911653266943e-05
-2.6266982329298446e-05   -1.03390279296208e-05   4.407911653266943e-05
-2.6266982329298446e-05   -1.03390279296208e-05   4.407911653266943e-05
-1.8005073666900547e-05   -5.637814182242663e-06   2.7488540513579402e-05
-1.8005073666900547e-05   -5.637814182242663e-06   2.7488540513579402e-05
-1.8005073666900547e-05   -5.637814182242663e-06   2.7488540513579402e-05
-1.8005073666900547e-05   -5.637814182242663e-06   2.7488540513579402e-05
-2.6266982329298402e-05   6.61728531382112e-07   1.4645077756983855e-05
-2.6266982329298402e-05   6.61728531382112e-07   1.4645077756983855e-05
-2.6266982329298402e-05   6.61728531382112e-07   1.4645077756983855e-05
-2.6266982329298402e-05   6.61728531382112e-07   1.4645077756983855e-05
-8.606559063887092e-06   -1.03390279296208e-05   3.7478662656067696e-05
-8.606559063887092e-06   -1.03390279296208e-05   3.7478662656067696e-05
-8.606559063887092e-06   -1.03390279296208e-05   3.7478662656067696e-05
-8.606559063887092e-06   -1.03390279296208e-05   3.7478662656067696e-05
-9.452484844641476e-06   -5.007107688356186e-07   1.0062313585414566e-05
-9.452484844641476e-06   -5.007107688356186e-07   1.0062313585414566e-05
-9.452484844641476e-06   -5.007107688356186e-07   1.0062313585414566e-05
-9.452484844641476e-06   -5.007107688356186e-07   1.0062313585414566e-05
-2.425132223757866e-05   -8.200989738001694e-06   3.9347209955142764e-05
-2.425132223757866e-05   -8.200989738001694e-06   3.9347209955142764e-05
-2.425132223757866e-05   -8.200989738001694e-06   3.9347209955142764e-05
-2.425132223757866e-05   -8.200989738001694e-06   3.9347209955142764e-05
-1.7331087433095466e-05   -5.206922800241376e-06   2.6017045118347953e-05
-1.7331087433095466e-05   -5.206922800241376e-06   2.6017045118347953e-05
-1.7331087433095466e-05   -5.206922800241376e-06   2.6017045118347953e-05
-1.7331087433095466e-05   -5.206922800241376e-06   2.6017045118347953e-05
-7.139392473985498e-06   -2.745651998107293e-06   7.660822424456002e-06
-7.139392473985498e-06   -2.745651998107293e-06   7.660822424456002e-06
-7.139392473985498e-06   -2.745651998107293e-06   7.660822424456002e-06
-7.139392473985498e-06   -2.745651998107293e-06   7.660822424456002e-06
-2.476483185678732e-06   -4.846465503001608e-06   1.417184980203071e-05
-2.476483185678732e-06   -4.846465503001608e-06   1.417184980203071e-05
-2.476483185678732e-06   -4.846465503001608e-06   1.417184980203071e-05
-2.476483185678732e-06   -4.846465503001608e-06   1.417184980203071e-05
-2.7808705347972536e-06   -2.2561785675151718e-06   6.772934875349954e-06
-2.7808705347972536e-06   -2.2561785675151718e-06   6.772934875349954e-06
-2.7808705347972536e-06   -2.2561785675151718e-06   6.772934875349954e-06
-2.7808705347972536e-06   -2.2561785675151718e-06   6.772934875349954e-06
-8.40429133718314e-06   -6.381647207889887e-06   1.86205840635512e-05
-8.40429133718314e-06   -6.381647207889887e-06   1.86205840635512e-05
-8.40429133718314e-06   -6.381647207889887e-06   1.86205840635512e-05
-8.40429133718314e-06   -6.381647207889887e-06   1.86205840635512e-05
-4.928874269569977e-06   -3.3276472260146894e-06   1.0995822295070752e-05
-4.928874269569977e-06   -3.3276472260146894e-06   1.0995822295070752e-05
-4.928874269569977e-06   -3.3276472260146894e-06   1.0995822295070752e-05
-4.928874269569977e-06   -3.3276472260146894e-06   1.0995822295070752e-05
-8.404291337183124e-06   -2.2561785675151718e-06   9.248216059574681e-06
-8.404291337183124e-06   -2.2561785675151718e-06   9.248216059574681e-06
-8.404291337183124e-06   -2.2561785675151718e-06   9.248216059574681e-06
-8.404291337183124e-06   -2.2561785675151718e-06   9.248216059574681e-06
-2.780870534797267e-06   -6.381647207889887e-06   1.6145302879326378e-05
-2.780870534797267e-06   -6.381647207889887e-06   1.6145302879326378e-05
-2.780870534797267e-06   -6.381647207889887e-06   1.6145302879326378e-05
-2.780870534797267e-06   -6.381647207889887e-06   1.6145302879326378e-05
-3.0427593060216657e-06   -2.3046705727873312e-06   7.617279314469196e-06
-3.0427593060216657e-06   -2.3046705727873312e-06   7.617279314469196e-06
-3.0427593060216657e-06   -2.3046705727873312e-06   7.617279314469196e-06
-3.0427593060216657e-06   -2.3046705727873312e-06   7.617279314469196e-06
-8.606559063887092e-06   -5.860833569673291e-06   1.9023976709043068e-05
-8.606559063887092e-06   -5.860833569673291e-06   1.9023976709043068e-05
-8.606559063887092e-06   -5.860833569673291e-06   1.9023976709043068e-05
-8.606559063887092e-06   -5.860833569673291e-06   1.9023976709043068e-05
-5.574127027238215e-06   -4.054533786528527e-06   1.2886143444741516e-05
-5.574127027238215e-06   -4.054533786528527e-06   1.2886143444741516e-05
-5.574127027238215e-06   -4.054533786528527e-06   1.2886143444741516e-05
-5.574127027238215e-06   -4.054533786528527e-06   1.2886143444741516e-05
-8.606559063887092e-06   -2.3046705727873312e-06   9.750977112600771e-06
-8.606559063887092e-06   -2.3046705727873312e-06   9.750977112600771e-06
-8.606559063887092e-06   -2.3046705727873312e-06   9.750977112600771e-06
-8.606559063887092e-06   -2.3046705727873312e-06   9.750977112600771e-06
-3.0427593060216657e-06   -5.860833569673291e-06   1.689027891091148e-05
-3.0427593060216657e-06   -5.860833569673291e-06   1.689027891091148e-05
-3.0427593060216657e-06   -5.860833569673291e-06   1.689027891091148e-05
-3.0427593060216657e-06   -5.860833569673291e-06   1.689027891091148e-05
-3.4711725348641434e-06   -2.3181186065452536e-06   8.34538790687737e-06
-3.4711725348641434e-06   -2.3181186065452536e-06   8.34538790687737e-06
-3.4711725348641434e-06   -2.3181186065452536e-06   8.34538790687737e-06
-3.4711725348641434e-06   -2.3181186065452536e-06   8.34538790687737e-06
-9.452484844641483e-06   -5.5297545649109415e-06   2.024122333152562e-05
-9.452484844641483e-06   -5.5297545649109415e-06   2.024122333152562e-05
-9.452484844641483e-06   -5.5297545649109415e-06   2.024122333152562e-05
-9.452484844641483e-06   -5.5297545649109415e-06   2.024122333152562e-05
-5.959108846222056e-06   -3.7042660198622837e-06   1.33236368737974e-05
-5.959108846222056e-06   -3.7042660198622837e-06   1.33236368737974e-05
-5.959108846222056e-06   -3.7042660198622837e-06   1.33236368737974e-05
-5.959108846222056e-06   -3.7042660198622837e-06   1.33236368737974e-05
-2.476483185678732e-06   -2.1457658412145017e-06   4.1703802968863035e-06
-2.476483185678732e-06   -2.1457658412145017e-06   4.1703802968863035e-06
-2.476483185678732e-06   -2.1457658412145017e-06   4.1703802968863035e-06
-2.476483185678732e-06   -2.1457658412145017e-06   4.1703802968863035e-06
-1.3881650938997675e-06   -1.4134651304294064e-06   6.4236242096556465e-06
-1.3881650938997675e-06   -1.4134651304294064e-06   6.4236242096556465e-06
-1.3881650938997675e-06   -1.4134651304294064e-06   6.4236242096556465e-06
-1.3881650938997675e-06   -1.4134651304294064e-06   6.4236242096556465e-06
-1.3417924726711163e-06   -2.1074294692687945e-06   4.736140957742904e-06
-1.3417924726711163e-06   -2.1074294692687945e-06   4.736140957742904e-06
-1.3417924726711163e-06   -2.1074294692687945e-06   4.736140957742904e-06
-1.3417924726711163e-06   -2.1074294692687945e-06   4.736140957742904e-06
-2.780870534797267e-06   -1.8306433890742302e-06   6.968532746502991e-06
-2.780870534797267e-06   -1.8306433890742302e-06   6.968532746502991e-06
-2.780870534797267e-06   -1.8306433890742302e-06   6.968532746502991e-06
-2.780870534797267e-06   -1.8306433890742302e-06   6.968532746502991e-06
-1.8697540566807355e-06   -1.7645298059006538e-06   5.410337133071233e-06
-1.8697540566807355e-06   -1.7645298059006538e-06   5.410337133071233e-06
-1.8697540566807355e-06   -1.7645298059006538e-06   5.410337133071233e-06
-1.8697540566807355e-06   -1.7645298059006538e-06   5.410337133071233e-06
-2.7808705347972536e-06   -2.1074294692687945e-06   4.570069309626159e-06
-2.7808705347972536e-06   -2.1074294692687945e-06   4.570069309626159e-06
-2.7808705347972536e-06   -2.1074294692687945e-06   4.570069309626159e-06
-2.7808705347972536e-06   -2.1074294692687945e-06   4.570069309626159e-06
-1.3417924726710892e-06   -1.8306433890742268e-06   7.134604394619723e-06
-1.3417924726710892e-06   -1.8306433890742268e-06   7.134604394619723e-06
-1.3417924726710892e-06   -1.8306433890742268e-06   7.134604394619723e-06
-1.3417924726710892e-06   -1.8306433890742268e-06   7.134604394619723e-06
-1.3519218617828407e-06   -2.1702336891572056e-06   5.068986509542566e-06
-1.3519218617828407e-06   -2.1702336891572056e-06   5.068986509542566e-06
-1.3519218617828407e-06   -2.1702336891572056e-06   5.068986509542566e-06
-1.3519218617828407e-06   -2.1702336891572056e-06   5.068986509542566e-06
-3.0427593060216657e-06   -2.327428914700909e-06   7.981366051933425e-06
-3.0427593060216657e-06   -2.327428914700909e-06   7.981366051933425e-06
-3.0427593060216657e-06   -2.327428914700909e-06   7.981366051933425e-06
-3.0427593060216657e-06   -2.327428914700909e-06   7.981366051933425e-06
-1.992330935088873e-06   -1.9288040881748e-06   5.991477204463124e-06
-1.992330935088873e-06   -1.9288040881748e-06   5.991477204463124e-06
-1.992330935088873e-06   -1.9288040881748e-06   5.991477204463124e-06
-1.992330935088873e-06   -1.9288040881748e-06   5.991477204463124e-06
-3.0427593060216657e-06   -2.1702336891572327e-06   5.163303644868802e-06
-3.0427593060216657e-06   -2.1702336891572327e-06   5.163303644868802e-06
-3.0427593060216657e-06   -2.1702336891572327e-06   5.163303644868802e-06
-3.0427593060216657e-06   -2.1702336891572327e-06   5.163303644868802e-06
-1.3519218617828407e-06   -2.327428914700909e-06   7.887048916607189e-06
-1.3519218617828407e-06   -2.327428914700909e-06   7.887048916607189e-06
-1.3519218617828407e-06   -2.327428914700909e-06   7.887048916607189e-06
-1.3519218617828407e-06   -2.327428914700909e-06   7.887048916607189e-06
-1.3866780848704563e-06   -2.256679884065862e-06   5.5700901428502045e-06
-1.3866780848704563e-06   -2.256679884065862e-06   5.5700901428502045e-06
-1.3866780848704563e-06   -2.256679884065862e-06   5.5700901428502045e-06
-1.3866780848704563e-06   -2.256679884065862e-06   5.5700901428502045e-06
-3.4711725348641434e-06   -2.7983723186794144e-06   9.369263020274436e-06
-3.4711725348641434e-06   -2.7983723186794144e-06   9.369263020274436e-06
-3.4711725348641434e-06   -2.7983723186794144e-06   9.369263020274436e-06
-3.4711725348641434e-06   -2.7983723186794144e-06   9.369263020274436e-06
-2.133853732390102e-06   -2.0990929356713467e-06   6.720830719679532e-06
-2.133853732390102e-06   -2.0990929356713467e-06   6.720830719679532e-06
-2.133853732390102e-06   -2.0990929356713467e-06   6.720830719679532e-06
-2.133853732390102e-06   -2.0990929356713467e-06   6.720830719679532e-06
-1.3881650938997675e-06   -8.833950560687754e-07   1.2534329385760446e-06
-1.3881650938997675e-06   -8.833950560687754e-07   1.2534329385760446e-06
-1.3881650938997675e-06   -8.833950560687754e-07   1.2534329385760446e-06
-1.3881650938997675e-06   -8.833950560687754e-07   1.2534329385760446e-06
-1.0457651590725777e-06   1.7533801164833825e-07   2.4593393372515876e-06
-1.0457651590725777e-06   1.7533801164833825e-07   2.4593393372515876e-06
-1.0457651590725777e-06   1.7533801164833825e-07   2.4593393372515876e-06
-1.0457651590725777e-06   1.7533801164833825e-07   2.4593393372515876e-06
-8.528161150546029e-07   -1.0313697638003052e-06   1.9974485279450923e-06
-8.528161150546029e-07   -1.0313697638003052e-06   1.9974485279450923e-06
-8.528161150546029e-07   -1.0313697638003052e-06   1.9974485279450923e-06
-8.528161150546029e-07   -1.0313697638003052e-06   1.9974485279450923e-06
-1.3417924726711163e-06   2.0503049214774945e-08   2.181285436163473e-06
-1.3417924726711163e-06   2.0503049214774945e-08   2.181285436163473e-06
-1.3417924726711163e-06   2.0503049214774945e-08   2.181285436163473e-06
-1.3417924726711163e-06   2.0503049214774945e-08   2.181285436163473e-06
-1.0851533318306382e-06   -4.3552850947853664e-07   2.0271724699786058e-06
-1.0851533318306382e-06   -4.3552850947853664e-07   2.0271724699786058e-06
-1.0851533318306382e-06   -4.3552850947853664e-07   2.0271724699786058e-06
-1.0851533318306382e-06   -4.3552850947853664e-07   2.0271724699786058e-06
-1.3417924726711163e-06   -1.0313697638003052e-06   1.3663248401360592e-06
-1.3417924726711163e-06   -1.0313697638003052e-06   1.3663248401360592e-06
-1.3417924726711163e-06   -1.0313697638003052e-06   1.3663248401360592e-06
-1.3417924726711163e-06   -1.0313697638003052e-06   1.3663248401360592e-06
-8.528161150546029e-07   2.0503049214774945e-08   2.812409123972506e-06
-8.528161150546029e-07   2.0503049214774945e-08   2.812409123972506e-06
-8.528161150546029e-07   2.0503049214774945e-08   2.812409123972506e-06
-8.528161150546029e-07   2.0503049214774945e-08   2.812409123972506e-06
-7.497976093503685e-07   -1.1451696734569015e-06   2.194997437118915e-06
-7.497976093503685e-07   -1.1451696734569015e-06   2.194997437118915e-06
-7.497976093503685e-07   -1.1451696734569015e-06   2.194997437118915e-06
-7.497976093503685e-07   -1.1451696734569015e-06   2.194997437118915e-06
-1.3519218617828407e-06   -2.1865072651053842e-07   2.642626489671873e-06
-1.3519218617828407e-06   -2.1865072651053842e-07   2.642626489671873e-06
-1.3519218617828407e-06   -2.1865072651053842e-07   2.642626489671873e-06
-1.3519218617828407e-06   -2.1865072651053842e-07   2.642626489671873e-06
-9.897550747049505e-07   -5.533757942145057e-07   2.2398502184977276e-06
-9.897550747049505e-07   -5.533757942145057e-07   2.2398502184977276e-06
-9.897550747049505e-07   -5.533757942145057e-07   2.2398502184977276e-06
-9.897550747049505e-07   -5.533757942145057e-07   2.2398502184977276e-06
-1.3519218617828678e-06   -1.1451696734569015e-06   1.6390860689510138e-06
-1.3519218617828678e-06   -1.1451696734569015e-06   1.6390860689510138e-06
-1.3519218617828678e-06   -1.1451696734569015e-06   1.6390860689510138e-06
-1.3519218617828678e-06   -1.1451696734569015e-06   1.6390860689510138e-06
-7.497976093503685e-07   -2.1865072651053842e-07   3.198537857839693e-06
-7.497976093503685e-07   -2.1865072651053842e-07   3.198537857839693e-06
-7.497976093503685e-07   -2.1865072651053842e-07   3.198537857839693e-06
-7.497976093503685e-07   -2.1865072651053842e-07   3.198537857839693e-06
-5.921917762742742e-07   -1.293735261746645e-06   2.4151581118008023e-06
-5.921917762742742e-07   -1.293735261746645e-06   2.4151581118008023e-06
-5.921917762742742e-07   -1.293735261746645e-06   2.4151581118008023e-06
-5.921917762742742e-07   -1.293735261746645e-06   2.4151581118008023e-06
-1.3866780848704563e-06   -7.019547292743597e-07   3.384233639977665e-06
-1.3866780848704563e-06   -7.019547292743597e-07   3.384233639977665e-06
-1.3866780848704563e-06   -7.019547292743597e-07   3.384233639977665e-06
-1.3866780848704563e-06   -7.019547292743597e-07   3.384233639977665e-06
-9.152218289549044e-07   -7.306007376535934e-07   2.6156608184795004e-06
-9.152218289549044e-07   -7.306007376535934e-07   2.6156608184795004e-06
-9.152218289549044e-07   -7.306007376535934e-07   2.6156608184795004e-06
-9.152218289549044e-07   -7.306007376535934e-07   2.6156608184795004e-06
-1.0457651590725777e-06   -9.414407214453037e-08   -1.68457598872558e-06
-1.0457651590725777e-06   -9.414407214453037e-08   -1.68457598872558e-06
-1.0457651590725777e-06   -9.414407214453037e-08   -1.68457598872558e-06
-1.0457651590725777e-06   -9.414407214453037e-08   -1.68457598872558e-06
-2.1028893558319543e-07   1.4340106794299493e-07   -1.4958853219077016e-07
-2.1028893558319543e-07   1.4340106794299493e-07   -1.4958853219077016e-07
-2.1028893558319543e-07   1.4340106794299493e-07   -1.4958853219077016e-07
-2.1028893558319543e-07   1.4340106794299493e-07   -1.4958853219077016e-07
-2.139831299446341e-08   -1.3323201232792238e-07   -1.3100347037300962e-06
-2.139831299446341e-08   -1.3323201232792238e-07   -1.3100347037300962e-06
-2.139831299446341e-08   -1.3323201232792238e-07   -1.3100347037300962e-06
-2.139831299446341e-08   -1.3323201232792238e-07   -1.3100347037300962e-06
-8.528161150546029e-07   2.4558360018741074e-07   -1.5162773447246775e-07
-8.528161150546029e-07   2.4558360018741074e-07   -1.5162773447246775e-07
-8.528161150546029e-07   2.4558360018741074e-07   -1.5162773447246775e-07
-8.528161150546029e-07   2.4558360018741074e-07   -1.5162773447246775e-07
-4.867016127627695e-07   6.820713061887686e-08   -6.553926898845834e-07
-4.867016127627695e-07   6.820713061887686e-08   -6.553926898845834e-07
-4.867016127627695e-07   6.820713061887686e-08   -6.553926898845834e-07
-4.867016127627695e-07   6.820713061887686e-08   -6.553926898845834e-07
-8.528161150546029e-07   -1.3323201232789527e-07   -1.5373240712393896e-06
-8.528161150546029e-07   -1.3323201232789527e-07   -1.5373240712393896e-06
-8.528161150546029e-07   -1.3323201232789527e-07   -1.5373240712393896e-06
-8.528161150546029e-07   -1.3323201232789527e-07   -1.5373240712393896e-06
-2.139831299446341e-08   2.4558360018741074e-07   7.566163303670366e-08
-2.139831299446341e-08   2.4558360018741074e-07   7.566163303670366e-08
-2.139831299446341e-08   2.4558360018741074e-07   7.566163303670366e-08
-2.139831299446341e-08   2.4558360018741074e-07   7.566163303670366e-08
7.455221285267415e-08   -1.8549182476812606e-07   -1.1583323858612576e-06
7.455221285267415e-08   -1.8549182476812606e-07   -1.1583323858612576e-06
7.455221285267415e-08   -1.8549182476812606e-07   -1.1583323858612576e-06
7.455221285267415e-08   -1.8549182476812606e-07   -1.1583323858612576e-06
-7.497976093503685e-07   2.0326588635096254e-07   -1.7670642194389692e-08
-7.497976093503685e-07   2.0326588635096254e-07   -1.7670642194389692e-08
-7.497976093503685e-07   2.0326588635096254e-07   -1.7670642194389692e-08
-7.497976093503685e-07   2.0326588635096254e-07   -1.7670642194389692e-08
-3.4863553993524444e-07   4.3974454918082706e-08   -5.906992323595874e-07
-3.4863553993524444e-07   4.3974454918082706e-08   -5.906992323595874e-07
-3.4863553993524444e-07   4.3974454918082706e-08   -5.906992323595874e-07
-3.4863553993524444e-07   4.3974454918082706e-08   -5.906992323595874e-07
-7.497976093503685e-07   -1.8549182476812606e-07   -1.3915870125326993e-06
-7.497976093503685e-07   -1.8549182476812606e-07   -1.3915870125326993e-06
-7.497976093503685e-07   -1.8549182476812606e-07   -1.3915870125326993e-06
-7.497976093503685e-07   -1.8549182476812606e-07   -1.3915870125326993e-06
7.455221285267415e-08   2.0326588635096254e-07   2.155839844770655e-07
7.455221285267415e-08   2.0326588635096254e-07   2.155839844770655e-07
7.455221285267415e-08   2.0326588635096254e-07   2.155839844770655e-07
7.455221285267415e-08   2.0326588635096254e-07   2.155839844770655e-07
1.919765788577373e-07   -2.511305887072958e-07   -9.318455692208924e-07
1.919765788577373e-07   -2.511305887072958e-07   -9.318455692208924e-07
1.919765788577373e-07   -2.511305887072958e-07   -9.318455692208924e-07
1.919765788577373e-07   -2.511305887072958e-07   -9.318455692208924e-07
-5.921917762742742e-07   1.6090439032040001e-07   1.278807019157403e-07
-5.921917762742742e-07   1.6090439032040001e-07   1.278807019157403e-07
-5.921917762742742e-07   1.6090439032040001e-07   1.278807019157403e-07
-5.921917762742742e-07   1.6090439032040001e-07   1.278807019157403e-07
-2.2436759080874736e-07   1.3298539251155686e-08   -3.9659609655189445e-07
-2.2436759080874736e-07   1.3298539251155686e-08   -3.9659609655189445e-07
-2.2436759080874736e-07   1.3298539251155686e-08   -3.9659609655189445e-07
-2.2436759080874736e-07   1.3298539251155686e-08   -3.9659609655189445e-07
              </DataArray>   
             <DataArray type="Float64" NumberOfComponents="3" Name="Stress" format="ascii">   
-1.5899297929681921   -0.39748244824204804   -0.39748244824204804
-1.5899297929681921   -0.39748244824204804   -0.39748244824204804
-1.5899297929681921   -0.39748244824204804   -0.39748244824204804
-1.5899297929681921   -0.39748244824204804   -0.39748244824204804
-0.9198453352215077   -0.02963315345425452   -0.018634735687192983
-0.9198453352215077   -0.02963315345425452   -0.018634735687192983
-0.9198453352215077   -0.02963315345425452   -0.018634735687192983
-0.9198453352215077   -0.02963315345425452   -0.018634735687192983
-0.9910641818186431   -0.24776604545466077   -0.24776604545466077
-0.9910641818186431   -0.24776604545466077   -0.24776604545466077
-0.9910641818186431   -0.24776604545466077   -0.24776604545466077
-0.9910641818186431   -0.24776604545466077   -0.24776604545466077
-1.5321743000674428   -0.12621071421426333   -0.04838808834175358
-1.5321743000674428   -0.12621071421426333   -0.04838808834175358
-1.5321743000674428   -0.12621071421426333   -0.04838808834175358
-1.5321743000674428   -0.12621071421426333   -0.04838808834175358
-1.2015597223450274   -0.19721752976630452   -0.003344638688463967
-1.2015597223450274   -0.19721752976630452   -0.003344638688463967
-1.2015597223450274   -0.19721752976630452   -0.003344638688463967
-1.2015597223450274   -0.19721752976630452   -0.003344638688463967
-1.6636161550624913   -0.4159040387656228   -0.4159040387656228
-1.6636161550624913   -0.4159040387656228   -0.4159040387656228
-1.6636161550624913   -0.4159040387656228   -0.4159040387656228
-1.6636161550624913   -0.4159040387656228   -0.4159040387656228
-0.8908337028217439   0.010715903098551832   -0.005095599023377764
-0.8908337028217439   0.010715903098551832   -0.005095599023377764
-0.8908337028217439   0.010715903098551832   -0.005095599023377764
-0.8908337028217439   0.010715903098551832   -0.005095599023377764
-0.9935787982481852   -0.2483946995620463   -0.2483946995620463
-0.9935787982481852   -0.2483946995620463   -0.2483946995620463
-0.9935787982481852   -0.2483946995620463   -0.2483946995620463
-0.9935787982481852   -0.2483946995620463   -0.2483946995620463
-1.5833528825957268   -0.12733325114075217   -0.07086620315291277
-1.5833528825957268   -0.12733325114075217   -0.07086620315291277
-1.5833528825957268   -0.12733325114075217   -0.07086620315291277
-1.5833528825957268   -0.12733325114075217   -0.07086620315291277
-1.2460743568110104   -0.18558216890081436   -0.06610097020522608
-1.2460743568110104   -0.18558216890081436   -0.06610097020522608
-1.2460743568110104   -0.18558216890081436   -0.06610097020522608
-1.2460743568110104   -0.18558216890081436   -0.06610097020522608
-1.7152366574855515   -0.4288091643713879   -0.4288091643713879
-1.7152366574855515   -0.4288091643713879   -0.4288091643713879
-1.7152366574855515   -0.4288091643713879   -0.4288091643713879
-1.7152366574855515   -0.4288091643713879   -0.4288091643713879
-0.8879830414989739   0.026793195527976932   0.004396189093979749
-0.8879830414989739   0.026793195527976932   0.004396189093979749
-0.8879830414989739   0.026793195527976932   0.004396189093979749
-0.8879830414989739   0.026793195527976932   0.004396189093979749
-0.9927405073341626   -0.24818512683354066   -0.24818512683354066
-0.9927405073341626   -0.24818512683354066   -0.24818512683354066
-0.9927405073341626   -0.24818512683354066   -0.24818512683354066
-0.9927405073341626   -0.24818512683354066   -0.24818512683354066
-1.6748773654024267   -0.11148271216883282   -0.0426656116176662
-1.6748773654024267   -0.11148271216883282   -0.0426656116176662
-1.6748773654024267   -0.11148271216883282   -0.0426656116176662
-1.6748773654024267   -0.11148271216883282   -0.0426656116176662
-1.278993146989361   -0.18260865582385266   -0.11940845827860568
-1.278993146989361   -0.18260865582385266   -0.11940845827860568
-1.278993146989361   -0.18260865582385266   -0.11940845827860568
-1.278993146989361   -0.18260865582385266   -0.11940845827860568
-1.0113241748813553   -0.2528310437203388   -0.2528310437203388
-1.0113241748813553   -0.2528310437203388   -0.2528310437203388
-1.0113241748813553   -0.2528310437203388   -0.2528310437203388
-1.0113241748813553   -0.2528310437203388   -0.2528310437203388
-0.42232428230649144   -0.02842343776279918   -0.009207761262601578
-0.42232428230649144   -0.02842343776279918   -0.009207761262601578
-0.42232428230649144   -0.02842343776279918   -0.009207761262601578
-0.42232428230649144   -0.02842343776279918   -0.009207761262601578
-0.4430010715960113   -0.11075026789900283   -0.11075026789900283
-0.4430010715960113   -0.11075026789900283   -0.11075026789900283
-0.4430010715960113   -0.11075026789900283   -0.11075026789900283
-0.4430010715960113   -0.11075026789900283   -0.11075026789900283
-0.920558877801496   -0.10846229775937234   -0.03454327306421384
-0.920558877801496   -0.10846229775937234   -0.03454327306421384
-0.920558877801496   -0.10846229775937234   -0.03454327306421384
-0.920558877801496   -0.10846229775937234   -0.03454327306421384
-0.6791477045686034   -0.12876658856997836   0.005259870301032693
-0.6791477045686034   -0.12876658856997836   0.005259870301032693
-0.6791477045686034   -0.12876658856997836   0.005259870301032693
-0.6791477045686034   -0.12876658856997836   0.005259870301032693
-0.9910641818186422   -0.24776604545466055   -0.24776604545466055
-0.9910641818186422   -0.24776604545466055   -0.24776604545466055
-0.9910641818186422   -0.24776604545466055   -0.24776604545466055
-0.9910641818186422   -0.24776604545466055   -0.24776604545466055
-0.3981951974755648   0.0028540498995848484   -0.0003252150953581001
-0.3981951974755648   0.0028540498995848484   -0.0003252150953581001
-0.3981951974755648   0.0028540498995848484   -0.0003252150953581001
-0.3981951974755648   0.0028540498995848484   -0.0003252150953581001
-0.43284134009968644   -0.10821033502492161   -0.10821033502492161
-0.43284134009968644   -0.10821033502492161   -0.10821033502492161
-0.43284134009968644   -0.10821033502492161   -0.10821033502492161
-0.43284134009968644   -0.10821033502492161   -0.10821033502492161
-0.9179720465953933   -0.08840766038526317   -0.030347980474870657
-0.9179720465953933   -0.08840766038526317   -0.030347980474870657
-0.9179720465953933   -0.08840766038526317   -0.030347980474870657
-0.9179720465953933   -0.08840766038526317   -0.030347980474870657
-0.6694211102931282   -0.10834805017122223   -0.034970076978181774
-0.6694211102931282   -0.10834805017122223   -0.034970076978181774
-0.6694211102931282   -0.10834805017122223   -0.034970076978181774
-0.6694211102931282   -0.10834805017122223   -0.034970076978181774
-0.9935787982481852   -0.2483946995620463   -0.2483946995620463
-0.9935787982481852   -0.2483946995620463   -0.2483946995620463
-0.9935787982481852   -0.2483946995620463   -0.2483946995620463
-0.9935787982481852   -0.2483946995620463   -0.2483946995620463
-0.3821264342571942   0.02688485834156258   0.010269000821058829
-0.3821264342571942   0.02688485834156258   0.010269000821058829
-0.3821264342571942   0.02688485834156258   0.010269000821058829
-0.3821264342571942   0.02688485834156258   0.010269000821058829
-0.423543794893808   -0.105885948723452   -0.105885948723452
-0.423543794893808   -0.105885948723452   -0.105885948723452
-0.423543794893808   -0.105885948723452   -0.105885948723452
-0.423543794893808   -0.105885948723452   -0.105885948723452
-0.9109300672416983   -0.06813849837050309   -0.019179554834260863
-0.9109300672416983   -0.06813849837050309   -0.019179554834260863
-0.9109300672416983   -0.06813849837050309   -0.019179554834260863
-0.9109300672416983   -0.06813849837050309   -0.019179554834260863
-0.6724400388199553   -0.09580398701871036   -0.07787037251158228
-0.6724400388199553   -0.09580398701871036   -0.07787037251158228
-0.6724400388199553   -0.09580398701871036   -0.07787037251158228
-0.6724400388199553   -0.09580398701871036   -0.07787037251158228
-0.4608867138904578   -0.11522167847261446   -0.11522167847261446
-0.4608867138904578   -0.11522167847261446   -0.11522167847261446
-0.4608867138904578   -0.11522167847261446   -0.11522167847261446
-0.4608867138904578   -0.11522167847261446   -0.11522167847261446
0.05380490475114489   0.0033695652104301036   0.00045340290022706335
0.05380490475114489   0.0033695652104301036   0.00045340290022706335
0.05380490475114489   0.0033695652104301036   0.00045340290022706335
0.05380490475114489   0.0033695652104301036   0.00045340290022706335
0.07048001752388897   0.01762000438097224   0.01762000438097224
0.07048001752388897   0.01762000438097224   0.01762000438097224
0.07048001752388897   0.01762000438097224   0.01762000438097224
0.07048001752388897   0.01762000438097224   0.01762000438097224
-0.41644348143390897   -0.07197139287664074   -0.0167411921108533
-0.41644348143390897   -0.07197139287664074   -0.0167411921108533
-0.41644348143390897   -0.07197139287664074   -0.0167411921108533
-0.41644348143390897   -0.07197139287664074   -0.0167411921108533
-0.17872404609355833   -0.045319648519277084   0.030114484876263368
-0.17872404609355833   -0.045319648519277084   0.030114484876263368
-0.17872404609355833   -0.045319648519277084   0.030114484876263368
-0.17872404609355833   -0.045319648519277084   0.030114484876263368
-0.4430010715960121   -0.11075026789900302   -0.11075026789900302
-0.4430010715960121   -0.11075026789900302   -0.11075026789900302
-0.4430010715960121   -0.11075026789900302   -0.11075026789900302
-0.4430010715960121   -0.11075026789900302   -0.11075026789900302
0.07177799702351045   0.031139268740853404   0.010590637519198
0.07177799702351045   0.031139268740853404   0.010590637519198
0.07177799702351045   0.031139268740853404   0.010590637519198
0.07177799702351045   0.031139268740853404   0.010590637519198
0.0796301761549396   0.0199075440387349   0.0199075440387349
0.0796301761549396   0.0199075440387349   0.0199075440387349
0.0796301761549396   0.0199075440387349   0.0199075440387349
0.0796301761549396   0.0199075440387349   0.0199075440387349
-0.40147417717254635   -0.048360861999562146   -0.0112239934145838
-0.40147417717254635   -0.048360861999562146   -0.0112239934145838
-0.40147417717254635   -0.048360861999562146   -0.0112239934145838
-0.40147417717254635   -0.048360861999562146   -0.0112239934145838
-0.17118643890346597   -0.027971930500491654   -0.01037574927442674
-0.17118643890346597   -0.027971930500491654   -0.01037574927442674
-0.17118643890346597   -0.027971930500491654   -0.01037574927442674
-0.17118643890346597   -0.027971930500491654   -0.01037574927442674
-0.4328413400996872   -0.1082103350249218   -0.1082103350249218
-0.4328413400996872   -0.1082103350249218   -0.1082103350249218
-0.4328413400996872   -0.1082103350249218   -0.1082103350249218
-0.4328413400996872   -0.1082103350249218   -0.1082103350249218
0.08624677899193321   0.05500645697394832   0.017891645288488998
0.08624677899193321   0.05500645697394832   0.017891645288488998
0.08624677899193321   0.05500645697394832   0.017891645288488998
0.08624677899193321   0.05500645697394832   0.017891645288488998
0.09184869111729432   0.02296217277932358   0.02296217277932358
0.09184869111729432   0.02296217277932358   0.02296217277932358
0.09184869111729432   0.02296217277932358   0.02296217277932358
0.09184869111729432   0.02296217277932358   0.02296217277932358
-0.38518757831879386   -0.020225512426884376   0.00023469785504950588
-0.38518757831879386   -0.020225512426884376   0.00023469785504950588
-0.38518757831879386   -0.020225512426884376   0.00023469785504950588
-0.38518757831879386   -0.020225512426884376   0.00023469785504950588
-0.16579705476613033   -0.011247765925954563   -0.0505040476943149
-0.16579705476613033   -0.011247765925954563   -0.0505040476943149
-0.16579705476613033   -0.011247765925954563   -0.0505040476943149
-0.16579705476613033   -0.011247765925954563   -0.0505040476943149
0.05893367903223727   0.014733419758059318   0.014733419758059318
0.05893367903223727   0.014733419758059318   0.014733419758059318
0.05893367903223727   0.014733419758059318   0.014733419758059318
0.05893367903223727   0.014733419758059318   0.014733419758059318
0.5752284603005862   0.05281389890651356   0.017896221614763945
0.5752284603005862   0.05281389890651356   0.017896221614763945
0.5752284603005862   0.05281389890651356   0.017896221614763945
0.5752284603005862   0.05281389890651356   0.017896221614763945
0.6248805939121632   0.1562201484780408   0.1562201484780408
0.6248805939121632   0.1562201484780408   0.1562201484780408
0.6248805939121632   0.1562201484780408   0.1562201484780408
0.6248805939121632   0.1562201484780408   0.1562201484780408
0.05366802262676325   -0.04047673263079153   -0.00834323309289369
0.05366802262676325   -0.04047673263079153   -0.00834323309289369
0.05366802262676325   -0.04047673263079153   -0.00834323309289369
0.05366802262676325   -0.04047673263079153   -0.00834323309289369
0.32777774042861735   0.040824443587234936   0.05948214443095068
0.32777774042861735   0.040824443587234936   0.05948214443095068
0.32777774042861735   0.040824443587234936   0.05948214443095068
0.32777774042861735   0.040824443587234936   0.05948214443095068
0.07048001752388922   0.017620004380972304   0.017620004380972304
0.07048001752388922   0.017620004380972304   0.017620004380972304
0.07048001752388922   0.017620004380972304   0.017620004380972304
0.07048001752388922   0.017620004380972304   0.017620004380972304
0.5823857954828637   0.07244060793410345   0.027525696875480787
0.5823857954828637   0.07244060793410345   0.027525696875480787
0.5823857954828637   0.07244060793410345   0.027525696875480787
0.5823857954828637   0.07244060793410345   0.027525696875480787
0.6224996171477026   0.15562490428692566   0.15562490428692566
0.6224996171477026   0.15562490428692566   0.15562490428692566
0.6224996171477026   0.15562490428692566   0.15562490428692566
0.6224996171477026   0.15562490428692566   0.15562490428692566
0.06822692177587568   -0.017378127116125682   0.00017694329827532516
0.06822692177587568   -0.017378127116125682   0.00017694329827532516
0.06822692177587568   -0.017378127116125682   0.00017694329827532516
0.06822692177587568   -0.017378127116125682   0.00017694329827532516
0.325659524953385   0.053690733746082256   0.015402713009761267
0.325659524953385   0.053690733746082256   0.015402713009761267
0.325659524953385   0.053690733746082256   0.015402713009761267
0.325659524953385   0.053690733746082256   0.015402713009761267
0.07963017615493966   0.019907544038734914   0.019907544038734914
0.07963017615493966   0.019907544038734914   0.019907544038734914
0.07963017615493966   0.019907544038734914   0.019907544038734914
0.07963017615493966   0.019907544038734914   0.019907544038734914
0.5856620548461525   0.09290492520957896   0.03415707185652172
0.5856620548461525   0.09290492520957896   0.03415707185652172
0.5856620548461525   0.09290492520957896   0.03415707185652172
0.5856620548461525   0.09290492520957896   0.03415707185652172
0.6348393020371796   0.1587098255092949   0.1587098255092949
0.6348393020371796   0.1587098255092949   0.1587098255092949
0.6348393020371796   0.1587098255092949   0.1587098255092949
0.6348393020371796   0.1587098255092949   0.1587098255092949
0.08723831501047961   0.013153169939303662   0.00971929508526925
0.08723831501047961   0.013153169939303662   0.00971929508526925
0.08723831501047961   0.013153169939303662   0.00971929508526925
0.08723831501047961   0.013153169939303662   0.00971929508526925
0.33099996117291297   0.07291048390693466   -0.025467003974637574
0.33099996117291297   0.07291048390693466   -0.025467003974637574
0.33099996117291297   0.07291048390693466   -0.025467003974637574
0.33099996117291297   0.07291048390693466   -0.025467003974637574
0.6234293735514785   0.15585734338786963   0.15585734338786963
0.6234293735514785   0.15585734338786963   0.15585734338786963
0.6234293735514785   0.15585734338786963   0.15585734338786963
0.6234293735514785   0.15585734338786963   0.15585734338786963
1.2949732345060894   0.09880533071612235   0.034244136640417186
1.2949732345060894   0.09880533071612235   0.034244136640417186
1.2949732345060894   0.09880533071612235   0.034244136640417186
1.2949732345060894   0.09880533071612235   0.034244136640417186
1.323998269996611   0.33099956749915277   0.33099956749915277
1.323998269996611   0.33099956749915277   0.33099956749915277
1.323998269996611   0.33099956749915277   0.33099956749915277
1.323998269996611   0.33099956749915277   0.33099956749915277
0.5555271924280853   -0.03143324893605717   -0.002893461528250464
0.5555271924280853   -0.03143324893605717   -0.002893461528250464
0.5555271924280853   -0.03143324893605717   -0.002893461528250464
0.5555271924280853   -0.03143324893605717   -0.002893461528250464
0.9233217729028871   0.13078472973534291   0.10411193679589066
0.9233217729028871   0.13078472973534291   0.10411193679589066
0.9233217729028871   0.13078472973534291   0.10411193679589066
0.9233217729028871   0.13078472973534291   0.10411193679589066
0.6248805939121627   0.15622014847804067   0.15622014847804067
0.6248805939121627   0.15622014847804067   0.15622014847804067
0.6248805939121627   0.15622014847804067   0.15622014847804067
0.6248805939121627   0.15622014847804067   0.15622014847804067
1.2271059539888016   0.11580725556132687   0.06173029939795151
1.2271059539888016   0.11580725556132687   0.06173029939795151
1.2271059539888016   0.11580725556132687   0.06173029939795151
1.2271059539888016   0.11580725556132687   0.06173029939795151
1.2847990257541806   0.32119975643854515   0.32119975643854515
1.2847990257541806   0.32119975643854515   0.32119975643854515
1.2847990257541806   0.32119975643854515   0.32119975643854515
1.2847990257541806   0.32119975643854515   0.32119975643854515
0.5577492626224645   -0.01717686064076651   0.00467489658842684
0.5577492626224645   -0.01717686064076651   0.00467489658842684
0.5577492626224645   -0.01717686064076651   0.00467489658842684
0.5577492626224645   -0.01717686064076651   0.00467489658842684
0.896267275196032   0.13465265547178967   0.04990457625909969
0.896267275196032   0.13465265547178967   0.04990457625909969
0.896267275196032   0.13465265547178967   0.04990457625909969
0.896267275196032   0.13465265547178967   0.04990457625909969
0.6224996171477026   0.15562490428692566   0.15562490428692566
0.6224996171477026   0.15562490428692566   0.15562490428692566
0.6224996171477026   0.15562490428692566   0.15562490428692566
0.6224996171477026   0.15562490428692566   0.15562490428692566
1.1879247123236911   0.11627403260560557   0.041753913119058274
1.1879247123236911   0.11627403260560557   0.041753913119058274
1.1879247123236911   0.11627403260560557   0.041753913119058274
1.1879247123236911   0.11627403260560557   0.041753913119058274
1.226235981687562   0.3065589954218905   0.3065589954218905
1.226235981687562   0.3065589954218905   0.3065589954218905
1.226235981687562   0.3065589954218905   0.3065589954218905
1.226235981687562   0.3065589954218905   0.3065589954218905
0.5786890071273095   0.018738915998671737   0.017929260470571872
0.5786890071273095   0.018738915998671737   0.017929260470571872
0.5786890071273095   0.018738915998671737   0.017929260470571872
0.5786890071273095   0.018738915998671737   0.017929260470571872
0.8585173654921867   0.1461089940725502   -0.013177263990961918
0.8585173654921867   0.1461089940725502   -0.013177263990961918
0.8585173654921867   0.1461089940725502   -0.013177263990961918
0.8585173654921867   0.1461089940725502   -0.013177263990961918
-1.2540562487503515   -0.08984672507258484   0.014508319750000054
-1.2540562487503515   -0.08984672507258484   0.014508319750000054
-1.2540562487503515   -0.08984672507258484   0.014508319750000054
-1.2540562487503515   -0.08984672507258484   0.014508319750000054
-0.7986106891618254   -0.018793802688584244   -0.005301727087681431
-0.7986106891618254   -0.018793802688584244   -0.005301727087681431
-0.7986106891618254   -0.018793802688584244   -0.005301727087681431
-0.7986106891618254   -0.018793802688584244   -0.005301727087681431
-0.8037106585549464   0.03256603939997951   0.017032038216965882
-0.8037106585549464   0.03256603939997951   0.017032038216965882
-0.8037106585549464   0.03256603939997951   0.017032038216965882
-0.8037106585549464   0.03256603939997951   0.017032038216965882
-1.272570172267896   -0.0870030072629622   -0.015241433400224609
-1.272570172267896   -0.0870030072629622   -0.015241433400224609
-1.272570172267896   -0.0870030072629622   -0.015241433400224609
-1.272570172267896   -0.0870030072629622   -0.015241433400224609
-0.9916565533786383   -0.03398324905532807   -0.004131712530706329
-0.9916565533786383   -0.03398324905532807   -0.004131712530706329
-0.9916565533786383   -0.03398324905532807   -0.004131712530706329
-0.9916565533786383   -0.03398324905532807   -0.004131712530706329
-1.2631423192997435   -0.06145644629738159   0.00635127047495742
-1.2631423192997435   -0.06145644629738159   0.00635127047495742
-1.2631423192997435   -0.06145644629738159   0.00635127047495742
-1.2631423192997435   -0.06145644629738159   0.00635127047495742
-0.8144549955396102   0.00570299441788974   -0.009826601724250657
-0.8144549955396102   0.00570299441788974   -0.009826601724250657
-0.8144549955396102   0.00570299441788974   -0.009826601724250657
-0.8144549955396102   0.00570299441788974   -0.009826601724250657
-0.804484270791009   0.04647909708685963   0.01932692618043038
-0.804484270791009   0.04647909708685963   0.01932692618043038
-0.804484270791009   0.04647909708685963   0.01932692618043038
-0.804484270791009   0.04647909708685963   0.01932692618043038
-1.280025596719274   -0.07656601124738824   -0.020101781976058213
-1.280025596719274   -0.07656601124738824   -0.020101781976058213
-1.280025596719274   -0.07656601124738824   -0.020101781976058213
-1.280025596719274   -0.07656601124738824   -0.020101781976058213
-1.0192734317681547   -0.022675328124672323   -0.009763175252193744
-1.0192734317681547   -0.022675328124672323   -0.009763175252193744
-1.0192734317681547   -0.022675328124672323   -0.009763175252193744
-1.0192734317681547   -0.022675328124672323   -0.009763175252193744
-1.2568475506646604   -0.03667871392836056   0.05590115097798098
-1.2568475506646604   -0.03667871392836056   0.05590115097798098
-1.2568475506646604   -0.03667871392836056   0.05590115097798098
-1.2568475506646604   -0.03667871392836056   0.05590115097798098
-0.8180545518061662   0.016199564807290068   -0.018244946615778218
-0.8180545518061662   0.016199564807290068   -0.018244946615778218
-0.8180545518061662   0.016199564807290068   -0.018244946615778218
-0.8180545518061662   0.016199564807290068   -0.018244946615778218
-0.7896438706331598   0.08108144368839901   0.034921672899226805
-0.7896438706331598   0.08108144368839901   0.034921672899226805
-0.7896438706331598   0.08108144368839901   0.034921672899226805
-0.7896438706331598   0.08108144368839901   0.034921672899226805
-1.2442633138732364   -0.061618562730048815   -0.032793278454697476
-1.2442633138732364   -0.061618562730048815   -0.032793278454697476
-1.2442633138732364   -0.061618562730048815   -0.032793278454697476
-1.2442633138732364   -0.061618562730048815   -0.032793278454697476
-0.9800047067814537   0.009312714073270917   0.021782155255758877
-0.9800047067814537   0.009312714073270917   0.021782155255758877
-0.9800047067814537   0.009312714073270917   0.021782155255758877
-0.9800047067814537   0.009312714073270917   0.021782155255758877
-0.8183395555075863   -0.10861076037626002   -0.01412910112881001
-0.8183395555075863   -0.10861076037626002   -0.01412910112881001
-0.8183395555075863   -0.10861076037626002   -0.01412910112881001
-0.8183395555075863   -0.10861076037626002   -0.01412910112881001
-0.37749003228044703   -0.00863385226698156   0.003948922086324049
-0.37749003228044703   -0.00863385226698156   0.003948922086324049
-0.37749003228044703   -0.00863385226698156   0.003948922086324049
-0.37749003228044703   -0.00863385226698156   0.003948922086324049
-0.38281388310281245   0.0071574552284853765   0.005810497176391229
-0.38281388310281245   0.0071574552284853765   0.005810497176391229
-0.38281388310281245   0.0071574552284853765   0.005810497176391229
-0.38281388310281245   0.0071574552284853765   0.005810497176391229
-0.8344439751175197   -0.07946573454568148   -0.024602770650239726
-0.8344439751175197   -0.07946573454568148   -0.024602770650239726
-0.8344439751175197   -0.07946573454568148   -0.024602770650239726
-0.8344439751175197   -0.07946573454568148   -0.024602770650239726
-0.6032731813799923   -0.049097797102958946   -0.013928178592499639
-0.6032731813799923   -0.049097797102958946   -0.013928178592499639
-0.6032731813799923   -0.049097797102958946   -0.013928178592499639
-0.6032731813799923   -0.049097797102958946   -0.013928178592499639
-0.8336208341606413   -0.08679716208388796   -0.013155638327645602
-0.8336208341606413   -0.08679716208388796   -0.013155638327645602
-0.8336208341606413   -0.08679716208388796   -0.013155638327645602
-0.8336208341606413   -0.08679716208388796   -0.013155638327645602
-0.3821539689121922   0.01597193791418905   0.0002955854437854191
-0.3821539689121922   0.01597193791418905   0.0002955854437854191
-0.3821539689121922   0.01597193791418905   0.0002955854437854191
-0.3821539689121922   0.01597193791418905   0.0002955854437854191
-0.3812071597317892   0.02657836414284151   0.007817255302048461
-0.3812071597317892   0.02657836414284151   0.007817255302048461
-0.3812071597317892   0.02657836414284151   0.007817255302048461
-0.3812071597317892   0.02657836414284151   0.007817255302048461
-0.8345982006113303   -0.05813982017678568   -0.026623805657530156
-0.8345982006113303   -0.05813982017678568   -0.026623805657530156
-0.8345982006113303   -0.05813982017678568   -0.026623805657530156
-0.8345982006113303   -0.05813982017678568   -0.026623805657530156
-0.6019376007436399   -0.02728490710374959   -0.006628985199892655
-0.6019376007436399   -0.02728490710374959   -0.006628985199892655
-0.6019376007436399   -0.02728490710374959   -0.006628985199892655
-0.6019376007436399   -0.02728490710374959   -0.006628985199892655
-0.8313031662391388   -0.06555164917809174   -0.0027368047952671566
-0.8313031662391388   -0.06555164917809174   -0.0027368047952671566
-0.8313031662391388   -0.06555164917809174   -0.0027368047952671566
-0.8313031662391388   -0.06555164917809174   -0.0027368047952671566
-0.3817460467872119   0.03674634046091729   -0.005045156293137475
-0.3817460467872119   0.03674634046091729   -0.005045156293137475
-0.3817460467872119   0.03674634046091729   -0.005045156293137475
-0.3817460467872119   0.03674634046091729   -0.005045156293137475
-0.3746667150765855   0.04606966419494277   0.015597905827856605
-0.3746667150765855   0.04606966419494277   0.015597905827856605
-0.3746667150765855   0.04606966419494277   0.015597905827856605
-0.3746667150765855   0.04606966419494277   0.015597905827856605
-0.8254775107165606   -0.033496360391717384   -0.02966872343765844
-0.8254775107165606   -0.033496360391717384   -0.02966872343765844
-0.8254775107165606   -0.033496360391717384   -0.02966872343765844
-0.8254775107165606   -0.033496360391717384   -0.02966872343765844
-0.5992441676492166   -0.006639705915544664   0.0029998068268176845
-0.5992441676492166   -0.006639705915544664   0.0029998068268176845
-0.5992441676492166   -0.006639705915544664   0.0029998068268176845
-0.5992441676492166   -0.006639705915544664   0.0029998068268176845
-0.397986805151625   -0.09042768021456563   -0.016741114321981658
-0.397986805151625   -0.09042768021456563   -0.016741114321981658
-0.397986805151625   -0.09042768021456563   -0.016741114321981658
-0.397986805151625   -0.09042768021456563   -0.016741114321981658
0.04033012856083344   0.009157806282133545   0.015502998849783274
0.04033012856083344   0.009157806282133545   0.015502998849783274
0.04033012856083344   0.009157806282133545   0.015502998849783274
0.04033012856083344   0.009157806282133545   0.015502998849783274
0.03861918596214248   0.022643591921675338   0.0012710644846756275
0.03861918596214248   0.022643591921675338   0.0012710644846756275
0.03861918596214248   0.022643591921675338   0.0012710644846756275
0.03861918596214248   0.022643591921675338   0.0012710644846756275
-0.3995149613586969   -0.05984012133218294   -0.01069731754236602
-0.3995149613586969   -0.05984012133218294   -0.01069731754236602
-0.3995149613586969   -0.05984012133218294   -0.01069731754236602
-0.3995149613586969   -0.05984012133218294   -0.01069731754236602
-0.1813784191215339   -0.030047231325030246   -0.00578945181774526
-0.1813784191215339   -0.030047231325030246   -0.00578945181774526
-0.1813784191215339   -0.030047231325030246   -0.00578945181774526
-0.1813784191215339   -0.030047231325030246   -0.00578945181774526
-0.40228370502305527   -0.06888952550963957   -0.015491631686701174
-0.40228370502305527   -0.06888952550963957   -0.015491631686701174
-0.40228370502305527   -0.06888952550963957   -0.015491631686701174
-0.40228370502305527   -0.06888952550963957   -0.015491631686701174
0.04291230427219472   0.03321737074482582   0.012162877211786091
0.04291230427219472   0.03321737074482582   0.012162877211786091
0.04291230427219472   0.03321737074482582   0.012162877211786091
0.04291230427219472   0.03321737074482582   0.012162877211786091
0.041911985632112736   0.04399904744045417   0.0071893909808387075
0.041911985632112736   0.04399904744045417   0.0071893909808387075
0.041911985632112736   0.04399904744045417   0.0071893909808387075
0.041911985632112736   0.04399904744045417   0.0071893909808387075
-0.39804158763584196   -0.0364168284929958   -0.013359691582381502
-0.39804158763584196   -0.0364168284929958   -0.013359691582381502
-0.39804158763584196   -0.0364168284929958   -0.013359691582381502
-0.39804158763584196   -0.0364168284929958   -0.013359691582381502
-0.17837530970484358   -0.007363800983638376   0.0020917304961200114
-0.17837530970484358   -0.007363800983638376   0.0020917304961200114
-0.17837530970484358   -0.007363800983638376   0.0020917304961200114
-0.17837530970484358   -0.007363800983638376   0.0020917304961200114
-0.39912473510028257   -0.0472371886514239   -0.00795506874615634
-0.39912473510028257   -0.0472371886514239   -0.00795506874615634
-0.39912473510028257   -0.0472371886514239   -0.00795506874615634
-0.39912473510028257   -0.0472371886514239   -0.00795506874615634
0.044637109624592344   0.0564613841269206   0.008352674256770004
0.044637109624592344   0.0564613841269206   0.008352674256770004
0.044637109624592344   0.0564613841269206   0.008352674256770004
0.044637109624592344   0.0564613841269206   0.008352674256770004
0.043070909525085785   0.06773987663640375   0.011803155327610499
0.043070909525085785   0.06773987663640375   0.011803155327610499
0.043070909525085785   0.06773987663640375   0.011803155327610499
0.043070909525085785   0.06773987663640375   0.011803155327610499
-0.39264890538706515   -0.011390321186923721   -0.01685306034267651
-0.39264890538706515   -0.011390321186923721   -0.01685306034267651
-0.39264890538706515   -0.011390321186923721   -0.01685306034267651
-0.39264890538706515   -0.011390321186923721   -0.01685306034267651
-0.17373208897346706   0.016357193176841117   0.01072013122496181
-0.17373208897346706   0.016357193176841117   0.01072013122496181
-0.17373208897346706   0.016357193176841117   0.01072013122496181
-0.17373208897346706   0.016357193176841117   0.01072013122496181
0.017999817102543333   -0.06634102040662863   -0.02064973175290509
0.017999817102543333   -0.06634102040662863   -0.02064973175290509
0.017999817102543333   -0.06634102040662863   -0.02064973175290509
0.017999817102543333   -0.06634102040662863   -0.02064973175290509
0.4721108925791587   0.032476718601661694   0.0285127670478029
0.4721108925791587   0.032476718601661694   0.0285127670478029
0.4721108925791587   0.032476718601661694   0.0285127670478029
0.4721108925791587   0.032476718601661694   0.0285127670478029
0.4717004382079982   0.0438791297781491   -0.004596336629426453
0.4717004382079982   0.0438791297781491   -0.004596336629426453
0.4717004382079982   0.0438791297781491   -0.004596336629426453
0.4717004382079982   0.0438791297781491   -0.004596336629426453
0.026480373426098623   -0.039734077366898504   0.0029546710930299005
0.026480373426098623   -0.039734077366898504   0.0029546710930299005
0.026480373426098623   -0.039734077366898504   0.0029546710930299005
0.026480373426098623   -0.039734077366898504   0.0029546710930299005
0.24401692559065213   -0.005763241679674604   0.00045726764585198205
0.24401692559065213   -0.005763241679674604   0.00045726764585198205
0.24401692559065213   -0.005763241679674604   0.00045726764585198205
0.24401692559065213   -0.005763241679674604   0.00045726764585198205
0.021058475708958115   -0.04842314530640651   -0.015465749553164354
0.021058475708958115   -0.04842314530640651   -0.015465749553164354
0.021058475708958115   -0.04842314530640651   -0.015465749553164354
0.021058475708958115   -0.04842314530640651   -0.015465749553164354
0.479873143314628   0.05531900510714706   0.024827313574724504
0.479873143314628   0.05531900510714706   0.024827313574724504
0.479873143314628   0.05531900510714706   0.024827313574724504
0.479873143314628   0.05531900510714706   0.024827313574724504
0.4756614980883234   0.06501244025901998   0.004695203861555938
0.4756614980883234   0.06501244025901998   0.004695203861555938
0.4756614980883234   0.06501244025901998   0.004695203861555938
0.4756614980883234   0.06501244025901998   0.004695203861555938
0.02765876888943642   -0.018788617731964986   -0.0012890275601237303
0.02765876888943642   -0.018788617731964986   -0.0012890275601237303
0.02765876888943642   -0.018788617731964986   -0.0012890275601237303
0.02765876888943642   -0.018788617731964986   -0.0012890275601237303
0.24750406156956692   0.014430005121985827   0.010144797503047304
0.24750406156956692   0.014430005121985827   0.010144797503047304
0.24750406156956692   0.014430005121985827   0.010144797503047304
0.24750406156956692   0.014430005121985827   0.010144797503047304
0.02368869159882591   -0.02858897346684911   -0.011339058278292048
0.02368869159882591   -0.02858897346684911   -0.011339058278292048
0.02368869159882591   -0.02858897346684911   -0.011339058278292048
0.02368869159882591   -0.02858897346684911   -0.011339058278292048
0.48162399759287355   0.07680521820784447   0.02271492343548634
0.48162399759287355   0.07680521820784447   0.02271492343548634
0.48162399759287355   0.07680521820784447   0.02271492343548634
0.48162399759287355   0.07680521820784447   0.02271492343548634
0.4682143284257914   0.08939773115772805   0.009966087762079415
0.4682143284257914   0.08939773115772805   0.009966087762079415
0.4682143284257914   0.08939773115772805   0.009966087762079415
0.4682143284257914   0.08939773115772805   0.009966087762079415
0.02760068124179961   0.007115648993963384   -0.004923758446379987
0.02760068124179961   0.007115648993963384   -0.004923758446379987
0.02760068124179961   0.007115648993963384   -0.004923758446379987
0.02760068124179961   0.007115648993963384   -0.004923758446379987
0.25138894349118474   0.03750857983135113   0.01912384881433702
0.25138894349118474   0.03750857983135113   0.01912384881433702
0.25138894349118474   0.03750857983135113   0.01912384881433702
0.25138894349118474   0.03750857983135113   0.01912384881433702
0.43469488557145236   -0.08776439689725163   -0.038326152491815674
0.43469488557145236   -0.08776439689725163   -0.038326152491815674
0.43469488557145236   -0.08776439689725163   -0.038326152491815674
0.43469488557145236   -0.08776439689725163   -0.038326152491815674
0.8960190066481502   0.05919473067635586   0.027957712752893916
0.8960190066481502   0.05919473067635586   0.027957712752893916
0.8960190066481502   0.05919473067635586   0.027957712752893916
0.8960190066481502   0.05919473067635586   0.027957712752893916
0.9064027172841512   0.02778577265767393   -0.0576738784156608
0.9064027172841512   0.02778577265767393   -0.0576738784156608
0.9064027172841512   0.02778577265767393   -0.0576738784156608
0.9064027172841512   0.02778577265767393   -0.0576738784156608
0.46365536046621714   -0.017724093720890954   0.016781498160704046
0.46365536046621714   -0.017724093720890954   0.016781498160704046
0.46365536046621714   -0.017724093720890954   0.016781498160704046
0.46365536046621714   -0.017724093720890954   0.016781498160704046
0.6415882891422577   -0.011411045555522276   -0.016203352539597128
0.6415882891422577   -0.011411045555522276   -0.016203352539597128
0.6415882891422577   -0.011411045555522276   -0.016203352539597128
0.6415882891422577   -0.011411045555522276   -0.016203352539597128
0.4472155387191879   -0.05762102352604308   -0.025520680769283495
0.4472155387191879   -0.05762102352604308   -0.025520680769283495
0.4472155387191879   -0.05762102352604308   -0.025520680769283495
0.4472155387191879   -0.05762102352604308   -0.025520680769283495
0.9311135118538176   0.07595367528546385   0.017712191804881386
0.9311135118538176   0.07595367528546385   0.017712191804881386
0.9311135118538176   0.07595367528546385   0.017712191804881386
0.9311135118538176   0.07595367528546385   0.017712191804881386
0.9167406929696172   0.05102667221598817   -0.013298869474953505
0.9167406929696172   0.05102667221598817   -0.013298869474953505
0.9167406929696172   0.05102667221598817   -0.013298869474953505
0.9167406929696172   0.05102667221598817   -0.013298869474953505
0.46201667207335323   -0.007257253549429188   0.00874076759515411
0.46201667207335323   -0.007257253549429188   0.00874076759515411
0.46201667207335323   -0.007257253549429188   0.00874076759515411
0.46201667207335323   -0.007257253549429188   0.00874076759515411
0.6755583196031976   0.016895463414848683   0.011139706427414804
0.6755583196031976   0.016895463414848683   0.011139706427414804
0.6755583196031976   0.016895463414848683   0.011139706427414804
0.6755583196031976   0.016895463414848683   0.011139706427414804
0.4487949612275725   -0.04402309022838735   -0.020601949954787348
0.4487949612275725   -0.04402309022838735   -0.020601949954787348
0.4487949612275725   -0.04402309022838735   -0.020601949954787348
0.4487949612275725   -0.04402309022838735   -0.020601949954787348
0.9288897585093893   0.08671986358893781   0.01175326685095689
0.9288897585093893   0.08671986358893781   0.01175326685095689
0.9288897585093893   0.08671986358893781   0.01175326685095689
0.9288897585093893   0.08671986358893781   0.01175326685095689
0.9156069022099073   0.078483074829284   -0.020267840458963602
0.9156069022099073   0.078483074829284   -0.020267840458963602
0.9156069022099073   0.078483074829284   -0.020267840458963602
0.9156069022099073   0.078483074829284   -0.020267840458963602
0.45268462696333456   0.01679108828292504   0.004924223324594447
0.45268462696333456   0.01679108828292504   0.004924223324594447
0.45268462696333456   0.01679108828292504   0.004924223324594447
0.45268462696333456   0.01679108828292504   0.004924223324594447
0.6585614496201123   0.029748623795527604   0.008380202956119649
0.6585614496201123   0.029748623795527604   0.008380202956119649
0.6585614496201123   0.029748623795527604   0.008380202956119649
0.6585614496201123   0.029748623795527604   0.008380202956119649
-0.9835572643856066   -0.04451085665629065   0.05105957829756776
-0.9835572643856066   -0.04451085665629065   0.05105957829756776
-0.9835572643856066   -0.04451085665629065   0.05105957829756776
-0.9835572643856066   -0.04451085665629065   0.05105957829756776
-0.6538579763611629   -0.025117331053957054   -0.013285655937218865
-0.6538579763611629   -0.025117331053957054   -0.013285655937218865
-0.6538579763611629   -0.025117331053957054   -0.013285655937218865
-0.6538579763611629   -0.025117331053957054   -0.013285655937218865
-0.6300435714656392   0.05310905309936312   0.042792267609145306
-0.6300435714656392   0.05310905309936312   0.042792267609145306
-0.6300435714656392   0.05310905309936312   0.042792267609145306
-0.6300435714656392   0.05310905309936312   0.042792267609145306
-0.988002174219123   -0.0706341994668592   -0.02079117884040331
-0.988002174219123   -0.0706341994668592   -0.02079117884040331
-0.988002174219123   -0.0706341994668592   -0.02079117884040331
-0.988002174219123   -0.0706341994668592   -0.02079117884040331
-0.7808627003029902   -0.012068075891220942   -0.0016326778681439863
-0.7808627003029902   -0.012068075891220942   -0.0016326778681439863
-0.7808627003029902   -0.012068075891220942   -0.0016326778681439863
-0.7808627003029902   -0.012068075891220942   -0.0016326778681439863
-0.9603034835396513   -0.010073139849374552   0.05714121493946916
-0.9603034835396513   -0.010073139849374552   0.05714121493946916
-0.9603034835396513   -0.010073139849374552   0.05714121493946916
-0.9603034835396513   -0.010073139849374552   0.05714121493946916
-0.6533839854938505   -0.0030937298668614333   -0.017707019565686835
-0.6533839854938505   -0.0030937298668614333   -0.017707019565686835
-0.6533839854938505   -0.0030937298668614333   -0.017707019565686835
-0.6533839854938505   -0.0030937298668614333   -0.017707019565686835
-0.6273755056525994   0.06591052378653509   0.03963080212687997
-0.6273755056525994   0.06591052378653509   0.03963080212687997
-0.6273755056525994   0.06591052378653509   0.03963080212687997
-0.6273755056525994   0.06591052378653509   0.03963080212687997
-0.9724846077719227   -0.05901930842444045   -0.028436097611579204
-0.9724846077719227   -0.05901930842444045   -0.028436097611579204
-0.9724846077719227   -0.05901930842444045   -0.028436097611579204
-0.9724846077719227   -0.05901930842444045   -0.028436097611579204
-0.7823464659676245   0.002969697147013617   0.00892302157884401
-0.7823464659676245   0.002969697147013617   0.00892302157884401
-0.7823464659676245   0.002969697147013617   0.00892302157884401
-0.7823464659676245   0.002969697147013617   0.00892302157884401
-0.9467032069170103   0.002007618963321245   0.03944397927522164
-0.9467032069170103   0.002007618963321245   0.03944397927522164
-0.9467032069170103   0.002007618963321245   0.03944397927522164
-0.9467032069170103   0.002007618963321245   0.03944397927522164
-0.6517217583194517   0.006318744586834679   -0.022508682007674703
-0.6517217583194517   0.006318744586834679   -0.022508682007674703
-0.6517217583194517   0.006318744586834679   -0.022508682007674703
-0.6517217583194517   0.006318744586834679   -0.022508682007674703
-0.6278935565756038   0.07450365866061717   0.03144807120099969
-0.6278935565756038   0.07450365866061717   0.03144807120099969
-0.6278935565756038   0.07450365866061717   0.03144807120099969
-0.6278935565756038   0.07450365866061717   0.03144807120099969
-0.9524007728891162   -0.04662287852323749   -0.03623521996810074
-0.9524007728891162   -0.04662287852323749   -0.03623521996810074
-0.9524007728891162   -0.04662287852323749   -0.03623521996810074
-0.9524007728891162   -0.04662287852323749   -0.03623521996810074
-0.7597103424369163   0.016462197947790136   0.01873201318365178
-0.7597103424369163   0.016462197947790136   0.01873201318365178
-0.7597103424369163   0.016462197947790136   0.01873201318365178
-0.7597103424369163   0.016462197947790136   0.01873201318365178
-0.6556822152215187   -0.062139091275876426   0.014614909982921472
-0.6556822152215187   -0.062139091275876426   0.014614909982921472
-0.6556822152215187   -0.062139091275876426   0.014614909982921472
-0.6556822152215187   -0.062139091275876426   0.014614909982921472
-0.33174115230275775   -0.012150676395775217   0.0006060596097196939
-0.33174115230275775   -0.012150676395775217   0.0006060596097196939
-0.33174115230275775   -0.012150676395775217   0.0006060596097196939
-0.33174115230275775   -0.012150676395775217   0.0006060596097196939
-0.32221225120678354   0.03254938970562948   0.02324112669557895
-0.32221225120678354   0.03254938970562948   0.02324112669557895
-0.32221225120678354   0.03254938970562948   0.02324112669557895
-0.32221225120678354   0.03254938970562948   0.02324112669557895
-0.666071784750021   -0.06127899525766835   -0.02296075045573274
-0.666071784750021   -0.06127899525766835   -0.02296075045573274
-0.666071784750021   -0.06127899525766835   -0.02296075045573274
-0.666071784750021   -0.06127899525766835   -0.02296075045573274
-0.49219429278492477   -0.02415531054573422   -0.010065189356136404
-0.49219429278492477   -0.02415531054573422   -0.010065189356136404
-0.49219429278492477   -0.02415531054573422   -0.010065189356136404
-0.49219429278492477   -0.02415531054573422   -0.010065189356136404
-0.6535077581448329   -0.03553488296549054   0.014115270278028134
-0.6535077581448329   -0.03553488296549054   0.014115270278028134
-0.6535077581448329   -0.03553488296549054   0.014115270278028134
-0.6535077581448329   -0.03553488296549054   0.014115270278028134
-0.3322374528557704   0.009344102369654314   -0.0036795942133777265
-0.3322374528557704   0.009344102369654314   -0.0036795942133777265
-0.3322374528557704   0.009344102369654314   -0.0036795942133777265
-0.3322374528557704   0.009344102369654314   -0.0036795942133777265
-0.3211036162018106   0.053902199497114445   0.020091708302447005
-0.3211036162018106   0.053902199497114445   0.020091708302447005
-0.3211036162018106   0.053902199497114445   0.020091708302447005
-0.3211036162018106   0.053902199497114445   0.020091708302447005
-0.6621808774405713   -0.041364900870655114   -0.02712063215578974
-0.6621808774405713   -0.041364900870655114   -0.02712063215578974
-0.6621808774405713   -0.041364900870655114   -0.02712063215578974
-0.6621808774405713   -0.041364900870655114   -0.02712063215578974
-0.4867248098742923   -0.0025803178009872613   -8.640930389890167e-05
-0.4867248098742923   -0.0025803178009872613   -8.640930389890167e-05
-0.4867248098742923   -0.0025803178009872613   -8.640930389890167e-05
-0.4867248098742923   -0.0025803178009872613   -8.640930389890167e-05
-0.6493623476333737   -0.013872054373149062   0.00947917038269245
-0.6493623476333737   -0.013872054373149062   0.00947917038269245
-0.6493623476333737   -0.013872054373149062   0.00947917038269245
-0.6493623476333737   -0.013872054373149062   0.00947917038269245
-0.3318554335129524   0.0284760654956661   -0.00824124425181029
-0.3318554335129524   0.0284760654956661   -0.00824124425181029
-0.3318554335129524   0.0284760654956661   -0.00824124425181029
-0.3318554335129524   0.0284760654956661   -0.00824124425181029
-0.32092257130026997   0.07635669408488112   0.015041609529043314
-0.32092257130026997   0.07635669408488112   0.015041609529043314
-0.32092257130026997   0.07635669408488112   0.015041609529043314
-0.32092257130026997   0.07635669408488112   0.015041609529043314
-0.6588900735013893   -0.019853967338238382   -0.029176887429077043
-0.6588900735013893   -0.019853967338238382   -0.029176887429077043
-0.6588900735013893   -0.019853967338238382   -0.029176887429077043
-0.6588900735013893   -0.019853967338238382   -0.029176887429077043
-0.4869359529468418   0.01723477458805618   0.00755446305230098
-0.4869359529468418   0.01723477458805618   0.00755446305230098
-0.4869359529468418   0.01723477458805618   0.00755446305230098
-0.4869359529468418   0.01723477458805618   0.00755446305230098
-0.34404556555176785   -0.07119272409713763   -0.0018739589339713371
-0.34404556555176785   -0.07119272409713763   -0.0018739589339713371
-0.34404556555176785   -0.07119272409713763   -0.0018739589339713371
-0.34404556555176785   -0.07119272409713763   -0.0018739589339713371
-0.012562337293907431   0.003317153824476386   0.014685337180350796
-0.012562337293907431   0.003317153824476386   0.014685337180350796
-0.012562337293907431   0.003317153824476386   0.014685337180350796
-0.012562337293907431   0.003317153824476386   0.014685337180350796
-0.013736388249353805   0.020861128796273665   0.007030359990573849
-0.013736388249353805   0.020861128796273665   0.007030359990573849
-0.013736388249353805   0.020861128796273665   0.007030359990573849
-0.013736388249353805   0.020861128796273665   0.007030359990573849
-0.3441901207345031   -0.0455376936999315   -0.008561137537460831
-0.3441901207345031   -0.0455376936999315   -0.008561137537460831
-0.3441901207345031   -0.0455376936999315   -0.008561137537460831
-0.3441901207345031   -0.0455376936999315   -0.008561137537460831
-0.17918636324931594   -0.022379476725309832   -0.005653404799044922
-0.17918636324931594   -0.022379476725309832   -0.005653404799044922
-0.17918636324931594   -0.022379476725309832   -0.005653404799044922
-0.17918636324931594   -0.022379476725309832   -0.005653404799044922
-0.34381863662685697   -0.047508062514311215   -0.004733348184847394
-0.34381863662685697   -0.047508062514311215   -0.004733348184847394
-0.34381863662685697   -0.047508062514311215   -0.004733348184847394
-0.34381863662685697   -0.047508062514311215   -0.004733348184847394
-0.012216838321881224   0.024722531645773885   0.010766706778436531
-0.012216838321881224   0.024722531645773885   0.010766706778436531
-0.012216838321881224   0.024722531645773885   0.010766706778436531
-0.012216838321881224   0.024722531645773885   0.010766706778436531
-0.012077918313817767   0.044116786871883605   0.003344715919995151
-0.012077918313817767   0.044116786871883605   0.003344715919995151
-0.012077918313817767   0.044116786871883605   0.003344715919995151
-0.012077918313817767   0.044116786871883605   0.003344715919995151
-0.3432338376119469   -0.02409125634381335   -0.012565942907306565
-0.3432338376119469   -0.02409125634381335   -0.012565942907306565
-0.3432338376119469   -0.02409125634381335   -0.012565942907306565
-0.3432338376119469   -0.02409125634381335   -0.012565942907306565
-0.17736101391679587   -0.0008880434789196312   0.0024138129799511736
-0.17736101391679587   -0.0008880434789196312   0.0024138129799511736
-0.17736101391679587   -0.0008880434789196312   0.0024138129799511736
-0.17736101391679587   -0.0008880434789196312   0.0024138129799511736
-0.3427198274233674   -0.02458163982972482   -0.009505508478497359
-0.3427198274233674   -0.02458163982972482   -0.009505508478497359
-0.3427198274233674   -0.02458163982972482   -0.009505508478497359
-0.3427198274233674   -0.02458163982972482   -0.009505508478497359
-0.011031166458288007   0.0461679324019031   0.006527329667624452
-0.011031166458288007   0.0461679324019031   0.006527329667624452
-0.011031166458288007   0.0461679324019031   0.006527329667624452
-0.011031166458288007   0.0461679324019031   0.006527329667624452
-0.011654777454831705   0.06806200049079009   -0.0005855798863409097
-0.011654777454831705   0.06806200049079009   -0.0005855798863409097
-0.011654777454831705   0.06806200049079009   -0.0005855798863409097
-0.011654777454831705   0.06806200049079009   -0.0005855798863409097
-0.3429830414751747   -0.0022850569310083335   -0.016618990329589647
-0.3429830414751747   -0.0022850569310083335   -0.016618990329589647
-0.3429830414751747   -0.0022850569310083335   -0.016618990329589647
-0.3429830414751747   -0.0022850569310083335   -0.016618990329589647
-0.17592332179770453   0.020624290843373534   0.009813189947625782
-0.17592332179770453   0.020624290843373534   0.009813189947625782
-0.17592332179770453   0.020624290843373534   0.009813189947625782
-0.17592332179770453   0.020624290843373534   0.009813189947625782
-0.03519276206167563   -0.0780970769190571   -0.01705255591495667
-0.03519276206167563   -0.0780970769190571   -0.01705255591495667
-0.03519276206167563   -0.0780970769190571   -0.01705255591495667
-0.03519276206167563   -0.0780970769190571   -0.01705255591495667
0.3052622745167596   0.021397383369235967   0.027930910863861142
0.3052622745167596   0.021397383369235967   0.027930910863861142
0.3052622745167596   0.021397383369235967   0.027930910863861142
0.3052622745167596   0.021397383369235967   0.027930910863861142
0.2952513568344029   0.011206550345688564   -0.01111317375234289
0.2952513568344029   0.011206550345688564   -0.01111317375234289
0.2952513568344029   0.011206550345688564   -0.01111317375234289
0.2952513568344029   0.011206550345688564   -0.01111317375234289
-0.023794768018977463   -0.02847985860976008   0.006079448548489306
-0.023794768018977463   -0.02847985860976008   0.006079448548489306
-0.023794768018977463   -0.02847985860976008   0.006079448548489306
-0.023794768018977463   -0.02847985860976008   0.006079448548489306
0.13345574056324983   -0.018202417458183635   -0.003210971439457427
0.13345574056324983   -0.018202417458183635   -0.003210971439457427
0.13345574056324983   -0.018202417458183635   -0.003210971439457427
0.13345574056324983   -0.018202417458183635   -0.003210971439457427
-0.03498413558034302   -0.05690613580034313   -0.02144111206775544
-0.03498413558034302   -0.05690613580034313   -0.02144111206775544
-0.03498413558034302   -0.05690613580034313   -0.02144111206775544
-0.03498413558034302   -0.05690613580034313   -0.02144111206775544
0.30859213063295377   0.041784233773456414   0.025013011812640512
0.30859213063295377   0.041784233773456414   0.025013011812640512
0.30859213063295377   0.041784233773456414   0.025013011812640512
0.30859213063295377   0.041784233773456414   0.025013011812640512
0.30017180639155566   0.032850462827312986   -0.015606662265856965
0.30017180639155566   0.032850462827312986   -0.015606662265856965
0.30017180639155566   0.032850462827312986   -0.015606662265856965
0.30017180639155566   0.032850462827312986   -0.015606662265856965
-0.023062471953747277   -0.00926194927556431   0.001800683867795683
-0.023062471953747277   -0.00926194927556431   0.001800683867795683
-0.023062471953747277   -0.00926194927556431   0.001800683867795683
-0.023062471953747277   -0.00926194927556431   0.001800683867795683
0.13474881386914236   0.001260374430449223   0.004812732826380066
0.13474881386914236   0.001260374430449223   0.004812732826380066
0.13474881386914236   0.001260374430449223   0.004812732826380066
0.13474881386914236   0.001260374430449223   0.004812732826380066
-0.03394735166114814   -0.03602430759917586   -0.025861356345597386
-0.03394735166114814   -0.03602430759917586   -0.025861356345597386
-0.03394735166114814   -0.03602430759917586   -0.025861356345597386
-0.03394735166114814   -0.03602430759917586   -0.025861356345597386
0.3134018898381363   0.061958024890102686   0.021436192904254758
0.3134018898381363   0.061958024890102686   0.021436192904254758
0.3134018898381363   0.061958024890102686   0.021436192904254758
0.3134018898381363   0.061958024890102686   0.021436192904254758
0.3032434831217044   0.05996303795745524   -0.016329615508825543
0.3032434831217044   0.05996303795745524   -0.016329615508825543
0.3032434831217044   0.05996303795745524   -0.016329615508825543
0.3032434831217044   0.05996303795745524   -0.016329615508825543
-0.02301004059156598   0.013168447133491516   -0.00246834221271346
-0.02301004059156598   0.013168447133491516   -0.00246834221271346
-0.02301004059156598   0.013168447133491516   -0.00246834221271346
-0.02301004059156598   0.013168447133491516   -0.00246834221271346
0.13954678274274399   0.022932698374764436   0.01432815812048697
0.13954678274274399   0.022932698374764436   0.01432815812048697
0.13954678274274399   0.022932698374764436   0.01432815812048697
0.13954678274274399   0.022932698374764436   0.01432815812048697
0.27321697063565115   -0.0776140534260093   -0.03328417174643281
0.27321697063565115   -0.0776140534260093   -0.03328417174643281
0.27321697063565115   -0.0776140534260093   -0.03328417174643281
0.27321697063565115   -0.0776140534260093   -0.03328417174643281
0.6017913397889584   0.044727561057876994   0.031192776221417275
0.6017913397889584   0.044727561057876994   0.031192776221417275
0.6017913397889584   0.044727561057876994   0.031192776221417275
0.6017913397889584   0.044727561057876994   0.031192776221417275
0.5971303333720974   -0.0032470753951804043   -0.04430838311662349
0.5971303333720974   -0.0032470753951804043   -0.04430838311662349
0.5971303333720974   -0.0032470753951804043   -0.04430838311662349
0.5971303333720974   -0.0032470753951804043   -0.04430838311662349
0.2981684351824864   -0.006294914991163317   0.020973683324926655
0.2981684351824864   -0.006294914991163317   0.020973683324926655
0.2981684351824864   -0.006294914991163317   0.020973683324926655
0.2981684351824864   -0.006294914991163317   0.020973683324926655
0.42108658665417975   -0.015243553017228045   -0.013893465528389184
0.42108658665417975   -0.015243553017228045   -0.013893465528389184
0.42108658665417975   -0.015243553017228045   -0.013893465528389184
0.42108658665417975   -0.015243553017228045   -0.013893465528389184
0.2735855956963966   -0.06728452677194471   -0.040950902324740315
0.2735855956963966   -0.06728452677194471   -0.040950902324740315
0.2735855956963966   -0.06728452677194471   -0.040950902324740315
0.2735855956963966   -0.06728452677194471   -0.040950902324740315
0.6234763610613313   0.059505724588743134   0.024668955345621805
0.6234763610613313   0.059505724588743134   0.024668955345621805
0.6234763610613313   0.059505724588743134   0.024668955345621805
0.6234763610613313   0.059505724588743134   0.024668955345621805
0.6120137495614184   0.009098238840639608   -0.05947884794256332
0.6120137495614184   0.009098238840639608   -0.05947884794256332
0.6120137495614184   0.009098238840639608   -0.05947884794256332
0.6120137495614184   0.009098238840639608   -0.05947884794256332
0.30048005362623176   0.0031260725651953564   0.01565896416964409
0.30048005362623176   0.0031260725651953564   0.01565896416964409
0.30048005362623176   0.0031260725651953564   0.01565896416964409
0.30048005362623176   0.0031260725651953564   0.01565896416964409
0.4403479018533283   -0.0018781489846491778   -0.004194382916383341
0.4403479018533283   -0.0018781489846491778   -0.004194382916383341
0.4403479018533283   -0.0018781489846491778   -0.004194382916383341
0.4403479018533283   -0.0018781489846491778   -0.004194382916383341
0.2768090344192415   -0.05496745538275507   -0.044602603917359804
0.2768090344192415   -0.05496745538275507   -0.044602603917359804
0.2768090344192415   -0.05496745538275507   -0.044602603917359804
0.2768090344192415   -0.05496745538275507   -0.044602603917359804
0.6395829237730777   0.07108992179325964   0.016375340163119503
0.6395829237730777   0.07108992179325964   0.016375340163119503
0.6395829237730777   0.07108992179325964   0.016375340163119503
0.6395829237730777   0.07108992179325964   0.016375340163119503
0.6356333401490439   0.04119540452850841   -0.05600290863319806
0.6356333401490439   0.04119540452850841   -0.05600290863319806
0.6356333401490439   0.04119540452850841   -0.05600290863319806
0.6356333401490439   0.04119540452850841   -0.05600290863319806
0.30158198519935275   0.023871104865330686   0.011454827971543645
0.30158198519935275   0.023871104865330686   0.011454827971543645
0.30158198519935275   0.023871104865330686   0.011454827971543645
0.30158198519935275   0.023871104865330686   0.011454827971543645
0.44381481587702915   0.01337614489793848   0.0065665376732799464
0.44381481587702915   0.01337614489793848   0.0065665376732799464
0.44381481587702915   0.01337614489793848   0.0065665376732799464
0.44381481587702915   0.01337614489793848   0.0065665376732799464
-0.701243939959278   -0.0227082614636967   0.04614565561219813
-0.701243939959278   -0.0227082614636967   0.04614565561219813
-0.701243939959278   -0.0227082614636967   0.04614565561219813
-0.701243939959278   -0.0227082614636967   0.04614565561219813
-0.49145752116976676   -0.03303941388564666   -0.017378632967084036
-0.49145752116976676   -0.03303941388564666   -0.017378632967084036
-0.49145752116976676   -0.03303941388564666   -0.017378632967084036
-0.49145752116976676   -0.03303941388564666   -0.017378632967084036
-0.46244365722594116   0.04649986929164707   0.03932064795894631
-0.46244365722594116   0.04649986929164707   0.03932064795894631
-0.46244365722594116   0.04649986929164707   0.03932064795894631
-0.46244365722594116   0.04649986929164707   0.03932064795894631
-0.7012890667744117   -0.05777236880739718   -0.025431436452941766
-0.7012890667744117   -0.05777236880739718   -0.025431436452941766
-0.7012890667744117   -0.05777236880739718   -0.025431436452941766
-0.7012890667744117   -0.05777236880739718   -0.025431436452941766
-0.5650192712467279   -0.008957304076273029   -0.0014145495406862711
-0.5650192712467279   -0.008957304076273029   -0.0014145495406862711
-0.5650192712467279   -0.008957304076273029   -0.0014145495406862711
-0.5650192712467279   -0.008957304076273029   -0.0014145495406862711
-0.6748900183657323   0.0049206290237593375   0.043870807759298844
-0.6748900183657323   0.0049206290237593375   0.043870807759298844
-0.6748900183657323   0.0049206290237593375   0.043870807759298844
-0.6748900183657323   0.0049206290237593375   0.043870807759298844
-0.4866909825738459   -0.014041405478734462   -0.021374704010194003
-0.4866909825738459   -0.014041405478734462   -0.021374704010194003
-0.4866909825738459   -0.014041405478734462   -0.021374704010194003
-0.4866909825738459   -0.014041405478734462   -0.021374704010194003
-0.458080868786991   0.05619075921320127   0.033210501591697604
-0.458080868786991   0.05619075921320127   0.033210501591697604
-0.458080868786991   0.05619075921320127   0.033210501591697604
-0.458080868786991   0.05619075921320127   0.033210501591697604
-0.6845863215203895   -0.04696566944079009   -0.032123607968091696
-0.6845863215203895   -0.04696566944079009   -0.032123607968091696
-0.6845863215203895   -0.04696566944079009   -0.032123607968091696
-0.6845863215203895   -0.04696566944079009   -0.032123607968091696
-0.5609946969477727   0.0038139978558347776   0.005817727214921728
-0.5609946969477727   0.0038139978558347776   0.005817727214921728
-0.5609946969477727   0.0038139978558347776   0.005817727214921728
-0.5609946969477727   0.0038139978558347776   0.005817727214921728
-0.6584276447743952   0.016516770801332403   0.03518733551975744
-0.6584276447743952   0.016516770801332403   0.03518733551975744
-0.6584276447743952   0.016516770801332403   0.03518733551975744
-0.6584276447743952   0.016516770801332403   0.03518733551975744
-0.48229791004417033   -0.00535004554010432   -0.02633389994088957
-0.48229791004417033   -0.00535004554010432   -0.02633389994088957
-0.48229791004417033   -0.00535004554010432   -0.02633389994088957
-0.48229791004417033   -0.00535004554010432   -0.02633389994088957
-0.45566866535341904   0.06568565053245473   0.02857531777465564
-0.45566866535341904   0.06568565053245473   0.02857531777465564
-0.45566866535341904   0.06568565053245473   0.02857531777465564
-0.45566866535341904   0.06568565053245473   0.02857531777465564
-0.66224521938276   -0.03265218655665969   -0.03844529950028231
-0.66224521938276   -0.03265218655665969   -0.03844529950028231
-0.66224521938276   -0.03265218655665969   -0.03844529950028231
-0.66224521938276   -0.03265218655665969   -0.03844529950028231
-0.539889987424855   0.01580514610987624   0.015931842650180973
-0.539889987424855   0.01580514610987624   0.015931842650180973
-0.539889987424855   0.01580514610987624   0.015931842650180973
-0.539889987424855   0.01580514610987624   0.015931842650180973
-0.48580830541895575   -0.03959976046724417   0.017427792368565155
-0.48580830541895575   -0.03959976046724417   0.017427792368565155
-0.48580830541895575   -0.03959976046724417   0.017427792368565155
-0.48580830541895575   -0.03959976046724417   0.017427792368565155
-0.2824555657867592   -0.02140382867669778   -0.00280802115743411
-0.2824555657867592   -0.02140382867669778   -0.00280802115743411
-0.2824555657867592   -0.02140382867669778   -0.00280802115743411
-0.2824555657867592   -0.02140382867669778   -0.00280802115743411
-0.26808543808358903   0.027149887201362327   0.021197315172980957
-0.26808543808358903   0.027149887201362327   0.021197315172980957
-0.26808543808358903   0.027149887201362327   0.021197315172980957
-0.26808543808358903   0.027149887201362327   0.021197315172980957
-0.4931528802781374   -0.04717981333229905   -0.020545784678088642
-0.4931528802781374   -0.04717981333229905   -0.020545784678088642
-0.4931528802781374   -0.04717981333229905   -0.020545784678088642
-0.4931528802781374   -0.04717981333229905   -0.020545784678088642
-0.38086032334257053   -0.018520321137852666   -0.007848517040268295
-0.38086032334257053   -0.018520321137852666   -0.007848517040268295
-0.38086032334257053   -0.018520321137852666   -0.007848517040268295
-0.38086032334257053   -0.018520321137852666   -0.007848517040268295
-0.48008750205952727   -0.016641441676576094   0.014242734759234866
-0.48008750205952727   -0.016641441676576094   0.014242734759234866
-0.48008750205952727   -0.016641441676576094   0.014242734759234866
-0.48008750205952727   -0.016641441676576094   0.014242734759234866
-0.2794736932541732   -0.0017113614063366672   -0.00688271207224091
-0.2794736932541732   -0.0017113614063366672   -0.00688271207224091
-0.2794736932541732   -0.0017113614063366672   -0.00688271207224091
-0.2794736932541732   -0.0017113614063366672   -0.00688271207224091
-0.2646786097258825   0.04703369780330663   0.01737009349933013
-0.2646786097258825   0.04703369780330663   0.01737009349933013
-0.2646786097258825   0.04703369780330663   0.01737009349933013
-0.2646786097258825   0.04703369780330663   0.01737009349933013
-0.48649177399698285   -0.028438903371654653   -0.024214361873405425
-0.48649177399698285   -0.028438903371654653   -0.024214361873405425
-0.48649177399698285   -0.028438903371654653   -0.024214361873405425
-0.48649177399698285   -0.028438903371654653   -0.024214361873405425
-0.37354150105586975   0.0009951601721186198   0.0005371651655119644
-0.37354150105586975   0.0009951601721186198   0.0005371651655119644
-0.37354150105586975   0.0009951601721186198   0.0005371651655119644
-0.37354150105586975   0.0009951601721186198   0.0005371651655119644
-0.4724381005567826   0.0046090011070406   0.013006100848900103
-0.4724381005567826   0.0046090011070406   0.013006100848900103
-0.4724381005567826   0.0046090011070406   0.013006100848900103
-0.4724381005567826   0.0046090011070406   0.013006100848900103
-0.27664967314202427   0.01606840334866877   -0.011519929126739163
-0.27664967314202427   0.01606840334866877   -0.011519929126739163
-0.27664967314202427   0.01606840334866877   -0.011519929126739163
-0.27664967314202427   0.01606840334866877   -0.011519929126739163
-0.26138610403221657   0.06824342265671955   0.013806093076547558
-0.26138610403221657   0.06824342265671955   0.013806093076547558
-0.26138610403221657   0.06824342265671955   0.013806093076547558
-0.26138610403221657   0.06824342265671955   0.013806093076547558
-0.4815149068291513   -0.008219124068072625   -0.026751115003479813
-0.4815149068291513   -0.008219124068072625   -0.026751115003479813
-0.4815149068291513   -0.008219124068072625   -0.026751115003479813
-0.4815149068291513   -0.008219124068072625   -0.026751115003479813
-0.3706945912951879   0.019389085262560696   0.008534030179043285
-0.3706945912951879   0.019389085262560696   0.008534030179043285
-0.3706945912951879   0.019389085262560696   0.008534030179043285
-0.3706945912951879   0.019389085262560696   0.008534030179043285
-0.2883821678008658   -0.05462737641160038   0.0007825165069330492
-0.2883821678008658   -0.05462737641160038   0.0007825165069330492
-0.2883821678008658   -0.05462737641160038   0.0007825165069330492
-0.2883821678008658   -0.05462737641160038   0.0007825165069330492
-0.07553838437500458   -0.006549466664414099   0.011740936870922451
-0.07553838437500458   -0.006549466664414099   0.011740936870922451
-0.07553838437500458   -0.006549466664414099   0.011740936870922451
-0.07553838437500458   -0.006549466664414099   0.011740936870922451
-0.07371873049687284   0.011069726468813271   0.00400457306862509
-0.07371873049687284   0.011069726468813271   0.00400457306862509
-0.07371873049687284   0.011069726468813271   0.00400457306862509
-0.07371873049687284   0.011069726468813271   0.00400457306862509
-0.28522242717839175   -0.03188092949937654   -0.005456813600296764
-0.28522242717839175   -0.03188092949937654   -0.005456813600296764
-0.28522242717839175   -0.03188092949937654   -0.005456813600296764
-0.28522242717839175   -0.03188092949937654   -0.005456813600296764
-0.18102723707502172   -0.019615930401421462   -0.005587329645475064
-0.18102723707502172   -0.019615930401421462   -0.005587329645475064
-0.18102723707502172   -0.019615930401421462   -0.005587329645475064
-0.18102723707502172   -0.019615930401421462   -0.005587329645475064
-0.2847521889987556   -0.03244599190465569   -0.002540560296836954
-0.2847521889987556   -0.03244599190465569   -0.002540560296836954
-0.2847521889987556   -0.03244599190465569   -0.002540560296836954
-0.2847521889987556   -0.03244599190465569   -0.002540560296836954
-0.07250746787706257   0.013316289673538824   0.007814322962950915
-0.07250746787706257   0.013316289673538824   0.007814322962950915
-0.07250746787706257   0.013316289673538824   0.007814322962950915
-0.07250746787706257   0.013316289673538824   0.007814322962950915
-0.0696028362842604   0.033351179869319215   0.001015236830669763
-0.0696028362842604   0.033351179869319215   0.001015236830669763
-0.0696028362842604   0.033351179869319215   0.001015236830669763
-0.0696028362842604   0.033351179869319215   0.001015236830669763
-0.2818107975645137   -0.011874406031231813   -0.009382741859287672
-0.2818107975645137   -0.011874406031231813   -0.009382741859287672
-0.2818107975645137   -0.011874406031231813   -0.009382741859287672
-0.2818107975645137   -0.011874406031231813   -0.009382741859287672
-0.1766299160853686   0.00039501885174752366   0.002321025842092886
-0.1766299160853686   0.00039501885174752366   0.002321025842092886
-0.1766299160853686   0.00039501885174752366   0.002321025842092886
-0.1766299160853686   0.00039501885174752366   0.002321025842092886
-0.2807594841205431   -0.01023609433183708   -0.0057644863388290665
-0.2807594841205431   -0.01023609433183708   -0.0057644863388290665
-0.2807594841205431   -0.01023609433183708   -0.0057644863388290665
-0.2807594841205431   -0.01023609433183708   -0.0057644863388290665
-0.06910147797506964   0.03326553992308591   0.0036076683228568537
-0.06910147797506964   0.03326553992308591   0.0036076683228568537
-0.06910147797506964   0.03326553992308591   0.0036076683228568537
-0.06910147797506964   0.03326553992308591   0.0036076683228568537
-0.06590692413478712   0.05595591972226657   -0.0024902244036026783
-0.06590692413478712   0.05595591972226657   -0.0024902244036026783
-0.06590692413478712   0.05595591972226657   -0.0024902244036026783
-0.06590692413478712   0.05595591972226657   -0.0024902244036026783
-0.2788229002648639   0.008361491492560547   -0.013495956922529109
-0.2788229002648639   0.008361491492560547   -0.013495956922529109
-0.2788229002648639   0.008361491492560547   -0.013495956922529109
-0.2788229002648639   0.008361491492560547   -0.013495956922529109
-0.1726158648479956   0.02050214565736532   0.009940070606381421
-0.1726158648479956   0.02050214565736532   0.009940070606381421
-0.1726158648479956   0.02050214565736532   0.009940070606381421
-0.1726158648479956   0.02050214565736532   0.009940070606381421
-0.09305933152718773   -0.06694647760267279   -0.01546678795173529
-0.09305933152718773   -0.06694647760267279   -0.01546678795173529
-0.09305933152718773   -0.06694647760267279   -0.01546678795173529
-0.09305933152718773   -0.06694647760267279   -0.01546678795173529
0.12847661152887435   0.01009272831360964   0.025450993948591315
0.12847661152887435   0.01009272831360964   0.025450993948591315
0.12847661152887435   0.01009272831360964   0.025450993948591315
0.12847661152887435   0.01009272831360964   0.025450993948591315
0.11932627824966288   -0.00393613758167807   -0.014322992579741005
0.11932627824966288   -0.00393613758167807   -0.014322992579741005
0.11932627824966288   -0.00393613758167807   -0.014322992579741005
0.11932627824966288   -0.00393613758167807   -0.014322992579741005
-0.07793396735525274   -0.015477998635180897   0.009476113880719072
-0.07793396735525274   -0.015477998635180897   0.009476113880719072
-0.07793396735525274   -0.015477998635180897   0.009476113880719072
-0.07793396735525274   -0.015477998635180897   0.009476113880719072
0.018394191031254694   -0.018536071235600346   -0.003983805827577133
0.018394191031254694   -0.018536071235600346   -0.003983805827577133
0.018394191031254694   -0.018536071235600346   -0.003983805827577133
0.018394191031254694   -0.018536071235600346   -0.003983805827577133
-0.08989044117206849   -0.04672644476482009   -0.019057809073719713
-0.08989044117206849   -0.04672644476482009   -0.019057809073719713
-0.08989044117206849   -0.04672644476482009   -0.019057809073719713
-0.08989044117206849   -0.04672644476482009   -0.019057809073719713
0.13328310483235029   0.029312661313832887   0.022212341438184978
0.13328310483235029   0.029312661313832887   0.022212341438184978
0.13328310483235029   0.029312661313832887   0.022212341438184978
0.13328310483235029   0.029312661313832887   0.022212341438184978
0.1269968031901094   0.017142905097419194   -0.0162343194111358
0.1269968031901094   0.017142905097419194   -0.0162343194111358
0.1269968031901094   0.017142905097419194   -0.0162343194111358
0.1269968031901094   0.017142905097419194   -0.0162343194111358
-0.07496496950332573   0.0024134882513925995   0.00514226235326904
-0.07496496950332573   0.0024134882513925995   0.00514226235326904
-0.07496496950332573   0.0024134882513925995   0.00514226235326904
-0.07496496950332573   0.0024134882513925995   0.00514226235326904
0.022482123902206767   -0.0003746292187758   0.004066704128547257
0.022482123902206767   -0.0003746292187758   0.004066704128547257
0.022482123902206767   -0.0003746292187758   0.004066704128547257
0.022482123902206767   -0.0003746292187758   0.004066704128547257
-0.08650391491014067   -0.02694847493857183   -0.023190501490840874
-0.08650391491014067   -0.02694847493857183   -0.023190501490840874
-0.08650391491014067   -0.02694847493857183   -0.023190501490840874
-0.08650391491014067   -0.02694847493857183   -0.023190501490840874
0.14027106778886841   0.04824018747932761   0.019039721200749937
0.14027106778886841   0.04824018747932761   0.019039721200749937
0.14027106778886841   0.04824018747932761   0.019039721200749937
0.14027106778886841   0.04824018747932761   0.019039721200749937
0.13317857894175034   0.04114565065842592   -0.01877094412135779
0.13317857894175034   0.04114565065842592   -0.01877094412135779
0.13317857894175034   0.04114565065842592   -0.01877094412135779
0.13317857894175034   0.04114565065842592   -0.01877094412135779
-0.07179315357458808   0.023015269084436244   0.0010192790352228486
-0.07179315357458808   0.023015269084436244   0.0010192790352228486
-0.07179315357458808   0.023015269084436244   0.0010192790352228486
-0.07179315357458808   0.023015269084436244   0.0010192790352228486
0.028770554765590373   0.019350410543889404   0.012392972799256314
0.028770554765590373   0.019350410543889404   0.012392972799256314
0.028770554765590373   0.019350410543889404   0.012392972799256314
0.028770554765590373   0.019350410543889404   0.012392972799256314
0.1017225515133884   -0.06764172283713962   -0.030584854978088216
0.1017225515133884   -0.06764172283713962   -0.030584854978088216
0.1017225515133884   -0.06764172283713962   -0.030584854978088216
0.1017225515133884   -0.06764172283713962   -0.030584854978088216
0.309277656688361   0.030593597127279472   0.03306641441051336
0.309277656688361   0.030593597127279472   0.03306641441051336
0.309277656688361   0.030593597127279472   0.03306641441051336
0.309277656688361   0.030593597127279472   0.03306641441051336
0.30612960171992093   -0.016952536530682204   -0.04027559091010226
0.30612960171992093   -0.016952536530682204   -0.04027559091010226
0.30612960171992093   -0.016952536530682204   -0.04027559091010226
0.30612960171992093   -0.016952536530682204   -0.04027559091010226
0.12905937087683284   0.005714444015807934   0.02469188895862267
0.12905937087683284   0.005714444015807934   0.02469188895862267
0.12905937087683284   0.005714444015807934   0.02469188895862267
0.12905937087683284   0.005714444015807934   0.02469188895862267
0.20050862517873197   -0.014092583284974446   -0.010692093727078864
0.20050862517873197   -0.014092583284974446   -0.010692093727078864
0.20050862517873197   -0.014092583284974446   -0.010692093727078864
0.20050862517873197   -0.014092583284974446   -0.010692093727078864
0.10464633815736075   -0.05627153098813294   -0.03538729963479577
0.10464633815736075   -0.05627153098813294   -0.03538729963479577
0.10464633815736075   -0.05627153098813294   -0.03538729963479577
0.10464633815736075   -0.05627153098813294   -0.03538729963479577
0.3325820477147092   0.04707285174857505   0.027961250784581858
0.3325820477147092   0.04707285174857505   0.027961250784581858
0.3325820477147092   0.04707285174857505   0.027961250784581858
0.3325820477147092   0.04707285174857505   0.027961250784581858
0.32309121967676196   -0.005151386071287081   -0.04833949506329828
0.32309121967676196   -0.005151386071287081   -0.04833949506329828
0.32309121967676196   -0.005151386071287081   -0.04833949506329828
0.32309121967676196   -0.005151386071287081   -0.04833949506329828
0.1335421089448233   0.014361253718282417   0.01927386074156949
0.1335421089448233   0.014361253718282417   0.01927386074156949
0.1335421089448233   0.014361253718282417   0.01927386074156949
0.1335421089448233   0.014361253718282417   0.01927386074156949
0.21758397441840535   -0.0021768148573509463   -0.0012229262980499138
0.21758397441840535   -0.0021768148573509463   -0.0012229262980499138
0.21758397441840535   -0.0021768148573509463   -0.0012229262980499138
0.21758397441840535   -0.0021768148573509463   -0.0012229262980499138
0.10931189532667729   -0.046452118879016485   -0.04106383475186069
0.10931189532667729   -0.046452118879016485   -0.04106383475186069
0.10931189532667729   -0.046452118879016485   -0.04106383475186069
0.10931189532667729   -0.046452118879016485   -0.04106383475186069
0.3494497144949222   0.057790267726027494   0.02051132523018836
0.3494497144949222   0.057790267726027494   0.02051132523018836
0.3494497144949222   0.057790267726027494   0.02051132523018836
0.3494497144949222   0.057790267726027494   0.02051132523018836
0.34916896534348996   0.02074213346203945   -0.05177700918904209
0.34916896534348996   0.02074213346203945   -0.05177700918904209
0.34916896534348996   0.02074213346203945   -0.05177700918904209
0.34916896534348996   0.02074213346203945   -0.05177700918904209
0.1381275563613548   0.03179717684642316   0.01532241678866632
0.1381275563613548   0.03179717684642316   0.01532241678866632
0.1381275563613548   0.03179717684642316   0.01532241678866632
0.1381275563613548   0.03179717684642316   0.01532241678866632
0.22619437011419324   0.010928450387108303   0.00695111205002466
0.22619437011419324   0.010928450387108303   0.00695111205002466
0.22619437011419324   0.010928450387108303   0.00695111205002466
0.22619437011419324   0.010928450387108303   0.00695111205002466
-0.418803102106661   -0.006779955657490774   0.04126423911058965
-0.418803102106661   -0.006779955657490774   0.04126423911058965
-0.418803102106661   -0.006779955657490774   0.04126423911058965
-0.418803102106661   -0.006779955657490774   0.04126423911058965
-0.3277173637689028   -0.04177020651774199   -0.020334466455241573
-0.3277173637689028   -0.04177020651774199   -0.020334466455241573
-0.3277173637689028   -0.04177020651774199   -0.020334466455241573
-0.3277173637689028   -0.04177020651774199   -0.020334466455241573
-0.296599652195823   0.03530413137487054   0.03526164987980815
-0.296599652195823   0.03530413137487054   0.03526164987980815
-0.296599652195823   0.03530413137487054   0.03526164987980815
-0.296599652195823   0.03530413137487054   0.03526164987980815
-0.4170858630714533   -0.045473561361460954   -0.027709936945338614
-0.4170858630714533   -0.045473561361460954   -0.027709936945338614
-0.4170858630714533   -0.045473561361460954   -0.027709936945338614
-0.4170858630714533   -0.045473561361460954   -0.027709936945338614
-0.35112883518440785   -0.009610849190830412   -0.005332449808335915
-0.35112883518440785   -0.009610849190830412   -0.005332449808335915
-0.35112883518440785   -0.009610849190830412   -0.005332449808335915
-0.35112883518440785   -0.009610849190830412   -0.005332449808335915
-0.39112170321615447   0.01722904282398459   0.039408258145709876
-0.39112170321615447   0.01722904282398459   0.039408258145709876
-0.39112170321615447   0.01722904282398459   0.039408258145709876
-0.39112170321615447   0.01722904282398459   0.039408258145709876
-0.32075043015463783   -0.025585090914090683   -0.024603017625302707
-0.32075043015463783   -0.025585090914090683   -0.024603017625302707
-0.32075043015463783   -0.025585090914090683   -0.024603017625302707
-0.32075043015463783   -0.025585090914090683   -0.024603017625302707
-0.28929707795454784   0.044478512987373944   0.029808060606886892
-0.28929707795454784   0.044478512987373944   0.029808060606886892
-0.28929707795454784   0.044478512987373944   0.029808060606886892
-0.28929707795454784   0.044478512987373944   0.029808060606886892
-0.3978847535862136   -0.03507484738479466   -0.03459366444468173
-0.3978847535862136   -0.03507484738479466   -0.03459366444468173
-0.3978847535862136   -0.03507484738479466   -0.03459366444468173
-0.3978847535862136   -0.03507484738479466   -0.03459366444468173
-0.34108980360072655   0.002385751223165783   0.002338764004871579
-0.34108980360072655   0.002385751223165783   0.002338764004871579
-0.34108980360072655   0.002385751223165783   0.002338764004871579
-0.34108980360072655   0.002385751223165783   0.002338764004871579
-0.3719149185379904   0.028357887859696618   0.03182277555194287
-0.3719149185379904   0.028357887859696618   0.03182277555194287
-0.3719149185379904   0.028357887859696618   0.03182277555194287
-0.3719149185379904   0.028357887859696618   0.03182277555194287
-0.31355399346101637   -0.017241302715362353   -0.02975670122271745
-0.31355399346101637   -0.017241302715362353   -0.02975670122271745
-0.31355399346101637   -0.017241302715362353   -0.02975670122271745
-0.31355399346101637   -0.017241302715362353   -0.02975670122271745
-0.2833990563810433   0.05594716867051344   0.025705313633859
-0.2833990563810433   0.05594716867051344   0.025705313633859
-0.2833990563810433   0.05594716867051344   0.025705313633859
-0.2833990563810433   0.05594716867051344   0.025705313633859
-0.37209650858272414   -0.01841844326649196   -0.04002347028153136
-0.37209650858272414   -0.01841844326649196   -0.04002347028153136
-0.37209650858272414   -0.01841844326649196   -0.04002347028153136
-0.37209650858272414   -0.01841844326649196   -0.04002347028153136
-0.3208691471145785   0.014238827030039841   0.01183676563863497
-0.3208691471145785   0.014238827030039841   0.01183676563863497
-0.3208691471145785   0.014238827030039841   0.01183676563863497
-0.3208691471145785   0.014238827030039841   0.01183676563863497
-0.31611557609474583   -0.023661144522706658   0.019565409920508155
-0.31611557609474583   -0.023661144522706658   0.019565409920508155
-0.31611557609474583   -0.023661144522706658   0.019565409920508155
-0.31611557609474583   -0.023661144522706658   0.019565409920508155
-0.23300734442737117   -0.03165698197541995   -0.006014564432364049
-0.23300734442737117   -0.03165698197541995   -0.006014564432364049
-0.23300734442737117   -0.03165698197541995   -0.006014564432364049
-0.23300734442737117   -0.03165698197541995   -0.006014564432364049
-0.21569776827883594   0.01602627793653845   0.018029559666797392
-0.21569776827883594   0.01602627793653845   0.018029559666797392
-0.21569776827883594   0.01602627793653845   0.018029559666797392
-0.21569776827883594   0.01602627793653845   0.018029559666797392
-0.32088451696602693   -0.033537239004348116   -0.017321303591987237
-0.32088451696602693   -0.033537239004348116   -0.017321303591987237
-0.32088451696602693   -0.033537239004348116   -0.017321303591987237
-0.32088451696602693   -0.033537239004348116   -0.017321303591987237
-0.2706995386048483   -0.016757347787605563   -0.007346545507363165
-0.2706995386048483   -0.016757347787605563   -0.007346545507363165
-0.2706995386048483   -0.016757347787605563   -0.007346545507363165
-0.2706995386048483   -0.016757347787605563   -0.007346545507363165
-0.30792209459104647   -0.0026948211696256885   0.016648390448187247
-0.30792209459104647   -0.0026948211696256885   0.016648390448187247
-0.30792209459104647   -0.0026948211696256885   0.016648390448187247
-0.30792209459104647   -0.0026948211696256885   0.016648390448187247
-0.22719793161296964   -0.01335388085733795   -0.010091098209993755
-0.22719793161296964   -0.01335388085733795   -0.010091098209993755
-0.22719793161296964   -0.01335388085733795   -0.010091098209993755
-0.22719793161296964   -0.01335388085733795   -0.010091098209993755
-0.20940681383840595   0.03470369609706017   0.014413675311591902
-0.20940681383840595   0.03470369609706017   0.014413675311591902
-0.20940681383840595   0.03470369609706017   0.014413675311591902
-0.20940681383840595   0.03470369609706017   0.014413675311591902
-0.31142425037078814   -0.0156071041676848   -0.020742184319251983
-0.31142425037078814   -0.0156071041676848   -0.020742184319251983
-0.31142425037078814   -0.0156071041676848   -0.020742184319251983
-0.31142425037078814   -0.0156071041676848   -0.020742184319251983
-0.26157530771175   0.0012243318392481384   0.0007067028701499868
-0.26157530771175   0.0012243318392481384   0.0007067028701499868
-0.26157530771175   0.0012243318392481384   0.0007067028701499868
-0.26157530771175   0.0012243318392481384   0.0007067028701499868
-0.2976998765875593   0.01718072047562523   0.01509185995357815
-0.2976998765875593   0.01718072047562523   0.01509185995357815
-0.2976998765875593   0.01718072047562523   0.01509185995357815
-0.2976998765875593   0.01718072047562523   0.01509185995357815
-0.22144322557907795   0.0036038334963045676   -0.01466852079101537
-0.22144322557907795   0.0036038334963045676   -0.01466852079101537
-0.22144322557907795   0.0036038334963045676   -0.01466852079101537
-0.22144322557907795   0.0036038334963045676   -0.01466852079101537
-0.20313486716954643   0.05500101785848839   0.010969554969720331
-0.20313486716954643   0.05500101785848839   0.010969554969720331
-0.20313486716954643   0.05500101785848839   0.010969554969720331
-0.20313486716954643   0.05500101785848839   0.010969554969720331
-0.30363427726481307   0.004000729438276257   -0.023524351552748686
-0.30363427726481307   0.004000729438276257   -0.023524351552748686
-0.30363427726481307   0.004000729438276257   -0.023524351552748686
-0.30363427726481307   0.004000729438276257   -0.023524351552748686
-0.254985724033553   0.018881029461318637   0.008594290806803614
-0.254985724033553   0.018881029461318637   0.008594290806803614
-0.254985724033553   0.018881029461318637   0.008594290806803614
-0.254985724033553   0.018881029461318637   0.008594290806803614
-0.23269951666988758   -0.03963030168470761   0.0034978940643378537
-0.23269951666988758   -0.03963030168470761   0.0034978940643378537
-0.23269951666988758   -0.03963030168470761   0.0034978940643378537
-0.23269951666988758   -0.03963030168470761   0.0034978940643378537
-0.13950581429591846   -0.016834010200311673   0.008520406175607769
-0.13950581429591846   -0.016834010200311673   0.008520406175607769
-0.13950581429591846   -0.016834010200311673   0.008520406175607769
-0.13950581429591846   -0.016834010200311673   0.008520406175607769
-0.13484432116896042   -0.0004958510504443452   0.0010904726349252334
-0.13484432116896042   -0.0004958510504443452   0.0010904726349252334
-0.13484432116896042   -0.0004958510504443452   0.0010904726349252334
-0.13484432116896042   -0.0004958510504443452   0.0010904726349252334
-0.22651019146032236   -0.01801878405018832   -0.0019874942539079626
-0.22651019146032236   -0.01801878405018832   -0.0019874942539079626
-0.22651019146032236   -0.01801878405018832   -0.0019874942539079626
-0.22651019146032236   -0.01801878405018832   -0.0019874942539079626
-0.1836836267365129   -0.017864839931742867   -0.005358559280340638
-0.1836836267365129   -0.017864839931742867   -0.005358559280340638
-0.1836836267365129   -0.017864839931742867   -0.005358559280340638
-0.1836836267365129   -0.017864839931742867   -0.005358559280340638
-0.22622959046716354   -0.018926378420610287   0.0003231050823062952
-0.22622959046716354   -0.018926378420610287   0.0003231050823062952
-0.22622959046716354   -0.018926378420610287   0.0003231050823062952
-0.22622959046716354   -0.018926378420610287   0.0003231050823062952
-0.13367002166709252   0.0018666438150027644   0.004599475278817621
-0.13367002166709252   0.0018666438150027644   0.004599475278817621
-0.13367002166709252   0.0018666438150027644   0.004599475278817621
-0.13367002166709252   0.0018666438150027644   0.004599475278817621
-0.12800310273817272   0.020389655121975634   -0.001870130919583754
-0.12800310273817272   0.020389655121975634   -0.001870130919583754
-0.12800310273817272   0.020389655121975634   -0.001870130919583754
-0.12800310273817272   0.020389655121975634   -0.001870130919583754
-0.22020674793012193   0.0009498218766906055   -0.0058321209266185055
-0.22020674793012193   0.0009498218766906055   -0.0058321209266185055
-0.22020674793012193   0.0009498218766906055   -0.0058321209266185055
-0.22020674793012193   0.0009498218766906055   -0.0058321209266185055
-0.17646314711723085   0.0009000220683967886   0.00245732993459165
-0.17646314711723085   0.0009000220683967886   0.00245732993459165
-0.17646314711723085   0.0009000220683967886   0.00245732993459165
-0.17646314711723085   0.0009000220683967886   0.00245732993459165
-0.21943347938752278   0.0018953455905306171   -0.002911301927466494
-0.21943347938752278   0.0018953455905306171   -0.002911301927466494
-0.21943347938752278   0.0018953455905306171   -0.002911301927466494
-0.21943347938752278   0.0018953455905306171   -0.002911301927466494
-0.12746016440212496   0.020760338286783198   0.00047387759584747134
-0.12746016440212496   0.020760338286783198   0.00047387759584747134
-0.12746016440212496   0.020760338286783198   0.00047387759584747134
-0.12746016440212496   0.020760338286783198   0.00047387759584747134
-0.12154018188923117   0.04146936506590914   -0.00523930743141119
-0.12154018188923117   0.04146936506590914   -0.00523930743141119
-0.12154018188923117   0.04146936506590914   -0.00523930743141119
-0.12154018188923117   0.04146936506590914   -0.00523930743141119
-0.21430604617557028   0.020063774506387314   -0.009949096708296905
-0.21430604617557028   0.020063774506387314   -0.009949096708296905
-0.21430604617557028   0.020063774506387314   -0.009949096708296905
-0.21430604617557028   0.020063774506387314   -0.009949096708296905
-0.1696383548618644   0.01973266389475055   0.009957989132497465
-0.1696383548618644   0.01973266389475055   0.009957989132497465
-0.1696383548618644   0.01973266389475055   0.009957989132497465
-0.1696383548618644   0.01973266389475055   0.009957989132497465
-0.15108518324082967   -0.05345993264991827   -0.012750516099344172
-0.15108518324082967   -0.05345993264991827   -0.012750516099344172
-0.15108518324082967   -0.05345993264991827   -0.012750516099344172
-0.15108518324082967   -0.05345993264991827   -0.012750516099344172
-0.048812123558497296   -0.0010996697935453104   0.022325420875919443
-0.048812123558497296   -0.0010996697935453104   0.022325420875919443
-0.048812123558497296   -0.0010996697935453104   0.022325420875919443
-0.048812123558497296   -0.0010996697935453104   0.022325420875919443
-0.055253172478429646   -0.016145587644873307   -0.016542626044566074
-0.055253172478429646   -0.016145587644873307   -0.016542626044566074
-0.055253172478429646   -0.016145587644873307   -0.016542626044566074
-0.055253172478429646   -0.016145587644873307   -0.016542626044566074
-0.13280587006169112   -0.002033599951407363   0.012820477072233716
-0.13280587006169112   -0.002033599951407363   0.012820477072233716
-0.13280587006169112   -0.002033599951407363   0.012820477072233716
-0.13280587006169112   -0.002033599951407363   0.012820477072233716
-0.09695103025389917   -0.01739417302741582   -0.0038695607025492867
-0.09695103025389917   -0.01739417302741582   -0.0038695607025492867
-0.09695103025389917   -0.01739417302741582   -0.0038695607025492867
-0.09695103025389917   -0.01739417302741582   -0.0038695607025492867
-0.14499634757778962   -0.03401566628980465   -0.016149844169862808
-0.14499634757778962   -0.03401566628980465   -0.016149844169862808
-0.14499634757778962   -0.03401566628980465   -0.016149844169862808
-0.14499634757778962   -0.03401566628980465   -0.016149844169862808
-0.04143371829887959   0.01746545535697787   0.018943601851333
-0.04143371829887959   0.01746545535697787   0.018943601851333
-0.04143371829887959   0.01746545535697787   0.018943601851333
-0.04143371829887959   0.01746545535697787   0.018943601851333
-0.04520930981545651   0.003610867674462545   -0.01862650021925045
-0.04520930981545651   0.003610867674462545   -0.01862650021925045
-0.04520930981545651   0.003610867674462545   -0.01862650021925045
-0.04520930981545651   0.003610867674462545   -0.01862650021925045
-0.12699575321930656   0.014996059659455628   0.008560212137265768
-0.12699575321930656   0.014996059659455628   0.008560212137265768
-0.12699575321930656   0.014996059659455628   0.008560212137265768
-0.12699575321930656   0.014996059659455628   0.008560212137265768
-0.08925259035320066   9.659781713297969e-05   0.004100439440710906
-0.08925259035320066   9.659781713297969e-05   0.004100439440710906
-0.08925259035320066   9.659781713297969e-05   0.004100439440710906
-0.08925259035320066   9.659781713297969e-05   0.004100439440710906
-0.13879865130554028   -0.015394453588828214   -0.02006376504562048
-0.13879865130554028   -0.015394453588828214   -0.02006376504562048
-0.13879865130554028   -0.015394453588828214   -0.02006376504562048
-0.13879865130554028   -0.015394453588828214   -0.02006376504562048
-0.03188959468965174   0.0355181979623148   0.016064745121922137
-0.03188959468965174   0.0355181979623148   0.016064745121922137
-0.03188959468965174   0.0355181979623148   0.016064745121922137
-0.03188959468965174   0.0355181979623148   0.016064745121922137
-0.03671688755698937   0.025651546883391246   -0.02087559798760851
-0.03671688755698937   0.025651546883391246   -0.02087559798760851
-0.03671688755698937   0.025651546883391246   -0.02087559798760851
-0.03671688755698937   0.025651546883391246   -0.02087559798760851
-0.12104726833663534   0.03424186353824139   0.00445276185923665
-0.12104726833663534   0.03424186353824139   0.00445276185923665
-0.12104726833663534   0.03424186353824139   0.00445276185923665
-0.12104726833663534   0.03424186353824139   0.00445276185923665
-0.08130335820058719   0.018298209130038122   0.012060878805043848
-0.08130335820058719   0.018298209130038122   0.012060878805043848
-0.08130335820058719   0.018298209130038122   0.012060878805043848
-0.08130335820058719   0.018298209130038122   0.012060878805043848
-0.07010199617008059   -0.057450282268018085   -0.02777332970752522
-0.07010199617008059   -0.057450282268018085   -0.02777332970752522
-0.07010199617008059   -0.057450282268018085   -0.02777332970752522
-0.07010199617008059   -0.057450282268018085   -0.02777332970752522
0.0190121957974372   0.016670921276396782   0.03414609540277615
0.0190121957974372   0.016670921276396782   0.03414609540277615
0.0190121957974372   0.016670921276396782   0.03414609540277615
0.0190121957974372   0.016670921276396782   0.03414609540277615
0.019090363661871532   -0.028578841607248412   -0.036805531941690096
0.019090363661871532   -0.028578841607248412   -0.036805531941690096
0.019090363661871532   -0.028578841607248412   -0.036805531941690096
0.019090363661871532   -0.028578841607248412   -0.036805531941690096
-0.03956822788800696   0.017785312744956552   0.027951196517717502
-0.03956822788800696   0.017785312744956552   0.027951196517717502
-0.03956822788800696   0.017785312744956552   0.027951196517717502
-0.03956822788800696   0.017785312744956552   0.027951196517717502
-0.018484598550232063   -0.012299255902169454   -0.006417054589549645
-0.018484598550232063   -0.012299255902169454   -0.006417054589549645
-0.018484598550232063   -0.012299255902169454   -0.006417054589549645
-0.018484598550232063   -0.012299255902169454   -0.006417054589549645
-0.06394576075125032   -0.04421265926020164   -0.03193849579334204
-0.06394576075125032   -0.04421265926020164   -0.03193849579334204
-0.06394576075125032   -0.04421265926020164   -0.03193849579334204
-0.06394576075125032   -0.04421265926020164   -0.03193849579334204
0.0452078885757123   0.0351591224485083   0.030044128571757006
0.0452078885757123   0.0351591224485083   0.030044128571757006
0.0452078885757123   0.0351591224485083   0.030044128571757006
0.0452078885757123   0.0351591224485083   0.030044128571757006
0.03838439374109899   -0.01727461619036178   -0.04374777359792717
0.03838439374109899   -0.01727461619036178   -0.04374777359792717
0.03838439374109899   -0.01727461619036178   -0.04374777359792717
0.03838439374109899   -0.01727461619036178   -0.04374777359792717
-0.032522312906152186   0.025988800119375356   0.022430551882358363
-0.032522312906152186   0.025988800119375356   0.022430551882358363
-0.032522312906152186   0.025988800119375356   0.022430551882358363
-0.032522312906152186   0.025988800119375356   0.022430551882358363
-0.002684612220381423   -0.0006541880337288826   0.002203941941182782
-0.002684612220381423   -0.0006541880337288826   0.002203941941182782
-0.002684612220381423   -0.0006541880337288826   0.002203941941182782
-0.002684612220381423   -0.0006541880337288826   0.002203941941182782
-0.05658033424941132   -0.03491013167649233   -0.036960623038069615
-0.05658033424941132   -0.03491013167649233   -0.036960623038069615
-0.05658033424941132   -0.03491013167649233   -0.036960623038069615
-0.05658033424941132   -0.03491013167649233   -0.036960623038069615
0.0641865893104585   0.04536848983160628   0.022620098226902318
0.0641865893104585   0.04536848983160628   0.022620098226902318
0.0641865893104585   0.04536848983160628   0.022620098226902318
0.0641865893104585   0.04536848983160628   0.022620098226902318
0.0654818486564236   0.004828637136625211   -0.0468745740553922
0.0654818486564236   0.004828637136625211   -0.0468745740553922
0.0654818486564236   0.004828637136625211   -0.0468745740553922
0.0654818486564236   0.004828637136625211   -0.0468745740553922
-0.025944878563078276   0.04040495425880358   0.018231039606534587
-0.025944878563078276   0.04040495425880358   0.018231039606534587
-0.025944878563078276   0.04040495425880358   0.018231039606534587
-0.025944878563078276   0.04040495425880358   0.018231039606534587
0.011656020691109591   0.01155487299612837   0.010653394336432918
0.011656020691109591   0.01155487299612837   0.010653394336432918
0.011656020691109591   0.01155487299612837   0.010653394336432918
0.011656020691109591   0.01155487299612837   0.010653394336432918
-0.13710845246524958   0.008223458878828985   0.039024949223960104
-0.13710845246524958   0.008223458878828985   0.039024949223960104
-0.13710845246524958   0.008223458878828985   0.039024949223960104
-0.13710845246524958   0.008223458878828985   0.039024949223960104
-0.1649478311458279   -0.05077558601658401   -0.022907958953366992
-0.1649478311458279   -0.05077558601658401   -0.022907958953366992
-0.1649478311458279   -0.05077558601658401   -0.022907958953366992
-0.1649478311458279   -0.05077558601658401   -0.022907958953366992
-0.13169233839413122   0.023533382237215083   0.03193125637070417
-0.13169233839413122   0.023533382237215083   0.03193125637070417
-0.13169233839413122   0.023533382237215083   0.03193125637070417
-0.13169233839413122   0.023533382237215083   0.03193125637070417
-0.1331976783742784   -0.033132946134870986   -0.02956218554507885
-0.1331976783742784   -0.033132946134870986   -0.02956218554507885
-0.1331976783742784   -0.033132946134870986   -0.02956218554507885
-0.1331976783742784   -0.033132946134870986   -0.02956218554507885
-0.13821595140229193   -0.010620569635756305   -0.010763791410024804
-0.13821595140229193   -0.010620569635756305   -0.010763791410024804
-0.13821595140229193   -0.010620569635756305   -0.010763791410024804
-0.13821595140229193   -0.010620569635756305   -0.010763791410024804
-0.1075418760449251   0.029244999521898386   0.03633888044491458
-0.1075418760449251   0.029244999521898386   0.03633888044491458
-0.1075418760449251   0.029244999521898386   0.03633888044491458
-0.1075418760449251   0.029244999521898386   0.03633888044491458
-0.15572680019447538   -0.037223222890545485   -0.02748444750325436
-0.15572680019447538   -0.037223222890545485   -0.02748444750325436
-0.15572680019447538   -0.037223222890545485   -0.02748444750325436
-0.15572680019447538   -0.037223222890545485   -0.02748444750325436
-0.1215293448558349   0.03248605288923904   0.026855428195123435
-0.1215293448558349   0.03248605288923904   0.026855428195123435
-0.1215293448558349   0.03248605288923904   0.026855428195123435
-0.1215293448558349   0.03248605288923904   0.026855428195123435
-0.11125949087835149   -0.023015263421926696   -0.036791615369730496
-0.11125949087835149   -0.023015263421926696   -0.036791615369730496
-0.11125949087835149   -0.023015263421926696   -0.036791615369730496
-0.11125949087835149   -0.023015263421926696   -0.036791615369730496
-0.12203500076077305   0.0008039061999635527   -0.0023242931623615893
-0.12203500076077305   0.0008039061999635527   -0.0023242931623615893
-0.12203500076077305   0.0008039061999635527   -0.0023242931623615893
-0.12203500076077305   0.0008039061999635527   -0.0023242931623615893
-0.08547002893621779   0.040129097181616086   0.029011333737391516
-0.08547002893621779   0.040129097181616086   0.029011333737391516
-0.08547002893621779   0.040129097181616086   0.029011333737391516
-0.08547002893621779   0.040129097181616086   0.029011333737391516
-0.1457940551886585   -0.02913355610499395   -0.032848514474759734
-0.1457940551886585   -0.02913355610499395   -0.032848514474759734
-0.1457940551886585   -0.02913355610499395   -0.032848514474759734
-0.1457940551886585   -0.02913355610499395   -0.032848514474759734
-0.11224541568744394   0.046194921191546105   0.023192259113378733
-0.11224541568744394   0.046194921191546105   0.023192259113378733
-0.11224541568744394   0.046194921191546105   0.023192259113378733
-0.11224541568744394   0.046194921191546105   0.023192259113378733
-0.08196918454982413   -0.0037863712851668556   -0.04143637268402659
-0.08196918454982413   -0.0037863712851668556   -0.04143637268402659
-0.08196918454982413   -0.0037863712851668556   -0.04143637268402659
-0.08196918454982413   -0.0037863712851668556   -0.04143637268402659
-0.10262167894282302   0.012764092895234998   0.0066949614370399434
-0.10262167894282302   0.012764092895234998   0.0066949614370399434
-0.10262167894282302   0.012764092895234998   0.0066949614370399434
-0.10262167894282302   0.012764092895234998   0.0066949614370399434
-0.14753723366909258   -0.008905132045455875   0.022274574459177708
-0.14753723366909258   -0.008905132045455875   0.022274574459177708
-0.14753723366909258   -0.008905132045455875   0.022274574459177708
-0.14753723366909258   -0.008905132045455875   0.022274574459177708
-0.18445208382053266   -0.041425956372827144   -0.00894732394146213
-0.18445208382053266   -0.041425956372827144   -0.00894732394146213
-0.18445208382053266   -0.041425956372827144   -0.00894732394146213
-0.18445208382053266   -0.041425956372827144   -0.00894732394146213
-0.16462182632803044   0.004144111414756527   0.014822757865539393
-0.16462182632803044   0.004144111414756527   0.014822757865539393
-0.16462182632803044   0.004144111414756527   0.014822757865539393
-0.16462182632803044   0.004144111414756527   0.014822757865539393
-0.1493611182503616   -0.01936980125189501   -0.013509459421335935
-0.1493611182503616   -0.01936980125189501   -0.013509459421335935
-0.1493611182503616   -0.01936980125189501   -0.013509459421335935
-0.1493611182503616   -0.01936980125189501   -0.013509459421335935
-0.16162933838395965   -0.01512129674966943   -0.007530398582470734
-0.16162933838395965   -0.01512129674966943   -0.007530398582470734
-0.16162933838395965   -0.01512129674966943   -0.007530398582470734
-0.16162933838395965   -0.01512129674966943   -0.007530398582470734
-0.1367702924353226   0.010637366917151905   0.01943750148480847
-0.1367702924353226   0.010637366917151905   0.01943750148480847
-0.1367702924353226   0.010637366917151905   0.01943750148480847
-0.1367702924353226   0.010637366917151905   0.01943750148480847
-0.17594121076384714   -0.02459161537506937   -0.013038437523722168
-0.17594121076384714   -0.02459161537506937   -0.013038437523722168
-0.17594121076384714   -0.02459161537506937   -0.013038437523722168
-0.17594121076384714   -0.02459161537506937   -0.013038437523722168
-0.1555550264978894   0.0219758638204618   0.011303431748582239
-0.1555550264978894   0.0219758638204618   0.011303431748582239
-0.1555550264978894   0.0219758638204618   0.011303431748582239
-0.1555550264978894   0.0219758638204618   0.011303431748582239
-0.13719470566994207   -0.002209949138277441   -0.01677537384789409
-0.13719470566994207   -0.002209949138277441   -0.01677537384789409
-0.13719470566994207   -0.002209949138277441   -0.01677537384789409
-0.13719470566994207   -0.002209949138277441   -0.01677537384789409
-0.1507787646419478   0.0014943651635170516   0.0002514430311662177
-0.1507787646419478   0.0014943651635170516   0.0002514430311662177
-0.1507787646419478   0.0014943651635170516   0.0002514430311662177
-0.1507787646419478   0.0014943651635170516   0.0002514430311662177
-0.12398945097443004   0.029530402228095505   0.017510548263291396
-0.12398945097443004   0.029530402228095505   0.017510548263291396
-0.12398945097443004   0.029530402228095505   0.017510548263291396
-0.12398945097443004   0.029530402228095505   0.017510548263291396
-0.16740450481397484   -0.008408711166485318   -0.017559384844900706
-0.16740450481397484   -0.008408711166485318   -0.017559384844900706
-0.16740450481397484   -0.008408711166485318   -0.017559384844900706
-0.16740450481397484   -0.008408711166485318   -0.017559384844900706
-0.14644196598590267   0.041735682177374826   0.007958100863833736
-0.14644196598590267   0.041735682177374826   0.007958100863833736
-0.14644196598590267   0.041735682177374826   0.007958100863833736
-0.14644196598590267   0.041735682177374826   0.007958100863833736
-0.1267179403508828   0.01685928106161521   -0.01983472407388276
-0.1267179403508828   0.01685928106161521   -0.01983472407388276
-0.1267179403508828   0.01685928106161521   -0.01983472407388276
-0.1267179403508828   0.01685928106161521   -0.01983472407388276
-0.14051786048907647   0.018679830367081554   0.008181114385419411
-0.14051786048907647   0.018679830367081554   0.008181114385419411
-0.14051786048907647   0.018679830367081554   0.008181114385419411
-0.14051786048907647   0.018679830367081554   0.008181114385419411
-0.17811898298854104   -0.025001900337351536   0.00629412418301566
-0.17811898298854104   -0.025001900337351536   0.00629412418301566
-0.17811898298854104   -0.025001900337351536   0.00629412418301566
-0.17811898298854104   -0.025001900337351536   0.00629412418301566
-0.20382797647165235   -0.026300304676343554   0.005395546385916588
-0.20382797647165235   -0.026300304676343554   0.005395546385916588
-0.20382797647165235   -0.026300304676343554   0.005395546385916588
-0.20382797647165235   -0.026300304676343554   0.005395546385916588
-0.19658800909511595   -0.012023640494999373   -0.0019339588431696508
-0.19658800909511595   -0.012023640494999373   -0.0019339588431696508
-0.19658800909511595   -0.012023640494999373   -0.0019339588431696508
-0.19658800909511595   -0.012023640494999373   -0.0019339588431696508
-0.16875847093130578   -0.0034941197058576054   0.0017777659697767716
-0.16875847093130578   -0.0034941197058576054   0.0017777659697767716
-0.16875847093130578   -0.0034941197058576054   0.0017777659697767716
-0.16875847093130578   -0.0034941197058576054   0.0017777659697767716
-0.18710394552207366   -0.01575881002479564   -0.005011463878402699
-0.18710394552207366   -0.01575881002479564   -0.005011463878402699
-0.18710394552207366   -0.01575881002479564   -0.005011463878402699
-0.18710394552207366   -0.01575881002479564   -0.005011463878402699
-0.16887799537767476   -0.005464700980386091   0.003150725012455593
-0.16887799537767476   -0.005464700980386091   0.003150725012455593
-0.16887799537767476   -0.005464700980386091   0.003150725012455593
-0.16887799537767476   -0.005464700980386091   0.003150725012455593
-0.1952679017833294   -0.00885247635505123   0.0014954135758168865
-0.1952679017833294   -0.00885247635505123   0.0014954135758168865
-0.1952679017833294   -0.00885247635505123   0.0014954135758168865
-0.1952679017833294   -0.00885247635505123   0.0014954135758168865
-0.18705569963392002   0.007766935318484464   -0.0048976020138511555
-0.18705569963392002   0.007766935318484464   -0.0048976020138511555
-0.18705569963392002   0.007766935318484464   -0.0048976020138511555
-0.18705569963392002   0.007766935318484464   -0.0048976020138511555
-0.1597220019634833   0.014433909108091864   -0.001989490867017149
-0.1597220019634833   0.014433909108091864   -0.001989490867017149
-0.1597220019634833   0.014433909108091864   -0.001989490867017149
-0.1597220019634833   0.014433909108091864   -0.001989490867017149
-0.17714048280160205   0.001920596612576965   0.002678159150915096
-0.17714048280160205   0.001920596612576965   0.002678159150915096
-0.17714048280160205   0.001920596612576965   0.002678159150915096
-0.17714048280160205   0.001920596612576965   0.002678159150915096
-0.15938516365922573   0.014255237390554572   -0.0001266276281949221
-0.15938516365922573   0.014255237390554572   -0.0001266276281949221
-0.15938516365922573   0.014255237390554572   -0.0001266276281949221
-0.15938516365922573   0.014255237390554572   -0.0001266276281949221
-0.186344088160177   0.008994056814021878   -0.002566666140673371
-0.186344088160177   0.008994056814021878   -0.002566666140673371
-0.186344088160177   0.008994056814021878   -0.002566666140673371
-0.186344088160177   0.008994056814021878   -0.002566666140673371
-0.17792742060802444   0.027682281980227055   -0.008235184906644037
-0.17792742060802444   0.027682281980227055   -0.008235184906644037
-0.17792742060802444   0.027682281980227055   -0.008235184906644037
-0.17792742060802444   0.027682281980227055   -0.008235184906644037
-0.15112039328896176   0.03243538902709553   -0.006133742501181538
-0.15112039328896176   0.03243538902709553   -0.006133742501181538
-0.15112039328896176   0.03243538902709553   -0.006133742501181538
-0.15112039328896176   0.03243538902709553   -0.006133742501181538
-0.16764423444457785   0.019633414012481323   0.010007181902700744
-0.16764423444457785   0.019633414012481323   0.010007181902700744
-0.16764423444457785   0.019633414012481323   0.010007181902700744
-0.16764423444457785   0.019633414012481323   0.010007181902700744
-0.20961168262123459   -0.03974110299079003   -0.01008218604755151
-0.20961168262123459   -0.03974110299079003   -0.01008218604755151
-0.20961168262123459   -0.03974110299079003   -0.01008218604755151
-0.20961168262123459   -0.03974110299079003   -0.01008218604755151
-0.22493461466665174   -0.011480822647791822   0.01908685446263776
-0.22493461466665174   -0.011480822647791822   0.01908685446263776
-0.22493461466665174   -0.011480822647791822   0.01908685446263776
-0.22493461466665174   -0.011480822647791822   0.01908685446263776
-0.22864727984232702   -0.027552408965009146   -0.018932158215139272
-0.22864727984232702   -0.027552408965009146   -0.018932158215139272
-0.22864727984232702   -0.027552408965009146   -0.018932158215139272
-0.22864727984232702   -0.027552408965009146   -0.018932158215139272
-0.1881912975605147   0.011869179359520324   0.0161567789753169
-0.1881912975605147   0.011869179359520324   0.0161567789753169
-0.1881912975605147   0.011869179359520324   0.0161567789753169
-0.1881912975605147   0.011869179359520324   0.0161567789753169
-0.2119484220016762   -0.015653087805207282   -0.00315542476605338
-0.2119484220016762   -0.015653087805207282   -0.00315542476605338
-0.2119484220016762   -0.015653087805207282   -0.00315542476605338
-0.2119484220016762   -0.015653087805207282   -0.00315542476605338
-0.20062842428172348   -0.02082845105341597   -0.013331224217792316
-0.20062842428172348   -0.02082845105341597   -0.013331224217792316
-0.20062842428172348   -0.02082845105341597   -0.013331224217792316
-0.20062842428172348   -0.02082845105341597   -0.013331224217792316
-0.21495163111933258   0.006403743449715137   0.015589932985108855
-0.21495163111933258   0.006403743449715137   0.015589932985108855
-0.21495163111933258   0.006403743449715137   0.015589932985108855
-0.21495163111933258   0.006403743449715137   0.015589932985108855
-0.21611344787395087   -0.008788134089525855   -0.021243061952982
-0.21611344787395087   -0.008788134089525855   -0.021243061952982
-0.21611344787395087   -0.008788134089525855   -0.021243061952982
-0.21611344787395087   -0.008788134089525855   -0.021243061952982
-0.17962213137040292   0.028035093077339077   0.012002081544879861
-0.17962213137040292   0.028035093077339077   0.012002081544879861
-0.17962213137040292   0.028035093077339077   0.012002081544879861
-0.17962213137040292   0.028035093077339077   0.012002081544879861
-0.20059876440224578   0.001382170440732182   0.0047868980062326805
-0.20059876440224578   0.001382170440732182   0.0047868980062326805
-0.20059876440224578   0.001382170440732182   0.0047868980062326805
-0.20059876440224578   0.001382170440732182   0.0047868980062326805
-0.19167257069016871   -0.0030786255479132163   -0.017136396428700948
-0.19167257069016871   -0.0030786255479132163   -0.017136396428700948
-0.19167257069016871   -0.0030786255479132163   -0.017136396428700948
-0.19167257069016871   -0.0030786255479132163   -0.017136396428700948
-0.2027912243350468   0.023597368754864026   0.012982552897148482
-0.2027912243350468   0.023597368754864026   0.012982552897148482
-0.2027912243350468   0.023597368754864026   0.012982552897148482
-0.2027912243350468   0.023597368754864026   0.012982552897148482
-0.2051514330303035   0.011866901874919837   -0.023317881763687594
-0.2051514330303035   0.011866901874919837   -0.023317881763687594
-0.2051514330303035   0.011866901874919837   -0.023317881763687594
-0.2051514330303035   0.011866901874919837   -0.023317881763687594
-0.17102981667008935   0.04603144997393228   0.007903666789326236
-0.17102981667008935   0.04603144997393228   0.007903666789326236
-0.17102981667008935   0.04603144997393228   0.007903666789326236
-0.17102981667008935   0.04603144997393228   0.007903666789326236
-0.1909980235977262   0.01826000319822118   0.01237182431308146
-0.1909980235977262   0.01826000319822118   0.01237182431308146
-0.1909980235977262   0.01826000319822118   0.01237182431308146
-0.1909980235977262   0.01826000319822118   0.01237182431308146
-0.2409656226488329   -0.04721971926052103   -0.02532928883554282
-0.2409656226488329   -0.04721971926052103   -0.02532928883554282
-0.2409656226488329   -0.04721971926052103   -0.02532928883554282
-0.2409656226488329   -0.04721971926052103   -0.02532928883554282
-0.2678346319594856   0.0033334738227261407   0.034464264386243365
-0.2678346319594856   0.0033334738227261407   0.034464264386243365
-0.2678346319594856   0.0033334738227261407   0.034464264386243365
-0.2678346319594856   0.0033334738227261407   0.034464264386243365
-0.2644307501015801   -0.03953413188308637   -0.03378350440892395
-0.2644307501015801   -0.03953413188308637   -0.03378350440892395
-0.2644307501015801   -0.03953413188308637   -0.03378350440892395
-0.2644307501015801   -0.03953413188308637   -0.03378350440892395
-0.20721098881193994   0.02980761984053896   0.030889268131246275
-0.20721098881193994   0.02980761984053896   0.030889268131246275
-0.20721098881193994   0.02980761984053896   0.030889268131246275
-0.20721098881193994   0.02980761984053896   0.030889268131246275
-0.23526001667082383   -0.010246116017555922   -0.0014565185924753817
-0.23526001667082383   -0.010246116017555922   -0.0014565185924753817
-0.23526001667082383   -0.010246116017555922   -0.0014565185924753817
-0.23526001667082383   -0.010246116017555922   -0.0014565185924753817
-0.23154319226846137   -0.03199395441403821   -0.02897017489678657
-0.23154319226846137   -0.03199395441403821   -0.02897017489678657
-0.23154319226846137   -0.03199395441403821   -0.02897017489678657
-0.23154319226846137   -0.03199395441403821   -0.02897017489678657
-0.2387688391593708   0.023597149857174697   0.03139476856185582
-0.2387688391593708   0.023597149857174697   0.03139476856185582
-0.2387688391593708   0.023597149857174697   0.03139476856185582
-0.2387688391593708   0.023597149857174697   0.03139476856185582
-0.24269872390183117   -0.02858999597804456   -0.04028701760906225
-0.24269872390183117   -0.02858999597804456   -0.04028701760906225
-0.24269872390183117   -0.02858999597804456   -0.04028701760906225
-0.24269872390183117   -0.02858999597804456   -0.04028701760906225
-0.1975450578957913   0.037516879090346136   0.02529387475794292
-0.1975450578957913   0.037516879090346136   0.02529387475794292
-0.1975450578957913   0.037516879090346136   0.02529387475794292
-0.1975450578957913   0.037516879090346136   0.02529387475794292
-0.2206407556354444   0.001204885982881071   0.006151007488924564
-0.2206407556354444   0.001204885982881071   0.006151007488924564
-0.2206407556354444   0.001204885982881071   0.006151007488924564
-0.2206407556354444   0.001204885982881071   0.006151007488924564
-0.22141184940840847   -0.022983215250422916   -0.033539988464376745
-0.22141184940840847   -0.022983215250422916   -0.033539988464376745
-0.22141184940840847   -0.022983215250422916   -0.033539988464376745
-0.22141184940840847   -0.022983215250422916   -0.033539988464376745
-0.2174371850984219   0.033304845653515776   0.02412583477642172
-0.2174371850984219   0.033304845653515776   0.02412583477642172
-0.2174371850984219   0.033304845653515776   0.02412583477642172
-0.2174371850984219   0.033304845653515776   0.02412583477642172
-0.21411116528115184   -0.009684522018402426   -0.04405005506142187
-0.21411116528115184   -0.009684522018402426   -0.04405005506142187
-0.21411116528115184   -0.009684522018402426   -0.04405005506142187
-0.21411116528115184   -0.009684522018402426   -0.04405005506142187
-0.1889015554019188   0.04896449610029542   0.02083391215286036
-0.1889015554019188   0.04896449610029542   0.02083391215286036
-0.1889015554019188   0.04896449610029542   0.02083391215286036
-0.1889015554019188   0.04896449610029542   0.02083391215286036
-0.20045900352529225   0.01262237720488904   0.01498140127878041
-0.20045900352529225   0.01262237720488904   0.01498140127878041
-0.20045900352529225   0.01262237720488904   0.01498140127878041
-0.20045900352529225   0.01262237720488904   0.01498140127878041
0.14606055893133002   0.023532181268879553   0.037622487396792935
0.14606055893133002   0.023532181268879553   0.037622487396792935
0.14606055893133002   0.023532181268879553   0.037622487396792935
0.14606055893133002   0.023532181268879553   0.037622487396792935
-0.0029888054441909884   -0.06037784620212068   -0.024774973902901502
-0.0029888054441909884   -0.06037784620212068   -0.024774973902901502
-0.0029888054441909884   -0.06037784620212068   -0.024774973902901502
-0.0029888054441909884   -0.06037784620212068   -0.024774973902901502
0.032347785117558835   0.011697749971914235   0.029045831497010004
0.032347785117558835   0.011697749971914235   0.029045831497010004
0.032347785117558835   0.011697749971914235   0.029045831497010004
0.032347785117558835   0.011697749971914235   0.029045831497010004
0.15214064604285263   -0.020877165524833458   -0.031046962595135997
0.15214064604285263   -0.020877165524833458   -0.031046962595135997
0.15214064604285263   -0.020877165524833458   -0.031046962595135997
0.15214064604285263   -0.020877165524833458   -0.031046962595135997
0.07458997811565748   -0.011625782343778411   -0.017975101642493697
0.07458997811565748   -0.011625782343778411   -0.017975101642493697
0.07458997811565748   -0.011625782343778411   -0.017975101642493697
0.07458997811565748   -0.011625782343778411   -0.017975101642493697
0.17766229133519856   0.041740253820326194   0.033943844521430094
0.17766229133519856   0.041740253820326194   0.033943844521430094
0.17766229133519856   0.041740253820326194   0.033943844521430094
0.17766229133519856   0.041740253820326194   0.033943844521430094
0.008409484440183086   -0.04933632475827589   -0.029611597159678597
0.008409484440183086   -0.04933632475827589   -0.029611597159678597
0.008409484440183086   -0.04933632475827589   -0.029611597159678597
0.008409484440183086   -0.04933632475827589   -0.029611597159678597
0.04512890871511883   0.02046563264798769   0.024224465386371116
0.04512890871511883   0.02046563264798769   0.024224465386371116
0.04512890871511883   0.02046563264798769   0.024224465386371116
0.04512890871511883   0.02046563264798769   0.024224465386371116
0.1767655263086892   -0.010975997251646552   -0.03880011411527709
0.1767655263086892   -0.010975997251646552   -0.03880011411527709
0.1767655263086892   -0.010975997251646552   -0.03880011411527709
0.1767655263086892   -0.010975997251646552   -0.03880011411527709
0.09682790400569459   -0.000710732056954818   -0.008494486100176788
0.09682790400569459   -0.000710732056954818   -0.008494486100176788
0.09682790400569459   -0.000710732056954818   -0.008494486100176788
0.09682790400569459   -0.000710732056954818   -0.008494486100176788
0.20255352517748892   0.05244869954883475   0.026715183428236335
0.20255352517748892   0.05244869954883475   0.026715183428236335
0.20255352517748892   0.05244869954883475   0.026715183428236335
0.20255352517748892   0.05244869954883475   0.026715183428236335
0.020883660407203106   -0.04141631359161026   -0.035119829913609533
0.020883660407203106   -0.04141631359161026   -0.035119829913609533
0.020883660407203106   -0.04141631359161026   -0.035119829913609533
0.020883660407203106   -0.04141631359161026   -0.035119829913609533
0.057526732138554755   0.03659224732463602   0.02096080367660892
0.057526732138554755   0.03659224732463602   0.02096080367660892
0.057526732138554755   0.03659224732463602   0.02096080367660892
0.057526732138554755   0.03659224732463602   0.02096080367660892
0.20947037912761624   0.01117600338967157   -0.04277690658540857
0.20947037912761624   0.01117600338967157   -0.04277690658540857
0.20947037912761624   0.01117600338967157   -0.04277690658540857
0.20947037912761624   0.01117600338967157   -0.04277690658540857
0.1154151095031703   0.011544229807717098   0.00045089838184219494
0.1154151095031703   0.011544229807717098   0.00045089838184219494
0.1154151095031703   0.011544229807717098   0.00045089838184219494
0.1154151095031703   0.011544229807717098   0.00045089838184219494
0.020460467768317798   0.006470606603952328   0.025622939353569418
0.020460467768317798   0.006470606603952328   0.025622939353569418
0.020460467768317798   0.006470606603952328   0.025622939353569418
0.020460467768317798   0.006470606603952328   0.025622939353569418
-0.1375345595166133   -0.05130084242947567   -0.011373027232752363
-0.1375345595166133   -0.05130084242947567   -0.011373027232752363
-0.1375345595166133   -0.05130084242947567   -0.011373027232752363
-0.1375345595166133   -0.05130084242947567   -0.011373027232752363
-0.11529644933232547   -0.007522059101949714   0.011664582410354412
-0.11529644933232547   -0.007522059101949714   0.011664582410354412
-0.11529644933232547   -0.007522059101949714   0.011664582410354412
-0.11529644933232547   -0.007522059101949714   0.011664582410354412
0.021266251143209187   -0.005679745881522209   -0.008984342521301775
0.021266251143209187   -0.005679745881522209   -0.008984342521301775
0.021266251143209187   -0.005679745881522209   -0.008984342521301775
0.021266251143209187   -0.005679745881522209   -0.008984342521301775
-0.05392199697807606   -0.013194977744988397   -0.008618756698227011
-0.05392199697807606   -0.013194977744988397   -0.008618756698227011
-0.05392199697807606   -0.013194977744988397   -0.008618756698227011
-0.05392199697807606   -0.013194977744988397   -0.008618756698227011
0.03364059630313618   0.024478300852028272   0.0227293365447827
0.03364059630313618   0.024478300852028272   0.0227293365447827
0.03364059630313618   0.024478300852028272   0.0227293365447827
0.03364059630313618   0.024478300852028272   0.0227293365447827
-0.1265140287313871   -0.036523340074632274   -0.01542203361227118
-0.1265140287313871   -0.036523340074632274   -0.01542203361227118
-0.1265140287313871   -0.036523340074632274   -0.01542203361227118
-0.1265140287313871   -0.036523340074632274   -0.01542203361227118
-0.10364998746832463   0.009501765951775112   0.008238483400751229
-0.10364998746832463   0.009501765951775112   0.008238483400751229
-0.10364998746832463   0.009501765951775112   0.008238483400751229
-0.10364998746832463   0.009501765951775112   0.008238483400751229
0.03584832539002865   0.010453121189135196   -0.012165939780227269
0.03584832539002865   0.010453121189135196   -0.012165939780227269
0.03584832539002865   0.010453121189135196   -0.012165939780227269
0.03584832539002865   0.010453121189135196   -0.012165939780227269
-0.04157322424833854   0.0018055471184171765   -0.001066718810042277
-0.04157322424833854   0.0018055471184171765   -0.001066718810042277
-0.04157322424833854   0.0018055471184171765   -0.001066718810042277
-0.04157322424833854   0.0018055471184171765   -0.001066718810042277
0.048745730828402445   0.04240671220927139   0.020367496391505528
0.048745730828402445   0.04240671220927139   0.020367496391505528
0.048745730828402445   0.04240671220927139   0.020367496391505528
0.048745730828402445   0.04240671220927139   0.020367496391505528
-0.11543250712489386   -0.021336939286556507   -0.019835409643763277
-0.11543250712489386   -0.021336939286556507   -0.019835409643763277
-0.11543250712489386   -0.021336939286556507   -0.019835409643763277
-0.11543250712489386   -0.021336939286556507   -0.019835409643763277
-0.09193066729069699   0.028778234861499365   0.004972771865352183
-0.09193066729069699   0.028778234861499365   0.004972771865352183
-0.09193066729069699   0.028778234861499365   0.004972771865352183
-0.09193066729069699   0.028778234861499365   0.004972771865352183
0.04866526184351028   0.028771622028373828   -0.015525922502351283
0.04866526184351028   0.028771622028373828   -0.015525922502351283
0.04866526184351028   0.028771622028373828   -0.015525922502351283
0.04866526184351028   0.028771622028373828   -0.015525922502351283
-0.02789082294797437   0.018392742869707376   0.006993995007536829
-0.02789082294797437   0.018392742869707376   0.006993995007536829
-0.02789082294797437   0.018392742869707376   0.006993995007536829
-0.02789082294797437   0.018392742869707376   0.006993995007536829
-0.12510685469407243   -0.009785215589932254   0.009249870040408508
-0.12510685469407243   -0.009785215589932254   0.009249870040408508
-0.12510685469407243   -0.009785215589932254   0.009249870040408508
-0.12510685469407243   -0.009785215589932254   0.009249870040408508
-0.26962362920533933   -0.036595566037295496   0.00232550719299654
-0.26962362920533933   -0.036595566037295496   0.00232550719299654
-0.26962362920533933   -0.036595566037295496   0.00232550719299654
-0.26962362920533933   -0.036595566037295496   0.00232550719299654
-0.25945419312327594   -0.02300285889586958   -0.005070207788312945
-0.25945419312327594   -0.02300285889586958   -0.005070207788312945
-0.25945419312327594   -0.02300285889586958   -0.005070207788312945
-0.25945419312327594   -0.02300285889586958   -0.005070207788312945
-0.1130704171534505   0.00957726206417018   0.005695422138609367
-0.1130704171534505   0.00957726206417018   0.005695422138609367
-0.1130704171534505   0.00957726206417018   0.005695422138609367
-0.1130704171534505   0.00957726206417018   0.005695422138609367
-0.1920929895678539   -0.013736022467245264   -0.005036620732475976
-0.1920929895678539   -0.013736022467245264   -0.005036620732475976
-0.1920929895678539   -0.013736022467245264   -0.005036620732475976
-0.1920929895678539   -0.013736022467245264   -0.005036620732475976
-0.11320268527375452   0.00848646079329098   0.006124882807968425
-0.11320268527375452   0.00848646079329098   0.006124882807968425
-0.11320268527375452   0.00848646079329098   0.006124882807968425
-0.11320268527375452   0.00848646079329098   0.006124882807968425
-0.2583259739555012   -0.020916106577522575   -0.0015158642677883492
-0.2583259739555012   -0.020916106577522575   -0.0015158642677883492
-0.2583259739555012   -0.020916106577522575   -0.0015158642677883492
-0.2583259739555012   -0.020916106577522575   -0.0015158642677883492
-0.24720106983536727   -0.004258490880830898   -0.007972422939747002
-0.24720106983536727   -0.004258490880830898   -0.007972422939747002
-0.24720106983536727   -0.004258490880830898   -0.007972422939747002
-0.24720106983536727   -0.004258490880830898   -0.007972422939747002
-0.10154056825254552   0.0261750157774989   0.0021123296539229865
-0.10154056825254552   0.0261750157774989   0.0021123296539229865
-0.10154056825254552   0.0261750157774989   0.0021123296539229865
-0.10154056825254552   0.0261750157774989   0.0021123296539229865
-0.17943696282420157   0.002719183517113699   0.0025783376985742575
-0.17943696282420157   0.002719183517113699   0.0025783376985742575
-0.17943696282420157   0.002719183517113699   0.0025783376985742575
-0.17943696282420157   0.002719183517113699   0.0025783376985742575
-0.10122574536942666   0.02708612547475823   0.002775334372258024
-0.10122574536942666   0.02708612547475823   0.002775334372258024
-0.10122574536942666   0.02708612547475823   0.002775334372258024
-0.10122574536942666   0.02708612547475823   0.002775334372258024
-0.2467171635986378   -0.004370871458242262   -0.005440511178690528
-0.2467171635986378   -0.004370871458242262   -0.005440511178690528
-0.2467171635986378   -0.004370871458242262   -0.005440511178690528
-0.2467171635986378   -0.004370871458242262   -0.005440511178690528
-0.2354409240891792   0.014542773363992414   -0.0112762900164797
-0.2354409240891792   0.014542773363992414   -0.0112762900164797
-0.2354409240891792   0.014542773363992414   -0.0112762900164797
-0.2354409240891792   0.014542773363992414   -0.0112762900164797
-0.09052084969952887   0.04282148748672758   -0.0020213928040334617
-0.09052084969952887   0.04282148748672758   -0.0020213928040334617
-0.09052084969952887   0.04282148748672758   -0.0020213928040334617
-0.09052084969952887   0.04282148748672758   -0.0020213928040334617
-0.16744772101945574   0.019131686908555663   0.009696399153537764
-0.16744772101945574   0.019131686908555663   0.009696399153537764
-0.16744772101945574   0.019131686908555663   0.009696399153537764
-0.16744772101945574   0.019131686908555663   0.009696399153537764
-0.26943570492705265   -0.025720415902474328   -0.007610021550389232
-0.26943570492705265   -0.025720415902474328   -0.007610021550389232
-0.26943570492705265   -0.025720415902474328   -0.007610021550389232
-0.26943570492705265   -0.025720415902474328   -0.007610021550389232
-0.40055147005236275   -0.02276765753394589   0.015758421409909885
-0.40055147005236275   -0.02276765753394589   0.015758421409909885
-0.40055147005236275   -0.02276765753394589   0.015758421409909885
-0.40055147005236275   -0.02276765753394589   0.015758421409909885
-0.40085001300795714   -0.03818117881275473   -0.0214362964386159
-0.40085001300795714   -0.03818117881275473   -0.0214362964386159
-0.40085001300795714   -0.03818117881275473   -0.0214362964386159
-0.40085001300795714   -0.03818117881275473   -0.0214362964386159
-0.24512533767214675   0.02418910988697319   0.01938210068448842
-0.24512533767214675   0.02418910988697319   0.01938210068448842
-0.24512533767214675   0.02418910988697319   0.01938210068448842
-0.24512533767214675   0.02418910988697319   0.01938210068448842
-0.3271427870699674   -0.014035507768528896   -0.0021352673015399525
-0.3271427870699674   -0.014035507768528896   -0.0021352673015399525
-0.3271427870699674   -0.014035507768528896   -0.0021352673015399525
-0.3271427870699674   -0.014035507768528896   -0.0021352673015399525
-0.2574340963515848   -0.007337710632418691   -0.01063487219330807
-0.2574340963515848   -0.007337710632418691   -0.01063487219330807
-0.2574340963515848   -0.007337710632418691   -0.01063487219330807
-0.2574340963515848   -0.007337710632418691   -0.01063487219330807
-0.38771308299553914   -0.0058261869603819655   0.011893361771105056
-0.38771308299553914   -0.0058261869603819655   0.011893361771105056
-0.38771308299553914   -0.0058261869603819655   0.011893361771105056
-0.38771308299553914   -0.0058261869603819655   0.011893361771105056
-0.3854629053652888   -0.020304262647311624   -0.023853923083487744
-0.3854629053652888   -0.020304262647311624   -0.023853923083487744
-0.3854629053652888   -0.020304262647311624   -0.023853923083487744
-0.3854629053652888   -0.020304262647311624   -0.023853923083487744
-0.2338113919703556   0.03928933504977751   0.01542814045470079
-0.2338113919703556   0.03928933504977751   0.01542814045470079
-0.2338113919703556   0.03928933504977751   0.01542814045470079
-0.2338113919703556   0.03928933504977751   0.01542814045470079
-0.3119231484787689   0.002556638296366473   0.005717798029045162
-0.3119231484787689   0.002556638296366473   0.005717798029045162
-0.3119231484787689   0.002556638296366473   0.005717798029045162
-0.3119231484787689   0.002556638296366473   0.005717798029045162
-0.24571030697611237   0.009551351451966922   -0.014328450976271438
-0.24571030697611237   0.009551351451966922   -0.014328450976271438
-0.24571030697611237   0.009551351451966922   -0.014328450976271438
-0.24571030697611237   0.009551351451966922   -0.014328450976271438
-0.3726337430492957   0.010363968260735476   0.009623657588430715
-0.3726337430492957   0.010363968260735476   0.009623657588430715
-0.3726337430492957   0.010363968260735476   0.009623657588430715
-0.3726337430492957   0.010363968260735476   0.009623657588430715
-0.37170270958525276   -0.0008205266122310595   -0.025683323226311727
-0.37170270958525276   -0.0008205266122310595   -0.025683323226311727
-0.37170270958525276   -0.0008205266122310595   -0.025683323226311727
-0.37170270958525276   -0.0008205266122310595   -0.025683323226311727
-0.22261648221213098   0.05594574445207875   0.011442948280675047
-0.22261648221213098   0.05594574445207875   0.011442948280675047
-0.22261648221213098   0.05594574445207875   0.011442948280675047
-0.22261648221213098   0.05594574445207875   0.011442948280675047
-0.30058868849895304   0.018010533735434223   0.012749914271247536
-0.30058868849895304   0.018010533735434223   0.012749914271247536
-0.30058868849895304   0.018010533735434223   0.012749914271247536
-0.30058868849895304   0.018010533735434223   0.012749914271247536
-0.41117250056870036   -0.036874858764591886   -0.023239529941131976
-0.41117250056870036   -0.036874858764591886   -0.023239529941131976
-0.41117250056870036   -0.036874858764591886   -0.023239529941131976
-0.41117250056870036   -0.036874858764591886   -0.023239529941131976
-0.5499775455111573   -0.009919947403352308   0.03430211823416775
-0.5499775455111573   -0.009919947403352308   0.03430211823416775
-0.5499775455111573   -0.009919947403352308   0.03430211823416775
-0.5499775455111573   -0.009919947403352308   0.03430211823416775
-0.5425626453012526   -0.049656428846774806   -0.03107931881600986
-0.5425626453012526   -0.049656428846774806   -0.03107931881600986
-0.5425626453012526   -0.049656428846774806   -0.03107931881600986
-0.5425626453012526   -0.049656428846774806   -0.03107931881600986
-0.37397661440831603   0.04093549475110554   0.03381402299572912
-0.37397661440831603   0.04093549475110554   0.03381402299572912
-0.37397661440831603   0.04093549475110554   0.03381402299572912
-0.37397661440831603   0.04093549475110554   0.03381402299572912
-0.4491673867495131   -0.007997268667118168   0.0038092151353270043
-0.4491673867495131   -0.007997268667118168   0.0038092151353270043
-0.4491673867495131   -0.007997268667118168   0.0038092151353270043
-0.4491673867495131   -0.007997268667118168   0.0038092151353270043
-0.39814849925972867   -0.019816430981094507   -0.026293475529132297
-0.39814849925972867   -0.019816430981094507   -0.026293475529132297
-0.39814849925972867   -0.019816430981094507   -0.026293475529132297
-0.39814849925972867   -0.019816430981094507   -0.026293475529132297
-0.5176357694887194   0.011850487846544536   0.03204814355332744
-0.5176357694887194   0.011850487846544536   0.03204814355332744
-0.5176357694887194   0.011850487846544536   0.03204814355332744
-0.5176357694887194   0.011850487846544536   0.03204814355332744
-0.5181267375075616   -0.039059874999416544   -0.037008216079100195
-0.5181267375075616   -0.039059874999416544   -0.037008216079100195
-0.5181267375075616   -0.039059874999416544   -0.037008216079100195
-0.5181267375075616   -0.039059874999416544   -0.037008216079100195
-0.3614729011804013   0.047904333056187826   0.02788750213744659
-0.3614729011804013   0.047904333056187826   0.02788750213744659
-0.3614729011804013   0.047904333056187826   0.02788750213744659
-0.3614729011804013   0.047904333056187826   0.02788750213744659
-0.4354391811691158   0.003136238700740382   0.010140541454991731
-0.4354391811691158   0.003136238700740382   0.010140541454991731
-0.4354391811691158   0.003136238700740382   0.010140541454991731
-0.4354391811691158   0.003136238700740382   0.010140541454991731
-0.384926842540393   -0.01109485592618907   -0.030383015680131378
-0.384926842540393   -0.01109485592618907   -0.030383015680131378
-0.384926842540393   -0.01109485592618907   -0.030383015680131378
-0.384926842540393   -0.01109485592618907   -0.030383015680131378
-0.49375270110661373   0.020859409023915837   0.024942681902299063
-0.49375270110661373   0.020859409023915837   0.024942681902299063
-0.49375270110661373   0.020859409023915837   0.024942681902299063
-0.49375270110661373   0.020859409023915837   0.024942681902299063
-0.48796129224926615   -0.023273150892329342   -0.04129458596291615
-0.48796129224926615   -0.023273150892329342   -0.04129458596291615
-0.48796129224926615   -0.023273150892329342   -0.04129458596291615
-0.48796129224926615   -0.023273150892329342   -0.04129458596291615
-0.3505051152444785   0.05625627697340144   0.023227844891926946
-0.3505051152444785   0.05625627697340144   0.023227844891926946
-0.3505051152444785   0.05625627697340144   0.023227844891926946
-0.3505051152444785   0.05625627697340144   0.023227844891926946
-0.40940118507669465   0.013543286558810902   0.019085721318810117
-0.40940118507669465   0.013543286558810902   0.019085721318810117
-0.40940118507669465   0.013543286558810902   0.019085721318810117
-0.40940118507669465   0.013543286558810902   0.019085721318810117
0.43418850771492395   0.039500228936595334   0.03743808863156364
0.43418850771492395   0.039500228936595334   0.03743808863156364
0.43418850771492395   0.039500228936595334   0.03743808863156364
0.43418850771492395   0.039500228936595334   0.03743808863156364
0.15874897210617742   -0.07171862374869417   -0.024631311072517526
0.15874897210617742   -0.07171862374869417   -0.024631311072517526
0.15874897210617742   -0.07171862374869417   -0.024631311072517526
0.15874897210617742   -0.07171862374869417   -0.024631311072517526
0.19565685063475494   -0.0005818612257952396   0.02691335430815277
0.19565685063475494   -0.0005818612257952396   0.02691335430815277
0.19565685063475494   -0.0005818612257952396   0.02691335430815277
0.19565685063475494   -0.0005818612257952396   0.02691335430815277
0.4418510886085757   -0.009607700409865833   -0.03146253763828034
0.4418510886085757   -0.009607700409865833   -0.03146253763828034
0.4418510886085757   -0.009607700409865833   -0.03146253763828034
0.4418510886085757   -0.009607700409865833   -0.03146253763828034
0.2886946772254749   -0.012872202007851219   -0.027765601369119784
0.2886946772254749   -0.012872202007851219   -0.027765601369119784
0.2886946772254749   -0.012872202007851219   -0.027765601369119784
0.2886946772254749   -0.012872202007851219   -0.027765601369119784
0.4675573952032659   0.05492319650944784   0.03253809841585714
0.4675573952032659   0.05492319650944784   0.03253809841585714
0.4675573952032659   0.05492319650944784   0.03253809841585714
0.4675573952032659   0.05492319650944784   0.03253809841585714
0.17178118014368252   -0.06328212204149047   -0.029764737331510367
0.17178118014368252   -0.06328212204149047   -0.029764737331510367
0.17178118014368252   -0.06328212204149047   -0.029764737331510367
0.17178118014368252   -0.06328212204149047   -0.029764737331510367
0.21012207971959002   0.007890597524125645   0.022176306352683094
0.21012207971959002   0.007890597524125645   0.022176306352683094
0.21012207971959002   0.007890597524125645   0.022176306352683094
0.21012207971959002   0.007890597524125645   0.022176306352683094
0.46836217971038385   1.3776490575240219e-05   -0.03958300481361584
0.46836217971038385   1.3776490575240219e-05   -0.03958300481361584
0.46836217971038385   1.3776490575240219e-05   -0.03958300481361584
0.46836217971038385   1.3776490575240219e-05   -0.03958300481361584
0.3164276897595879   -0.0024932669207615027   -0.016848066858365696
0.3164276897595879   -0.0024932669207615027   -0.016848066858365696
0.3164276897595879   -0.0024932669207615027   -0.016848066858365696
0.3164276897595879   -0.0024932669207615027   -0.016848066858365696
0.4943413440891034   0.06530375653466933   0.02502283703588803
0.4943413440891034   0.06530375653466933   0.02502283703588803
0.4943413440891034   0.06530375653466933   0.02502283703588803
0.4943413440891034   0.06530375653466933   0.02502283703588803
0.18608064138190042   -0.055461656478938096   -0.03467863133269911
0.18608064138190042   -0.055461656478938096   -0.03467863133269911
0.18608064138190042   -0.055461656478938096   -0.03467863133269911
0.18608064138190042   -0.055461656478938096   -0.03467863133269911
0.22456957680886214   0.026595153604178468   0.019219646805880022
0.22456957680886214   0.026595153604178468   0.019219646805880022
0.22456957680886214   0.026595153604178468   0.019219646805880022
0.22456957680886214   0.026595153604178468   0.019219646805880022
0.5032007975066503   0.025100038005433353   -0.04268262538165826
0.5032007975066503   0.025100038005433353   -0.04268262538165826
0.5032007975066503   0.025100038005433353   -0.04268262538165826
0.5032007975066503   0.025100038005433353   -0.04268262538165826
0.33341172707454736   0.01015827676394454   -0.007433043784577431
0.33341172707454736   0.01015827676394454   -0.007433043784577431
0.33341172707454736   0.01015827676394454   -0.007433043784577431
0.33341172707454736   0.01015827676394454   -0.007433043784577431
0.18845968545234415   0.022177781993991896   0.030025849915628035
0.18845968545234415   0.022177781993991896   0.030025849915628035
0.18845968545234415   0.022177781993991896   0.030025849915628035
0.18845968545234415   0.022177781993991896   0.030025849915628035
-0.0923336569996737   -0.06693615873093926   -0.012921391961072327
-0.0923336569996737   -0.06693615873093926   -0.012921391961072327
-0.0923336569996737   -0.06693615873093926   -0.012921391961072327
-0.0923336569996737   -0.06693615873093926   -0.012921391961072327
-0.06701833784261015   -0.019730956309205253   0.00904419432610235
-0.06701833784261015   -0.019730956309205253   0.00904419432610235
-0.06701833784261015   -0.019730956309205253   0.00904419432610235
-0.06701833784261015   -0.019730956309205253   0.00904419432610235
0.1897902420205051   0.0008981519591859805   -0.0038997019480759704
0.1897902420205051   0.0008981519591859805   -0.0038997019480759704
0.1897902420205051   0.0008981519591859805   -0.0038997019480759704
0.1897902420205051   0.0008981519591859805   -0.0038997019480759704
0.05224179766700523   -0.014048805470202768   -0.011792681709666877
0.05224179766700523   -0.014048805470202768   -0.011792681709666877
0.05224179766700523   -0.014048805470202768   -0.011792681709666877
0.05224179766700523   -0.014048805470202768   -0.011792681709666877
0.20333329204754724   0.03789439236072462   0.026819307785594333
0.20333329204754724   0.03789439236072462   0.026819307785594333
0.20333329204754724   0.03789439236072462   0.026819307785594333
0.20333329204754724   0.03789439236072462   0.026819307785594333
-0.07944968454533283   -0.05561549338642473   -0.017228002110291605
-0.07944968454533283   -0.05561549338642473   -0.017228002110291605
-0.07944968454533283   -0.05561549338642473   -0.017228002110291605
-0.07944968454533283   -0.05561549338642473   -0.017228002110291605
-0.05354933265391055   -0.003852195562476118   0.005705134505655362
-0.05354933265391055   -0.003852195562476118   0.005705134505655362
-0.05354933265391055   -0.003852195562476118   0.005705134505655362
-0.05354933265391055   -0.003852195562476118   0.005705134505655362
0.2056732583295563   0.015127245177233083   -0.007304448250590898
0.2056732583295563   0.015127245177233083   -0.007304448250590898
0.2056732583295563   0.015127245177233083   -0.007304448250590898
0.2056732583295563   0.015127245177233083   -0.007304448250590898
0.06524220848377044   -0.0015116472636006583   -0.004684101921219484
0.06524220848377044   -0.0015116472636006583   -0.004684101921219484
0.06524220848377044   -0.0015116472636006583   -0.004684101921219484
0.06524220848377044   -0.0015116472636006583   -0.004684101921219484
0.2197605946020444   0.054433882204499955   0.02382559608458077
0.2197605946020444   0.054433882204499955   0.02382559608458077
0.2197605946020444   0.054433882204499955   0.02382559608458077
0.2197605946020444   0.054433882204499955   0.02382559608458077
-0.0665239704859961   -0.04204613414934077   -0.020974116067907743
-0.0665239704859961   -0.04204613414934077   -0.020974116067907743
-0.0665239704859961   -0.04204613414934077   -0.020974116067907743
-0.0665239704859961   -0.04204613414934077   -0.020974116067907743
-0.040243728478792005   0.014571828388476364   0.002384099620463668
-0.040243728478792005   0.014571828388476364   0.002384099620463668
-0.040243728478792005   0.014571828388476364   0.002384099620463668
-0.040243728478792005   0.014571828388476364   0.002384099620463668
0.21973844121717287   0.0320948854345575   -0.010435762982945507
0.21973844121717287   0.0320948854345575   -0.010435762982945507
0.21973844121717287   0.0320948854345575   -0.010435762982945507
0.21973844121717287   0.0320948854345575   -0.010435762982945507
0.08136160369424629   0.013887213884666507   0.0036224065432529195
0.08136160369424629   0.013887213884666507   0.0036224065432529195
0.08136160369424629   0.013887213884666507   0.0036224065432529195
0.08136160369424629   0.013887213884666507   0.0036224065432529195
-0.0728306877565134   0.0048578165988573   0.01279947892493459
-0.0728306877565134   0.0048578165988573   0.01279947892493459
-0.0728306877565134   0.0048578165988573   0.01279947892493459
-0.0728306877565134   0.0048578165988573   0.01279947892493459
-0.33844394182558496   -0.059167648981890815   -0.0017490155382351418
-0.33844394182558496   -0.059167648981890815   -0.0017490155382351418
-0.33844394182558496   -0.059167648981890815   -0.0017490155382351418
-0.33844394182558496   -0.059167648981890815   -0.0017490155382351418
-0.3225014755534751   -0.03503564980978221   -0.007938078831127958
-0.3225014755534751   -0.03503564980978221   -0.007938078831127958
-0.3225014755534751   -0.03503564980978221   -0.007938078831127958
-0.3225014755534751   -0.03503564980978221   -0.007938078831127958
-0.061364568803960455   0.009102021488239475   0.008480061721906072
-0.061364568803960455   0.009102021488239475   0.008480061721906072
-0.061364568803960455   0.009102021488239475   0.008480061721906072
-0.061364568803960455   0.009102021488239475   0.008480061721906072
-0.1991311763851218   -0.018156914883838346   -0.007370899262025991
-0.1991311763851218   -0.018156914883838346   -0.007370899262025991
-0.1991311763851218   -0.018156914883838346   -0.007370899262025991
-0.1991311763851218   -0.018156914883838346   -0.007370899262025991
-0.05869062237996876   0.021253749714304545   0.009698065615799467
-0.05869062237996876   0.021253749714304545   0.009698065615799467
-0.05869062237996876   0.021253749714304545   0.009698065615799467
-0.05869062237996876   0.021253749714304545   0.009698065615799467
-0.32442435056073576   -0.04643630661911626   -0.006151797058097269
-0.32442435056073576   -0.04643630661911626   -0.006151797058097269
-0.32442435056073576   -0.04643630661911626   -0.006151797058097269
-0.32442435056073576   -0.04643630661911626   -0.006151797058097269
-0.3076510835281423   -0.017613631439341103   -0.01072039115468027
-0.3076510835281423   -0.017613631439341103   -0.01072039115468027
-0.3076510835281423   -0.017613631439341103   -0.01072039115468027
-0.3076510835281423   -0.017613631439341103   -0.01072039115468027
-0.04825803953407064   0.023479982477610864   0.004829422064767953
-0.04825803953407064   0.023479982477610864   0.004829422064767953
-0.04825803953407064   0.023479982477610864   0.004829422064767953
-0.04825803953407064   0.023479982477610864   0.004829422064767953
-0.18414865123620433   -0.003583933178185089   -0.0001078693409960127
-0.18414865123620433   -0.003583933178185089   -0.0001078693409960127
-0.18414865123620433   -0.003583933178185089   -0.0001078693409960127
-0.18414865123620433   -0.003583933178185089   -0.0001078693409960127
-0.04502792739845428   0.038289225884687236   0.006170739335773388
-0.04502792739845428   0.038289225884687236   0.006170739335773388
-0.04502792739845428   0.038289225884687236   0.006170739335773388
-0.04502792739845428   0.038289225884687236   0.006170739335773388
-0.31018535400230024   -0.03172703318496416   -0.009278341779846853
-0.31018535400230024   -0.03172703318496416   -0.009278341779846853
-0.31018535400230024   -0.03172703318496416   -0.009278341779846853
-0.31018535400230024   -0.03172703318496416   -0.009278341779846853
-0.29382413319394607   -0.00024212167976032928   -0.014036155142055796
-0.29382413319394607   -0.00024212167976032928   -0.014036155142055796
-0.29382413319394607   -0.00024212167976032928   -0.014036155142055796
-0.29382413319394607   -0.00024212167976032928   -0.014036155142055796
-0.03575968736516318   0.038156805159131287   0.0012193284179528672
-0.03575968736516318   0.038156805159131287   0.0012193284179528672
-0.03575968736516318   0.038156805159131287   0.0012193284179528672
-0.03575968736516318   0.038156805159131287   0.0012193284179528672
-0.17039247559036988   0.010936043504259231   0.006799876115288183
-0.17039247559036988   0.010936043504259231   0.006799876115288183
-0.17039247559036988   0.010936043504259231   0.006799876115288183
-0.17039247559036988   0.010936043504259231   0.006799876115288183
-0.32980059368060377   -0.012757626083849498   -0.004942297711367149
-0.32980059368060377   -0.012757626083849498   -0.004942297711367149
-0.32980059368060377   -0.012757626083849498   -0.004942297711367149
-0.32980059368060377   -0.012757626083849498   -0.004942297711367149
-0.5792452986964904   -0.04805622970370743   0.010980657695951669
-0.5792452986964904   -0.04805622970370743   0.010980657695951669
-0.5792452986964904   -0.04805622970370743   0.010980657695951669
-0.5792452986964904   -0.04805622970370743   0.010980657695951669
-0.5716454581869924   -0.0497632325988948   -0.02385949123000582
-0.5716454581869924   -0.0497632325988948   -0.02385949123000582
-0.5716454581869924   -0.0497632325988948   -0.02385949123000582
-0.5716454581869924   -0.0497632325988948   -0.02385949123000582
-0.30515789355231715   0.02250204787673807   0.0212421334881442
-0.30515789355231715   0.02250204787673807   0.0212421334881442
-0.30515789355231715   0.02250204787673807   0.0212421334881442
-0.30515789355231715   0.02250204787673807   0.0212421334881442
-0.44337463765025253   -0.019270665626094002   -0.0025785630234532175
-0.44337463765025253   -0.019270665626094002   -0.0025785630234532175
-0.44337463765025253   -0.019270665626094002   -0.0025785630234532175
-0.44337463765025253   -0.019270665626094002   -0.0025785630234532175
-0.3144323917160703   0.004938014208761721   -0.00756632366264531
-0.3144323917160703   0.004938014208761721   -0.00756632366264531
-0.3144323917160703   0.004938014208761721   -0.00756632366264531
-0.3144323917160703   0.004938014208761721   -0.00756632366264531
-0.5623074689848225   -0.032135707892501766   0.005202930074450395
-0.5623074689848225   -0.032135707892501766   0.005202930074450395
-0.5623074689848225   -0.032135707892501766   0.005202930074450395
-0.5623074689848225   -0.032135707892501766   0.005202930074450395
-0.5522104893806903   -0.03275446765208265   -0.0263917756442653
-0.5522104893806903   -0.03275446765208265   -0.0263917756442653
-0.5522104893806903   -0.03275446765208265   -0.0263917756442653
-0.5522104893806903   -0.03275446765208265   -0.0263917756442653
-0.2913468301944495   0.03619689644621804   0.01699034762822684
-0.2913468301944495   0.03619689644621804   0.01699034762822684
-0.2913468301944495   0.03619689644621804   0.01699034762822684
-0.2913468301944495   0.03619689644621804   0.01699034762822684
-0.423572205458805   -0.0031706459912721335   0.004716211210950682
-0.423572205458805   -0.0031706459912721335   0.004716211210950682
-0.423572205458805   -0.0031706459912721335   0.004716211210950682
-0.423572205458805   -0.0031706459912721335   0.004716211210950682
-0.30005389856993303   0.020737988398605883   -0.011086086201579942
-0.30005389856993303   0.020737988398605883   -0.011086086201579942
-0.30005389856993303   0.020737988398605883   -0.011086086201579942
-0.30005389856993303   0.020737988398605883   -0.011086086201579942
-0.5430172241922581   -0.016809362791522092   0.0036294454373348647
-0.5430172241922581   -0.016809362791522092   0.0036294454373348647
-0.5430172241922581   -0.016809362791522092   0.0036294454373348647
-0.5430172241922581   -0.016809362791522092   0.0036294454373348647
-0.534835265262072   -0.014338010328436263   -0.027757042571958906
-0.534835265262072   -0.014338010328436263   -0.027757042571958906
-0.534835265262072   -0.014338010328436263   -0.027757042571958906
-0.534835265262072   -0.014338010328436263   -0.027757042571958906
-0.2779708554264195   0.05123178953624728   0.013756322479571571
-0.2779708554264195   0.05123178953624728   0.013756322479571571
-0.2779708554264195   0.05123178953624728   0.013756322479571571
-0.2779708554264195   0.05123178953624728   0.013756322479571571
-0.41026282858467794   0.010574991095436498   0.011002368266424804
-0.41026282858467794   0.010574991095436498   0.011002368266424804
-0.41026282858467794   0.010574991095436498   0.011002368266424804
-0.41026282858467794   0.010574991095436498   0.011002368266424804
-0.5815787089445932   -0.027374273655436515   -0.02136834959283277
-0.5815787089445932   -0.027374273655436515   -0.02136834959283277
-0.5815787089445932   -0.027374273655436515   -0.02136834959283277
-0.5815787089445932   -0.027374273655436515   -0.02136834959283277
-0.8295051964292669   -0.029999669240161814   0.03699313876716393
-0.8295051964292669   -0.029999669240161814   0.03699313876716393
-0.8295051964292669   -0.029999669240161814   0.03699313876716393
-0.8295051964292669   -0.029999669240161814   0.03699313876716393
-0.8139488856471477   -0.05950353766487347   -0.028408867845334192
-0.8139488856471477   -0.05950353766487347   -0.028408867845334192
-0.8139488856471477   -0.05950353766487347   -0.028408867845334192
-0.8139488856471477   -0.05950353766487347   -0.028408867845334192
-0.5401519180603513   0.046195330866982715   0.03764964593731715
-0.5401519180603513   0.046195330866982715   0.03764964593731715
-0.5401519180603513   0.046195330866982715   0.03764964593731715
-0.5401519180603513   0.046195330866982715   0.03764964593731715
-0.6606125648562944   -0.008157539909880301   0.0077838238567785045
-0.6606125648562944   -0.008157539909880301   0.0077838238567785045
-0.6606125648562944   -0.008157539909880301   0.0077838238567785045
-0.6606125648562944   -0.008157539909880301   0.0077838238567785045
-0.5633651180247036   -0.008457679312341357   -0.0237633437051178
-0.5633651180247036   -0.008457679312341357   -0.0237633437051178
-0.5633651180247036   -0.008457679312341357   -0.0237633437051178
-0.5633651180247036   -0.008457679312341357   -0.0237633437051178
-0.7903320995932235   -0.004446941395977955   0.03461846615538597
-0.7903320995932235   -0.004446941395977955   0.03461846615538597
-0.7903320995932235   -0.004446941395977955   0.03461846615538597
-0.7903320995932235   -0.004446941395977955   0.03461846615538597
-0.7844389249404382   -0.048961342858931084   -0.03347485367811104
-0.7844389249404382   -0.048961342858931084   -0.03347485367811104
-0.7844389249404382   -0.048961342858931084   -0.03347485367811104
-0.7844389249404382   -0.048961342858931084   -0.03347485367811104
-0.5238710320710792   0.05269473684667328   0.029856306405034075
-0.5238710320710792   0.05269473684667328   0.029856306405034075
-0.5238710320710792   0.05269473684667328   0.029856306405034075
-0.5238710320710792   0.05269473684667328   0.029856306405034075
-0.6455715865052306   0.003357798892507091   0.013821542248696805
-0.6455715865052306   0.003357798892507091   0.013821542248696805
-0.6455715865052306   0.003357798892507091   0.013821542248696805
-0.6455715865052306   0.003357798892507091   0.013821542248696805
-0.5457849826318777   5.0562023288514e-05   -0.02706927157557354
-0.5457849826318777   5.0562023288514e-05   -0.02706927157557354
-0.5457849826318777   5.0562023288514e-05   -0.02706927157557354
-0.5457849826318777   5.0562023288514e-05   -0.02706927157557354
-0.7621183591500057   0.004089447194079998   0.02507718522102506
-0.7621183591500057   0.004089447194079998   0.02507718522102506
-0.7621183591500057   0.004089447194079998   0.02507718522102506
-0.7621183591500057   0.004089447194079998   0.02507718522102506
-0.7521273048214128   -0.036348493801520276   -0.038173819405747225
-0.7521273048214128   -0.036348493801520276   -0.038173819405747225
-0.7521273048214128   -0.036348493801520276   -0.038173819405747225
-0.7521273048214128   -0.036348493801520276   -0.038173819405747225
-0.5095902565465616   0.058711065960314945   0.025418924716841554
-0.5095902565465616   0.058711065960314945   0.025418924716841554
-0.5095902565465616   0.058711065960314945   0.025418924716841554
-0.5095902565465616   0.058711065960314945   0.025418924716841554
-0.6128899038201574   0.012908123099751645   0.022999851040497524
-0.6128899038201574   0.012908123099751645   0.022999851040497524
-0.6128899038201574   0.012908123099751645   0.022999851040497524
-0.6128899038201574   0.012908123099751645   0.022999851040497524
0.7263071887320459   0.05436388154652129   0.03822299877769114
0.7263071887320459   0.05436388154652129   0.03822299877769114
0.7263071887320459   0.05436388154652129   0.03822299877769114
0.7263071887320459   0.05436388154652129   0.03822299877769114
0.3199596647255839   -0.08505718133010245   -0.017673836888379424
0.3199596647255839   -0.08505718133010245   -0.017673836888379424
0.3199596647255839   -0.08505718133010245   -0.017673836888379424
0.3199596647255839   -0.08505718133010245   -0.017673836888379424
0.3564108628083946   -0.015160707998659415   0.026212650217932863
0.3564108628083946   -0.015160707998659415   0.026212650217932863
0.3564108628083946   -0.015160707998659415   0.026212650217932863
0.3564108628083946   -0.015160707998659415   0.026212650217932863
0.7341173797021715   -0.0008646813827802857   -0.027626184106127855
0.7341173797021715   -0.0008646813827802857   -0.027626184106127855
0.7341173797021715   -0.0008646813827802857   -0.027626184106127855
0.7341173797021715   -0.0008646813827802857   -0.027626184106127855
0.5029313610626828   -0.01505399833492467   -0.03916586521380015
0.5029313610626828   -0.01505399833492467   -0.03916586521380015
0.5029313610626828   -0.01505399833492467   -0.03916586521380015
0.5029313610626828   -0.01505399833492467   -0.03916586521380015
0.7595329457061342   0.06661547620290173   0.03197148832799914
0.7595329457061342   0.06661547620290173   0.03197148832799914
0.7595329457061342   0.06661547620290173   0.03197148832799914
0.7595329457061342   0.06661547620290173   0.03197148832799914
0.33344039005784176   -0.08019577233093167   -0.023604649202555117
0.33344039005784176   -0.08019577233093167   -0.023604649202555117
0.33344039005784176   -0.08019577233093167   -0.023604649202555117
0.33344039005784176   -0.08019577233093167   -0.023604649202555117
0.37058701870693506   -0.007389670614066271   0.021174920666625366
0.37058701870693506   -0.007389670614066271   0.021174920666625366
0.37058701870693506   -0.007389670614066271   0.021174920666625366
0.37058701870693506   -0.007389670614066271   0.021174920666625366
0.7590078003330452   0.0076963373562137505   -0.0344678434903587
0.7590078003330452   0.0076963373562137505   -0.0344678434903587
0.7590078003330452   0.0076963373562137505   -0.0344678434903587
0.7590078003330452   0.0076963373562137505   -0.0344678434903587
0.5342668549112031   -0.005921724464857822   -0.026671143813944975
0.5342668549112031   -0.005921724464857822   -0.026671143813944975
0.5342668549112031   -0.005921724464857822   -0.026671143813944975
0.5342668549112031   -0.005921724464857822   -0.026671143813944975
0.7842676542407343   0.07584752086685725   0.023680242537443726
0.7842676542407343   0.07584752086685725   0.023680242537443726
0.7842676542407343   0.07584752086685725   0.023680242537443726
0.7842676542407343   0.07584752086685725   0.023680242537443726
0.34746271944501905   -0.07340529947893153   -0.028430946778089564
0.34746271944501905   -0.07340529947893153   -0.028430946778089564
0.34746271944501905   -0.07340529947893153   -0.028430946778089564
0.34746271944501905   -0.07340529947893153   -0.028430946778089564
0.3834395896908393   0.013397311920393909   0.01856495200895544
0.3834395896908393   0.013397311920393909   0.01856495200895544
0.3834395896908393   0.013397311920393909   0.01856495200895544
0.3834395896908393   0.013397311920393909   0.01856495200895544
0.789668536685613   0.03276164965637762   -0.03607723979940676
0.789668536685613   0.03276164965637762   -0.03607723979940676
0.789668536685613   0.03276164965637762   -0.03607723979940676
0.789668536685613   0.03276164965637762   -0.03607723979940676
0.5458288879377753   0.006402808251643702   -0.018049832302941802
0.5458288879377753   0.006402808251643702   -0.018049832302941802
0.5458288879377753   0.006402808251643702   -0.018049832302941802
0.5458288879377753   0.006402808251643702   -0.018049832302941802
0.35391692883175513   0.031924414408362856   0.03513088790400942
0.35391692883175513   0.031924414408362856   0.03513088790400942
0.35391692883175513   0.031924414408362856   0.03513088790400942
0.35391692883175513   0.031924414408362856   0.03513088790400942
-0.044599760084672244   -0.1046077498867161   -0.01009323427216188
-0.044599760084672244   -0.1046077498867161   -0.01009323427216188
-0.044599760084672244   -0.1046077498867161   -0.01009323427216188
-0.044599760084672244   -0.1046077498867161   -0.01009323427216188
-0.013291008042407466   -0.03717008723798706   0.008840352128971364
-0.013291008042407466   -0.03717008723798706   0.008840352128971364
-0.013291008042407466   -0.03717008723798706   0.008840352128971364
-0.013291008042407466   -0.03717008723798706   0.008840352128971364
0.3508473572291745   -0.01856726962932201   0.0018016839524947828
0.3508473572291745   -0.01856726962932201   0.0018016839524947828
0.3508473572291745   -0.01856726962932201   0.0018016839524947828
0.3508473572291745   -0.01856726962932201   0.0018016839524947828
0.15733182286329556   -0.028947034099208277   -0.01857533257837151
0.15733182286329556   -0.028947034099208277   -0.01857533257837151
0.15733182286329556   -0.028947034099208277   -0.01857533257837151
0.15733182286329556   -0.028947034099208277   -0.01857533257837151
0.3691826090141417   0.04378225033094217   0.031128422917068375
0.3691826090141417   0.04378225033094217   0.031128422917068375
0.3691826090141417   0.04378225033094217   0.031128422917068375
0.3691826090141417   0.04378225033094217   0.031128422917068375
-0.03032897583211654   -0.09822232320299282   -0.015297250854568248
-0.03032897583211654   -0.09822232320299282   -0.015297250854568248
-0.03032897583211654   -0.09822232320299282   -0.015297250854568248
-0.03032897583211654   -0.09822232320299282   -0.015297250854568248
0.0011601726753662387   -0.023240696563812627   0.00536892869837063
0.0011601726753662387   -0.023240696563812627   0.00536892869837063
0.0011601726753662387   -0.023240696563812627   0.00536892869837063
0.0011601726753662387   -0.023240696563812627   0.00536892869837063
0.36567139650275876   -0.008061306267447568   -0.0027315547008749073
0.36567139650275876   -0.008061306267447568   -0.0027315547008749073
0.36567139650275876   -0.008061306267447568   -0.0027315547008749073
0.36567139650275876   -0.008061306267447568   -0.0027315547008749073
0.16985273217839827   -0.020387263162104353   -0.01202408533646541
0.16985273217839827   -0.020387263162104353   -0.01202408533646541
0.16985273217839827   -0.020387263162104353   -0.01202408533646541
0.16985273217839827   -0.020387263162104353   -0.01202408533646541
0.38499192489828926   0.05801152028580324   0.02779826072352692
0.38499192489828926   0.05801152028580324   0.02779826072352692
0.38499192489828926   0.05801152028580324   0.02779826072352692
0.38499192489828926   0.05801152028580324   0.02779826072352692
-0.017380975403923745   -0.08853414280082321   -0.022043365461070618
-0.017380975403923745   -0.08853414280082321   -0.022043365461070618
-0.017380975403923745   -0.08853414280082321   -0.022043365461070618
-0.017380975403923745   -0.08853414280082321   -0.022043365461070618
0.012508998271900515   -0.006891155890839646   0.0018634733353718037
0.012508998271900515   -0.006891155890839646   0.0018634733353718037
0.012508998271900515   -0.006891155890839646   0.0018634733353718037
0.012508998271900515   -0.006891155890839646   0.0018634733353718037
0.3767558773184412   0.005362464479144555   -0.006818762411789914
0.3767558773184412   0.005362464479144555   -0.006818762411789914
0.3767558773184412   0.005362464479144555   -0.006818762411789914
0.3767558773184412   0.005362464479144555   -0.006818762411789914
0.18528025636795142   -0.007569492412032051   -0.0049721417793079144
0.18528025636795142   -0.007569492412032051   -0.0049721417793079144
0.18528025636795142   -0.007569492412032051   -0.0049721417793079144
0.18528025636795142   -0.007569492412032051   -0.0049721417793079144
-0.016342983148796907   0.009099104971006192   0.01748379554949251
-0.016342983148796907   0.009099104971006192   0.01748379554949251
-0.016342983148796907   0.009099104971006192   0.01748379554949251
-0.016342983148796907   0.009099104971006192   0.01748379554949251
-0.4063070111626383   -0.1310824609898871   -0.008062441301006673
-0.4063070111626383   -0.1310824609898871   -0.008062441301006673
-0.4063070111626383   -0.1310824609898871   -0.008062441301006673
-0.4063070111626383   -0.1310824609898871   -0.008062441301006673
-0.3747418844808454   -0.056983821714688056   -0.008571838615846669
-0.3747418844808454   -0.056983821714688056   -0.008571838615846669
-0.3747418844808454   -0.056983821714688056   -0.008571838615846669
-0.3747418844808454   -0.056983821714688056   -0.008571838615846669
-0.014873894865857766   -0.044181381646009196   0.007937212419742014
-0.014873894865857766   -0.044181381646009196   0.007937212419742014
-0.014873894865857766   -0.044181381646009196   0.007937212419742014
-0.014873894865857766   -0.044181381646009196   0.007937212419742014
-0.20397238512149068   -0.05279351491135166   -0.016568539666142853
-0.20397238512149068   -0.05279351491135166   -0.016568539666142853
-0.20397238512149068   -0.05279351491135166   -0.016568539666142853
-0.20397238512149068   -0.05279351491135166   -0.016568539666142853
-0.000287857694918626   0.022465462242793607   0.014220554385634904
-0.000287857694918626   0.022465462242793607   0.014220554385634904
-0.000287857694918626   0.022465462242793607   0.014220554385634904
-0.000287857694918626   0.022465462242793607   0.014220554385634904
-0.3883877116589428   -0.12269045561064915   -0.011094340610372708
-0.3883877116589428   -0.12269045561064915   -0.011094340610372708
-0.3883877116589428   -0.12269045561064915   -0.011094340610372708
-0.3883877116589428   -0.12269045561064915   -0.011094340610372708
-0.35680972965727087   -0.04152558569864478   -0.011646728693309993
-0.35680972965727087   -0.04152558569864478   -0.011646728693309993
-0.35680972965727087   -0.04152558569864478   -0.011646728693309993
-0.35680972965727087   -0.04152558569864478   -0.011646728693309993
-0.0014184757214285356   -0.034078603047988404   0.0033135931985706184
-0.0014184757214285356   -0.034078603047988404   0.0033135931985706184
-0.0014184757214285356   -0.034078603047988404   0.0033135931985706184
-0.0014184757214285356   -0.034078603047988404   0.0033135931985706184
-0.18656445740638627   -0.04166730532270194   -0.009169334218276945
-0.18656445740638627   -0.04166730532270194   -0.009169334218276945
-0.18656445740638627   -0.04166730532270194   -0.009169334218276945
-0.18656445740638627   -0.04166730532270194   -0.009169334218276945
0.014401032173458644   0.037260348609305625   0.011072181015712484
0.014401032173458644   0.037260348609305625   0.011072181015712484
0.014401032173458644   0.037260348609305625   0.011072181015712484
0.014401032173458644   0.037260348609305625   0.011072181015712484
-0.3726156247300644   -0.11285092453385026   -0.019350865222072133
-0.3726156247300644   -0.11285092453385026   -0.019350865222072133
-0.3726156247300644   -0.11285092453385026   -0.019350865222072133
-0.3726156247300644   -0.11285092453385026   -0.019350865222072133
-0.34413325084608953   -0.026777370961423984   -0.015077988703897071
-0.34413325084608953   -0.026777370961423984   -0.015077988703897071
-0.34413325084608953   -0.026777370961423984   -0.015077988703897071
-0.34413325084608953   -0.026777370961423984   -0.015077988703897071
0.007405169692785502   -0.025972931307898985   -0.004573894143143923
0.007405169692785502   -0.025972931307898985   -0.004573894143143923
0.007405169692785502   -0.025972931307898985   -0.004573894143143923
0.007405169692785502   -0.025972931307898985   -0.004573894143143923
-0.17380123025888755   -0.031273316784954326   -0.004513388001456035
-0.17380123025888755   -0.031273316784954326   -0.004513388001456035
-0.17380123025888755   -0.031273316784954326   -0.004513388001456035
-0.17380123025888755   -0.031273316784954326   -0.004513388001456035
-0.3807061449161599   -0.010643870582110082   -0.0004967004763920743
-0.3807061449161599   -0.010643870582110082   -0.0004967004763920743
-0.3807061449161599   -0.010643870582110082   -0.0004967004763920743
-0.3807061449161599   -0.010643870582110082   -0.0004967004763920743
-0.769872857236832   -0.14092923663004397   -0.0064306281379091805
-0.769872857236832   -0.14092923663004397   -0.0064306281379091805
-0.769872857236832   -0.14092923663004397   -0.0064306281379091805
-0.769872857236832   -0.14092923663004397   -0.0064306281379091805
-0.7360832990959669   -0.0730068741856887   -0.02537707128033988
-0.7360832990959669   -0.0730068741856887   -0.02537707128033988
-0.7360832990959669   -0.0730068741856887   -0.02537707128033988
-0.7360832990959669   -0.0730068741856887   -0.02537707128033988
-0.3674705305298879   -0.04593353133272299   0.016734640756975838
-0.3674705305298879   -0.04593353133272299   0.016734640756975838
-0.3674705305298879   -0.04593353133272299   0.016734640756975838
-0.3674705305298879   -0.04593353133272299   0.016734640756975838
-0.5586261358861482   -0.06357340953998504   -0.01166424382157098
-0.5586261358861482   -0.06357340953998504   -0.01166424382157098
-0.5586261358861482   -0.06357340953998504   -0.01166424382157098
-0.5586261358861482   -0.06357340953998504   -0.01166424382157098
-0.3608937431643072   0.006536217089285354   -0.002851170837129314
-0.3608937431643072   0.006536217089285354   -0.002851170837129314
-0.3608937431643072   0.006536217089285354   -0.002851170837129314
-0.3608937431643072   0.006536217089285354   -0.002851170837129314
-0.7429250416006167   -0.1257415777467653   -0.006851080242506912
-0.7429250416006167   -0.1257415777467653   -0.006851080242506912
-0.7429250416006167   -0.1257415777467653   -0.006851080242506912
-0.7429250416006167   -0.1257415777467653   -0.006851080242506912
-0.7104195858817094   -0.056889786002254916   -0.029370308926877982
-0.7104195858817094   -0.056889786002254916   -0.029370308926877982
-0.7104195858817094   -0.056889786002254916   -0.029370308926877982
-0.7104195858817094   -0.056889786002254916   -0.029370308926877982
-0.3500784704357006   -0.03385134753375475   0.01433532924965461
-0.3500784704357006   -0.03385134753375475   0.01433532924965461
-0.3500784704357006   -0.03385134753375475   0.01433532924965461
-0.3500784704357006   -0.03385134753375475   0.01433532924965461
-0.532202199685102   -0.048108245656618046   -0.003763343055011626
-0.532202199685102   -0.048108245656618046   -0.003763343055011626
-0.532202199685102   -0.048108245656618046   -0.003763343055011626
-0.532202199685102   -0.048108245656618046   -0.003763343055011626
-0.34292464958290236   0.02144490019904957   -0.005191814219162615
-0.34292464958290236   0.02144490019904957   -0.005191814219162615
-0.34292464958290236   0.02144490019904957   -0.005191814219162615
-0.34292464958290236   0.02144490019904957   -0.005191814219162615
-0.7187828294499036   -0.1133954564504549   -0.014680856319643151
-0.7187828294499036   -0.1133954564504549   -0.014680856319643151
-0.7187828294499036   -0.1133954564504549   -0.014680856319643151
-0.7187828294499036   -0.1133954564504549   -0.014680856319643151
-0.6896504404577103   -0.039919226059807716   -0.03031917046941269
-0.6896504404577103   -0.039919226059807716   -0.03031917046941269
-0.6896504404577103   -0.039919226059807716   -0.03031917046941269
-0.6896504404577103   -0.039919226059807716   -0.03031917046941269
-0.3400983912588681   -0.026169856756790004   0.004488795027579555
-0.3400983912588681   -0.026169856756790004   0.004488795027579555
-0.3400983912588681   -0.026169856756790004   0.004488795027579555
-0.3400983912588681   -0.026169856756790004   0.004488795027579555
-0.5177644239091836   -0.038690620129245734   -0.0011692236820667924
-0.5177644239091836   -0.038690620129245734   -0.0011692236820667924
-0.5177644239091836   -0.038690620129245734   -0.0011692236820667924
-0.5177644239091836   -0.038690620129245734   -0.0011692236820667924
-0.7490721754068649   -0.024985819927281466   -0.01837063569083649
-0.7490721754068649   -0.024985819927281466   -0.01837063569083649
-0.7490721754068649   -0.024985819927281466   -0.01837063569083649
-0.7490721754068649   -0.024985819927281466   -0.01837063569083649
-1.1296273977773246   -0.09576606412870936   0.04218029202619408
-1.1296273977773246   -0.09576606412870936   0.04218029202619408
-1.1296273977773246   -0.09576606412870936   0.04218029202619408
-1.1296273977773246   -0.09576606412870936   0.04218029202619408
-1.0914759863669143   -0.0765412802669374   -0.024709341425720316
-1.0914759863669143   -0.0765412802669374   -0.024709341425720316
-1.0914759863669143   -0.0765412802669374   -0.024709341425720316
-1.0914759863669143   -0.0765412802669374   -0.024709341425720316
-0.7045445319209104   0.02040750513163711   0.03890238527761095
-0.7045445319209104   0.02040750513163711   0.03890238527761095
-0.7045445319209104   0.02040750513163711   0.03890238527761095
-0.7045445319209104   0.02040750513163711   0.03890238527761095
-0.8775220772731143   -0.029910020994661196   0.004493599246817047
-0.8775220772731143   -0.029910020994661196   0.004493599246817047
-0.8775220772731143   -0.029910020994661196   0.004493599246817047
-0.8775220772731143   -0.029910020994661196   0.004493599246817047
-0.7207885247970947   -0.0015366120518018889   -0.02037346191986253
-0.7207885247970947   -0.0015366120518018889   -0.02037346191986253
-0.7207885247970947   -0.0015366120518018889   -0.02037346191986253
-0.7207885247970947   -0.0015366120518018889   -0.02037346191986253
-1.072614285653463   -0.051979455246231515   0.04503733712082048
-1.072614285653463   -0.051979455246231515   0.04503733712082048
-1.072614285653463   -0.051979455246231515   0.04503733712082048
-1.072614285653463   -0.051979455246231515   0.04503733712082048
-1.0505128678082967   -0.06449015773278086   -0.02942633075498849
-1.0505128678082967   -0.06449015773278086   -0.02942633075498849
-1.0505128678082967   -0.06449015773278086   -0.02942633075498849
-1.0505128678082967   -0.06449015773278086   -0.02942633075498849
-0.6791881349110312   0.03237711939957891   0.037520040524679034
-0.6791881349110312   0.03237711939957891   0.037520040524679034
-0.6791881349110312   0.03237711939957891   0.037520040524679034
-0.6791881349110312   0.03237711939957891   0.037520040524679034
-0.8536021085376186   -0.012061377669355444   0.01755919576605662
-0.8536021085376186   -0.012061377669355444   0.01755919576605662
-0.8536021085376186   -0.012061377669355444   0.01755919576605662
-0.8536021085376186   -0.012061377669355444   0.01755919576605662
-0.695993839658213   0.007893867738253624   -0.022025231549899466
-0.695993839658213   0.007893867738253624   -0.022025231549899466
-0.695993839658213   0.007893867738253624   -0.022025231549899466
-0.695993839658213   0.007893867738253624   -0.022025231549899466
-1.0331600807683414   -0.03945982377867971   0.0323072704906961
-1.0331600807683414   -0.03945982377867971   0.0323072704906961
-1.0331600807683414   -0.03945982377867971   0.0323072704906961
-1.0331600807683414   -0.03945982377867971   0.0323072704906961
-1.0081210779699992   -0.05319493006677589   -0.0355802339951444
-1.0081210779699992   -0.05319493006677589   -0.0355802339951444
-1.0081210779699992   -0.05319493006677589   -0.0355802339951444
-1.0081210779699992   -0.05319493006677589   -0.0355802339951444
-0.660497268677037   0.04656009604094352   0.028967366333210072
-0.660497268677037   0.04656009604094352   0.028967366333210072
-0.660497268677037   0.04656009604094352   0.028967366333210072
-0.660497268677037   0.04656009604094352   0.028967366333210072
-0.8078746379766889   0.003163974303898448   0.03073450839989053
-0.8078746379766889   0.003163974303898448   0.03073450839989053
-0.8078746379766889   0.003163974303898448   0.03073450839989053
-0.8078746379766889   0.003163974303898448   0.03073450839989053
0.9897901317395605   0.05956243746453116   0.035593790070812203
0.9897901317395605   0.05956243746453116   0.035593790070812203
0.9897901317395605   0.05956243746453116   0.035593790070812203
0.9897901317395605   0.05956243746453116   0.035593790070812203
0.47128121608014084   -0.08792543771055078   0.007670914763792183
0.47128121608014084   -0.08792543771055078   0.007670914763792183
0.47128121608014084   -0.08792543771055078   0.007670914763792183
0.47128121608014084   -0.08792543771055078   0.007670914763792183
0.4970283680199805   -0.03729893634446743   0.027291552767627292
0.4970283680199805   -0.03729893634446743   0.027291552767627292
0.4970283680199805   -0.03729893634446743   0.027291552767627292
0.4970283680199805   -0.03729893634446743   0.027291552767627292
0.9948487418291088   0.009022414849225419   -0.008167407150895409
0.9948487418291088   0.009022414849225419   -0.008167407150895409
0.9948487418291088   0.009022414849225419   -0.008167407150895409
0.9948487418291088   0.009022414849225419   -0.008167407150895409
0.6955594329325019   -0.018721861455407746   -0.046025917240739594
0.6955594329325019   -0.018721861455407746   -0.046025917240739594
0.6955594329325019   -0.018721861455407746   -0.046025917240739594
0.6955594329325019   -0.018721861455407746   -0.046025917240739594
1.0135387137854364   0.06617149645924339   0.028133371020725495
1.0135387137854364   0.06617149645924339   0.028133371020725495
1.0135387137854364   0.06617149645924339   0.028133371020725495
1.0135387137854364   0.06617149645924339   0.028133371020725495
0.4828034798737558   -0.08998293414438235   0.00885110983641857
0.4828034798737558   -0.08998293414438235   0.00885110983641857
0.4828034798737558   -0.08998293414438235   0.00885110983641857
0.4828034798737558   -0.08998293414438235   0.00885110983641857
0.5067178749025301   -0.03171883185968502   0.020746235860631873
0.5067178749025301   -0.03171883185968502   0.020746235860631873
0.5067178749025301   -0.03171883185968502   0.020746235860631873
0.5067178749025301   -0.03171883185968502   0.020746235860631873
1.0120776311969801   0.015302696650113745   -0.0027291060955266233
1.0120776311969801   0.015302696650113745   -0.0027291060955266233
1.0120776311969801   0.015302696650113745   -0.0027291060955266233
1.0120776311969801   0.015302696650113745   -0.0027291060955266233
0.7240465627811744   -0.014763547479696021   -0.031499677617677246
0.7240465627811744   -0.014763547479696021   -0.031499677617677246
0.7240465627811744   -0.014763547479696021   -0.031499677617677246
0.7240465627811744   -0.014763547479696021   -0.031499677617677246
1.0279102003511469   0.07226472776916337   0.019471708556257156
1.0279102003511469   0.07226472776916337   0.019471708556257156
1.0279102003511469   0.07226472776916337   0.019471708556257156
1.0279102003511469   0.07226472776916337   0.019471708556257156
0.49399076262969943   -0.08557540609739864   0.01096724873419222
0.49399076262969943   -0.08557540609739864   0.01096724873419222
0.49399076262969943   -0.08557540609739864   0.01096724873419222
0.49399076262969943   -0.08557540609739864   0.01096724873419222
0.5210076314032569   -0.009961733685767929   0.018966748772190747
0.5210076314032569   -0.009961733685767929   0.018966748772190747
0.5210076314032569   -0.009961733685767929   0.018966748772190747
0.5210076314032569   -0.009961733685767929   0.018966748772190747
1.0300419893087815   0.029798943020993424   -0.0006999651018223807
1.0300419893087815   0.029798943020993424   -0.0006999651018223807
1.0300419893087815   0.029798943020993424   -0.0006999651018223807
1.0300419893087815   0.029798943020993424   -0.0006999651018223807
0.7273998569748248   -0.006687905935770788   -0.023624068083757277
0.7273998569748248   -0.006687905935770788   -0.023624068083757277
0.7273998569748248   -0.006687905935770788   -0.023624068083757277
0.7273998569748248   -0.006687905935770788   -0.023624068083757277
0.49750138835976443   0.013333661955734627   0.03751267649562446
0.49750138835976443   0.013333661955734627   0.03751267649562446
0.49750138835976443   0.013333661955734627   0.03751267649562446
0.49750138835976443   0.013333661955734627   0.03751267649562446
0.024799176378130755   -0.17431969870640024   0.017619847241387446
0.024799176378130755   -0.17431969870640024   0.017619847241387446
0.024799176378130755   -0.17431969870640024   0.017619847241387446
0.024799176378130755   -0.17431969870640024   0.017619847241387446
0.05823959784196313   -0.07413533420745363   0.016569120449017306
0.05823959784196313   -0.07413533420745363   0.016569120449017306
0.05823959784196313   -0.07413533420745363   0.016569120449017306
0.05823959784196313   -0.07413533420745363   0.016569120449017306
0.4848155509635342   -0.08252861511804695   0.011457146258971242
0.4848155509635342   -0.08252861511804695   0.011457146258971242
0.4848155509635342   -0.08252861511804695   0.011457146258971242
0.4848155509635342   -0.08252861511804695   0.011457146258971242
0.257720155085582   -0.07771621696991622   -0.02922461397498064
0.257720155085582   -0.07771621696991622   -0.02922461397498064
0.257720155085582   -0.07771621696991622   -0.02922461397498064
0.257720155085582   -0.07771621696991622   -0.02922461397498064
0.5091024245355017   0.018996655701336726   0.03136624329943054
0.5091024245355017   0.018996655701336726   0.03136624329943054
0.5091024245355017   0.018996655701336726   0.03136624329943054
0.5091024245355017   0.018996655701336726   0.03136624329943054
0.04036757980591855   -0.16924574949091348   0.022319445552254243
0.04036757980591855   -0.16924574949091348   0.022319445552254243
0.04036757980591855   -0.16924574949091348   0.022319445552254243
0.04036757980591855   -0.16924574949091348   0.022319445552254243
0.07164429739529712   -0.06392920985673156   0.011956026460166736
0.07164429739529712   -0.06392920985673156   0.011956026460166736
0.07164429739529712   -0.06392920985673156   0.011956026460166736
0.07164429739529712   -0.06392920985673156   0.011956026460166736
0.4963068766826901   -0.07714663593777948   0.014119048839526374
0.4963068766826901   -0.07714663593777948   0.014119048839526374
0.4963068766826901   -0.07714663593777948   0.014119048839526374
0.4963068766826901   -0.07714663593777948   0.014119048839526374
0.26908735200842043   -0.07378061329337152   -0.014617313890440756
0.26908735200842043   -0.07378061329337152   -0.014617313890440756
0.26908735200842043   -0.07378061329337152   -0.014617313890440756
0.26908735200842043   -0.07378061329337152   -0.014617313890440756
0.5199327419472864   0.02863135133881564   0.026470387885913372
0.5199327419472864   0.02863135133881564   0.026470387885913372
0.5199327419472864   0.02863135133881564   0.026470387885913372
0.5199327419472864   0.02863135133881564   0.026470387885913372
0.05418638628945109   -0.1635392429745763   0.024276504048781275
0.05418638628945109   -0.1635392429745763   0.024276504048781275
0.05418638628945109   -0.1635392429745763   0.024276504048781275
0.05418638628945109   -0.1635392429745763   0.024276504048781275
0.09224572412389019   -0.04860213862132948   0.007868375280390916
0.09224572412389019   -0.04860213862132948   0.007868375280390916
0.09224572412389019   -0.04860213862132948   0.007868375280390916
0.09224572412389019   -0.04860213862132948   0.007868375280390916
0.5088622027082217   -0.06898228863177314   0.01726016024302139
0.5088622027082217   -0.06898228863177314   0.01726016024302139
0.5088622027082217   -0.06898228863177314   0.01726016024302139
0.5088622027082217   -0.06898228863177314   0.01726016024302139
0.28917086987938273   -0.0642953465123699   0.0023987605257031128
0.28917086987938273   -0.0642953465123699   0.0023987605257031128
0.28917086987938273   -0.0642953465123699   0.0023987605257031128
0.28917086987938273   -0.0642953465123699   0.0023987605257031128
0.054471189974858496   -0.03248524099871769   0.024145457517343566
0.054471189974858496   -0.03248524099871769   0.024145457517343566
0.054471189974858496   -0.03248524099871769   0.024145457517343566
0.054471189974858496   -0.03248524099871769   0.024145457517343566
-0.4251413863528951   -0.2988136891823186   0.025732613957059662
-0.4251413863528951   -0.2988136891823186   0.025732613957059662
-0.4251413863528951   -0.2988136891823186   0.025732613957059662
-0.4251413863528951   -0.2988136891823186   0.025732613957059662
-0.37238395788783574   -0.11696156710829898   0.0015463481302710712
-0.37238395788783574   -0.11696156710829898   0.0015463481302710712
-0.37238395788783574   -0.11696156710829898   0.0015463481302710712
-0.37238395788783574   -0.11696156710829898   0.0015463481302710712
0.028579792186160892   -0.21592096015143422   0.01005571811398668
0.028579792186160892   -0.21592096015143422   0.01005571811398668
0.028579792186160892   -0.21592096015143422   0.01005571811398668
0.028579792186160892   -0.21592096015143422   0.01005571811398668
-0.18408479972366165   -0.16722149876063536   -0.035055939587631355
-0.18408479972366165   -0.16722149876063536   -0.035055939587631355
-0.18408479972366165   -0.16722149876063536   -0.035055939587631355
-0.18408479972366165   -0.16722149876063536   -0.035055939587631355
0.06850842393618599   -0.02528064752251105   0.019058564235188993
0.06850842393618599   -0.02528064752251105   0.019058564235188993
0.06850842393618599   -0.02528064752251105   0.019058564235188993
0.06850842393618599   -0.02528064752251105   0.019058564235188993
-0.40299517339784235   -0.29828446349720317   0.029813166969145106
-0.40299517339784235   -0.29828446349720317   0.029813166969145106
-0.40299517339784235   -0.29828446349720317   0.029813166969145106
-0.40299517339784235   -0.29828446349720317   0.029813166969145106
-0.3520272898657994   -0.1049165807734371   -0.0002674812843020003
-0.3520272898657994   -0.1049165807734371   -0.0002674812843020003
-0.3520272898657994   -0.1049165807734371   -0.0002674812843020003
-0.3520272898657994   -0.1049165807734371   -0.0002674812843020003
0.04272238015500587   -0.21101860426522961   0.01443583466720847
0.04272238015500587   -0.21101860426522961   0.01443583466720847
0.04272238015500587   -0.21101860426522961   0.01443583466720847
0.04272238015500587   -0.21101860426522961   0.01443583466720847
-0.16343756182087343   -0.16136482654558829   -0.012983808332030639
-0.16343756182087343   -0.16136482654558829   -0.012983808332030639
-0.16343756182087343   -0.16136482654558829   -0.012983808332030639
-0.16343756182087343   -0.16136482654558829   -0.012983808332030639
0.08134382442635996   -0.015736642755334262   0.01226109451408353
0.08134382442635996   -0.015736642755334262   0.01226109451408353
0.08134382442635996   -0.015736642755334262   0.01226109451408353
0.08134382442635996   -0.015736642755334262   0.01226109451408353
-0.3822696632802407   -0.2918194714264239   0.035423542296483666
-0.3822696632802407   -0.2918194714264239   0.035423542296483666
-0.3822696632802407   -0.2918194714264239   0.035423542296483666
-0.3822696632802407   -0.2918194714264239   0.035423542296483666
-0.3184269766804381   -0.09105538739061488   -0.004154028183499796
-0.3184269766804381   -0.09105538739061488   -0.004154028183499796
-0.3184269766804381   -0.09105538739061488   -0.004154028183499796
-0.3184269766804381   -0.09105538739061488   -0.004154028183499796
0.06479014659013475   -0.19759729642795915   0.01958564541824144
0.06479014659013475   -0.19759729642795915   0.01958564541824144
0.06479014659013475   -0.19759729642795915   0.01958564541824144
0.06479014659013475   -0.19759729642795915   0.01958564541824144
-0.13667592745018337   -0.14847536116563595   0.01002873916054569
-0.13667592745018337   -0.14847536116563595   0.01002873916054569
-0.13667592745018337   -0.14847536116563595   0.01002873916054569
-0.13667592745018337   -0.14847536116563595   0.01002873916054569
-0.3800982699047134   -0.059384410110757666   0.011518917126403804
-0.3800982699047134   -0.059384410110757666   0.011518917126403804
-0.3800982699047134   -0.059384410110757666   0.011518917126403804
-0.3800982699047134   -0.059384410110757666   0.011518917126403804
-0.9429981061531083   -0.4642619865798595   -0.02121500396453481
-0.9429981061531083   -0.4642619865798595   -0.02121500396453481
-0.9429981061531083   -0.4642619865798595   -0.02121500396453481
-0.9429981061531083   -0.4642619865798595   -0.02121500396453481
-0.856051965360487   -0.15218006972662956   -0.02591661638195772
-0.856051965360487   -0.15218006972662956   -0.02591661638195772
-0.856051965360487   -0.15218006972662956   -0.02591661638195772
-0.856051965360487   -0.15218006972662956   -0.02591661638195772
-0.42510611812396026   -0.3871070213316338   0.008081001172983188
-0.42510611812396026   -0.3871070213316338   0.008081001172983188
-0.42510611812396026   -0.3871070213316338   0.008081001172983188
-0.42510611812396026   -0.3871070213316338   0.008081001172983188
-0.6503530934248831   -0.2746647126986507   -0.03689232148499544
-0.6503530934248831   -0.2746647126986507   -0.03689232148499544
-0.6503530934248831   -0.2746647126986507   -0.03689232148499544
-0.6503530934248831   -0.2746647126986507   -0.03689232148499544
-0.35607464358430985   -0.04481250965590189   0.010943862195503334
-0.35607464358430985   -0.04481250965590189   0.010943862195503334
-0.35607464358430985   -0.04481250965590189   0.010943862195503334
-0.35607464358430985   -0.04481250965590189   0.010943862195503334
-0.9228115527969323   -0.4922026942991552   -0.019691928991651605
-0.9228115527969323   -0.4922026942991552   -0.019691928991651605
-0.9228115527969323   -0.4922026942991552   -0.019691928991651605
-0.9228115527969323   -0.4922026942991552   -0.019691928991651605
-0.8288733945688906   -0.13776654715383263   -0.02644574471757552
-0.8288733945688906   -0.13776654715383263   -0.02644574471757552
-0.8288733945688906   -0.13776654715383263   -0.02644574471757552
-0.8288733945688906   -0.13776654715383263   -0.02644574471757552
-0.40531554084437466   -0.3838594192749093   0.012234102324296642
-0.40531554084437466   -0.3838594192749093   0.012234102324296642
-0.40531554084437466   -0.3838594192749093   0.012234102324296642
-0.40531554084437466   -0.3838594192749093   0.012234102324296642
-0.6217093024633605   -0.2669922457272824   -0.025539673112645496
-0.6217093024633605   -0.2669922457272824   -0.025539673112645496
-0.6217093024633605   -0.2669922457272824   -0.025539673112645496
-0.6217093024633605   -0.2669922457272824   -0.025539673112645496
-0.3369228290230099   -0.033349697224916285   0.003687939381125561
-0.3369228290230099   -0.033349697224916285   0.003687939381125561
-0.3369228290230099   -0.033349697224916285   0.003687939381125561
-0.3369228290230099   -0.033349697224916285   0.003687939381125561
-0.8971022653084784   -0.4881124281220478   -0.0172442174472921
-0.8971022653084784   -0.4881124281220478   -0.0172442174472921
-0.8971022653084784   -0.4881124281220478   -0.0172442174472921
-0.8971022653084784   -0.4881124281220478   -0.0172442174472921
-0.7864026827737366   -0.12232668875432247   -0.029991073445183463
-0.7864026827737366   -0.12232668875432247   -0.029991073445183463
-0.7864026827737366   -0.12232668875432247   -0.029991073445183463
-0.7864026827737366   -0.12232668875432247   -0.029991073445183463
-0.3624869677643567   -0.34437778889887527   0.028868417905169808
-0.3624869677643567   -0.34437778889887527   0.028868417905169808
-0.3624869677643567   -0.34437778889887527   0.028868417905169808
-0.3624869677643567   -0.34437778889887527   0.028868417905169808
-0.5898621110747523   -0.24155979412411882   -0.01378883056709046
-0.5898621110747523   -0.24155979412411882   -0.01378883056709046
-0.5898621110747523   -0.24155979412411882   -0.01378883056709046
-0.5898621110747523   -0.24155979412411882   -0.01378883056709046
-0.8572660234777596   -0.05091096925630456   -0.0059056079113468385
-0.8572660234777596   -0.05091096925630456   -0.0059056079113468385
-0.8572660234777596   -0.05091096925630456   -0.0059056079113468385
-0.8572660234777596   -0.05091096925630456   -0.0059056079113468385
-1.5096004861139782   -0.29882984289421843   0.015451271642886066
-1.5096004861139782   -0.29882984289421843   0.015451271642886066
-1.5096004861139782   -0.29882984289421843   0.015451271642886066
-1.5096004861139782   -0.29882984289421843   0.015451271642886066
-1.4506357323139558   -0.14288004626413767   -0.03144417130821752
-1.4506357323139558   -0.14288004626413767   -0.03144417130821752
-1.4506357323139558   -0.14288004626413767   -0.03144417130821752
-1.4506357323139558   -0.14288004626413767   -0.03144417130821752
-0.8393037494369501   -0.15560989265464203   0.06125428616373993
-0.8393037494369501   -0.15560989265464203   0.06125428616373993
-0.8393037494369501   -0.15560989265464203   0.06125428616373993
-0.8393037494369501   -0.15560989265464203   0.06125428616373993
-1.117115706936466   -0.1730606049140253   0.015568143559744054
-1.117115706936466   -0.1730606049140253   0.015568143559744054
-1.117115706936466   -0.1730606049140253   0.015568143559744054
-1.117115706936466   -0.1730606049140253   0.015568143559744054
-0.822586759574393   -0.010946290741836867   0.00017563356372352762
-0.822586759574393   -0.010946290741836867   0.00017563356372352762
-0.822586759574393   -0.010946290741836867   0.00017563356372352762
-0.822586759574393   -0.010946290741836867   0.00017563356372352762
-1.4728726350073762   -0.2930635610078076   0.0075548299683379505
-1.4728726350073762   -0.2930635610078076   0.0075548299683379505
-1.4728726350073762   -0.2930635610078076   0.0075548299683379505
-1.4728726350073762   -0.2930635610078076   0.0075548299683379505
-1.4184453336184668   -0.1309634632619133   -0.03992567407531581
-1.4184453336184668   -0.1309634632619133   -0.03992567407531581
-1.4184453336184668   -0.1309634632619133   -0.03992567407531581
-1.4184453336184668   -0.1309634632619133   -0.03992567407531581
-0.811336895653021   -0.14797778215751234   0.07144798486545922
-0.811336895653021   -0.14797778215751234   0.07144798486545922
-0.811336895653021   -0.14797778215751234   0.07144798486545922
-0.811336895653021   -0.14797778215751234   0.07144798486545922
-1.1003679614687631   -0.1426322114047877   0.015067528259574584
-1.1003679614687631   -0.1426322114047877   0.015067528259574584
-1.1003679614687631   -0.1426322114047877   0.015067528259574584
-1.1003679614687631   -0.1426322114047877   0.015067528259574584
-0.7976828349003232   -0.00039810617410676596   -0.007861387354457454
-0.7976828349003232   -0.00039810617410676596   -0.007861387354457454
-0.7976828349003232   -0.00039810617410676596   -0.007861387354457454
-0.7976828349003232   -0.00039810617410676596   -0.007861387354457454
-1.434040899614286   -0.280484644488437   0.03161767717210079
-1.434040899614286   -0.280484644488437   0.03161767717210079
-1.434040899614286   -0.280484644488437   0.03161767717210079
-1.434040899614286   -0.280484644488437   0.03161767717210079
-1.3515699358093534   -0.10640047687970414   -0.04476283113771159
-1.3515699358093534   -0.10640047687970414   -0.04476283113771159
-1.3515699358093534   -0.10640047687970414   -0.04476283113771159
-1.3515699358093534   -0.10640047687970414   -0.04476283113771159
-0.7677660555823703   -0.13781678030417316   0.07868215406150458
-0.7677660555823703   -0.13781678030417316   0.07868215406150458
-0.7677660555823703   -0.13781678030417316   0.07868215406150458
-0.7677660555823703   -0.13781678030417316   0.07868215406150458
-1.0352347069626335   -0.10911506365449254   0.03130289927323382
-1.0352347069626335   -0.10911506365449254   0.03130289927323382
-1.0352347069626335   -0.10911506365449254   0.03130289927323382
-1.0352347069626335   -0.10911506365449254   0.03130289927323382
1.0841902103999281   0.0361473530409718   0.015125874201617762
1.0841902103999281   0.0361473530409718   0.015125874201617762
1.0841902103999281   0.0361473530409718   0.015125874201617762
1.0841902103999281   0.0361473530409718   0.015125874201617762
0.5526517779559936   -0.0294950802942478   0.010878861231721035
0.5526517779559936   -0.0294950802942478   0.010878861231721035
0.5526517779559936   -0.0294950802942478   0.010878861231721035
0.5526517779559936   -0.0294950802942478   0.010878861231721035
0.5313518013839481   -0.07769736243364048   0.0217306468799357
0.5313518013839481   -0.07769736243364048   0.0217306468799357
0.5313518013839481   -0.07769736243364048   0.0217306468799357
0.5313518013839481   -0.07769736243364048   0.0217306468799357
1.0763576019343177   0.06060125595323121   0.007781346626168216
1.0763576019343177   0.06060125595323121   0.007781346626168216
1.0763576019343177   0.06060125595323121   0.007781346626168216
1.0763576019343177   0.06060125595323121   0.007781346626168216
0.7679134000273374   -0.010743680507800113   -0.02841138393208014
0.7679134000273374   -0.010743680507800113   -0.02841138393208014
0.7679134000273374   -0.010743680507800113   -0.02841138393208014
0.7679134000273374   -0.010743680507800113   -0.02841138393208014
1.0706125838673304   0.028116805946617696   0.01154070629784422
1.0706125838673304   0.028116805946617696   0.01154070629784422
1.0706125838673304   0.028116805946617696   0.01154070629784422
1.0706125838673304   0.028116805946617696   0.01154070629784422
0.5353704411483782   -0.04693929072958439   0.011065773998029986
0.5353704411483782   -0.04693929072958439   0.011065773998029986
0.5353704411483782   -0.04693929072958439   0.011065773998029986
0.5353704411483782   -0.04693929072958439   0.011065773998029986
0.5177206784975695   -0.07943400561734532   0.017944335266588715
0.5177206784975695   -0.07943400561734532   0.017944335266588715
0.5177206784975695   -0.07943400561734532   0.017944335266588715
0.5177206784975695   -0.07943400561734532   0.017944335266588715
1.0639396344132208   0.058045051079062354   0.013629935882425913
1.0639396344132208   0.058045051079062354   0.013629935882425913
1.0639396344132208   0.058045051079062354   0.013629935882425913
1.0639396344132208   0.058045051079062354   0.013629935882425913
0.7658416182069405   -0.014809002701007684   -0.03274628567940443
0.7658416182069405   -0.014809002701007684   -0.03274628567940443
0.7658416182069405   -0.014809002701007684   -0.03274628567940443
0.7658416182069405   -0.014809002701007684   -0.03274628567940443
1.0553287189293736   0.025185681103455454   0.003434728438788448
1.0553287189293736   0.025185681103455454   0.003434728438788448
1.0553287189293736   0.025185681103455454   0.003434728438788448
1.0553287189293736   0.025185681103455454   0.003434728438788448
0.5232103131092377   -0.04969591651391875   0.01565441922150327
0.5232103131092377   -0.04969591651391875   0.01565441922150327
0.5232103131092377   -0.04969591651391875   0.01565441922150327
0.5232103131092377   -0.04969591651391875   0.01565441922150327
0.5033678995639123   -0.07229617754115944   0.015498521832282619
0.5033678995639123   -0.07229617754115944   0.015498521832282619
0.5033678995639123   -0.07229617754115944   0.015498521832282619
0.5033678995639123   -0.07229617754115944   0.015498521832282619
1.0448359402800407   0.058894511213774065   0.019732105452837996
1.0448359402800407   0.058894511213774065   0.019732105452837996
1.0448359402800407   0.058894511213774065   0.019732105452837996
1.0448359402800407   0.058894511213774065   0.019732105452837996
0.7372745459288566   -0.014846686527444308   -0.044085542470233864
0.7372745459288566   -0.014846686527444308   -0.044085542470233864
0.7372745459288566   -0.014846686527444308   -0.044085542470233864
0.7372745459288566   -0.014846686527444308   -0.044085542470233864
0.5482489840926571   -0.06773312023967856   0.027102931860469512
0.5482489840926571   -0.06773312023967856   0.027102931860469512
0.5482489840926571   -0.06773312023967856   0.027102931860469512
0.5482489840926571   -0.06773312023967856   0.027102931860469512
0.10424874104120821   -0.06524417981200335   0.005527755274852077
0.10424874104120821   -0.06524417981200335   0.005527755274852077
0.10424874104120821   -0.06524417981200335   0.005527755274852077
0.10424874104120821   -0.06524417981200335   0.005527755274852077
0.06749254289612   -0.16258349367299058   0.028505761551667223
0.06749254289612   -0.16258349367299058   0.028505761551667223
0.06749254289612   -0.16258349367299058   0.028505761551667223
0.06749254289612   -0.16258349367299058   0.028505761551667223
0.5511087503896749   0.021957298081351828   0.020860731393577223
0.5511087503896749   0.021957298081351828   0.020860731393577223
0.5511087503896749   0.021957298081351828   0.020860731393577223
0.5511087503896749   0.021957298081351828   0.020860731393577223
0.31287998093797026   -0.06868000705061969   -0.0012469938383399201
0.31287998093797026   -0.06868000705061969   -0.0012469938383399201
0.31287998093797026   -0.06868000705061969   -0.0012469938383399201
0.31287998093797026   -0.06868000705061969   -0.0012469938383399201
0.5329678955852086   -0.07063902029582197   0.0227527757484216
0.5329678955852086   -0.07063902029582197   0.0227527757484216
0.5329678955852086   -0.07063902029582197   0.0227527757484216
0.5329678955852086   -0.07063902029582197   0.0227527757484216
0.08104650435576193   -0.07457406864064078   0.008266143817527067
0.08104650435576193   -0.07457406864064078   0.008266143817527067
0.08104650435576193   -0.07457406864064078   0.008266143817527067
0.08104650435576193   -0.07457406864064078   0.008266143817527067
0.050991842713385555   -0.1639320446803746   0.025507039095855416
0.050991842713385555   -0.1639320446803746   0.025507039095855416
0.050991842713385555   -0.1639320446803746   0.025507039095855416
0.050991842713385555   -0.1639320446803746   0.025507039095855416
0.5385425462246828   0.017943012604668185   0.02467665568014142
0.5385425462246828   0.017943012604668185   0.02467665568014142
0.5385425462246828   0.017943012604668185   0.02467665568014142
0.5385425462246828   0.017943012604668185   0.02467665568014142
0.2904346030807775   -0.07316423322846322   -0.014889322666030248
0.2904346030807775   -0.07316423322846322   -0.014889322666030248
0.2904346030807775   -0.07316423322846322   -0.014889322666030248
0.2904346030807775   -0.07316423322846322   -0.014889322666030248
0.5194796685156652   -0.07156235949262166   0.018867639232340402
0.5194796685156652   -0.07156235949262166   0.018867639232340402
0.5194796685156652   -0.07156235949262166   0.018867639232340402
0.5194796685156652   -0.07156235949262166   0.018867639232340402
0.0650654042686299   -0.07941598873685847   0.011358790928561
0.0650654042686299   -0.07941598873685847   0.011358790928561
0.0650654042686299   -0.07941598873685847   0.011358790928561
0.0650654042686299   -0.07941598873685847   0.011358790928561
0.032538004289297345   -0.16371690116190524   0.01991129601128512
0.032538004289297345   -0.16371690116190524   0.01991129601128512
0.032538004289297345   -0.16371690116190524   0.01991129601128512
0.032538004289297345   -0.16371690116190524   0.01991129601128512
0.524280754110154   0.018299105248220468   0.029467511774114347
0.524280754110154   0.018299105248220468   0.029467511774114347
0.524280754110154   0.018299105248220468   0.029467511774114347
0.524280754110154   0.018299105248220468   0.029467511774114347
0.2767956733728722   -0.07248998003909271   -0.02646302704653023
0.2767956733728722   -0.07248998003909271   -0.02646302704653023
0.2767956733728722   -0.07248998003909271   -0.02646302704653023
0.2767956733728722   -0.07248998003909271   -0.02646302704653023
0.08148892244401257   -0.19778104476581274   0.024265527242681308
0.08148892244401257   -0.19778104476581274   0.024265527242681308
0.08148892244401257   -0.19778104476581274   0.024265527242681308
0.08148892244401257   -0.19778104476581274   0.024265527242681308
-0.326983186541531   -0.10091687141106256   0.0001275482171986895
-0.326983186541531   -0.10091687141106256   0.0001275482171986895
-0.326983186541531   -0.10091687141106256   0.0001275482171986895
-0.326983186541531   -0.10091687141106256   0.0001275482171986895
-0.39347804417788257   -0.295810486459724   0.032665922936581084
-0.39347804417788257   -0.295810486459724   0.032665922936581084
-0.39347804417788257   -0.295810486459724   0.032665922936581084
-0.39347804417788257   -0.295810486459724   0.032665922936581084
0.09373902116001254   -0.016099990052395215   0.013254649250534573
0.09373902116001254   -0.016099990052395215   0.013254649250534573
0.09373902116001254   -0.016099990052395215   0.013254649250534573
0.09373902116001254   -0.016099990052395215   0.013254649250534573
-0.13452858201720297   -0.15049434669326087   0.0057099339033438445
-0.13452858201720297   -0.15049434669326087   0.0057099339033438445
-0.13452858201720297   -0.15049434669326087   0.0057099339033438445
-0.13452858201720297   -0.15049434669326087   0.0057099339033438445
0.05602204848870227   -0.2089414111211714   0.017511206962759394
0.05602204848870227   -0.2089414111211714   0.017511206962759394
0.05602204848870227   -0.2089414111211714   0.017511206962759394
0.05602204848870227   -0.2089414111211714   0.017511206962759394
-0.3622010496691277   -0.10940904355350389   0.0026494525741313987
-0.3622010496691277   -0.10940904355350389   0.0026494525741313987
-0.3622010496691277   -0.10940904355350389   0.0026494525741313987
-0.3622010496691277   -0.10940904355350389   0.0026494525741313987
-0.41642496567915843   -0.30039418762816633   0.02670526368668926
-0.41642496567915843   -0.30039418762816633   0.02670526368668926
-0.41642496567915843   -0.30039418762816633   0.02670526368668926
-0.41642496567915843   -0.30039418762816633   0.02670526368668926
0.07826967958765911   -0.02055117817098836   0.01851535695783699
0.07826967958765911   -0.02055117817098836   0.01851535695783699
0.07826967958765911   -0.02055117817098836   0.01851535695783699
0.07826967958765911   -0.02055117817098836   0.01851535695783699
-0.1632222797313057   -0.1595479571285081   -0.013431488419127231
-0.1632222797313057   -0.1595479571285081   -0.013431488419127231
-0.1632222797313057   -0.1595479571285081   -0.013431488419127231
-0.1632222797313057   -0.1595479571285081   -0.013431488419127231
0.038445612077025494   -0.21249363047294273   0.011337471706623255
0.038445612077025494   -0.21249363047294273   0.011337471706623255
0.038445612077025494   -0.21249363047294273   0.011337471706623255
0.038445612077025494   -0.21249363047294273   0.011337471706623255
-0.38429243694573106   -0.11614327410341854   0.003116993829076268
-0.38429243694573106   -0.11614327410341854   0.003116993829076268
-0.38429243694573106   -0.11614327410341854   0.003116993829076268
-0.38429243694573106   -0.11614327410341854   0.003116993829076268
-0.44133657822534605   -0.2982759997459939   0.022318853643548603
-0.44133657822534605   -0.2982759997459939   0.022318853643548603
-0.44133657822534605   -0.2982759997459939   0.022318853643548603
-0.44133657822534605   -0.2982759997459939   0.022318853643548603
0.06106808247792137   -0.022998115437742453   0.021842901230242504
0.06106808247792137   -0.022998115437742453   0.021842901230242504
0.06106808247792137   -0.022998115437742453   0.021842901230242504
0.06106808247792137   -0.022998115437742453   0.021842901230242504
-0.18653534071591907   -0.16294887338622244   -0.03261905366656428
-0.18653534071591907   -0.16294887338622244   -0.03261905366656428
-0.18653534071591907   -0.16294887338622244   -0.03261905366656428
-0.18653534071591907   -0.16294887338622244   -0.03261905366656428
-0.36894361752868376   -0.33943865307332766   0.02884717494370012
-0.36894361752868376   -0.33943865307332766   0.02884717494370012
-0.36894361752868376   -0.33943865307332766   0.02884717494370012
-0.36894361752868376   -0.33943865307332766   0.02884717494370012
-0.8161242521163379   -0.12554156425217292   -0.018736396091474324
-0.8161242521163379   -0.12554156425217292   -0.018736396091474324
-0.8161242521163379   -0.12554156425217292   -0.018736396091474324
-0.8161242521163379   -0.12554156425217292   -0.018736396091474324
-0.9324212580146665   -0.49524551765473607   -0.02529634055182177
-0.9324212580146665   -0.49524551765473607   -0.02529634055182177
-0.9324212580146665   -0.49524551765473607   -0.02529634055182177
-0.9324212580146665   -0.49524551765473607   -0.02529634055182177
-0.3440113282058789   -0.027263564858058573   0.011452581194929916
-0.3440113282058789   -0.027263564858058573   0.011452581194929916
-0.3440113282058789   -0.027263564858058573   0.011452581194929916
-0.3440113282058789   -0.027263564858058573   0.011452581194929916
-0.6094213771527117   -0.2370966475191905   -0.019965339954461262
-0.6094213771527117   -0.2370966475191905   -0.019965339954461262
-0.6094213771527117   -0.2370966475191905   -0.019965339954461262
-0.6094213771527117   -0.2370966475191905   -0.019965339954461262
-0.4158415081906391   -0.38488556358079273   0.009923679993867451
-0.4158415081906391   -0.38488556358079273   0.009923679993867451
-0.4158415081906391   -0.38488556358079273   0.009923679993867451
-0.4158415081906391   -0.38488556358079273   0.009923679993867451
-0.8588370340657894   -0.13586947496788584   -0.01675126349429589
-0.8588370340657894   -0.13586947496788584   -0.01675126349429589
-0.8588370340657894   -0.13586947496788584   -0.01675126349429589
-0.8588370340657894   -0.13586947496788584   -0.01675126349429589
-0.9597570382054308   -0.5030444131819625   -0.02924936984991275
-0.9597570382054308   -0.5030444131819625   -0.02924936984991275
-0.9597570382054308   -0.5030444131819625   -0.02924936984991275
-0.9597570382054308   -0.5030444131819625   -0.02924936984991275
-0.3652094548076468   -0.03461745820087446   0.01700608861695346
-0.3652094548076468   -0.03461745820087446   0.01700608861695346
-0.3652094548076468   -0.03461745820087446   0.01700608861695346
-0.3652094548076468   -0.03461745820087446   0.01700608861695346
-0.642874126359212   -0.2628883237203806   -0.028656945900590924
-0.642874126359212   -0.2628883237203806   -0.028656945900590924
-0.642874126359212   -0.2628883237203806   -0.028656945900590924
-0.642874126359212   -0.2628883237203806   -0.028656945900590924
-0.43937513497125724   -0.3923384272046169   0.003898656802640982
-0.43937513497125724   -0.3923384272046169   0.003898656802640982
-0.43937513497125724   -0.3923384272046169   0.003898656802640982
-0.43937513497125724   -0.3923384272046169   0.003898656802640982
-0.8858490984359939   -0.14558118457239527   -0.017172899612303647
-0.8858490984359939   -0.14558118457239527   -0.017172899612303647
-0.8858490984359939   -0.14558118457239527   -0.017172899612303647
-0.8858490984359939   -0.14558118457239527   -0.017172899612303647
-0.9830212471699087   -0.48085357708338894   -0.03297624361184642
-0.9830212471699087   -0.48085357708338894   -0.03297624361184642
-0.9830212471699087   -0.48085357708338894   -0.03297624361184642
-0.9830212471699087   -0.48085357708338894   -0.03297624361184642
-0.3919897477451981   -0.04502431682631258   0.015801323124604045
-0.3919897477451981   -0.04502431682631258   0.015801323124604045
-0.3919897477451981   -0.04502431682631258   0.015801323124604045
-0.3919897477451981   -0.04502431682631258   0.015801323124604045
-0.6737870437651764   -0.27160950449363397   -0.03704769824595089
-0.6737870437651764   -0.27160950449363397   -0.03704769824595089
-0.6737870437651764   -0.27160950449363397   -0.03704769824595089
-0.6737870437651764   -0.27160950449363397   -0.03704769824595089
-0.8024548960023232   -0.1463976792959854   0.07046649952239625
-0.8024548960023232   -0.1463976792959854   0.07046649952239625
-0.8024548960023232   -0.1463976792959854   0.07046649952239625
-0.8024548960023232   -0.1463976792959854   0.07046649952239625
-1.408693486264142   -0.10490345927059455   -0.024544407241135262
-1.408693486264142   -0.10490345927059455   -0.024544407241135262
-1.408693486264142   -0.10490345927059455   -0.024544407241135262
-1.408693486264142   -0.10490345927059455   -0.024544407241135262
-1.4942502233373258   -0.29499227720005533   0.01928883733704917
-1.4942502233373258   -0.29499227720005533   0.01928883733704917
-1.4942502233373258   -0.29499227720005533   0.01928883733704917
-1.4942502233373258   -0.29499227720005533   0.01928883733704917
-0.8244125623896559   0.012322804345158062   0.007178815573328265
-0.8244125623896559   0.012322804345158062   0.007178815573328265
-0.8244125623896559   0.012322804345158062   0.007178815573328265
-0.8244125623896559   0.012322804345158062   0.007178815573328265
-1.0785310995381963   -0.10359043170235029   0.02157299586404318
-1.0785310995381963   -0.10359043170235029   0.02157299586404318
-1.0785310995381963   -0.10359043170235029   0.02157299586404318
-1.0785310995381963   -0.10359043170235029   0.02157299586404318
-0.8472057291849567   -0.15694499054049638   0.06248077648247488
-0.8472057291849567   -0.15694499054049638   0.06248077648247488
-0.8472057291849567   -0.15694499054049638   0.06248077648247488
-0.8472057291849567   -0.15694499054049638   0.06248077648247488
-1.4677974771841777   -0.12206490295655242   -0.02137480614070207
-1.4677974771841777   -0.12206490295655242   -0.02137480614070207
-1.4677974771841777   -0.12206490295655242   -0.02137480614070207
-1.4677974771841777   -0.12206490295655242   -0.02137480614070207
-1.5302717991146837   -0.3074133520346345   -0.006794961058488924
-1.5302717991146837   -0.3074133520346345   -0.006794961058488924
-1.5302717991146837   -0.3074133520346345   -0.006794961058488924
-1.5302717991146837   -0.3074133520346345   -0.006794961058488924
-0.8498912259021597   0.004019571127053784   0.013015707357417979
-0.8498912259021597   0.004019571127053784   0.013015707357417979
-0.8498912259021597   0.004019571127053784   0.013015707357417979
-0.8498912259021597   0.004019571127053784   0.013015707357417979
-1.1423903468028562   -0.13660840893590642   0.008784793808528101
-1.1423903468028562   -0.13660840893590642   0.008784793808528101
-1.1423903468028562   -0.13660840893590642   0.008784793808528101
-1.1423903468028562   -0.13660840893590642   0.008784793808528101
-0.8759428903215009   -0.16486098898895582   0.05163794537672178
-0.8759428903215009   -0.16486098898895582   0.05163794537672178
-0.8759428903215009   -0.16486098898895582   0.05163794537672178
-0.8759428903215009   -0.16486098898895582   0.05163794537672178
-1.4967797444348974   -0.13109240165817773   -0.015655638036002083
-1.4967797444348974   -0.13109240165817773   -0.015655638036002083
-1.4967797444348974   -0.13109240165817773   -0.015655638036002083
-1.4967797444348974   -0.13109240165817773   -0.015655638036002083
-1.5613284434990182   -0.3123065304596201   -0.00020420879908228384
-1.5613284434990182   -0.3123065304596201   -0.00020420879908228384
-1.5613284434990182   -0.3123065304596201   -0.00020420879908228384
-1.5613284434990182   -0.3123065304596201   -0.00020420879908228384
-0.8857269621297352   -0.03277180004816324   0.0054134045537952286
-0.8857269621297352   -0.03277180004816324   0.0054134045537952286
-0.8857269621297352   -0.03277180004816324   0.0054134045537952286
-0.8857269621297352   -0.03277180004816324   0.0054134045537952286
-1.1558414996823356   -0.1648835196372454   0.013832243561170344
-1.1558414996823356   -0.1648835196372454   0.013832243561170344
-1.1558414996823356   -0.1648835196372454   0.013832243561170344
-1.1558414996823356   -0.1648835196372454   0.013832243561170344
0.9521036993558316   0.04414749450347971   -0.020360186179479517
0.9521036993558316   0.04414749450347971   -0.020360186179479517
0.9521036993558316   0.04414749450347971   -0.020360186179479517
0.9521036993558316   0.04414749450347971   -0.020360186179479517
0.47851233521686093   -0.010088897936414376   0.009886964589470599
0.47851233521686093   -0.010088897936414376   0.009886964589470599
0.47851233521686093   -0.010088897936414376   0.009886964589470599
0.47851233521686093   -0.010088897936414376   0.009886964589470599
0.44843365651731726   -0.07015932484878694   -0.018097611966921855
0.44843365651731726   -0.07015932484878694   -0.018097611966921855
0.44843365651731726   -0.07015932484878694   -0.018097611966921855
0.44843365651731726   -0.07015932484878694   -0.018097611966921855
0.9411800995714955   0.06854534599066026   0.011567556065912615
0.9411800995714955   0.06854534599066026   0.011567556065912615
0.9411800995714955   0.06854534599066026   0.011567556065912615
0.9411800995714955   0.06854534599066026   0.011567556065912615
0.6681023616357149   0.0016478312291834385   -0.025796033588563215
0.6681023616357149   0.0016478312291834385   -0.025796033588563215
0.6681023616357149   0.0016478312291834385   -0.025796033588563215
0.6681023616357149   0.0016478312291834385   -0.025796033588563215
0.926010150462728   0.02485677303019021   -0.02059361651744688
0.926010150462728   0.02485677303019021   -0.02059361651744688
0.926010150462728   0.02485677303019021   -0.02059361651744688
0.926010150462728   0.02485677303019021   -0.02059361651744688
0.4627716560701538   -0.02730270144424729   0.010735762392716647
0.4627716560701538   -0.02730270144424729   0.010735762392716647
0.4627716560701538   -0.02730270144424729   0.010735762392716647
0.4627716560701538   -0.02730270144424729   0.010735762392716647
0.4322227795066713   -0.07402029907876216   -0.014979960000147334
0.4322227795066713   -0.07402029907876216   -0.014979960000147334
0.4322227795066713   -0.07402029907876216   -0.014979960000147334
0.4322227795066713   -0.07402029907876216   -0.014979960000147334
0.9186918772645853   0.06304996248977554   0.016991524292080354
0.9186918772645853   0.06304996248977554   0.016991524292080354
0.9186918772645853   0.06304996248977554   0.016991524292080354
0.9186918772645853   0.06304996248977554   0.016991524292080354
0.6594194537219502   -0.006569035504237236   -0.030673497718674447
0.6594194537219502   -0.006569035504237236   -0.030673497718674447
0.6594194537219502   -0.006569035504237236   -0.030673497718674447
0.6594194537219502   -0.006569035504237236   -0.030673497718674447
0.9034031866130181   0.019942817539450514   -0.016344784015430804
0.9034031866130181   0.019942817539450514   -0.016344784015430804
0.9034031866130181   0.019942817539450514   -0.016344784015430804
0.9034031866130181   0.019942817539450514   -0.016344784015430804
0.4463448222941125   -0.03207980199256322   0.013689756850859464
0.4463448222941125   -0.03207980199256322   0.013689756850859464
0.4463448222941125   -0.03207980199256322   0.013689756850859464
0.4463448222941125   -0.03207980199256322   0.013689756850859464
0.41654623670073593   -0.07276843035847619   -0.010292898829108589
0.41654623670073593   -0.07276843035847619   -0.010292898829108589
0.41654623670073593   -0.07276843035847619   -0.010292898829108589
0.41654623670073593   -0.07276843035847619   -0.010292898829108589
0.8908696328231985   0.05945779870298984   0.022186030194148457
0.8908696328231985   0.05945779870298984   0.022186030194148457
0.8908696328231985   0.05945779870298984   0.022186030194148457
0.8908696328231985   0.05945779870298984   0.022186030194148457
0.6270892498698449   -0.01142928673261484   -0.04021155489019838
0.6270892498698449   -0.01142928673261484   -0.04021155489019838
0.6270892498698449   -0.01142928673261484   -0.04021155489019838
0.6270892498698449   -0.01142928673261484   -0.04021155489019838
0.4814608139358764   0.010000646467988858   0.004539813780144938
0.4814608139358764   0.010000646467988858   0.004539813780144938
0.4814608139358764   0.010000646467988858   0.004539813780144938
0.4814608139358764   0.010000646467988858   0.004539813780144938
0.04500594236146361   -0.029090584005753897   -0.0012392769280997647
0.04500594236146361   -0.029090584005753897   -0.0012392769280997647
0.04500594236146361   -0.029090584005753897   -0.0012392769280997647
0.04500594236146361   -0.029090584005753897   -0.0012392769280997647
0.016658772998392416   -0.09259700432279394   -0.0174608032358692
0.016658772998392416   -0.09259700432279394   -0.0174608032358692
0.016658772998392416   -0.09259700432279394   -0.0174608032358692
0.016658772998392416   -0.09259700432279394   -0.0174608032358692
0.48196708918021003   0.055678776274439526   0.02373145022431121
0.48196708918021003   0.055678776274439526   0.02373145022431121
0.48196708918021003   0.055678776274439526   0.02373145022431121
0.48196708918021003   0.055678776274439526   0.02373145022431121
0.25157279497524015   -0.012805803345670302   -0.009871842239554226
0.25157279497524015   -0.012805803345670302   -0.009871842239554226
0.25157279497524015   -0.012805803345670302   -0.009871842239554226
0.25157279497524015   -0.012805803345670302   -0.009871842239554226
0.4681342003224471   0.002699498525982169   0.007546283683956687
0.4681342003224471   0.002699498525982169   0.007546283683956687
0.4681342003224471   0.002699498525982169   0.007546283683956687
0.4681342003224471   0.002699498525982169   0.007546283683956687
0.0310253354769321   -0.03908405295355938   0.0008590577875946595
0.0310253354769321   -0.03908405295355938   0.0008590577875946595
0.0310253354769321   -0.03908405295355938   0.0008590577875946595
0.0310253354769321   -0.03908405295355938   0.0008590577875946595
0.0010273870276245357   -0.09693742036954812   -0.012210349993881878
0.0010273870276245357   -0.09693742036954812   -0.012210349993881878
0.0010273870276245357   -0.09693742036954812   -0.012210349993881878
0.0010273870276245357   -0.09693742036954812   -0.012210349993881878
0.46481184156086547   0.047783926176960645   0.026161125015100567
0.46481184156086547   0.047783926176960645   0.026161125015100567
0.46481184156086547   0.047783926176960645   0.026161125015100567
0.46481184156086547   0.047783926176960645   0.026161125015100567
0.23353940550631996   -0.020092503793032082   -0.013975247705411354
0.23353940550631996   -0.020092503793032082   -0.013975247705411354
0.23353940550631996   -0.020092503793032082   -0.013975247705411354
0.23353940550631996   -0.020092503793032082   -0.013975247705411354
0.4517616770599885   -0.002174705522297274   0.010868934209977709
0.4517616770599885   -0.002174705522297274   0.010868934209977709
0.4517616770599885   -0.002174705522297274   0.010868934209977709
0.4517616770599885   -0.002174705522297274   0.010868934209977709
0.014008713913038671   -0.04704762628574725   0.002806490349387937
0.014008713913038671   -0.04704762628574725   0.002806490349387937
0.014008713913038671   -0.04704762628574725   0.002806490349387937
0.014008713913038671   -0.04704762628574725   0.002806490349387937
-0.01573924094152679   -0.09727310853141488   -0.008373562072381616
-0.01573924094152679   -0.09727310853141488   -0.008373562072381616
-0.01573924094152679   -0.09727310853141488   -0.008373562072381616
-0.01573924094152679   -0.09727310853141488   -0.008373562072381616
0.44750144482027826   0.042814724712935244   0.028899986697192494
0.44750144482027826   0.042814724712935244   0.028899986697192494
0.44750144482027826   0.042814724712935244   0.028899986697192494
0.44750144482027826   0.042814724712935244   0.028899986697192494
0.21951076411130768   -0.02292732947839496   -0.017471848829320923
0.21951076411130768   -0.02292732947839496   -0.017471848829320923
0.21951076411130768   -0.02292732947839496   -0.017471848829320923
0.21951076411130768   -0.02292732947839496   -0.017471848829320923
0.04624132152104063   -0.02594006039098986   0.00178709525502126
0.04624132152104063   -0.02594006039098986   0.00178709525502126
0.04624132152104063   -0.02594006039098986   0.00178709525502126
0.04624132152104063   -0.02594006039098986   0.00178709525502126
-0.3741791667963804   -0.04315722756950127   -0.011748098642834267
-0.3741791667963804   -0.04315722756950127   -0.011748098642834267
-0.3741791667963804   -0.04315722756950127   -0.011748098642834267
-0.3741791667963804   -0.04315722756950127   -0.011748098642834267
-0.4056951682861928   -0.12262922141838273   -0.019957318133197684
-0.4056951682861928   -0.12262922141838273   -0.019957318133197684
-0.4056951682861928   -0.12262922141838273   -0.019957318133197684
-0.4056951682861928   -0.12262922141838273   -0.019957318133197684
0.049588150100242666   0.04091149710815074   0.013677580842437358
0.049588150100242666   0.04091149710815074   0.013677580842437358
0.049588150100242666   0.04091149710815074   0.013677580842437358
0.049588150100242666   0.04091149710815074   0.013677580842437358
-0.17150012730339256   -0.035902941087051575   -0.009767415020641611
-0.17150012730339256   -0.035902941087051575   -0.009767415020641611
-0.17150012730339256   -0.035902941087051575   -0.009767415020641611
-0.17150012730339256   -0.035902941087051575   -0.009767415020641611
0.03448729738347177   -0.02898691815371963   0.008071732520453265
0.03448729738347177   -0.02898691815371963   0.008071732520453265
0.03448729738347177   -0.02898691815371963   0.008071732520453265
0.03448729738347177   -0.02898691815371963   0.008071732520453265
-0.38943036684856225   -0.051566857435652785   -0.009695674927775288
-0.38943036684856225   -0.051566857435652785   -0.009695674927775288
-0.38943036684856225   -0.051566857435652785   -0.009695674927775288
-0.38943036684856225   -0.051566857435652785   -0.009695674927775288
-0.4240155940520791   -0.1273725352175637   -0.013306154635270845
-0.4240155940520791   -0.1273725352175637   -0.013306154635270845
-0.4240155940520791   -0.1273725352175637   -0.013306154635270845
-0.4240155940520791   -0.1273725352175637   -0.013306154635270845
0.0324406425570008   0.03246631457427586   0.015452192709175446
0.0324406425570008   0.03246631457427586   0.015452192709175446
0.0324406425570008   0.03246631457427586   0.015452192709175446
0.0324406425570008   0.03246631457427586   0.015452192709175446
-0.1866671299882033   -0.04090457697368232   -0.011706035037382672
-0.1866671299882033   -0.04090457697368232   -0.011706035037382672
-0.1866671299882033   -0.04090457697368232   -0.011706035037382672
-0.1866671299882033   -0.04090457697368232   -0.011706035037382672
0.018263468539822577   -0.034040803610509186   0.011073440808069396
0.018263468539822577   -0.034040803610509186   0.011073440808069396
0.018263468539822577   -0.034040803610509186   0.011073440808069396
0.018263468539822577   -0.034040803610509186   0.011073440808069396
-0.4095883037068688   -0.06061530070474143   -0.007926937422041442
-0.4095883037068688   -0.06061530070474143   -0.007926937422041442
-0.4095883037068688   -0.06061530070474143   -0.007926937422041442
-0.4095883037068688   -0.06061530070474143   -0.007926937422041442
-0.44433168185730093   -0.1308115506430689   -0.0118245104611674
-0.44433168185730093   -0.1308115506430689   -0.0118245104611674
-0.44433168185730093   -0.1308115506430689   -0.0118245104611674
-0.44433168185730093   -0.1308115506430689   -0.0118245104611674
0.013891359809818038   0.025261490305861993   0.017244842847065657
0.013891359809818038   0.025261490305861993   0.017244842847065657
0.013891359809818038   0.025261490305861993   0.017244842847065657
0.013891359809818038   0.025261490305861993   0.017244842847065657
-0.20635803451654666   -0.04689135207192509   -0.01639136157224515
-0.20635803451654666   -0.04689135207192509   -0.01639136157224515
-0.20635803451654666   -0.04689135207192509   -0.01639136157224515
-0.20635803451654666   -0.04689135207192509   -0.01639136157224515
-0.3682373002829274   -0.03104674449684331   0.005850750851763268
-0.3682373002829274   -0.03104674449684331   0.005850750851763268
-0.3682373002829274   -0.03104674449684331   0.005850750851763268
-0.3682373002829274   -0.03104674449684331   0.005850750851763268
-0.7837374813301882   -0.05053229799053148   -0.020614083711346303
-0.7837374813301882   -0.05053229799053148   -0.020614083711346303
-0.7837374813301882   -0.05053229799053148   -0.020614083711346303
-0.7837374813301882   -0.05053229799053148   -0.020614083711346303
-0.819524889650409   -0.1286650370161681   -0.020041218151087607
-0.819524889650409   -0.1286650370161681   -0.020041218151087607
-0.819524889650409   -0.1286650370161681   -0.020041218151087607
-0.819524889650409   -0.1286650370161681   -0.020041218151087607
-0.37011256439949314   0.03135817710955814   0.003968302772355454
-0.37011256439949314   0.03135817710955814   0.003968302772355454
-0.37011256439949314   0.03135817710955814   0.003968302772355454
-0.37011256439949314   0.03135817710955814   0.003968302772355454
-0.5806004871367448   -0.04265418040257049   -0.008143485366229393
-0.5806004871367448   -0.04265418040257049   -0.008143485366229393
-0.5806004871367448   -0.04265418040257049   -0.008143485366229393
-0.5806004871367448   -0.04265418040257049   -0.008143485366229393
-0.3812477182613105   -0.0342260141613039   0.013876724734134836
-0.3812477182613105   -0.0342260141613039   0.013876724734134836
-0.3812477182613105   -0.0342260141613039   0.013876724734134836
-0.3812477182613105   -0.0342260141613039   0.013876724734134836
-0.8061224585424434   -0.060813568499158074   -0.020880531128275422
-0.8061224585424434   -0.060813568499158074   -0.020880531128275422
-0.8061224585424434   -0.060813568499158074   -0.020880531128275422
-0.8061224585424434   -0.060813568499158074   -0.020880531128275422
-0.8448413292092259   -0.136771558656725   -0.014132539260750662
-0.8448413292092259   -0.136771558656725   -0.014132539260750662
-0.8448413292092259   -0.136771558656725   -0.014132539260750662
-0.8448413292092259   -0.136771558656725   -0.014132539260750662
-0.39049391680217127   0.02210392485672595   0.004825771539978662
-0.39049391680217127   0.02210392485672595   0.004825771539978662
-0.39049391680217127   0.02210392485672595   0.004825771539978662
-0.39049391680217127   0.02210392485672595   0.004825771539978662
-0.5965306959699546   -0.047095640684927054   -0.008136720146276331
-0.5965306959699546   -0.047095640684927054   -0.008136720146276331
-0.5965306959699546   -0.047095640684927054   -0.008136720146276331
-0.5965306959699546   -0.047095640684927054   -0.008136720146276331
-0.4014700203471884   -0.0423841277482081   0.014433306419826885
-0.4014700203471884   -0.0423841277482081   0.014433306419826885
-0.4014700203471884   -0.0423841277482081   0.014433306419826885
-0.4014700203471884   -0.0423841277482081   0.014433306419826885
-0.8323427885822691   -0.07076106896985727   -0.017650325812839655
-0.8323427885822691   -0.07076106896985727   -0.017650325812839655
-0.8323427885822691   -0.07076106896985727   -0.017650325812839655
-0.8323427885822691   -0.07076106896985727   -0.017650325812839655
-0.8734642368047342   -0.14749522639318866   -0.015078735650209627
-0.8734642368047342   -0.14749522639318866   -0.015078735650209627
-0.8734642368047342   -0.14749522639318866   -0.015078735650209627
-0.8734642368047342   -0.14749522639318866   -0.015078735650209627
-0.4125258047549554   0.010653918248498179   0.005739406158989335
-0.4125258047549554   0.010653918248498179   0.005739406158989335
-0.4125258047549554   0.010653918248498179   0.005739406158989335
-0.4125258047549554   0.010653918248498179   0.005739406158989335
-0.6250397785296301   -0.05814765008665447   -0.013308551791064837
-0.6250397785296301   -0.05814765008665447   -0.013308551791064837
-0.6250397785296301   -0.05814765008665447   -0.013308551791064837
-0.6250397785296301   -0.05814765008665447   -0.013308551791064837
-0.7574144259296005   0.03529584442062739   0.02517305088043279
-0.7574144259296005   0.03529584442062739   0.02517305088043279
-0.7574144259296005   0.03529584442062739   0.02517305088043279
-0.7574144259296005   0.03529584442062739   0.02517305088043279
-1.1739997190563782   -0.05845613234813252   -0.015515022924323676
-1.1739997190563782   -0.05845613234813252   -0.015515022924323676
-1.1739997190563782   -0.05845613234813252   -0.015515022924323676
-1.1739997190563782   -0.05845613234813252   -0.015515022924323676
-1.202405566705439   -0.059554985341380706   0.02578287145644817
-1.202405566705439   -0.059554985341380706   0.02578287145644817
-1.202405566705439   -0.059554985341380706   0.02578287145644817
-1.202405566705439   -0.059554985341380706   0.02578287145644817
-0.7860695700739339   0.024620320480919   -0.006049977765804987
-0.7860695700739339   0.024620320480919   -0.006049977765804987
-0.7860695700739339   0.024620320480919   -0.006049977765804987
-0.7860695700739339   0.024620320480919   -0.006049977765804987
-0.9342754787104723   0.0005950014718841545   0.023772040786218585
-0.9342754787104723   0.0005950014718841545   0.023772040786218585
-0.9342754787104723   0.0005950014718841545   0.023772040786218585
-0.9342754787104723   0.0005950014718841545   0.023772040786218585
-0.7781041562352667   0.026523504035882772   0.03187390787256274
-0.7781041562352667   0.026523504035882772   0.03187390787256274
-0.7781041562352667   0.026523504035882772   0.03187390787256274
-0.7781041562352667   0.026523504035882772   0.03187390787256274
-1.2098329079417447   -0.060920096293978765   -0.00998872377248286
-1.2098329079417447   -0.060920096293978765   -0.00998872377248286
-1.2098329079417447   -0.060920096293978765   -0.00998872377248286
-1.2098329079417447   -0.060920096293978765   -0.00998872377248286
-1.2382111364463475   -0.06922548326420055   0.035110345945334
-1.2382111364463475   -0.06922548326420055   0.035110345945334
-1.2382111364463475   -0.06922548326420055   0.035110345945334
-1.2382111364463475   -0.06922548326420055   0.035110345945334
-0.8123219296472245   0.018042176284938205   -0.006349276392412395
-0.8123219296472245   0.018042176284938205   -0.006349276392412395
-0.8123219296472245   0.018042176284938205   -0.006349276392412395
-0.8123219296472245   0.018042176284938205   -0.006349276392412395
-0.9807077732111138   -0.010696694046039873   0.01319577346675116
-0.9807077732111138   -0.010696694046039873   0.01319577346675116
-0.9807077732111138   -0.010696694046039873   0.01319577346675116
-0.9807077732111138   -0.010696694046039873   0.01319577346675116
-0.8050372796326505   0.016675374085459382   0.03144077587993672
-0.8050372796326505   0.016675374085459382   0.03144077587993672
-0.8050372796326505   0.016675374085459382   0.03144077587993672
-0.8050372796326505   0.016675374085459382   0.03144077587993672
-1.2468681943634863   -0.06923108896728475   -0.008169337937265292
-1.2468681943634863   -0.06923108896728475   -0.008169337937265292
-1.2468681943634863   -0.06923108896728475   -0.008169337937265292
-1.2468681943634863   -0.06923108896728475   -0.008169337937265292
-1.2891758191809384   -0.1084661738540395   0.030390392575616834
-1.2891758191809384   -0.1084661738540395   0.030390392575616834
-1.2891758191809384   -0.1084661738540395   0.030390392575616834
-1.2891758191809384   -0.1084661738540395   0.030390392575616834
-0.8425930126957668   -0.0022247372141684374   -0.005993104284401446
-0.8425930126957668   -0.0022247372141684374   -0.005993104284401446
-0.8425930126957668   -0.0022247372141684374   -0.005993104284401446
-0.8425930126957668   -0.0022247372141684374   -0.005993104284401446
-1.000097226594473   -0.02498117954272991   0.003990651466128571
-1.000097226594473   -0.02498117954272991   0.003990651466128571
-1.000097226594473   -0.02498117954272991   0.003990651466128571
-1.000097226594473   -0.02498117954272991   0.003990651466128571
0.7742437381818116   0.0416398256840108   -0.027200820273354267
0.7742437381818116   0.0416398256840108   -0.027200820273354267
0.7742437381818116   0.0416398256840108   -0.027200820273354267
0.7742437381818116   0.0416398256840108   -0.027200820273354267
0.38320801787084413   -0.0008254154295711941   0.009743094924374106
0.38320801787084413   -0.0008254154295711941   0.009743094924374106
0.38320801787084413   -0.0008254154295711941   0.009743094924374106
0.38320801787084413   -0.0008254154295711941   0.009743094924374106
0.35067059994302513   -0.05687790179563845   -0.025039183237141174
0.35067059994302513   -0.05687790179563845   -0.025039183237141174
0.35067059994302513   -0.05687790179563845   -0.025039183237141174
0.35067059994302513   -0.05687790179563845   -0.025039183237141174
0.7598766681401682   0.06240264408188087   0.012233572219954574
0.7598766681401682   0.06240264408188087   0.012233572219954574
0.7598766681401682   0.06240264408188087   0.012233572219954574
0.7598766681401682   0.06240264408188087   0.012233572219954574
0.5376863490339262   0.004729363213612989   -0.017706911089012036
0.5376863490339262   0.004729363213612989   -0.017706911089012036
0.5376863490339262   0.004729363213612989   -0.017706911089012036
0.5376863490339262   0.004729363213612989   -0.017706911089012036
0.7440101863121091   0.02154884463159648   -0.02624503747005051
0.7440101863121091   0.02154884463159648   -0.02624503747005051
0.7440101863121091   0.02154884463159648   -0.02624503747005051
0.7440101863121091   0.02154884463159648   -0.02624503747005051
0.3658654510894572   -0.016695733026981158   0.010752903726355394
0.3658654510894572   -0.016695733026981158   0.010752903726355394
0.3658654510894572   -0.016695733026981158   0.010752903726355394
0.3658654510894572   -0.016695733026981158   0.010752903726355394
0.33440105411734994   -0.061564656812381824   -0.021790749071471036
0.33440105411734994   -0.061564656812381824   -0.021790749071471036
0.33440105411734994   -0.061564656812381824   -0.021790749071471036
0.33440105411734994   -0.061564656812381824   -0.021790749071471036
0.7355548461984257   0.05593981450598663   0.0167883770993839
0.7355548461984257   0.05593981450598663   0.0167883770993839
0.7355548461984257   0.05593981450598663   0.0167883770993839
0.7355548461984257   0.05593981450598663   0.0167883770993839
0.525115917744436   -0.0037639573808686683   -0.02312859669273525
0.525115917744436   -0.0037639573808686683   -0.02312859669273525
0.525115917744436   -0.0037639573808686683   -0.02312859669273525
0.525115917744436   -0.0037639573808686683   -0.02312859669273525
0.7200196271046544   0.015773022355570654   -0.02072092621904381
0.7200196271046544   0.015773022355570654   -0.02072092621904381
0.7200196271046544   0.015773022355570654   -0.02072092621904381
0.7200196271046544   0.015773022355570654   -0.02072092621904381
0.3493262102070414   -0.022007927666039012   0.013278302230639989
0.3493262102070414   -0.022007927666039012   0.013278302230639989
0.3493262102070414   -0.022007927666039012   0.013278302230639989
0.3493262102070414   -0.022007927666039012   0.013278302230639989
0.31956550942690476   -0.06280235529156908   -0.01781061638238307
0.31956550942690476   -0.06280235529156908   -0.01781061638238307
0.31956550942690476   -0.06280235529156908   -0.01781061638238307
0.31956550942690476   -0.06280235529156908   -0.01781061638238307
0.7081364032621766   0.05038958143607147   0.020951186961257487
0.7081364032621766   0.05038958143607147   0.020951186961257487
0.7081364032621766   0.05038958143607147   0.020951186961257487
0.7081364032621766   0.05038958143607147   0.020951186961257487
0.4953015768852769   -0.009563710776639395   -0.03134952895106466
0.4953015768852769   -0.009563710776639395   -0.03134952895106466
0.4953015768852769   -0.009563710776639395   -0.03134952895106466
0.4953015768852769   -0.009563710776639395   -0.03134952895106466
0.3900156355356913   0.04062530298209949   0.0023304648369394526
0.3900156355356913   0.04062530298209949   0.0023304648369394526
0.3900156355356913   0.04062530298209949   0.0023304648369394526
0.3900156355356913   0.04062530298209949   0.0023304648369394526
0.01243212538755602   -0.01309023453958556   -0.0017070746835177713
0.01243212538755602   -0.01309023453958556   -0.0017070746835177713
0.01243212538755602   -0.01309023453958556   -0.0017070746835177713
0.01243212538755602   -0.01309023453958556   -0.0017070746835177713
-0.012098643749633525   -0.05130112065231775   -0.017102301479631578
-0.012098643749633525   -0.05130112065231775   -0.017102301479631578
-0.012098643749633525   -0.05130112065231775   -0.017102301479631578
-0.012098643749633525   -0.05130112065231775   -0.017102301479631578
0.38259420415625944   0.05659626730501173   0.021104668728373757
0.38259420415625944   0.05659626730501173   0.021104668728373757
0.38259420415625944   0.05659626730501173   0.021104668728373757
0.38259420415625944   0.05659626730501173   0.021104668728373757
0.19022085846505363   0.00806799913414797   -0.0021292378201704775
0.19022085846505363   0.00806799913414797   -0.0021292378201704775
0.19022085846505363   0.00806799913414797   -0.0021292378201704775
0.19022085846505363   0.00806799913414797   -0.0021292378201704775
0.3739991965720536   0.030236739442009455   0.004489158670347954
0.3739991965720536   0.030236739442009455   0.004489158670347954
0.3739991965720536   0.030236739442009455   0.004489158670347954
0.3739991965720536   0.030236739442009455   0.004489158670347954
-0.0033478687565778676   -0.024785825380470583   0.00013627821379954413
-0.0033478687565778676   -0.024785825380470583   0.00013627821379954413
-0.0033478687565778676   -0.024785825380470583   0.00013627821379954413
-0.0033478687565778676   -0.024785825380470583   0.00013627821379954413
-0.027509035263427507   -0.05887362015090744   -0.014805729799946876
-0.027509035263427507   -0.05887362015090744   -0.014805729799946876
-0.027509035263427507   -0.05887362015090744   -0.014805729799946876
-0.027509035263427507   -0.05887362015090744   -0.014805729799946876
0.36513418533776126   0.04697037753065663   0.023339872687543763
0.36513418533776126   0.04697037753065663   0.023339872687543763
0.36513418533776126   0.04697037753065663   0.023339872687543763
0.36513418533776126   0.04697037753065663   0.023339872687543763
0.17135542316156996   -0.0014344453831641596   -0.00752243244839635
0.17135542316156996   -0.0014344453831641596   -0.00752243244839635
0.17135542316156996   -0.0014344453831641596   -0.00752243244839635
0.17135542316156996   -0.0014344453831641596   -0.00752243244839635
0.35686517411911084   0.022296172092149957   0.006669022032801772
0.35686517411911084   0.022296172092149957   0.006669022032801772
0.35686517411911084   0.022296172092149957   0.006669022032801772
0.35686517411911084   0.022296172092149957   0.006669022032801772
-0.019226308052690946   -0.03418569872031406   0.0019199848231425346
-0.019226308052690946   -0.03418569872031406   0.0019199848231425346
-0.019226308052690946   -0.03418569872031406   0.0019199848231425346
-0.019226308052690946   -0.03418569872031406   0.0019199848231425346
-0.04275685067751034   -0.0633795324878975   -0.011813003809151918
-0.04275685067751034   -0.0633795324878975   -0.011813003809151918
-0.04275685067751034   -0.0633795324878975   -0.011813003809151918
-0.04275685067751034   -0.0633795324878975   -0.011813003809151918
0.34852644834299795   0.03889315626289241   0.025298566643617584
0.34852644834299795   0.03889315626289241   0.025298566643617584
0.34852644834299795   0.03889315626289241   0.025298566643617584
0.34852644834299795   0.03889315626289241   0.025298566643617584
0.15747301696533444   -0.007455374004971975   -0.01147841062624869
0.15747301696533444   -0.007455374004971975   -0.01147841062624869
0.15747301696533444   -0.007455374004971975   -0.01147841062624869
0.15747301696533444   -0.007455374004971975   -0.01147841062624869
0.025325618291057523   0.040856150196195005   0.008814005098209184
0.025325618291057523   0.040856150196195005   0.008814005098209184
0.025325618291057523   0.040856150196195005   0.008814005098209184
0.025325618291057523   0.040856150196195005   0.008814005098209184
-0.34696657934471165   -0.022676865202599393   -0.011908748295052974
-0.34696657934471165   -0.022676865202599393   -0.011908748295052974
-0.34696657934471165   -0.022676865202599393   -0.011908748295052974
-0.34696657934471165   -0.022676865202599393   -0.011908748295052974
-0.36610256563572785   -0.0471483633196786   -0.010931005560738838
-0.36610256563572785   -0.0471483633196786   -0.010931005560738838
-0.36610256563572785   -0.0471483633196786   -0.010931005560738838
-0.36610256563572785   -0.0471483633196786   -0.010931005560738838
0.012911203129128416   0.04636585374095531   0.010279958520905073
0.012911203129128416   0.04636585374095531   0.010279958520905073
0.012911203129128416   0.04636585374095531   0.010279958520905073
0.012911203129128416   0.04636585374095531   0.010279958520905073
-0.16849357971414258   0.005110929858312213   0.0006697959394457529
-0.16849357971414258   0.005110929858312213   0.0006697959394457529
-0.16849357971414258   0.005110929858312213   0.0006697959394457529
-0.16849357971414258   0.005110929858312213   0.0006697959394457529
0.010293698585988949   0.03252395712170428   0.01103433242445876
0.010293698585988949   0.03252395712170428   0.01103433242445876
0.010293698585988949   0.03252395712170428   0.01103433242445876
0.010293698585988949   0.03252395712170428   0.01103433242445876
-0.3630627163101078   -0.03288412191794698   -0.009996000334370097
-0.3630627163101078   -0.03288412191794698   -0.009996000334370097
-0.3630627163101078   -0.03288412191794698   -0.009996000334370097
-0.3630627163101078   -0.03288412191794698   -0.009996000334370097
-0.3826366065224198   -0.05546279589429862   -0.009116110554276347
-0.3826366065224198   -0.05546279589429862   -0.009116110554276347
-0.3826366065224198   -0.05546279589429862   -0.009116110554276347
-0.3826366065224198   -0.05546279589429862   -0.009116110554276347
-0.0029880387662300743   0.03646685270597469   0.012458779829158157
-0.0029880387662300743   0.03646685270597469   0.012458779829158157
-0.0029880387662300743   0.03646685270597469   0.012458779829158157
-0.0029880387662300743   0.03646685270597469   0.012458779829158157
-0.18433823416662945   -0.0030503078233258055   -0.0033711618789141317
-0.18433823416662945   -0.0030503078233258055   -0.0033711618789141317
-0.18433823416662945   -0.0030503078233258055   -0.0033711618789141317
-0.18433823416662945   -0.0030503078233258055   -0.0033711618789141317
-0.005219622430015641   0.024497804898565404   0.013269909317639602
-0.005219622430015641   0.024497804898565404   0.013269909317639602
-0.005219622430015641   0.024497804898565404   0.013269909317639602
-0.005219622430015641   0.024497804898565404   0.013269909317639602
-0.38004535756107466   -0.043134082789329745   -0.008488578852519406
-0.38004535756107466   -0.043134082789329745   -0.008488578852519406
-0.38004535756107466   -0.043134082789329745   -0.008488578852519406
-0.38004535756107466   -0.043134082789329745   -0.008488578852519406
-0.3990530778752289   -0.061995554399493225   -0.006095942994663452
-0.3990530778752289   -0.061995554399493225   -0.006095942994663452
-0.3990530778752289   -0.061995554399493225   -0.006095942994663452
-0.3990530778752289   -0.061995554399493225   -0.006095942994663452
-0.01946232230635885   0.02714181986853005   0.01413828569017797
-0.01946232230635885   0.02714181986853005   0.01413828569017797
-0.01946232230635885   0.02714181986853005   0.01413828569017797
-0.01946232230635885   0.02714181986853005   0.01413828569017797
-0.2013890263096721   -0.011348632903425498   -0.007793587787935133
-0.2013890263096721   -0.011348632903425498   -0.007793587787935133
-0.2013890263096721   -0.011348632903425498   -0.007793587787935133
-0.2013890263096721   -0.011348632903425498   -0.007793587787935133
-0.3272612864812806   0.04806160657118383   0.015879244248322714
-0.3272612864812806   0.04806160657118383   0.015879244248322714
-0.3272612864812806   0.04806160657118383   0.015879244248322714
-0.3272612864812806   0.04806160657118383   0.015879244248322714
-0.6948428788686587   -0.03111684521426289   -0.01946448321461753
-0.6948428788686587   -0.03111684521426289   -0.01946448321461753
-0.6948428788686587   -0.03111684521426289   -0.01946448321461753
-0.6948428788686587   -0.03111684521426289   -0.01946448321461753
-0.7097500440617813   -0.038026048655502256   -0.00331534639065836
-0.7097500440617813   -0.038026048655502256   -0.00331534639065836
-0.7097500440617813   -0.038026048655502256   -0.00331534639065836
-0.7097500440617813   -0.038026048655502256   -0.00331534639065836
-0.3475508481954675   0.03514120612131036   -0.000461987800422
-0.3475508481954675   0.03514120612131036   -0.000461987800422
-0.3475508481954675   0.03514120612131036   -0.000461987800422
-0.3475508481954675   0.03514120612131036   -0.000461987800422
-0.516091338235978   0.0050768595214470275   0.0037841100436859787
-0.516091338235978   0.0050768595214470275   0.0037841100436859787
-0.516091338235978   0.0050768595214470275   0.0037841100436859787
-0.516091338235978   0.0050768595214470275   0.0037841100436859787
-0.3430155466873686   0.03954588772482369   0.017809838136558735
-0.3430155466873686   0.03954588772482369   0.017809838136558735
-0.3430155466873686   0.03954588772482369   0.017809838136558735
-0.3430155466873686   0.03954588772482369   0.017809838136558735
-0.7137205675713779   -0.041865952260513414   -0.01932806033363028
-0.7137205675713779   -0.041865952260513414   -0.01932806033363028
-0.7137205675713779   -0.041865952260513414   -0.01932806033363028
-0.7137205675713779   -0.041865952260513414   -0.01932806033363028
-0.7301053937839114   -0.047381672648922166   -0.0029907390065218344
-0.7301053937839114   -0.047381672648922166   -0.0029907390065218344
-0.7301053937839114   -0.047381672648922166   -0.0029907390065218344
-0.7301053937839114   -0.047381672648922166   -0.0029907390065218344
-0.3642867807345208   0.02569517610548945   0.0014750463854345842
-0.3642867807345208   0.02569517610548945   0.0014750463854345842
-0.3642867807345208   0.02569517610548945   0.0014750463854345842
-0.3642867807345208   0.02569517610548945   0.0014750463854345842
-0.530287595315005   -0.0023563942853026404   0.0004748082638346869
-0.530287595315005   -0.0023563942853026404   0.0004748082638346869
-0.530287595315005   -0.0023563942853026404   0.0004748082638346869
-0.530287595315005   -0.0023563942853026404   0.0004748082638346869
-0.35931443432260435   0.031484214962287066   0.020547739588217328
-0.35931443432260435   0.031484214962287066   0.020547739588217328
-0.35931443432260435   0.031484214962287066   0.020547739588217328
-0.35931443432260435   0.031484214962287066   0.020547739588217328
-0.7339181722156365   -0.052011143525528866   -0.017425160288541266
-0.7339181722156365   -0.052011143525528866   -0.017425160288541266
-0.7339181722156365   -0.052011143525528866   -0.017425160288541266
-0.7339181722156365   -0.052011143525528866   -0.017425160288541266
-0.74883464835846   -0.05741148801959976   0.0017212184219734632
-0.74883464835846   -0.05741148801959976   0.0017212184219734632
-0.74883464835846   -0.05741148801959976   0.0017212184219734632
-0.74883464835846   -0.05741148801959976   0.0017212184219734632
-0.3820235463953235   0.014427966722394728   0.0026281932829759075
-0.3820235463953235   0.014427966722394728   0.0026281932829759075
-0.3820235463953235   0.014427966722394728   0.0026281932829759075
-0.3820235463953235   0.014427966722394728   0.0026281932829759075
-0.5525976379105134   -0.012863082270526308   -0.004001315487968473
-0.5525976379105134   -0.012863082270526308   -0.004001315487968473
-0.5525976379105134   -0.012863082270526308   -0.004001315487968473
-0.5525976379105134   -0.012863082270526308   -0.004001315487968473
-0.6703388234807548   0.04980570087831898   0.022133247632310463
-0.6703388234807548   0.04980570087831898   0.022133247632310463
-0.6703388234807548   0.04980570087831898   0.022133247632310463
-0.6703388234807548   0.04980570087831898   0.022133247632310463
-1.0260619189148108   -0.04751805436137496   -0.017786578241472784
-1.0260619189148108   -0.04751805436137496   -0.017786578241472784
-1.0260619189148108   -0.04751805436137496   -0.017786578241472784
-1.0260619189148108   -0.04751805436137496   -0.017786578241472784
-1.0398782778526354   -0.02117846579630861   0.0187647986267893
-1.0398782778526354   -0.02117846579630861   0.0187647986267893
-1.0398782778526354   -0.02117846579630861   0.0187647986267893
-1.0398782778526354   -0.02117846579630861   0.0187647986267893
-0.6991999792664448   0.0212678859848702   -0.009858957054347764
-0.6991999792664448   0.0212678859848702   -0.009858957054347764
-0.6991999792664448   0.0212678859848702   -0.009858957054347764
-0.6991999792664448   0.0212678859848702   -0.009858957054347764
-0.8208710474635653   0.010254889322436456   0.01896688662712022
-0.8208710474635653   0.010254889322436456   0.01896688662712022
-0.8208710474635653   0.010254889322436456   0.01896688662712022
-0.8208710474635653   0.010254889322436456   0.01896688662712022
-0.6862155988559108   0.050889397061934544   0.025441433921249618
-0.6862155988559108   0.050889397061934544   0.025441433921249618
-0.6862155988559108   0.050889397061934544   0.025441433921249618
-0.6862155988559108   0.050889397061934544   0.025441433921249618
-1.052097508170931   -0.050034826781129305   -0.01347499197985906
-1.052097508170931   -0.050034826781129305   -0.01347499197985906
-1.052097508170931   -0.050034826781129305   -0.01347499197985906
-1.052097508170931   -0.050034826781129305   -0.01347499197985906
-1.0651698272862105   -0.02607496420926314   0.025912918775566757
-1.0651698272862105   -0.02607496420926314   0.025912918775566757
-1.0651698272862105   -0.02607496420926314   0.025912918775566757
-1.0651698272862105   -0.02607496420926314   0.025912918775566757
-0.7186157282148976   0.015841515166547276   -0.008765598976922237
-0.7186157282148976   0.015841515166547276   -0.008765598976922237
-0.7186157282148976   0.015841515166547276   -0.008765598976922237
-0.7186157282148976   0.015841515166547276   -0.008765598976922237
-0.8558837562550906   0.005081126062545432   0.012306862382862799
-0.8558837562550906   0.005081126062545432   0.012306862382862799
-0.8558837562550906   0.005081126062545432   0.012306862382862799
-0.8558837562550906   0.005081126062545432   0.012306862382862799
-0.7042713285057887   0.04723477894895145   0.03156313578621797
-0.7042713285057887   0.04723477894895145   0.03156313578621797
-0.7042713285057887   0.04723477894895145   0.03156313578621797
-0.7042713285057887   0.04723477894895145   0.03156313578621797
-1.0787699741244374   -0.05672397512078428   -0.01143880450403996
-1.0787699741244374   -0.05672397512078428   -0.01143880450403996
-1.0787699741244374   -0.05672397512078428   -0.01143880450403996
-1.0787699741244374   -0.05672397512078428   -0.01143880450403996
-1.0994820343912306   -0.04726364408983991   0.0257013830326744
-1.0994820343912306   -0.04726364408983991   0.0257013830326744
-1.0994820343912306   -0.04726364408983991   0.0257013830326744
-1.0994820343912306   -0.04726364408983991   0.0257013830326744
-0.7394619259114941   -0.0005791458668249483   -0.008247511495971985
-0.7394619259114941   -0.0005791458668249483   -0.008247511495971985
-0.7394619259114941   -0.0005791458668249483   -0.008247511495971985
-0.7394619259114941   -0.0005791458668249483   -0.008247511495971985
-0.8657842759289431   -0.0024321770976272195   0.010163752983647842
-0.8657842759289431   -0.0024321770976272195   0.010163752983647842
-0.8657842759289431   -0.0024321770976272195   0.010163752983647842
-0.8657842759289431   -0.0024321770976272195   0.010163752983647842
0.5894587986345184   0.03292709962372767   -0.027745110572805855
0.5894587986345184   0.03292709962372767   -0.027745110572805855
0.5894587986345184   0.03292709962372767   -0.027745110572805855
0.5894587986345184   0.03292709962372767   -0.027745110572805855
0.27990610238380986   0.00524346584249475   0.010489962171652023
0.27990610238380986   0.00524346584249475   0.010489962171652023
0.27990610238380986   0.00524346584249475   0.010489962171652023
0.27990610238380986   0.00524346584249475   0.010489962171652023
0.24912487525015792   -0.04747512400300192   -0.026403475314449094
0.24912487525015792   -0.04747512400300192   -0.026403475314449094
0.24912487525015792   -0.04747512400300192   -0.026403475314449094
0.24912487525015792   -0.04747512400300192   -0.026403475314449094
0.5769165918513647   0.053980121913474746   0.012984553226107604
0.5769165918513647   0.053980121913474746   0.012984553226107604
0.5769165918513647   0.053980121913474746   0.012984553226107604
0.5769165918513647   0.053980121913474746   0.012984553226107604
0.40196135617843165   0.005421053811882223   -0.0118962886805031
0.40196135617843165   0.005421053811882223   -0.0118962886805031
0.40196135617843165   0.005421053811882223   -0.0118962886805031
0.40196135617843165   0.005421053811882223   -0.0118962886805031
0.5612679634061529   0.01498207939482643   -0.0262605464813025
0.5612679634061529   0.01498207939482643   -0.0262605464813025
0.5612679634061529   0.01498207939482643   -0.0262605464813025
0.5612679634061529   0.01498207939482643   -0.0262605464813025
0.26446807895780183   -0.008782506221921706   0.011619925442688177
0.26446807895780183   -0.008782506221921706   0.011619925442688177
0.26446807895780183   -0.008782506221921706   0.011619925442688177
0.26446807895780183   -0.008782506221921706   0.011619925442688177
0.23476244103649038   -0.05208547112712435   -0.02254564590426641
0.23476244103649038   -0.05208547112712435   -0.02254564590426641
0.23476244103649038   -0.05208547112712435   -0.02254564590426641
0.23476244103649038   -0.05208547112712435   -0.02254564590426641
0.5545796616819062   0.04737792055063764   0.01712781816610496
0.5545796616819062   0.04737792055063764   0.01712781816610496
0.5545796616819062   0.04737792055063764   0.01712781816610496
0.5545796616819062   0.04737792055063764   0.01712781816610496
0.38922808425136285   -0.0026062869010529677   -0.016598175736126475
0.38922808425136285   -0.0026062869010529677   -0.016598175736126475
0.38922808425136285   -0.0026062869010529677   -0.016598175736126475
0.38922808425136285   -0.0026062869010529677   -0.016598175736126475
0.5392864487839628   0.009113662040524564   -0.021073987813494285
0.5392864487839628   0.009113662040524564   -0.021073987813494285
0.5392864487839628   0.009113662040524564   -0.021073987813494285
0.5392864487839628   0.009113662040524564   -0.021073987813494285
0.24966264852925765   -0.01421421802218703   0.014084138454630163
0.24966264852925765   -0.01421421802218703   0.014084138454630163
0.24966264852925765   -0.01421421802218703   0.014084138454630163
0.24966264852925765   -0.01421421802218703   0.014084138454630163
0.22183540410684588   -0.054817198415087934   -0.018781713139208706
0.22183540410684588   -0.054817198415087934   -0.018781713139208706
0.22183540410684588   -0.054817198415087934   -0.018781713139208706
0.22183540410684588   -0.054817198415087934   -0.018781713139208706
0.5293755448104491   0.04030843865118164   0.02038963546386815
0.5293755448104491   0.04030843865118164   0.02038963546386815
0.5293755448104491   0.04030843865118164   0.02038963546386815
0.5293755448104491   0.04030843865118164   0.02038963546386815
0.3636799076785452   -0.008634092550122416   -0.023620781909820147
0.3636799076785452   -0.008634092550122416   -0.023620781909820147
0.3636799076785452   -0.008634092550122416   -0.023620781909820147
0.3636799076785452   -0.008634092550122416   -0.023620781909820147
0.28474138802212356   0.04141250347097961   -0.001502647265259456
0.28474138802212356   0.04141250347097961   -0.001502647265259456
0.28474138802212356   0.04141250347097961   -0.001502647265259456
0.28474138802212356   0.04141250347097961   -0.001502647265259456
-0.019002056269526002   -0.0043063383948449665   -0.0002513480010567984
-0.019002056269526002   -0.0043063383948449665   -0.0002513480010567984
-0.019002056269526002   -0.0043063383948449665   -0.0002513480010567984
-0.019002056269526002   -0.0043063383948449665   -0.0002513480010567984
-0.04068880763443651   -0.035649907994585436   -0.01684319597891606
-0.04068880763443651   -0.035649907994585436   -0.01684319597891606
-0.04068880763443651   -0.035649907994585436   -0.01684319597891606
-0.04068880763443651   -0.035649907994585436   -0.01684319597891606
0.2774803111728865   0.04911872461268466   0.01877985568350534
0.2774803111728865   0.04911872461268466   0.01877985568350534
0.2774803111728865   0.04911872461268466   0.01877985568350534
0.2774803111728865   0.04911872461268466   0.01877985568350534
0.12369121275469114   0.012071562788171087   0.000909905575280381
0.12369121275469114   0.012071562788171087   0.000909905575280381
0.12369121275469114   0.012071562788171087   0.000909905575280381
0.12369121275469114   0.012071562788171087   0.000909905575280381
0.27010495369348203   0.030068201705513383   0.0009535911936594662
0.27010495369348203   0.030068201705513383   0.0009535911936594662
0.27010495369348203   0.030068201705513383   0.0009535911936594662
0.27010495369348203   0.030068201705513383   0.0009535911936594662
-0.03318915206379845   -0.0164750869961797   0.001480260875868505
-0.03318915206379845   -0.0164750869961797   0.001480260875868505
-0.03318915206379845   -0.0164750869961797   0.001480260875868505
-0.03318915206379845   -0.0164750869961797   0.001480260875868505
-0.054213299349916186   -0.044357315114731684   -0.013951105851720338
-0.054213299349916186   -0.044357315114731684   -0.013951105851720338
-0.054213299349916186   -0.044357315114731684   -0.013951105851720338
-0.054213299349916186   -0.044357315114731684   -0.013951105851720338
0.2615298639692609   0.0386810116192458   0.020524986013213495
0.2615298639692609   0.0386810116192458   0.020524986013213495
0.2615298639692609   0.0386810116192458   0.020524986013213495
0.2615298639692609   0.0386810116192458   0.020524986013213495
0.10698704364274113   0.0017380990412107222   -0.004273884432279157
0.10698704364274113   0.0017380990412107222   -0.004273884432279157
0.10698704364274113   0.0017380990412107222   -0.004273884432279157
0.10698704364274113   0.0017380990412107222   -0.004273884432279157
0.2544013526164193   0.0207237705187752   0.002839670349478596
0.2544013526164193   0.0207237705187752   0.002839670349478596
0.2544013526164193   0.0207237705187752   0.002839670349478596
0.2544013526164193   0.0207237705187752   0.002839670349478596
-0.047192616610060335   -0.026507902627246414   0.003302895360073636
-0.047192616610060335   -0.026507902627246414   0.003302895360073636
-0.047192616610060335   -0.026507902627246414   0.003302895360073636
-0.047192616610060335   -0.026507902627246414   0.003302895360073636
-0.06755568914973888   -0.05162993218210342   -0.011234738088624732
-0.06755568914973888   -0.05162993218210342   -0.011234738088624732
-0.06755568914973888   -0.05162993218210342   -0.011234738088624732
-0.06755568914973888   -0.05162993218210342   -0.011234738088624732
0.24680249115431918   0.02906797758249031   0.02216854610057794
0.24680249115431918   0.02906797758249031   0.02216854610057794
0.24680249115431918   0.02906797758249031   0.02216854610057794
0.24680249115431918   0.02906797758249031   0.02216854610057794
0.09423126087495054   -0.006044366610439153   -0.008575625619540696
0.09423126087495054   -0.006044366610439153   -0.008575625619540696
0.09423126087495054   -0.006044366610439153   -0.008575625619540696
0.09423126087495054   -0.006044366610439153   -0.008575625619540696
-0.006899813469207518   0.04909078596053668   0.00686274164515397
-0.006899813469207518   0.04909078596053668   0.00686274164515397
-0.006899813469207518   0.04909078596053668   0.00686274164515397
-0.006899813469207518   0.04909078596053668   0.00686274164515397
-0.31157082005823855   -0.01377245962019371   -0.01033111453820366
-0.31157082005823855   -0.01377245962019371   -0.01033111453820366
-0.31157082005823855   -0.01377245962019371   -0.01033111453820366
-0.31157082005823855   -0.01377245962019371   -0.01033111453820366
-0.32554299550088733   -0.024998655610815067   -0.00808838960793106
-0.32554299550088733   -0.024998655610815067   -0.00808838960793106
-0.32554299550088733   -0.024998655610815067   -0.00808838960793106
-0.32554299550088733   -0.024998655610815067   -0.00808838960793106
-0.020614041707977947   0.03966100255714129   0.008219723101650065
-0.020614041707977947   0.03966100255714129   0.008219723101650065
-0.020614041707977947   0.03966100255714129   0.008219723101650065
-0.020614041707977947   0.03966100255714129   0.008219723101650065
-0.1657614326724334   0.012566921030563269   0.0032462636733872046
-0.1657614326724334   0.012566921030563269   0.0032462636733872046
-0.1657614326724334   0.012566921030563269   0.0032462636733872046
-0.1657614326724334   0.012566921030563269   0.0032462636733872046
-0.020352808029661357   0.039578698845914445   0.009608195204459852
-0.020352808029661357   0.039578698845914445   0.009608195204459852
-0.020352808029661357   0.039578698845914445   0.009608195204459852
-0.020352808029661357   0.039578698845914445   0.009608195204459852
-0.3255453171585009   -0.024657439878880055   -0.008441213627933757
-0.3255453171585009   -0.024657439878880055   -0.008441213627933757
-0.3255453171585009   -0.024657439878880055   -0.008441213627933757
-0.3255453171585009   -0.024657439878880055   -0.008441213627933757
-0.33939754173285797   -0.03442086672942571   -0.005570314381215878
-0.33939754173285797   -0.03442086672942571   -0.005570314381215878
-0.33939754173285797   -0.03442086672942571   -0.005570314381215878
-0.33939754173285797   -0.03442086672942571   -0.005570314381215878
-0.03471819136057465   0.0289147071370887   0.010252411843166945
-0.03471819136057465   0.0289147071370887   0.010252411843166945
-0.03471819136057465   0.0289147071370887   0.010252411843166945
-0.03471819136057465   0.0289147071370887   0.010252411843166945
-0.1797588174609606   0.003250214769320768   -0.0009505128993042185
-0.1797588174609606   0.003250214769320768   -0.0009505128993042185
-0.1797588174609606   0.003250214769320768   -0.0009505128993042185
-0.1797588174609606   0.003250214769320768   -0.0009505128993042185
-0.03417538054315842   0.030094885831853952   0.011786287235482836
-0.03417538054315842   0.030094885831853952   0.011786287235482836
-0.03417538054315842   0.030094885831853952   0.011786287235482836
-0.03417538054315842   0.030094885831853952   0.011786287235482836
-0.33986828669342484   -0.03552897956734098   -0.006815926346131228
-0.33986828669342484   -0.03552897956734098   -0.006815926346131228
-0.33986828669342484   -0.03552897956734098   -0.006815926346131228
-0.33986828669342484   -0.03552897956734098   -0.006815926346131228
-0.35308251873128066   -0.04302470360440504   -0.0030741352495756644
-0.35308251873128066   -0.04302470360440504   -0.0030741352495756644
-0.35308251873128066   -0.04302470360440504   -0.0030741352495756644
-0.35308251873128066   -0.04302470360440504   -0.0030741352495756644
-0.04888438599777288   0.018521436234267694   0.011970409254834141
-0.04888438599777288   0.018521436234267694   0.011970409254834141
-0.04888438599777288   0.018521436234267694   0.011970409254834141
-0.04888438599777288   0.018521436234267694   0.011970409254834141
-0.1944022001401135   -0.006142151942613819   -0.005627944235191381
-0.1944022001401135   -0.006142151942613819   -0.005627944235191381
-0.1944022001401135   -0.006142151942613819   -0.005627944235191381
-0.1944022001401135   -0.006142151942613819   -0.005627944235191381
-0.2925655147470643   0.05618009561039454   0.014742856787075286
-0.2925655147470643   0.05618009561039454   0.014742856787075286
-0.2925655147470643   0.05618009561039454   0.014742856787075286
-0.2925655147470643   0.05618009561039454   0.014742856787075286
-0.5977420154128819   -0.023463055851028453   -0.018565882007755392
-0.5977420154128819   -0.023463055851028453   -0.018565882007755392
-0.5977420154128819   -0.023463055851028453   -0.018565882007755392
-0.5977420154128819   -0.023463055851028453   -0.018565882007755392
-0.605365031999948   -0.016039939624068647   0.0014464672771634553
-0.605365031999948   -0.016039939624068647   0.0014464672771634553
-0.605365031999948   -0.016039939624068647   0.0014464672771634553
-0.605365031999948   -0.016039939624068647   0.0014464672771634553
-0.3136792969946264   0.028524804428337477   -0.0022933571157749896
-0.3136792969946264   0.028524804428337477   -0.0022933571157749896
-0.3136792969946264   0.028524804428337477   -0.0022933571157749896
-0.3136792969946264   0.028524804428337477   -0.0022933571157749896
-0.4493847139728415   0.011856338283875167   0.005495596883437925
-0.4493847139728415   0.011856338283875167   0.005495596883437925
-0.4493847139728415   0.011856338283875167   0.005495596883437925
-0.4493847139728415   0.011856338283875167   0.005495596883437925
-0.30604589033245266   0.04701190948223084   0.0173865711411963
-0.30604589033245266   0.04701190948223084   0.0173865711411963
-0.30604589033245266   0.04701190948223084   0.0173865711411963
-0.30604589033245266   0.04701190948223084   0.0173865711411963
-0.612935224603008   -0.03446383061885472   -0.01798060474335445
-0.612935224603008   -0.03446383061885472   -0.01798060474335445
-0.612935224603008   -0.03446383061885472   -0.01798060474335445
-0.612935224603008   -0.03446383061885472   -0.01798060474335445
-0.6215026840831342   -0.025567992164683292   0.0023751083831844745
-0.6215026840831342   -0.025567992164683292   0.0023751083831844745
-0.6215026840831342   -0.025567992164683292   0.0023751083831844745
-0.6215026840831342   -0.025567992164683292   0.0023751083831844745
-0.3277319284525703   0.01856994433481017   -0.00023305904400959185
-0.3277319284525703   0.01856994433481017   -0.00023305904400959185
-0.3277319284525703   0.01856994433481017   -0.00023305904400959185
-0.3277319284525703   0.01856994433481017   -0.00023305904400959185
-0.46117086363329546   0.0035741221107491866   0.001595709023126557
-0.46117086363329546   0.0035741221107491866   0.001595709023126557
-0.46117086363329546   0.0035741221107491866   0.001595709023126557
-0.46117086363329546   0.0035741221107491866   0.001595709023126557
-0.31977566384723666   0.038271693224460654   0.019846515093006462
-0.31977566384723666   0.038271693224460654   0.019846515093006462
-0.31977566384723666   0.038271693224460654   0.019846515093006462
-0.31977566384723666   0.038271693224460654   0.019846515093006462
-0.6290525476621575   -0.04486334002802479   -0.01607886164859727
-0.6290525476621575   -0.04486334002802479   -0.01607886164859727
-0.6290525476621575   -0.04486334002802479   -0.01607886164859727
-0.6290525476621575   -0.04486334002802479   -0.01607886164859727
-0.6361256258145824   -0.03584476279030957   0.0053666251387134295
-0.6361256258145824   -0.03584476279030957   0.0053666251387134295
-0.6361256258145824   -0.03584476279030957   0.0053666251387134295
-0.6361256258145824   -0.03584476279030957   0.0053666251387134295
-0.34218063452791   0.00715265180203048   0.0012579303608460345
-0.34218063452791   0.00715265180203048   0.0012579303608460345
-0.34218063452791   0.00715265180203048   0.0012579303608460345
-0.34218063452791   0.00715265180203048   0.0012579303608460345
-0.47925713681393234   -0.00687334101947365   -0.0033795163916901065
-0.47925713681393234   -0.00687334101947365   -0.0033795163916901065
-0.47925713681393234   -0.00687334101947365   -0.0033795163916901065
-0.47925713681393234   -0.00687334101947365   -0.0033795163916901065
-0.5751016124146255   0.0503882816778802   0.020784795454617727
-0.5751016124146255   0.0503882816778802   0.020784795454617727
-0.5751016124146255   0.0503882816778802   0.020784795454617727
-0.5751016124146255   0.0503882816778802   0.020784795454617727
-0.8704811910256226   -0.04024193484261018   -0.02029219202598044
-0.8704811910256226   -0.04024193484261018   -0.02029219202598044
-0.8704811910256226   -0.04024193484261018   -0.02029219202598044
-0.8704811910256226   -0.04024193484261018   -0.02029219202598044
-0.8799637265225319   -0.00908931024336046   0.019118809060585926
-0.8799637265225319   -0.00908931024336046   0.019118809060585926
-0.8799637265225319   -0.00908931024336046   0.019118809060585926
-0.8799637265225319   -0.00908931024336046   0.019118809060585926
-0.6018825313384476   0.014600337486048998   -0.011781306525452881
-0.6018825313384476   0.014600337486048998   -0.011781306525452881
-0.6018825313384476   0.014600337486048998   -0.011781306525452881
-0.6018825313384476   0.014600337486048998   -0.011781306525452881
-0.6994416493353193   0.011210300067132917   0.01721620822444142
-0.6994416493353193   0.011210300067132917   0.01721620822444142
-0.6994416493353193   0.011210300067132917   0.01721620822444142
-0.6994416493353193   0.011210300067132917   0.01721620822444142
-0.5874767870112457   0.05046155530508897   0.024386197291516636
-0.5874767870112457   0.05046155530508897   0.024386197291516636
-0.5874767870112457   0.05046155530508897   0.024386197291516636
-0.5874767870112457   0.05046155530508897   0.024386197291516636
-0.8941338317993607   -0.04471488901202053   -0.01610613855488742
-0.8941338317993607   -0.04471488901202053   -0.01610613855488742
-0.8941338317993607   -0.04471488901202053   -0.01610613855488742
-0.8941338317993607   -0.04471488901202053   -0.01610613855488742
-0.9011075183396547   -0.014122634160932679   0.02390544451043529
-0.9011075183396547   -0.014122634160932679   0.02390544451043529
-0.9011075183396547   -0.014122634160932679   0.02390544451043529
-0.9011075183396547   -0.014122634160932679   0.02390544451043529
-0.6170517086781901   0.00914427389820166   -0.01008228065497941
-0.6170517086781901   0.00914427389820166   -0.01008228065497941
-0.6170517086781901   0.00914427389820166   -0.01008228065497941
-0.6170517086781901   0.00914427389820166   -0.01008228065497941
-0.7291668375328407   0.0056076886382514235   0.010574798589833546
-0.7291668375328407   0.0056076886382514235   0.010574798589833546
-0.7291668375328407   0.0056076886382514235   0.010574798589833546
-0.7291668375328407   0.0056076886382514235   0.010574798589833546
-0.601771651622982   0.046713254986806174   0.02874902353245666
-0.601771651622982   0.046713254986806174   0.02874902353245666
-0.601771651622982   0.046713254986806174   0.02874902353245666
-0.601771651622982   0.046713254986806174   0.02874902353245666
-0.9159904760094918   -0.05129451586416489   -0.013337462135510438
-0.9159904760094918   -0.05129451586416489   -0.013337462135510438
-0.9159904760094918   -0.05129451586416489   -0.013337462135510438
-0.9159904760094918   -0.05129451586416489   -0.013337462135510438
-0.9290185418374259   -0.03215594933053448   0.023425087111412127
-0.9290185418374259   -0.03215594933053448   0.023425087111412127
-0.9290185418374259   -0.03215594933053448   0.023425087111412127
-0.9290185418374259   -0.03215594933053448   0.023425087111412127
-0.6330878442961712   -0.006146647574787306   -0.009142582484752512
-0.6330878442961712   -0.006146647574787306   -0.009142582484752512
-0.6330878442961712   -0.006146647574787306   -0.009142582484752512
-0.6330878442961712   -0.006146647574787306   -0.009142582484752512
-0.7365828544724774   -0.001408327495413697   0.008403170868843929
-0.7365828544724774   -0.001408327495413697   0.008403170868843929
-0.7365828544724774   -0.001408327495413697   0.008403170868843929
-0.7365828544724774   -0.001408327495413697   0.008403170868843929
0.40733442097187017   0.02321412089508891   -0.027085081153468107
0.40733442097187017   0.02321412089508891   -0.027085081153468107
0.40733442097187017   0.02321412089508891   -0.027085081153468107
0.40733442097187017   0.02321412089508891   -0.027085081153468107
0.1739679806079497   0.010742986184762278   0.011547706383760736
0.1739679806079497   0.010742986184762278   0.011547706383760736
0.1739679806079497   0.010742986184762278   0.011547706383760736
0.1739679806079497   0.010742986184762278   0.011547706383760736
0.14610943579218902   -0.039835242506891785   -0.025285112816549448
0.14610943579218902   -0.039835242506891785   -0.025285112816549448
0.14610943579218902   -0.039835242506891785   -0.025285112816549448
0.14610943579218902   -0.039835242506891785   -0.025285112816549448
0.39798890225631367   0.046017415981840566   0.01403943583205766
0.39798890225631367   0.046017415981840566   0.01403943583205766
0.39798890225631367   0.046017415981840566   0.01403943583205766
0.39798890225631367   0.046017415981840566   0.01403943583205766
0.2664588332564109   0.005887654768813998   -0.007273119937526043
0.2664588332564109   0.005887654768813998   -0.007273119937526043
0.2664588332564109   0.005887654768813998   -0.007273119937526043
0.2664588332564109   0.005887654768813998   -0.007273119937526043
0.38240175616436545   0.007420390334736751   -0.02529926898058318
0.38240175616436545   0.007420390334736751   -0.02529926898058318
0.38240175616436545   0.007420390334736751   -0.02529926898058318
0.38240175616436545   0.007420390334736751   -0.02529926898058318
0.161403106062461   -0.0015316926814643514   0.01287968870938576
0.161403106062461   -0.0015316926814643514   0.01287968870938576
0.161403106062461   -0.0015316926814643514   0.01287968870938576
0.161403106062461   -0.0015316926814643514   0.01287968870938576
0.13426412253843267   -0.04442044149024821   -0.02154845289485075
0.13426412253843267   -0.04442044149024821   -0.02154845289485075
0.13426412253843267   -0.04442044149024821   -0.02154845289485075
0.13426412253843267   -0.04442044149024821   -0.02154845289485075
0.3784866117926878   0.03950697529137207   0.018138622057736732
0.3784866117926878   0.03950697529137207   0.018138622057736732
0.3784866117926878   0.03950697529137207   0.018138622057736732
0.3784866117926878   0.03950697529137207   0.018138622057736732
0.25430747056605235   -0.001699301497757856   -0.011749040207929657
0.25430747056605235   -0.001699301497757856   -0.011749040207929657
0.25430747056605235   -0.001699301497757856   -0.011749040207929657
0.25430747056605235   -0.001699301497757856   -0.011749040207929657
0.3631442312900123   0.0015433415051528537   -0.02060964666942499
0.3631442312900123   0.0015433415051528537   -0.02060964666942499
0.3631442312900123   0.0015433415051528537   -0.02060964666942499
0.3631442312900123   0.0015433415051528537   -0.02060964666942499
0.14916875512501176   -0.006894555620125836   0.015448824167923219
0.14916875512501176   -0.006894555620125836   0.015448824167923219
0.14916875512501176   -0.006894555620125836   0.015448824167923219
0.14916875512501176   -0.006894555620125836   0.015448824167923219
0.12368923733535839   -0.04850030205474229   -0.017967760590660742
0.12368923733535839   -0.04850030205474229   -0.017967760590660742
0.12368923733535839   -0.04850030205474229   -0.017967760590660742
0.12368923733535839   -0.04850030205474229   -0.017967760590660742
0.35569629644334355   0.031006675958251302   0.02073819615090304
0.35569629644334355   0.031006675958251302   0.02073819615090304
0.35569629644334355   0.031006675958251302   0.02073819615090304
0.35569629644334355   0.031006675958251302   0.02073819615090304
0.23347207350414703   -0.007891007629121795   -0.017942407095557965
0.23347207350414703   -0.007891007629121795   -0.017942407095557965
0.23347207350414703   -0.007891007629121795   -0.017942407095557965
0.23347207350414703   -0.007891007629121795   -0.017942407095557965
0.1752899331562921   0.0336520167938188   -0.004751561483586711
0.1752899331562921   0.0336520167938188   -0.004751561483586711
0.1752899331562921   0.0336520167938188   -0.004751561483586711
0.1752899331562921   0.0336520167938188   -0.004751561483586711
-0.05335721351244643   0.0026727499137673017   0.0014868708542687642
-0.05335721351244643   0.0026727499137673017   0.0014868708542687642
-0.05335721351244643   0.0026727499137673017   0.0014868708542687642
-0.05335721351244643   0.0026727499137673017   0.0014868708542687642
-0.07240407468660776   -0.02773772968439176   -0.015618029942382509
-0.07240407468660776   -0.02773772968439176   -0.015618029942382509
-0.07240407468660776   -0.02773772968439176   -0.015618029942382509
-0.07240407468660776   -0.02773772968439176   -0.015618029942382509
0.1705760757182796   0.040410096781783526   0.016802747525230966
0.1705760757182796   0.040410096781783526   0.016802747525230966
0.1705760757182796   0.040410096781783526   0.016802747525230966
0.1705760757182796   0.040410096781783526   0.016802747525230966
0.05382349014938606   0.011649855042861474   0.0020758922698395055
0.05382349014938606   0.011649855042861474   0.0020758922698395055
0.05382349014938606   0.011649855042861474   0.0020758922698395055
0.05382349014938606   0.011649855042861474   0.0020758922698395055
0.1630232026567852   0.02196752297722622   -0.002519043977685558
0.1630232026567852   0.02196752297722622   -0.002519043977685558
0.1630232026567852   0.02196752297722622   -0.002519043977685558
0.1630232026567852   0.02196752297722622   -0.002519043977685558
-0.06496692743977207   -0.009410881694490919   0.0032408583018950794
-0.06496692743977207   -0.009410881694490919   0.0032408583018950794
-0.06496692743977207   -0.009410881694490919   0.0032408583018950794
-0.06496692743977207   -0.009410881694490919   0.0032408583018950794
-0.08341642005011518   -0.03694508067885822   -0.012659191457930543
-0.08341642005011518   -0.03694508067885822   -0.012659191457930543
-0.08341642005011518   -0.03694508067885822   -0.012659191457930543
-0.08341642005011518   -0.03694508067885822   -0.012659191457930543
0.1570628960558412   0.029755823297991542   0.018269149903952977
0.1570628960558412   0.029755823297991542   0.018269149903952977
0.1570628960558412   0.029755823297991542   0.018269149903952977
0.1570628960558412   0.029755823297991542   0.018269149903952977
0.04021434042853793   0.0011968788412399659   -0.002944839381042322
0.04021434042853793   0.0011968788412399659   -0.002944839381042322
0.04021434042853793   0.0011968788412399659   -0.002944839381042322
0.04021434042853793   0.0011968788412399659   -0.002944839381042322
0.1497489165660494   0.012092366738797954   -0.00063729098581429
0.1497489165660494   0.012092366738797954   -0.00063729098581429
0.1497489165660494   0.012092366738797954   -0.00063729098581429
0.1497489165660494   0.012092366738797954   -0.00063729098581429
-0.07639047862920204   -0.01956966218854326   0.005095097156322165
-0.07639047862920204   -0.01956966218854326   0.005095097156322165
-0.07639047862920204   -0.01956966218854326   0.005095097156322165
-0.07639047862920204   -0.01956966218854326   0.005095097156322165
-0.0942785075734608   -0.04556715817147153   -0.009926133941451289
-0.0942785075734608   -0.04556715817147153   -0.009926133941451289
-0.0942785075734608   -0.04556715817147153   -0.009926133941451289
-0.0942785075734608   -0.04556715817147153   -0.009926133941451289
0.1448687810907825   0.019551596372181575   0.019878059759538852
0.1448687810907825   0.019551596372181575   0.019878059759538852
0.1448687810907825   0.019551596372181575   0.019878059759538852
0.1448687810907825   0.019551596372181575   0.019878059759538852
0.02933193777072079   -0.007436371712529176   -0.007366438547341135
0.02933193777072079   -0.007436371712529176   -0.007366438547341135
0.02933193777072079   -0.007436371712529176   -0.007366438547341135
0.02933193777072079   -0.007436371712529176   -0.007366438547341135
-0.044927303453695125   0.04240358401726185   0.0039055870445307405
-0.044927303453695125   0.04240358401726185   0.0039055870445307405
-0.044927303453695125   0.04240358401726185   0.0039055870445307405
-0.044927303453695125   0.04240358401726185   0.0039055870445307405
-0.2772673815360668   -0.007240661588566233   -0.008456483379135796
-0.2772673815360668   -0.007240661588566233   -0.008456483379135796
-0.2772673815360668   -0.007240661588566233   -0.008456483379135796
-0.2772673815360668   -0.007240661588566233   -0.008456483379135796
-0.28814979953532405   -0.016738101386014947   -0.0062400387867850085
-0.28814979953532405   -0.016738101386014947   -0.0062400387867850085
-0.28814979953532405   -0.016738101386014947   -0.0062400387867850085
-0.28814979953532405   -0.016738101386014947   -0.0062400387867850085
-0.0562666087709328   0.030800940109817307   0.006530629841781302
-0.0562666087709328   0.030800940109817307   0.006530629841781302
-0.0562666087709328   0.030800940109817307   0.006530629841781302
-0.0562666087709328   0.030800940109817307   0.006530629841781302
-0.16624318277776154   0.01210417845262577   0.003307798475990914
-0.16624318277776154   0.01210417845262577   0.003307798475990914
-0.16624318277776154   0.01210417845262577   0.003307798475990914
-0.16624318277776154   0.01210417845262577   0.003307798475990914
-0.05593853224409461   0.03228879195562186   0.006683160630169585
-0.05593853224409461   0.03228879195562186   0.006683160630169585
-0.05593853224409461   0.03228879195562186   0.006683160630169585
-0.05593853224409461   0.03228879195562186   0.006683160630169585
-0.28851384748254805   -0.01826192465220757   -0.0065364552567124794
-0.28851384748254805   -0.01826192465220757   -0.0065364552567124794
-0.28851384748254805   -0.01826192465220757   -0.0065364552567124794
-0.28851384748254805   -0.01826192465220757   -0.0065364552567124794
-0.2992789718416588   -0.02677002358908266   -0.0036104613066056737
-0.2992789718416588   -0.02677002358908266   -0.0036104613066056737
-0.2992789718416588   -0.02677002358908266   -0.0036104613066056737
-0.2992789718416588   -0.02677002358908266   -0.0036104613066056737
-0.06782433457541005   0.019837168352559314   0.008518986884177529
-0.06782433457541005   0.019837168352559314   0.008518986884177529
-0.06782433457541005   0.019837168352559314   0.008518986884177529
-0.06782433457541005   0.019837168352559314   0.008518986884177529
-0.17768375798253289   0.002322825082800288   -0.001001335795620754
-0.17768375798253289   0.002322825082800288   -0.001001335795620754
-0.17768375798253289   0.002322825082800288   -0.001001335795620754
-0.17768375798253289   0.002322825082800288   -0.001001335795620754
-0.06725872228970162   0.02216080159640509   0.009023415068875874
-0.06725872228970162   0.02216080159640509   0.009023415068875874
-0.06725872228970162   0.02216080159640509   0.009023415068875874
-0.06725872228970162   0.02216080159640509   0.009023415068875874
-0.30002939027476155   -0.029278462980322426   -0.0048541140808796325
-0.30002939027476155   -0.029278462980322426   -0.0048541140808796325
-0.30002939027476155   -0.029278462980322426   -0.0048541140808796325
-0.30002939027476155   -0.029278462980322426   -0.0048541140808796325
-0.3102145534849738   -0.03634849570034783   -0.0010490829310425796
-0.3102145534849738   -0.03634849570034783   -0.0010490829310425796
-0.3102145534849738   -0.03634849570034783   -0.0010490829310425796
-0.3102145534849738   -0.03634849570034783   -0.0010490829310425796
-0.07928941004893271   0.009185793499692584   0.010266402010023198
-0.07928941004893271   0.009185793499692584   0.010266402010023198
-0.07928941004893271   0.009185793499692584   0.010266402010023198
-0.07928941004893271   0.009185793499692584   0.010266402010023198
-0.1896009844587243   -0.0074672197169235385   -0.005675441116112975
-0.1896009844587243   -0.0074672197169235385   -0.005675441116112975
-0.1896009844587243   -0.0074672197169235385   -0.005675441116112975
-0.1896009844587243   -0.0074672197169235385   -0.005675441116112975
-0.26165992920542325   0.04994546760759787   0.012394649077917715
-0.26165992920542325   0.04994546760759787   0.012394649077917715
-0.26165992920542325   0.04994546760759787   0.012394649077917715
-0.26165992920542325   0.04994546760759787   0.012394649077917715
-0.49744340626016753   -0.017130658756170106   -0.017138490771915198
-0.49744340626016753   -0.017130658756170106   -0.017138490771915198
-0.49744340626016753   -0.017130658756170106   -0.017138490771915198
-0.49744340626016753   -0.017130658756170106   -0.017138490771915198
-0.5015162786185562   -0.007822442884406616   0.003807387944434297
-0.5015162786185562   -0.007822442884406616   0.003807387944434297
-0.5015162786185562   -0.007822442884406616   0.003807387944434297
-0.5015162786185562   -0.007822442884406616   0.003807387944434297
-0.28025199671564976   0.020096790019089206   -0.003585916093521501
-0.28025199671564976   0.020096790019089206   -0.003585916093521501
-0.28025199671564976   0.020096790019089206   -0.003585916093521501
-0.28025199671564976   0.020096790019089206   -0.003585916093521501
-0.3829121089478046   0.011375823158249448   0.004787651821306794
-0.3829121089478046   0.011375823158249448   0.004787651821306794
-0.3829121089478046   0.011375823158249448   0.004787651821306794
-0.3829121089478046   0.011375823158249448   0.004787651821306794
-0.27247167027030444   0.040256252022347054   0.015156254129950954
-0.27247167027030444   0.040256252022347054   0.015156254129950954
-0.27247167027030444   0.040256252022347054   0.015156254129950954
-0.27247167027030444   0.040256252022347054   0.015156254129950954
-0.5096442467063382   -0.028329546530101904   -0.016325348848788602
-0.5096442467063382   -0.028329546530101904   -0.016325348848788602
-0.5096442467063382   -0.028329546530101904   -0.016325348848788602
-0.5096442467063382   -0.028329546530101904   -0.016325348848788602
-0.5146442357549089   -0.01776232654880032   0.005017893840276445
-0.5146442357549089   -0.01776232654880032   0.005017893840276445
-0.5146442357549089   -0.01776232654880032   0.005017893840276445
-0.5146442357549089   -0.01776232654880032   0.005017893840276445
-0.29150214491055687   0.009987816309742104   -0.0014841665499244934
-0.29150214491055687   0.009987816309742104   -0.0014841665499244934
-0.29150214491055687   0.009987816309742104   -0.0014841665499244934
-0.29150214491055687   0.009987816309742104   -0.0014841665499244934
-0.3925066304073178   0.0025273862533973374   0.00047330519204601823
-0.3925066304073178   0.0025273862533973374   0.00047330519204601823
-0.3925066304073178   0.0025273862533973374   0.00047330519204601823
-0.3925066304073178   0.0025273862533973374   0.00047330519204601823
-0.2834402863083157   0.031031227605557057   0.017781715165470214
-0.2834402863083157   0.031031227605557057   0.017781715165470214
-0.2834402863083157   0.031031227605557057   0.017781715165470214
-0.2834402863083157   0.031031227605557057   0.017781715165470214
-0.5227405270864508   -0.038840170573912924   -0.014385718792320982
-0.5227405270864508   -0.038840170573912924   -0.014385718792320982
-0.5227405270864508   -0.038840170573912924   -0.014385718792320982
-0.5227405270864508   -0.038840170573912924   -0.014385718792320982
-0.5263183208453481   -0.028373272072450453   0.007765997305879468
-0.5263183208453481   -0.028373272072450453   0.007765997305879468
-0.5263183208453481   -0.028373272072450453   0.007765997305879468
-0.5263183208453481   -0.028373272072450453   0.007765997305879468
-0.30295190431711755   -0.0012511737490217972   0.00016684095690909853
-0.30295190431711755   -0.0012511737490217972   0.00016684095690909853
-0.30295190431711755   -0.0012511737490217972   0.00016684095690909853
-0.30295190431711755   -0.0012511737490217972   0.00016684095690909853
-0.40701211947538923   -0.007791929804472894   -0.004553634745883817
-0.40701211947538923   -0.007791929804472894   -0.004553634745883817
-0.40701211947538923   -0.007791929804472894   -0.004553634745883817
-0.40701211947538923   -0.007791929804472894   -0.004553634745883817
-0.4774362309459625   0.04631570082258829   0.019451026220351816
-0.4774362309459625   0.04631570082258829   0.019451026220351816
-0.4774362309459625   0.04631570082258829   0.019451026220351816
-0.4774362309459625   0.04631570082258829   0.019451026220351816
-0.7051325226705828   -0.03256357095732734   -0.022090821920346032
-0.7051325226705828   -0.03256357095732734   -0.022090821920346032
-0.7051325226705828   -0.03256357095732734   -0.022090821920346032
-0.7051325226705828   -0.03256357095732734   -0.022090821920346032
-0.7117990537115754   -0.0011751887525163762   0.019257584654847962
-0.7117990537115754   -0.0011751887525163762   0.019257584654847962
-0.7117990537115754   -0.0011751887525163762   0.019257584654847962
-0.7117990537115754   -0.0011751887525163762   0.019257584654847962
-0.5019432495305259   0.007052015145767157   -0.013201924645599612
-0.5019432495305259   0.007052015145767157   -0.013201924645599612
-0.5019432495305259   0.007052015145767157   -0.013201924645599612
-0.5019432495305259   0.007052015145767157   -0.013201924645599612
-0.5726787923600911   0.010624738084299146   0.01457707024372256
-0.5726787923600911   0.010624738084299146   0.01457707024372256
-0.5726787923600911   0.010624738084299146   0.01457707024372256
-0.5726787923600911   0.010624738084299146   0.01457707024372256
-0.48722798865622124   0.0444773219182705   0.022949072953428143
-0.48722798865622124   0.0444773219182705   0.022949072953428143
-0.48722798865622124   0.0444773219182705   0.022949072953428143
-0.48722798865622124   0.0444773219182705   0.022949072953428143
-0.7268136256995001   -0.03889980663863547   -0.01809065739865375
-0.7268136256995001   -0.03889980663863547   -0.01809065739865375
-0.7268136256995001   -0.03889980663863547   -0.01809065739865375
-0.7268136256995001   -0.03889980663863547   -0.01809065739865375
-0.730371736744794   -0.006651483262955504   0.02425896160583873
-0.730371736744794   -0.006651483262955504   0.02425896160583873
-0.730371736744794   -0.006651483262955504   0.02425896160583873
-0.730371736744794   -0.006651483262955504   0.02425896160583873
-0.5140406191081579   0.001510303790296444   -0.011236653265073056
-0.5140406191081579   0.001510303790296444   -0.011236653265073056
-0.5140406191081579   0.001510303790296444   -0.011236653265073056
-0.5140406191081579   0.001510303790296444   -0.011236653265073056
-0.5978722016474701   0.0043440849732206965   0.007743497759517548
-0.5978722016474701   0.0043440849732206965   0.007743497759517548
-0.5978722016474701   0.0043440849732206965   0.007743497759517548
-0.5978722016474701   0.0043440849732206965   0.007743497759517548
-0.49864055811070596   0.04024812603766037   0.02702582947483006
-0.49864055811070596   0.04024812603766037   0.02702582947483006
-0.49864055811070596   0.04024812603766037   0.02702582947483006
-0.49864055811070596   0.04024812603766037   0.02702582947483006
-0.7459868519359654   -0.04560435970403577   -0.014863737908926557
-0.7459868519359654   -0.04560435970403577   -0.014863737908926557
-0.7459868519359654   -0.04560435970403577   -0.014863737908926557
-0.7459868519359654   -0.04560435970403577   -0.014863737908926557
-0.7552172236336038   -0.02388415483627432   0.024299260545245074
-0.7552172236336038   -0.02388415483627432   0.024299260545245074
-0.7552172236336038   -0.02388415483627432   0.024299260545245074
-0.7552172236336038   -0.02388415483627432   0.024299260545245074
-0.5267111158166962   -0.012632872666443015   -0.009938376956875883
-0.5267111158166962   -0.012632872666443015   -0.009938376956875883
-0.5267111158166962   -0.012632872666443015   -0.009938376956875883
-0.5267111158166962   -0.012632872666443015   -0.009938376956875883
-0.604798379273569   -0.0028594500716924154   0.004530457676627374
-0.604798379273569   -0.0028594500716924154   0.004530457676627374
-0.604798379273569   -0.0028594500716924154   0.004530457676627374
-0.604798379273569   -0.0028594500716924154   0.004530457676627374
0.2269279688394218   0.013698120567465388   -0.02663660993419576
0.2269279688394218   0.013698120567465388   -0.02663660993419576
0.2269279688394218   0.013698120567465388   -0.02663660993419576
0.2269279688394218   0.013698120567465388   -0.02663660993419576
0.06683858722088523   0.01587104437598034   0.012671032677391017
0.06683858722088523   0.01587104437598034   0.012671032677391017
0.06683858722088523   0.01587104437598034   0.012671032677391017
0.06683858722088523   0.01587104437598034   0.012671032677391017
0.042085750304189595   -0.03267350933102877   -0.023512038780149593
0.042085750304189595   -0.03267350933102877   -0.023512038780149593
0.042085750304189595   -0.03267350933102877   -0.023512038780149593
0.042085750304189595   -0.03267350933102877   -0.023512038780149593
0.22086860196053448   0.03817769984784054   0.015242411036266432
0.22086860196053448   0.03817769984784054   0.015242411036266432
0.22086860196053448   0.03817769984784054   0.015242411036266432
0.22086860196053448   0.03817769984784054   0.015242411036266432
0.13108743847377338   0.006385187402771421   -0.0030055081132048965
0.13108743847377338   0.006385187402771421   -0.0030055081132048965
0.13108743847377338   0.006385187402771421   -0.0030055081132048965
0.13108743847377338   0.006385187402771421   -0.0030055081132048965
0.20524721448331715   -0.00023014503297472816   -0.02445668146900694
0.20524721448331715   -0.00023014503297472816   -0.02445668146900694
0.20524721448331715   -0.00023014503297472816   -0.02445668146900694
0.20524721448331715   -0.00023014503297472816   -0.02445668146900694
0.05722012150922533   0.005247319277604648   0.0142389886363961
0.05722012150922533   0.005247319277604648   0.0142389886363961
0.05722012150922533   0.005247319277604648   0.0142389886363961
0.05722012150922533   0.005247319277604648   0.0142389886363961
0.03275125179451842   -0.03726738525144909   -0.019997820658199703
0.03275125179451842   -0.03726738525144909   -0.019997820658199703
0.03275125179451842   -0.03726738525144909   -0.019997820658199703
0.03275125179451842   -0.03726738525144909   -0.019997820658199703
0.20408719119969346   0.03184250592265498   0.019621394114501332
0.20408719119969346   0.03184250592265498   0.019621394114501332
0.20408719119969346   0.03184250592265498   0.019621394114501332
0.20408719119969346   0.03184250592265498   0.019621394114501332
0.11945523563506863   -0.0008071540501865017   -0.007647046261464876
0.11945523563506863   -0.0008071540501865017   -0.007647046261464876
0.11945523563506863   -0.0008071540501865017   -0.007647046261464876
0.11945523563506863   -0.0008071540501865017   -0.007647046261464876
0.18854365971136597   -0.006133409181115906   -0.020120348223366006
0.18854365971136597   -0.006133409181115906   -0.020120348223366006
0.18854365971136597   -0.006133409181115906   -0.020120348223366006
0.18854365971136597   -0.006133409181115906   -0.020120348223366006
0.04763924335429947   5.2989923772794184e-05   0.017121761965484386
0.04763924335429947   5.2989923772794184e-05   0.017121761965484386
0.04763924335429947   5.2989923772794184e-05   0.017121761965484386
0.04763924335429947   5.2989923772794184e-05   0.017121761965484386
0.02441330400108146   -0.042731492444742   -0.01666965342178607
0.02441330400108146   -0.042731492444742   -0.01666965342178607
0.02441330400108146   -0.042731492444742   -0.01666965342178607
0.02441330400108146   -0.042731492444742   -0.01666965342178607
0.18328445430217058   0.02176013859981199   0.021817692533404442
0.18328445430217058   0.02176013859981199   0.021817692533404442
0.18328445430217058   0.02176013859981199   0.021817692533404442
0.18328445430217058   0.02176013859981199   0.021817692533404442
0.10317262934776181   -0.007179441042120073   -0.013357996788695013
0.10317262934776181   -0.007179441042120073   -0.013357996788695013
0.10317262934776181   -0.007179441042120073   -0.013357996788695013
0.10317262934776181   -0.007179441042120073   -0.013357996788695013
0.06449250519762924   0.024423044060289063   -0.007611377123198097
0.06449250519762924   0.024423044060289063   -0.007611377123198097
0.06449250519762924   0.024423044060289063   -0.007611377123198097
0.06449250519762924   0.024423044060289063   -0.007611377123198097
-0.0899552391555882   0.007646285449085091   0.003019442402935932
-0.0899552391555882   0.007646285449085091   0.003019442402935932
-0.0899552391555882   0.007646285449085091   0.003019442402935932
-0.0899552391555882   0.007646285449085091   0.003019442402935932
-0.10590906677451152   -0.020999053310417123   -0.013757860442981138
-0.10590906677451152   -0.020999053310417123   -0.013757860442981138
-0.10590906677451152   -0.020999053310417123   -0.013757860442981138
-0.10590906677451152   -0.020999053310417123   -0.013757860442981138
0.06230850148277929   0.030281167605997326   0.014647040175773228
0.06230850148277929   0.030281167605997326   0.014647040175773228
0.06230850148277929   0.030281167605997326   0.014647040175773228
0.06230850148277929   0.030281167605997326   0.014647040175773228
-0.017814946286399565   0.0098970585682932   0.002566210076588938
-0.017814946286399565   0.0098970585682932   0.002566210076588938
-0.017814946286399565   0.0098970585682932   0.002566210076588938
-0.017814946286399565   0.0098970585682932   0.002566210076588938
0.05475866051999216   0.012768220692208211   -0.005589217724373494
0.05475866051999216   0.012768220692208211   -0.005589217724373494
0.05475866051999216   0.012768220692208211   -0.005589217724373494
0.05475866051999216   0.012768220692208211   -0.005589217724373494
-0.0987782022317448   -0.003905082816643337   0.004802491777078662
-0.0987782022317448   -0.003905082816643337   0.004802491777078662
-0.0987782022317448   -0.003905082816643337   0.004802491777078662
-0.0987782022317448   -0.003905082816643337   0.004802491777078662
-0.11425626354846115   -0.03032167199984211   -0.010799166980912973
-0.11425626354846115   -0.03032167199984211   -0.010799166980912973
-0.11425626354846115   -0.03032167199984211   -0.010799166980912973
-0.11425626354846115   -0.03032167199984211   -0.010799166980912973
0.05135762086510225   0.01979134565935043   0.015975293783920638
0.05135762086510225   0.01979134565935043   0.015975293783920638
0.05135762086510225   0.01979134565935043   0.015975293783920638
0.05135762086510225   0.01979134565935043   0.015975293783920638
-0.02814584059124551   -0.0001914928203581058   -0.0022718366181503987
-0.02814584059124551   -0.0001914928203581058   -0.0022718366181503987
-0.02814584059124551   -0.0001914928203581058   -0.0022718366181503987
-0.02814584059124551   -0.0001914928203581058   -0.0022718366181503987
0.04402793618854763   0.002765537129868074   -0.0036473210693708236
0.04402793618854763   0.002765537129868074   -0.0036473210693708236
0.04402793618854763   0.002765537129868074   -0.0036473210693708236
0.04402793618854763   0.002765537129868074   -0.0036473210693708236
-0.10746941283127062   -0.01383869742972654   0.006652112034924009
-0.10746941283127062   -0.01383869742972654   0.006652112034924009
-0.10746941283127062   -0.01383869742972654   0.006652112034924009
-0.10746941283127062   -0.01383869742972654   0.006652112034924009
-0.1225375418944373   -0.03953057998809406   -0.008126499056634859
-0.1225375418944373   -0.03953057998809406   -0.008126499056634859
-0.1225375418944373   -0.03953057998809406   -0.008126499056634859
-0.1225375418944373   -0.03953057998809406   -0.008126499056634859
0.04176870105531417   0.00953231990308601   0.01784351950154997
0.04176870105531417   0.00953231990308601   0.01784351950154997
0.04176870105531417   0.00953231990308601   0.01784351950154997
0.04176870105531417   0.00953231990308601   0.01784351950154997
-0.03705353117445012   -0.00917932025944919   -0.006828041349463737
-0.03705353117445012   -0.00917932025944919   -0.006828041349463737
-0.03705353117445012   -0.00917932025944919   -0.006828041349463737
-0.03705353117445012   -0.00917932025944919   -0.006828041349463737
-0.08522935109319192   0.03309772900719697   0.0011974391568054105
-0.08522935109319192   0.03309772900719697   0.0011974391568054105
-0.08522935109319192   0.03309772900719697   0.0011974391568054105
-0.08522935109319192   0.03309772900719697   0.0011974391568054105
-0.24456840913781427   -0.0031258345913021263   -0.006773532049778775
-0.24456840913781427   -0.0031258345913021263   -0.006773532049778775
-0.24456840913781427   -0.0031258345913021263   -0.006773532049778775
-0.24456840913781427   -0.0031258345913021263   -0.006773532049778775
-0.2521009241743934   -0.01048652172609231   -0.004072363934306147
-0.2521009241743934   -0.01048652172609231   -0.004072363934306147
-0.2521009241743934   -0.01048652172609231   -0.004072363934306147
-0.2521009241743934   -0.01048652172609231   -0.004072363934306147
-0.09403515722598053   0.019948693575180268   0.004663940414076402
-0.09403515722598053   0.019948693575180268   0.004663940414076402
-0.09403515722598053   0.019948693575180268   0.004663940414076402
-0.09403515722598053   0.019948693575180268   0.004663940414076402
-0.16857694628272496   0.009640010305334283   0.0026447902597813624
-0.16857694628272496   0.009640010305334283   0.0026447902597813624
-0.16857694628272496   0.009640010305334283   0.0026447902597813624
-0.16857694628272496   0.009640010305334283   0.0026447902597813624
-0.09360171668637006   0.022819799913196173   0.003960036774112901
-0.09360171668637006   0.022819799913196173   0.003960036774112901
-0.09360171668637006   0.022819799913196173   0.003960036774112901
-0.09360171668637006   0.022819799913196173   0.003960036774112901
-0.2529026979375519   -0.01372596128765912   -0.004841793188533835
-0.2529026979375519   -0.01372596128765912   -0.004841793188533835
-0.2529026979375519   -0.01372596128765912   -0.004841793188533835
-0.2529026979375519   -0.01372596128765912   -0.004841793188533835
-0.26041470549319923   -0.02066411624324404   -0.001397065177050013
-0.26041470549319923   -0.02066411624324404   -0.001397065177050013
-0.26041470549319923   -0.02066411624324404   -0.001397065177050013
-0.26041470549319923   -0.02066411624324404   -0.001397065177050013
-0.1028436820992006   0.009309713248859538   0.0066323550166880775
-0.1028436820992006   0.009309713248859538   0.0066323550166880775
-0.1028436820992006   0.009309713248859538   0.0066323550166880775
-0.1028436820992006   0.009309713248859538   0.0066323550166880775
-0.17724764297612158   -3.462038732273548e-05   -0.0016872750198150665
-0.17724764297612158   -3.462038732273548e-05   -0.0016872750198150665
-0.17724764297612158   -3.462038732273548e-05   -0.0016872750198150665
-0.17724764297612158   -3.462038732273548e-05   -0.0016872750198150665
-0.10226194994404535   0.012513328091884601   0.006337400949439263
-0.10226194994404535   0.012513328091884601   0.006337400949439263
-0.10226194994404535   0.012513328091884601   0.006337400949439263
-0.10226194994404535   0.012513328091884601   0.006337400949439263
-0.2615194695252857   -0.02439076296320067   -0.0031942386175278226
-0.2615194695252857   -0.02439076296320067   -0.0031942386175278226
-0.2615194695252857   -0.02439076296320067   -0.0031942386175278226
-0.2615194695252857   -0.02439076296320067   -0.0031942386175278226
-0.2685637675949471   -0.03048272687633894   0.001198157675879958
-0.2685637675949471   -0.03048272687633894   0.001198157675879958
-0.2685637675949471   -0.03048272687633894   0.001198157675879958
-0.2685637675949471   -0.03048272687633894   0.001198157675879958
-0.11150769399668002   -0.0009333623697749399   0.008425522813832348
-0.11150769399668002   -0.0009333623697749399   0.008425522813832348
-0.11150769399668002   -0.0009333623697749399   0.008425522813832348
-0.11150769399668002   -0.0009333623697749399   0.008425522813832348
-0.18637510728425222   -0.009729508369835452   -0.006393202856420727
-0.18637510728425222   -0.009729508369835452   -0.006393202856420727
-0.18637510728425222   -0.009729508369835452   -0.006393202856420727
-0.18637510728425222   -0.009729508369835452   -0.006393202856420727
-0.23225647148398756   0.04138874223254958   0.01027157939550321
-0.23225647148398756   0.04138874223254958   0.01027157939550321
-0.23225647148398756   0.04138874223254958   0.01027157939550321
-0.23225647148398756   0.04138874223254958   0.01027157939550321
-0.39600343577508934   -0.012029902535893616   -0.015374566017734227
-0.39600343577508934   -0.012029902535893616   -0.015374566017734227
-0.39600343577508934   -0.012029902535893616   -0.015374566017734227
-0.39600343577508934   -0.012029902535893616   -0.015374566017734227
-0.3967415811185036   -0.0012482733762988613   0.006178351332392026
-0.3967415811185036   -0.0012482733762988613   0.006178351332392026
-0.3967415811185036   -0.0012482733762988613   0.006178351332392026
-0.3967415811185036   -0.0012482733762988613   0.006178351332392026
-0.2480916104626956   0.010283906912150954   -0.004796224014064425
-0.2480916104626956   0.010283906912150954   -0.004796224014064425
-0.2480916104626956   0.010283906912150954   -0.004796224014064425
-0.2480916104626956   0.010283906912150954   -0.004796224014064425
-0.3166262618817649   0.00957014665455655   0.003453525315211682
-0.3166262618817649   0.00957014665455655   0.003453525315211682
-0.3166262618817649   0.00957014665455655   0.003453525315211682
-0.3166262618817649   0.00957014665455655   0.003453525315211682
-0.24029819900502575   0.03141306734767187   0.013041672838767868
-0.24029819900502575   0.03141306734767187   0.013041672838767868
-0.24029819900502575   0.03141306734767187   0.013041672838767868
-0.24029819900502575   0.03141306734767187   0.013041672838767868
-0.4052395785097693   -0.02308201974541306   -0.014477889254826189
-0.4052395785097693   -0.02308201974541306   -0.014477889254826189
-0.4052395785097693   -0.02308201974541306   -0.014477889254826189
-0.4052395785097693   -0.02308201974541306   -0.014477889254826189
-0.40698242871960777   -0.011288356594966242   0.007615252735584627
-0.40698242871960777   -0.011288356594966242   0.007615252735584627
-0.40698242871960777   -0.011288356594966242   0.007615252735584627
-0.40698242871960777   -0.011288356594966242   0.007615252735584627
-0.2564490797718912   0.00047735373675882736   -0.002710406550518192
-0.2564490797718912   0.00047735373675882736   -0.002710406550518192
-0.2564490797718912   0.00047735373675882736   -0.002710406550518192
-0.2564490797718912   0.00047735373675882736   -0.002710406550518192
-0.32397044958627963   0.0005676858584323374   -0.0010840590653901534
-0.32397044958627963   0.0005676858584323374   -0.0010840590653901534
-0.32397044958627963   0.0005676858584323374   -0.0010840590653901534
-0.32397044958627963   0.0005676858584323374   -0.0010840590653901534
-0.24844926157349542   0.022040361602319654   0.01572567657590181
-0.24844926157349542   0.022040361602319654   0.01572567657590181
-0.24844926157349542   0.022040361602319654   0.01572567657590181
-0.24844926157349542   0.022040361602319654   0.01572567657590181
-0.4154223314977237   -0.03329144904024495   -0.012581168709719988
-0.4154223314977237   -0.03329144904024495   -0.012581168709719988
-0.4154223314977237   -0.03329144904024495   -0.012581168709719988
-0.4154223314977237   -0.03329144904024495   -0.012581168709719988
-0.41581582039641957   -0.02177486856684413   0.010412282947099411
-0.41581582039641957   -0.02177486856684413   0.010412282947099411
-0.41581582039641957   -0.02177486856684413   0.010412282947099411
-0.41581582039641957   -0.02177486856684413   0.010412282947099411
-0.2649142606759474   -0.010034991958703866   -0.0010020426467608045
-0.2649142606759474   -0.010034991958703866   -0.0010020426467608045
-0.2649142606759474   -0.010034991958703866   -0.0010020426467608045
-0.2649142606759474   -0.010034991958703866   -0.0010020426467608045
-0.3349663376161903   -0.00928272116127385   -0.006045470318812092
-0.3349663376161903   -0.00928272116127385   -0.006045470318812092
-0.3349663376161903   -0.00928272116127385   -0.006045470318812092
-0.3349663376161903   -0.00928272116127385   -0.006045470318812092
-0.37873131890701306   0.040771714447339374   0.01818440133941779
-0.37873131890701306   0.040771714447339374   0.01818440133941779
-0.37873131890701306   0.040771714447339374   0.01818440133941779
-0.37873131890701306   0.040771714447339374   0.01818440133941779
-0.534161398007709   -0.024706500049638577   -0.023162143172456098
-0.534161398007709   -0.024706500049638577   -0.023162143172456098
-0.534161398007709   -0.024706500049638577   -0.023162143172456098
-0.534161398007709   -0.024706500049638577   -0.023162143172456098
-0.5380048111362064   0.006301640280576018   0.019107762634109914
-0.5380048111362064   0.006301640280576018   0.019107762634109914
-0.5380048111362064   0.006301640280576018   0.019107762634109914
-0.5380048111362064   0.006301640280576018   0.019107762634109914
-0.4007491937871772   -0.000991873561921458   -0.01411611182535738
-0.4007491937871772   -0.000991873561921458   -0.01411611182535738
-0.4007491937871772   -0.000991873561921458   -0.01411611182535738
-0.4007491937871772   -0.000991873561921458   -0.01411611182535738
-0.44297147535088544   0.009651121800313398   0.010823076718485366
-0.44297147535088544   0.009651121800313398   0.010823076718485366
-0.44297147535088544   0.009651121800313398   0.010823076718485366
-0.44297147535088544   0.009651121800313398   0.010823076718485366
-0.38598886862760784   0.03718500361465556   0.021508636795908972
-0.38598886862760784   0.03718500361465556   0.021508636795908972
-0.38598886862760784   0.03718500361465556   0.021508636795908972
-0.38598886862760784   0.03718500361465556   0.021508636795908972
-0.5535172080147124   -0.03262730861493757   -0.0195252728629028
-0.5535172080147124   -0.03262730861493757   -0.0195252728629028
-0.5535172080147124   -0.03262730861493757   -0.0195252728629028
-0.5535172080147124   -0.03262730861493757   -0.0195252728629028
-0.5539785806603797   0.0006471924169230842   0.024385751420282046
-0.5539785806603797   0.0006471924169230842   0.024385751420282046
-0.5539785806603797   0.0006471924169230842   0.024385751420282046
-0.5539785806603797   0.0006471924169230842   0.024385751420282046
-0.40996013524122793   -0.006463366512879196   -0.012098269954611243
-0.40996013524122793   -0.006463366512879196   -0.012098269954611243
-0.40996013524122793   -0.006463366512879196   -0.012098269954611243
-0.40996013524122793   -0.006463366512879196   -0.012098269954611243
-0.4634886746856715   0.00297853685424275   0.004031390768227953
-0.4634886746856715   0.00297853685424275   0.004031390768227953
-0.4634886746856715   0.00297853685424275   0.004031390768227953
-0.4634886746856715   0.00297853685424275   0.004031390768227953
-0.3945819591072855   0.03276267940327557   0.02556656479895016
-0.3945819591072855   0.03276267940327557   0.02556656479895016
-0.3945819591072855   0.03276267940327557   0.02556656479895016
-0.3945819591072855   0.03276267940327557   0.02556656479895016
-0.5700642442329734   -0.039286340937882094   -0.01610903308788036
-0.5700642442329734   -0.039286340937882094   -0.01610903308788036
-0.5700642442329734   -0.039286340937882094   -0.01610903308788036
-0.5700642442329734   -0.039286340937882094   -0.01610903308788036
-0.5760478918920042   -0.015482882585411348   0.025148349523590408
-0.5760478918920042   -0.015482882585411348   0.025148349523590408
-0.5760478918920042   -0.015482882585411348   0.025148349523590408
-0.5760478918920042   -0.015482882585411348   0.025148349523590408
-0.4194722190356468   -0.019093102005527593   -0.010551476810361254
-0.4194722190356468   -0.019093102005527593   -0.010551476810361254
-0.4194722190356468   -0.019093102005527593   -0.010551476810361254
-0.4194722190356468   -0.019093102005527593   -0.010551476810361254
-0.47002693858314243   -0.004149670721943222   2.4619083926077923e-05
-0.47002693858314243   -0.004149670721943222   2.4619083926077923e-05
-0.47002693858314243   -0.004149670721943222   2.4619083926077923e-05
-0.47002693858314243   -0.004149670721943222   2.4619083926077923e-05
0.045532968582510734   0.0037329822823395265   -0.026713659152438566
0.045532968582510734   0.0037329822823395265   -0.026713659152438566
0.045532968582510734   0.0037329822823395265   -0.026713659152438566
0.045532968582510734   0.0037329822823395265   -0.026713659152438566
-0.04076043064098619   0.019917629857360626   0.013593697332270095
-0.04076043064098619   0.019917629857360626   0.013593697332270095
-0.04076043064098619   0.019917629857360626   0.013593697332270095
-0.04076043064098619   0.019917629857360626   0.013593697332270095
-0.06253792919010331   -0.025862275505768542   -0.02155093458115656
-0.06253792919010331   -0.025862275505768542   -0.02155093458115656
-0.06253792919010331   -0.025862275505768542   -0.02155093458115656
-0.06253792919010331   -0.025862275505768542   -0.02155093458115656
0.04223421142996217   0.02871552789778441   0.016652956970173074
0.04223421142996217   0.02871552789778441   0.016652956970173074
0.04223421142996217   0.02871552789778441   0.016652956970173074
0.04223421142996217   0.02871552789778441   0.016652956970173074
-0.004988363772070528   0.006308941688766351   0.0022940633968613717
-0.004988363772070528   0.006308941688766351   0.0022940633968613717
-0.004988363772070528   0.006308941688766351   0.0022940633968613717
-0.004988363772070528   0.006308941688766351   0.0022940633968613717
0.02667583604555495   -0.008495011627684419   -0.023928380426394197
0.02667583604555495   -0.008495011627684419   -0.023928380426394197
0.02667583604555495   -0.008495011627684419   -0.023928380426394197
0.02667583604555495   -0.008495011627684419   -0.023928380426394197
-0.047889327512587954   0.010438490312808423   0.015391307987843269
-0.047889327512587954   0.010438490312808423   0.015391307987843269
-0.047889327512587954   0.010438490312808423   0.015391307987843269
-0.047889327512587954   0.010438490312808423   0.015391307987843269
-0.06973661914048808   -0.03050718712301253   -0.01830326077367002
-0.06973661914048808   -0.03050718712301253   -0.01830326077367002
-0.06973661914048808   -0.03050718712301253   -0.01830326077367002
-0.06973661914048808   -0.03050718712301253   -0.01830326077367002
0.027469562979065398   0.022422445825652976   0.022883409252909662
0.027469562979065398   0.022422445825652976   0.022883409252909662
0.027469562979065398   0.022422445825652976   0.022883409252909662
0.027469562979065398   0.022422445825652976   0.022883409252909662
-0.01656096142829298   -0.0006559441043721293   -0.0030510259654161565
-0.01656096142829298   -0.0006559441043721293   -0.0030510259654161565
-0.01656096142829298   -0.0006559441043721293   -0.0030510259654161565
-0.01656096142829298   -0.0006559441043721293   -0.0030510259654161565
0.011539758518398707   -0.014549910734548668   -0.019793256490222164
0.011539758518398707   -0.014549910734548668   -0.019793256490222164
0.011539758518398707   -0.014549910734548668   -0.019793256490222164
0.011539758518398707   -0.014549910734548668   -0.019793256490222164
-0.05507384179421103   0.005198142322796842   0.01930529651190542
-0.05507384179421103   0.005198142322796842   0.01930529651190542
-0.05507384179421103   0.005198142322796842   0.01930529651190542
-0.05507384179421103   0.005198142322796842   0.01930529651190542
-0.07632726734500479   -0.037564762362635604   -0.015195090631658146
-0.07632726734500479   -0.037564762362635604   -0.015195090631658146
-0.07632726734500479   -0.037564762362635604   -0.015195090631658146
-0.07632726734500479   -0.037564762362635604   -0.015195090631658146
0.0069622507255860284   0.009286345715560494   0.026129785374697956
0.0069622507255860284   0.009286345715560494   0.026129785374697956
0.0069622507255860284   0.009286345715560494   0.026129785374697956
0.0069622507255860284   0.009286345715560494   0.026129785374697956
-0.029166333191902424   -0.007633729699208367   -0.009248306243005322
-0.029166333191902424   -0.007633729699208367   -0.009248306243005322
-0.029166333191902424   -0.007633729699208367   -0.009248306243005322
-0.029166333191902424   -0.007633729699208367   -0.009248306243005322
-0.04685784254389332   0.013555608188213235   -0.010531340513118208
-0.04685784254389332   0.013555608188213235   -0.010531340513118208
-0.04685784254389332   0.013555608188213235   -0.010531340513118208
-0.04685784254389332   0.013555608188213235   -0.010531340513118208
-0.1272835445763183   0.005371681952155448   0.0035092273846703374
-0.1272835445763183   0.005371681952155448   0.0035092273846703374
-0.1272835445763183   0.005371681952155448   0.0035092273846703374
-0.1272835445763183   0.005371681952155448   0.0035092273846703374
-0.1385631528247588   -0.015071719557088453   -0.011245741332132901
-0.1385631528247588   -0.015071719557088453   -0.011245741332132901
-0.1385631528247588   -0.015071719557088453   -0.011245741332132901
-0.1385631528247588   -0.015071719557088453   -0.011245741332132901
-0.04825089885927809   0.013258219875051203   0.01076372169214983
-0.04825089885927809   0.013258219875051203   0.01076372169214983
-0.04825089885927809   0.013258219875051203   0.01076372169214983
-0.04825089885927809   0.013258219875051203   0.01076372169214983
-0.09007123885775   0.004008036902719468   0.0021658487010589606
-0.09007123885775   0.004008036902719468   0.0021658487010589606
-0.09007123885775   0.004008036902719468   0.0021658487010589606
-0.09007123885775   0.004008036902719468   0.0021658487010589606
-0.0543293302604321   0.002291791778738705   -0.00866200721730848
-0.0543293302604321   0.002291791778738705   -0.00866200721730848
-0.0543293302604321   0.002291791778738705   -0.00866200721730848
-0.0543293302604321   0.002291791778738705   -0.00866200721730848
-0.1332385322084599   -0.0048591022456340935   0.0051647444379051815
-0.1332385322084599   -0.0048591022456340935   0.0051647444379051815
-0.1332385322084599   -0.0048591022456340935   0.0051647444379051815
-0.1332385322084599   -0.0048591022456340935   0.0051647444379051815
-0.14417791831974197   -0.024177195739420863   -0.008331874025076274
-0.14417791831974197   -0.024177195739420863   -0.008331874025076274
-0.14417791831974197   -0.024177195739420863   -0.008331874025076274
-0.14417791831974197   -0.024177195739420863   -0.008331874025076274
-0.056908637212186794   0.003191428132884689   0.012138033611938754
-0.056908637212186794   0.003191428132884689   0.012138033611938754
-0.056908637212186794   0.003191428132884689   0.012138033611938754
-0.056908637212186794   0.003191428132884689   0.012138033611938754
-0.09716173728333471   -0.00515591157597594   -0.002441900092535849
-0.09716173728333471   -0.00515591157597594   -0.002441900092535849
-0.09716173728333471   -0.00515591157597594   -0.002441900092535849
-0.09716173728333471   -0.00515591157597594   -0.002441900092535849
-0.06277501116810838   -0.007525600925860595   -0.006476807108923861
-0.06277501116810838   -0.007525600925860595   -0.006476807108923861
-0.06277501116810838   -0.007525600925860595   -0.006476807108923861
-0.06277501116810838   -0.007525600925860595   -0.006476807108923861
-0.13912222902206633   -0.01427085133891931   0.007040228062798295
-0.13912222902206633   -0.01427085133891931   0.007040228062798295
-0.13912222902206633   -0.01427085133891931   0.007040228062798295
-0.13912222902206633   -0.01427085133891931   0.007040228062798295
-0.14982963715794323   -0.03350676073830053   -0.00575354549212531
-0.14982963715794323   -0.03350676073830053   -0.00575354549212531
-0.14982963715794323   -0.03350676073830053   -0.00575354549212531
-0.14982963715794323   -0.03350676073830053   -0.00575354549212531
-0.06415574012807128   -0.006959587741834256   0.015057370832207153
-0.06415574012807128   -0.006959587741834256   0.015057370832207153
-0.06415574012807128   -0.006959587741834256   0.015057370832207153
-0.06415574012807128   -0.006959587741834256   0.015057370832207153
-0.10421585600031306   -0.014170295495775035   -0.007114833004736358
-0.10421585600031306   -0.014170295495775035   -0.007114833004736358
-0.10421585600031306   -0.014170295495775035   -0.007114833004736358
-0.10421585600031306   -0.014170295495775035   -0.007114833004736358
-0.12489308860674513   0.021942144801501962   -0.001108955616812176
-0.12489308860674513   0.021942144801501962   -0.001108955616812176
-0.12489308860674513   0.021942144801501962   -0.001108955616812176
-0.12489308860674513   0.021942144801501962   -0.001108955616812176
-0.21284649093212255   -0.007391590443712598   -0.006075137479613572
-0.21284649093212255   -0.007391590443712598   -0.006075137479613572
-0.21284649093212255   -0.007391590443712598   -0.006075137479613572
-0.21284649093212255   -0.007391590443712598   -0.006075137479613572
-0.21512136460963846   -0.005472007530777374   -0.0013533577320385577
-0.21512136460963846   -0.005472007530777374   -0.0013533577320385577
-0.21512136460963846   -0.005472007530777374   -0.0013533577320385577
-0.21512136460963846   -0.005472007530777374   -0.0013533577320385577
-0.13265736336202033   0.0015427993228084302   0.0016686871016605275
-0.13265736336202033   0.0015427993228084302   0.0016686871016605275
-0.13265736336202033   0.0015427993228084302   0.0016686871016605275
-0.13265736336202033   0.0015427993228084302   0.0016686871016605275
-0.17101476989620862   0.002477865263481885   0.0007923126525401537
-0.17101476989620862   0.002477865263481885   0.0007923126525401537
-0.17101476989620862   0.002477865263481885   0.0007923126525401537
-0.17101476989620862   0.002477865263481885   0.0007923126525401537
-0.13056571023981647   0.012036454413912899   0.0016332976215754826
-0.13056571023981647   0.012036454413912899   0.0016332976215754826
-0.13056571023981647   0.012036454413912899   0.0016332976215754826
-0.13056571023981647   0.012036454413912899   0.0016332976215754826
-0.21794058291623167   -0.016693227806268633   -0.00422822898951347
-0.21794058291623167   -0.016693227806268633   -0.00422822898951347
-0.21794058291623167   -0.016693227806268633   -0.00422822898951347
-0.21794058291623167   -0.016693227806268633   -0.00422822898951347
-0.2203918121160989   -0.015255488032500021   0.0013544786267885855
-0.2203918121160989   -0.015255488032500021   0.0013544786267885855
-0.2203918121160989   -0.015255488032500021   0.0013544786267885855
-0.2203918121160989   -0.015255488032500021   0.0013544786267885855
-0.13860276057617796   -0.008080833550139607   0.0034475525034604717
-0.13860276057617796   -0.008080833550139607   0.0034475525034604717
-0.13860276057617796   -0.008080833550139607   0.0034475525034604717
-0.13860276057617796   -0.008080833550139607   0.0034475525034604717
-0.17671996003470036   -0.006420412268463779   -0.003437998213449693
-0.17671996003470036   -0.006420412268463779   -0.003437998213449693
-0.17671996003470036   -0.006420412268463779   -0.003437998213449693
-0.17671996003470036   -0.006420412268463779   -0.003437998213449693
-0.13645519575413417   0.002068206772702634   0.004036336290837134
-0.13645519575413417   0.002068206772702634   0.004036336290837134
-0.13645519575413417   0.002068206772702634   0.004036336290837134
-0.13645519575413417   0.002068206772702634   0.004036336290837134
-0.22341735116508848   -0.02628250258228806   -0.002746202068371266
-0.22341735116508848   -0.02628250258228806   -0.002746202068371266
-0.22341735116508848   -0.02628250258228806   -0.002746202068371266
-0.22341735116508848   -0.02628250258228806   -0.002746202068371266
-0.22552217479569767   -0.024629883862644697   0.003957396148501187
-0.22552217479569767   -0.024629883862644697   0.003957396148501187
-0.22552217479569767   -0.024629883862644697   0.003957396148501187
-0.22552217479569767   -0.024629883862644697   0.003957396148501187
-0.14432184002925835   -0.017146497263455913   0.005425176676452575
-0.14432184002925835   -0.017146497263455913   0.005425176676452575
-0.14432184002925835   -0.017146497263455913   0.005425176676452575
-0.14432184002925835   -0.017146497263455913   0.005425176676452575
-0.18285899254120488   -0.015368413190635227   -0.008035758507687318
-0.18285899254120488   -0.015368413190635227   -0.008035758507687318
-0.18285899254120488   -0.015368413190635227   -0.008035758507687318
-0.18285899254120488   -0.015368413190635227   -0.008035758507687318
-0.202111546353088   0.031554156288686325   0.008653838683164172
-0.202111546353088   0.031554156288686325   0.008653838683164172
-0.202111546353088   0.031554156288686325   0.008653838683164172
-0.202111546353088   0.031554156288686325   0.008653838683164172
-0.29521312391014476   -0.012389162719107442   -0.013589214891483839
-0.29521312391014476   -0.012389162719107442   -0.013589214891483839
-0.29521312391014476   -0.012389162719107442   -0.013589214891483839
-0.29521312391014476   -0.012389162719107442   -0.013589214891483839
-0.29134236557127385   0.004360131665930023   0.008835654863393792
-0.29134236557127385   0.004360131665930023   0.008835654863393792
-0.29134236557127385   0.004360131665930023   0.008835654863393792
-0.29134236557127385   0.004360131665930023   0.008835654863393792
-0.215772322240835   -0.004081806471821076   -0.005998346946977665
-0.215772322240835   -0.004081806471821076   -0.005998346946977665
-0.215772322240835   -0.004081806471821076   -0.005998346946977665
-0.215772322240835   -0.004081806471821076   -0.005998346946977665
-0.25021177563879665   0.004884906905376719   0.0012686440740296377
-0.25021177563879665   0.004884906905376719   0.0012686440740296377
-0.25021177563879665   0.004884906905376719   0.0012686440740296377
-0.25021177563879665   0.004884906905376719   0.0012686440740296377
-0.20713326493452403   0.02171487286929371   0.011400260243462398
-0.20713326493452403   0.02171487286929371   0.011400260243462398
-0.20713326493452403   0.02171487286929371   0.011400260243462398
-0.20713326493452403   0.02171487286929371   0.011400260243462398
-0.30104473253543196   -0.022499857333033238   -0.012816190958441477
-0.30104473253543196   -0.022499857333033238   -0.012816190958441477
-0.30104473253543196   -0.022499857333033238   -0.012816190958441477
-0.30104473253543196   -0.022499857333033238   -0.012816190958441477
-0.29839503085668173   -0.005279448255331012   0.010451534573807743
-0.29839503085668173   -0.005279448255331012   0.010451534573807743
-0.29839503085668173   -0.005279448255331012   0.010451534573807743
-0.29839503085668173   -0.005279448255331012   0.010451534573807743
-0.2209961445285975   -0.012851646431226306   -0.004071025036978171
-0.2209961445285975   -0.012851646431226306   -0.004071025036978171
-0.2209961445285975   -0.012851646431226306   -0.004071025036978171
-0.2209961445285975   -0.012851646431226306   -0.004071025036978171
-0.2549953981817784   -0.0036857604901709695   -0.0033161712978040467
-0.2549953981817784   -0.0036857604901709695   -0.0033161712978040467
-0.2549953981817784   -0.0036857604901709695   -0.0033161712978040467
-0.2549953981817784   -0.0036857604901709695   -0.0033161712978040467
-0.21226371723844728   0.012670333791719113   0.014069131190823932
-0.21226371723844728   0.012670333791719113   0.014069131190823932
-0.21226371723844728   0.012670333791719113   0.014069131190823932
-0.21226371723844728   0.012670333791719113   0.014069131190823932
-0.3079671490665497   -0.0316411193979961   -0.01104738533287491
-0.3079671490665497   -0.0316411193979961   -0.01104738533287491
-0.3079671490665497   -0.0316411193979961   -0.01104738533287491
-0.3079671490665497   -0.0316411193979961   -0.01104738533287491
-0.3041248888812663   -0.015009778277178497   0.013334653966184955
-0.3041248888812663   -0.015009778277178497   0.013334653966184955
-0.3041248888812663   -0.015009778277178497   0.013334653966184955
-0.3041248888812663   -0.015009778277178497   0.013334653966184955
-0.22624285047666304   -0.021850887253954822   -0.0024249788650196336
-0.22624285047666304   -0.021850887253954822   -0.0024249788650196336
-0.22624285047666304   -0.021850887253954822   -0.0024249788650196336
-0.22624285047666304   -0.021850887253954822   -0.0024249788650196336
-0.26222165103920064   -0.012460011491491695   -0.008027715725049117
-0.26222165103920064   -0.012460011491491695   -0.008027715725049117
-0.26222165103920064   -0.012460011491491695   -0.008027715725049117
-0.26222165103920064   -0.012460011491491695   -0.008027715725049117
-0.27974430103368125   0.03423541277833371   0.017130323993392853
-0.27974430103368125   0.03423541277833371   0.017130323993392853
-0.27974430103368125   0.03423541277833371   0.017130323993392853
-0.27974430103368125   0.03423541277833371   0.017130323993392853
-0.36165468465313955   -0.01821587799809113   -0.022569927616943288
-0.36165468465313955   -0.01821587799809113   -0.022569927616943288
-0.36165468465313955   -0.01821587799809113   -0.022569927616943288
-0.36165468465313955   -0.01821587799809113   -0.022569927616943288
-0.3619897396003502   0.013360351400316703   0.018885558799006344
-0.3619897396003502   0.013360351400316703   0.018885558799006344
-0.3619897396003502   0.013360351400316703   0.018885558799006344
-0.3619897396003502   0.013360351400316703   0.018885558799006344
-0.2987266748559946   -0.009926389464542822   -0.013799370429740969
-0.2987266748559946   -0.009926389464542822   -0.013799370429740969
-0.2987266748559946   -0.009926389464542822   -0.013799370429740969
-0.2987266748559946   -0.009926389464542822   -0.013799370429740969
-0.3123048530769161   0.007997250852854507   0.006162818923867278
-0.3123048530769161   0.007997250852854507   0.006162818923867278
-0.3123048530769161   0.007997250852854507   0.006162818923867278
-0.3123048530769161   0.007997250852854507   0.006162818923867278
-0.28409957598659874   0.02920268271150399   0.020207051741191334
-0.28409957598659874   0.02920268271150399   0.020207051741191334
-0.28409957598659874   0.02920268271150399   0.020207051741191334
-0.28409957598659874   0.02920268271150399   0.020207051741191334
-0.3777260598725841   -0.02687794217856824   -0.01955774898327852
-0.3777260598725841   -0.02687794217856824   -0.01955774898327852
-0.3777260598725841   -0.02687794217856824   -0.01955774898327852
-0.3777260598725841   -0.02687794217856824   -0.01955774898327852
-0.3748121308270631   0.007848051271248838   0.02431081455186414
-0.3748121308270631   0.007848051271248838   0.02431081455186414
-0.3748121308270631   0.007848051271248838   0.02431081455186414
-0.3748121308270631   0.007848051271248838   0.02431081455186414
-0.304837630576523   -0.014971760983900816   -0.012069151296833105
-0.304837630576523   -0.014971760983900816   -0.012069151296833105
-0.304837630576523   -0.014971760983900816   -0.012069151296833105
-0.304837630576523   -0.014971760983900816   -0.012069151296833105
-0.3276209996397388   0.0013100666178173515   -0.0002344457608133496
-0.3276209996397388   0.0013100666178173515   -0.0002344457608133496
-0.3276209996397388   0.0013100666178173515   -0.0002344457608133496
-0.3276209996397388   0.0013100666178173515   -0.0002344457608133496
-0.2896133029325961   0.024868165939622155   0.024212559999278956
-0.2896133029325961   0.024868165939622155   0.024212559999278956
-0.2896133029325961   0.024868165939622155   0.024212559999278956
-0.2896133029325961   0.024868165939622155   0.024212559999278956
-0.3911606772423303   -0.03311609442361938   -0.016467771829603337
-0.3911606772423303   -0.03311609442361938   -0.016467771829603337
-0.3911606772423303   -0.03311609442361938   -0.016467771829603337
-0.3911606772423303   -0.03311609442361938   -0.016467771829603337
-0.3937003230695876   -0.006691899566425907   0.025682639419087924
-0.3937003230695876   -0.006691899566425907   0.025682639419087924
-0.3937003230695876   -0.006691899566425907   0.025682639419087924
-0.3937003230695876   -0.006691899566425907   0.025682639419087924
-0.3109774554393294   -0.025513945311231218   -0.010424011790077882
-0.3109774554393294   -0.025513945311231218   -0.010424011790077882
-0.3109774554393294   -0.025513945311231218   -0.010424011790077882
-0.3109774554393294   -0.025513945311231218   -0.010424011790077882
-0.3334195260526238   -0.005341345566285932   -0.0047480272686201315
-0.3334195260526238   -0.005341345566285932   -0.0047480272686201315
-0.3334195260526238   -0.005341345566285932   -0.0047480272686201315
-0.3334195260526238   -0.005341345566285932   -0.0047480272686201315
-0.14535262455464668   -0.009417762034465222   -0.028491068213198623
-0.14535262455464668   -0.009417762034465222   -0.028491068213198623
-0.14535262455464668   -0.009417762034465222   -0.028491068213198623
-0.14535262455464668   -0.009417762034465222   -0.028491068213198623
-0.14681657655605693   0.02162452310519923   0.012769133828607233
-0.14681657655605693   0.02162452310519923   0.012769133828607233
-0.14681657655605693   0.02162452310519923   0.012769133828607233
-0.14681657655605693   0.02162452310519923   0.012769133828607233
-0.16569487139623115   -0.0200793993953532   -0.019392596669321662
-0.16569487139623115   -0.0200793993953532   -0.019392596669321662
-0.16569487139623115   -0.0200793993953532   -0.019392596669321662
-0.16569487139623115   -0.0200793993953532   -0.019392596669321662
-0.14857037331310158   0.011827248424627377   0.019057049102875187
-0.14857037331310158   0.011827248424627377   0.019057049102875187
-0.14857037331310158   0.011827248424627377   0.019057049102875187
-0.14857037331310158   0.011827248424627377   0.019057049102875187
-0.14398372286977226   0.00376864710456299   0.013030435157227193
-0.14398372286977226   0.00376864710456299   0.013030435157227193
-0.14398372286977226   0.00376864710456299   0.013030435157227193
-0.14398372286977226   0.00376864710456299   0.013030435157227193
-0.16365161932352298   -0.02058051345988738   -0.023941419064716064
-0.16365161932352298   -0.02058051345988738   -0.023941419064716064
-0.16365161932352298   -0.02058051345988738   -0.023941419064716064
-0.16365161932352298   -0.02058051345988738   -0.023941419064716064
-0.15245504912199898   0.010486938752975038   0.016240176553510906
-0.15245504912199898   0.010486938752975038   0.016240176553510906
-0.15245504912199898   0.010486938752975038   0.016240176553510906
-0.15245504912199898   0.010486938752975038   0.016240176553510906
-0.1714604213614126   -0.025231619439501272   -0.0164569327323836
-0.1714604213614126   -0.025231619439501272   -0.0164569327323836
-0.1714604213614126   -0.025231619439501272   -0.0164569327323836
-0.1714604213614126   -0.025231619439501272   -0.0164569327323836
-0.16321016889104242   0.004845809342149475   0.035570967040789776
-0.16321016889104242   0.004845809342149475   0.035570967040789776
-0.16321016889104242   0.004845809342149475   0.035570967040789776
-0.16321016889104242   0.004845809342149475   0.035570967040789776
-0.1573916993025413   -0.005069654854139086   0.005266616753791253
-0.1573916993025413   -0.005069654854139086   0.005266616753791253
-0.1573916993025413   -0.005069654854139086   0.005266616753791253
-0.1573916993025413   -0.005069654854139086   0.005266616753791253
-0.18053949422355445   -0.027501681267813917   -0.018728169011804977
-0.18053949422355445   -0.027501681267813917   -0.018728169011804977
-0.18053949422355445   -0.027501681267813917   -0.018728169011804977
-0.18053949422355445   -0.027501681267813917   -0.018728169011804977
-0.15853560513306728   0.0027113620662957486   0.020224166903545997
-0.15853560513306728   0.0027113620662957486   0.020224166903545997
-0.15853560513306728   0.0027113620662957486   0.020224166903545997
-0.15853560513306728   0.0027113620662957486   0.020224166903545997
-0.17619814146316193   -0.03517034184835156   -0.012993260256114372
-0.17619814146316193   -0.03517034184835156   -0.012993260256114372
-0.17619814146316193   -0.03517034184835156   -0.012993260256114372
-0.17619814146316193   -0.03517034184835156   -0.012993260256114372
-0.18592565262052768   -0.018227896030556204   0.03326472730300715
-0.18592565262052768   -0.018227896030556204   0.03326472730300715
-0.18592565262052768   -0.018227896030556204   0.03326472730300715
-0.18592565262052768   -0.018227896030556204   0.03326472730300715
-0.16919336000212198   -0.015500557333176113   -0.007108012269431631
-0.16919336000212198   -0.015500557333176113   -0.007108012269431631
-0.16919336000212198   -0.015500557333176113   -0.007108012269431631
-0.16919336000212198   -0.015500557333176113   -0.007108012269431631
-0.15747011913660908   -0.004285241358856343   -0.014588814610097874
-0.15747011913660908   -0.004285241358856343   -0.014588814610097874
-0.15747011913660908   -0.004285241358856343   -0.014588814610097874
-0.15747011913660908   -0.004285241358856343   -0.014588814610097874
-0.16181203185143414   -0.019970232514734287   -0.0008628682155531683
-0.16181203185143414   -0.019970232514734287   -0.0008628682155531683
-0.16181203185143414   -0.019970232514734287   -0.0008628682155531683
-0.16181203185143414   -0.019970232514734287   -0.0008628682155531683
-0.16314940035438813   -0.013356125827787203   -0.007409505326932157
-0.16314940035438813   -0.013356125827787203   -0.007409505326932157
-0.16314940035438813   -0.013356125827787203   -0.007409505326932157
-0.16314940035438813   -0.013356125827787203   -0.007409505326932157
-0.16318228399700174   -0.02673345565658856   -0.00017560341193928876
-0.16318228399700174   -0.02673345565658856   -0.00017560341193928876
-0.16318228399700174   -0.02673345565658856   -0.00017560341193928876
-0.16318228399700174   -0.02673345565658856   -0.00017560341193928876
-0.1600392199041919   -0.01678931530075175   -0.00043528320302609926
-0.1600392199041919   -0.01678931530075175   -0.00043528320302609926
-0.1600392199041919   -0.01678931530075175   -0.00043528320302609926
-0.1600392199041919   -0.01678931530075175   -0.00043528320302609926
-0.16321243277691921   -0.014415659867108244   -0.012644143101006271
-0.16321243277691921   -0.014415659867108244   -0.012644143101006271
-0.16321243277691921   -0.014415659867108244   -0.012644143101006271
-0.16321243277691921   -0.014415659867108244   -0.012644143101006271
-0.16415879958461635   -0.0267134696274131   0.0009008423215526404
-0.16415879958461635   -0.0267134696274131   0.0009008423215526404
-0.16415879958461635   -0.0267134696274131   0.0009008423215526404
-0.16415879958461635   -0.0267134696274131   0.0009008423215526404
-0.16602403205481783   -0.022024338098410513   -0.004825402701921586
-0.16602403205481783   -0.022024338098410513   -0.004825402701921586
-0.16602403205481783   -0.022024338098410513   -0.004825402701921586
-0.16602403205481783   -0.022024338098410513   -0.004825402701921586
-0.16931239225506622   -0.03476643901371296   0.0038180323735598556
-0.16931239225506622   -0.03476643901371296   0.0038180323735598556
-0.16931239225506622   -0.03476643901371296   0.0038180323735598556
-0.16931239225506622   -0.03476643901371296   0.0038180323735598556
-0.1638921307362818   -0.023816396275614674   -0.004482467982678729
-0.1638921307362818   -0.023816396275614674   -0.004482467982678729
-0.1638921307362818   -0.023816396275614674   -0.004482467982678729
-0.1638921307362818   -0.023816396275614674   -0.004482467982678729
-0.16974023845806024   -0.02368335530808275   -0.009404282347040337
-0.16974023845806024   -0.02368335530808275   -0.009404282347040337
-0.16974023845806024   -0.02368335530808275   -0.009404282347040337
-0.16974023845806024   -0.02368335530808275   -0.009404282347040337
-0.16692358493722928   -0.03443482088944619   0.003087315677056744
-0.16692358493722928   -0.03443482088944619   0.003087315677056744
-0.16692358493722928   -0.03443482088944619   0.003087315677056744
-0.16692358493722928   -0.03443482088944619   0.003087315677056744
-0.1686242726311413   -0.0313187192574336   -0.0022697542427195082
-0.1686242726311413   -0.0313187192574336   -0.0022697542427195082
-0.1686242726311413   -0.0313187192574336   -0.0022697542427195082
-0.1686242726311413   -0.0313187192574336   -0.0022697542427195082
-0.17402403875987335   -0.04489774696079209   0.007604658372767213
-0.17402403875987335   -0.04489774696079209   0.007604658372767213
-0.17402403875987335   -0.04489774696079209   0.007604658372767213
-0.17402403875987335   -0.04489774696079209   0.007604658372767213
-0.16911567100642216   -0.032238557527372994   -0.009600926640788213
-0.16911567100642216   -0.032238557527372994   -0.009600926640788213
-0.16911567100642216   -0.032238557527372994   -0.009600926640788213
-0.16911567100642216   -0.032238557527372994   -0.009600926640788213
-0.1573048087981585   0.0043936469885179005   -0.0026906324524251547
-0.1573048087981585   0.0043936469885179005   -0.0026906324524251547
-0.1573048087981585   0.0043936469885179005   -0.0026906324524251547
-0.1573048087981585   0.0043936469885179005   -0.0026906324524251547
-0.17983365947171767   -0.034164644630113886   -0.008668769970592348
-0.17983365947171767   -0.034164644630113886   -0.008668769970592348
-0.17983365947171767   -0.034164644630113886   -0.008668769970592348
-0.17983365947171767   -0.034164644630113886   -0.008668769970592348
-0.17263667918474077   -0.006351846531611131   0.0021747736522831716
-0.17263667918474077   -0.006351846531611131   0.0021747736522831716
-0.17263667918474077   -0.006351846531611131   0.0021747736522831716
-0.17263667918474077   -0.006351846531611131   0.0021747736522831716
-0.16736241824651915   -0.03654318468645933   -0.005287535928915133
-0.16736241824651915   -0.03654318468645933   -0.005287535928915133
-0.16736241824651915   -0.03654318468645933   -0.005287535928915133
-0.16736241824651915   -0.03654318468645933   -0.005287535928915133
-0.1691648225756655   -0.018747409867246104   -0.0037479998143181087
-0.1691648225756655   -0.018747409867246104   -0.0037479998143181087
-0.1691648225756655   -0.018747409867246104   -0.0037479998143181087
-0.1691648225756655   -0.018747409867246104   -0.0037479998143181087
-0.1598500807194924   -0.004236073470888502   -3.29595093520995e-05
-0.1598500807194924   -0.004236073470888502   -3.29595093520995e-05
-0.1598500807194924   -0.004236073470888502   -3.29595093520995e-05
-0.1598500807194924   -0.004236073470888502   -3.29595093520995e-05
-0.1810959085434033   -0.03960584957881833   -0.006867370093825984
-0.1810959085434033   -0.03960584957881833   -0.006867370093825984
-0.1810959085434033   -0.03960584957881833   -0.006867370093825984
-0.1810959085434033   -0.03960584957881833   -0.006867370093825984
-0.17474176024816307   -0.015050112254331168   0.004740158654487747
-0.17474176024816307   -0.015050112254331168   0.004740158654487747
-0.17474176024816307   -0.015050112254331168   0.004740158654487747
-0.17474176024816307   -0.015050112254331168   0.004740158654487747
-0.17005426817079733   -0.043387803258357366   -0.0036131181218724095
-0.17005426817079733   -0.043387803258357366   -0.0036131181218724095
-0.17005426817079733   -0.043387803258357366   -0.0036131181218724095
-0.17005426817079733   -0.043387803258357366   -0.0036131181218724095
-0.17138627039298793   -0.0253613585439742   -0.007219484410074004
-0.17138627039298793   -0.0253613585439742   -0.007219484410074004
-0.17138627039298793   -0.0253613585439742   -0.007219484410074004
-0.17138627039298793   -0.0253613585439742   -0.007219484410074004
-0.16276313427211284   -0.013092890972816764   0.0025476390860095554
-0.16276313427211284   -0.013092890972816764   0.0025476390860095554
-0.16276313427211284   -0.013092890972816764   0.0025476390860095554
-0.16276313427211284   -0.013092890972816764   0.0025476390860095554
-0.1830908235665958   -0.046402953959620026   -0.005652316232387242
-0.1830908235665958   -0.046402953959620026   -0.005652316232387242
-0.1830908235665958   -0.046402953959620026   -0.005652316232387242
-0.1830908235665958   -0.046402953959620026   -0.005652316232387242
-0.17647957454374086   -0.023211988278303904   0.007255456116695137
-0.17647957454374086   -0.023211988278303904   0.007255456116695137
-0.17647957454374086   -0.023211988278303904   0.007255456116695137
-0.17647957454374086   -0.023211988278303904   0.007255456116695137
-0.17209998238485413   -0.049921685528450076   -0.0010453367402689998
-0.17209998238485413   -0.049921685528450076   -0.0010453367402689998
-0.17209998238485413   -0.049921685528450076   -0.0010453367402689998
-0.17209998238485413   -0.049921685528450076   -0.0010453367402689998
-0.1740155279056974   -0.03227216392752219   -0.011031769944872464
-0.1740155279056974   -0.03227216392752219   -0.011031769944872464
-0.1740155279056974   -0.03227216392752219   -0.011031769944872464
-0.1740155279056974   -0.03227216392752219   -0.011031769944872464
-0.16603447843598163   0.01783075622468063   0.008331734353293355
-0.16603447843598163   0.01783075622468063   0.008331734353293355
-0.16603447843598163   0.01783075622468063   0.008331734353293355
-0.16603447843598163   0.01783075622468063   0.008331734353293355
-0.19786422862454495   -0.02570768244390128   -0.012152718736924846
-0.19786422862454495   -0.02570768244390128   -0.012152718736924846
-0.19786422862454495   -0.02570768244390128   -0.012152718736924846
-0.19786422862454495   -0.02570768244390128   -0.012152718736924846
-0.18741611423789004   0.005081987953667884   0.011464417177522175
-0.18741611423789004   0.005081987953667884   0.011464417177522175
-0.18741611423789004   0.005081987953667884   0.011464417177522175
-0.18741611423789004   0.005081987953667884   0.011464417177522175
-0.17891826198505775   -0.02827685444472932   -0.007308132436183449
-0.17891826198505775   -0.02827685444472932   -0.007308132436183449
-0.17891826198505775   -0.02827685444472932   -0.007308132436183449
-0.17891826198505775   -0.02827685444472932   -0.007308132436183449
-0.18251579884146718   -0.007583604504394707   -0.002236380853042704
-0.18251579884146718   -0.007583604504394707   -0.002236380853042704
-0.18251579884146718   -0.007583604504394707   -0.002236380853042704
-0.18251579884146718   -0.007583604504394707   -0.002236380853042704
-0.16784283275410353   0.008885160558077004   0.01090699871578129
-0.16784283275410353   0.008885160558077004   0.01090699871578129
-0.16784283275410353   0.008885160558077004   0.01090699871578129
-0.16784283275410353   0.008885160558077004   0.01090699871578129
-0.19975295448279146   -0.03334143806308504   -0.011796358030228288
-0.19975295448279146   -0.03334143806308504   -0.011796358030228288
-0.19975295448279146   -0.03334143806308504   -0.011796358030228288
-0.19975295448279146   -0.03334143806308504   -0.011796358030228288
-0.1909753523595212   -0.003430991334735324   0.01301145827640046
-0.1909753523595212   -0.003430991334735324   0.01301145827640046
-0.1909753523595212   -0.003430991334735324   0.01301145827640046
-0.1909753523595212   -0.003430991334735324   0.01301145827640046
-0.18076696699449243   -0.034629646219341795   -0.005806341112148505
-0.18076696699449243   -0.034629646219341795   -0.005806341112148505
-0.18076696699449243   -0.034629646219341795   -0.005806341112148505
-0.18076696699449243   -0.034629646219341795   -0.005806341112148505
-0.18436007919471867   -0.014764448244312566   -0.006311945496780001
-0.18436007919471867   -0.014764448244312566   -0.006311945496780001
-0.18436007919471867   -0.014764448244312566   -0.006311945496780001
-0.18436007919471867   -0.014764448244312566   -0.006311945496780001
-0.16982320054160685   0.000878096966795798   0.013404747966141729
-0.16982320054160685   0.000878096966795798   0.013404747966141729
-0.16982320054160685   0.000878096966795798   0.013404747966141729
-0.16982320054160685   0.000878096966795798   0.013404747966141729
-0.20301134829259218   -0.040030964001058315   -0.010568548722631362
-0.20301134829259218   -0.040030964001058315   -0.010568548722631362
-0.20301134829259218   -0.040030964001058315   -0.010568548722631362
-0.20301134829259218   -0.040030964001058315   -0.010568548722631362
-0.19336281801479893   -0.011614108372044948   0.015878883082665572
-0.19336281801479893   -0.011614108372044948   0.015878883082665572
-0.19336281801479893   -0.011614108372044948   0.015878883082665572
-0.19336281801479893   -0.011614108372044948   0.015878883082665572
-0.18237825637851035   -0.04101727444384175   -0.004432666891614534
-0.18237825637851035   -0.04101727444384175   -0.004432666891614534
-0.18237825637851035   -0.04101727444384175   -0.004432666891614534
-0.18237825637851035   -0.04101727444384175   -0.004432666891614534
-0.18752914441545407   -0.02155855780144119   -0.010270593516686426
-0.18752914441545407   -0.02155855780144119   -0.010270593516686426
-0.18752914441545407   -0.02155855780144119   -0.010270593516686426
-0.18752914441545407   -0.02155855780144119   -0.010270593516686426
-0.18183564073978523   0.025598686630469054   0.01668385161250337
-0.18183564073978523   0.025598686630469054   0.01668385161250337
-0.18183564073978523   0.025598686630469054   0.01668385161250337
-0.18183564073978523   0.025598686630469054   0.01668385161250337
-0.19629804002960977   -0.015707943890942627   -0.017547864646322762
-0.19629804002960977   -0.015707943890942627   -0.017547864646322762
-0.19629804002960977   -0.015707943890942627   -0.017547864646322762
-0.19629804002960977   -0.015707943890942627   -0.017547864646322762
-0.19212403204255857   0.017864467588597784   0.01855227202251069
-0.19212403204255857   0.017864467588597784   0.01855227202251069
-0.19212403204255857   0.017864467588597784   0.01855227202251069
-0.19212403204255857   0.017864467588597784   0.01855227202251069
-0.19680274621955463   -0.019656557508318784   -0.01073019726881028
-0.19680274621955463   -0.019656557508318784   -0.01073019726881028
-0.19680274621955463   -0.019656557508318784   -0.01073019726881028
-0.19680274621955463   -0.019656557508318784   -0.01073019726881028
-0.18518024319166482   0.004460973529404916   0.0008733505382969697
-0.18518024319166482   0.004460973529404916   0.0008733505382969697
-0.18518024319166482   0.004460973529404916   0.0008733505382969697
-0.18518024319166482   0.004460973529404916   0.0008733505382969697
-0.18289723179129258   0.019856280589320263   0.019284536774857107
-0.18289723179129258   0.019856280589320263   0.019284536774857107
-0.18289723179129258   0.019856280589320263   0.019284536774857107
-0.18289723179129258   0.019856280589320263   0.019284536774857107
-0.20706671954110945   -0.022685543579330756   -0.015611154302315283
-0.20706671954110945   -0.022685543579330756   -0.015611154302315283
-0.20706671954110945   -0.022685543579330756   -0.015611154302315283
-0.20706671954110945   -0.022685543579330756   -0.015611154302315283
-0.20057976359801924   0.013065690013159485   0.023860236709980005
-0.20057976359801924   0.013065690013159485   0.023860236709980005
-0.20057976359801924   0.013065690013159485   0.023860236709980005
-0.20057976359801924   0.013065690013159485   0.023860236709980005
-0.1995261791774379   -0.023409126492818025   -0.009764540655104171
-0.1995261791774379   -0.023409126492818025   -0.009764540655104171
-0.1995261791774379   -0.023409126492818025   -0.009764540655104171
-0.1995261791774379   -0.023409126492818025   -0.009764540655104171
-0.1943109394239641   -0.001339372506745859   -0.003979769441914504
-0.1943109394239641   -0.001339372506745859   -0.003979769441914504
-0.1943109394239641   -0.001339372506745859   -0.003979769441914504
-0.1943109394239641   -0.001339372506745859   -0.003979769441914504
-0.18507831090016919   0.01600589004868403   0.023059784189737316
-0.18507831090016919   0.01600589004868403   0.023059784189737316
-0.18507831090016919   0.01600589004868403   0.023059784189737316
-0.18507831090016919   0.01600589004868403   0.023059784189737316
-0.21636758265065903   -0.02768927730370977   -0.014323891236341816
-0.21636758265065903   -0.02768927730370977   -0.014323891236341816
-0.21636758265065903   -0.02768927730370977   -0.014323891236341816
-0.21636758265065903   -0.02768927730370977   -0.014323891236341816
-0.21533124996054603   0.0007962131717046683   0.02548057514581812
-0.21533124996054603   0.0007962131717046683   0.02548057514581812
-0.21533124996054603   0.0007962131717046683   0.02548057514581812
-0.21533124996054603   0.0007962131717046683   0.02548057514581812
-0.20202487258142143   -0.030567031118591693   -0.00847846700390394
-0.20202487258142143   -0.030567031118591693   -0.00847846700390394
-0.20202487258142143   -0.030567031118591693   -0.00847846700390394
-0.20202487258142143   -0.030567031118591693   -0.00847846700390394
-0.19862989895691213   -0.006702438092211174   -0.008328085861263589
-0.19862989895691213   -0.006702438092211174   -0.008328085861263589
-0.19862989895691213   -0.006702438092211174   -0.008328085861263589
-0.19862989895691213   -0.006702438092211174   -0.008328085861263589
-0.37976262944693456   -0.03482071312548035   -0.036510994433913
-0.37976262944693456   -0.03482071312548035   -0.036510994433913
-0.37976262944693456   -0.03482071312548035   -0.036510994433913
-0.37976262944693456   -0.03482071312548035   -0.036510994433913
-0.24237822093432887   0.020134805194748688   0.008560940795195465
-0.24237822093432887   0.020134805194748688   0.008560940795195465
-0.24237822093432887   0.020134805194748688   0.008560940795195465
-0.24237822093432887   0.020134805194748688   0.008560940795195465
-0.25467655772331954   -0.01649057466996695   -0.016425881959878486
-0.25467655772331954   -0.01649057466996695   -0.016425881959878486
-0.25467655772331954   -0.01649057466996695   -0.016425881959878486
-0.25467655772331954   -0.01649057466996695   -0.016425881959878486
-0.4045095748702265   -0.04635528528412033   0.04058566198343563
-0.4045095748702265   -0.04635528528412033   0.04058566198343563
-0.4045095748702265   -0.04635528528412033   0.04058566198343563
-0.4045095748702265   -0.04635528528412033   0.04058566198343563
-0.29430424358725277   -0.011467554783113898   0.03953156738496809
-0.29430424358725277   -0.011467554783113898   0.03953156738496809
-0.29430424358725277   -0.011467554783113898   0.03953156738496809
-0.29430424358725277   -0.011467554783113898   0.03953156738496809
-0.41901356906197723   -0.05144226616467361   -0.02684732809476176
-0.41901356906197723   -0.05144226616467361   -0.02684732809476176
-0.41901356906197723   -0.05144226616467361   -0.02684732809476176
-0.41901356906197723   -0.05144226616467361   -0.02684732809476176
-0.2503944468240185   -0.021625477081861945   0.010119574948519556
-0.2503944468240185   -0.021625477081861945   0.010119574948519556
-0.2503944468240185   -0.021625477081861945   0.010119574948519556
-0.2503944468240185   -0.021625477081861945   0.010119574948519556
-0.25885060241121155   -0.0237747241052371   -0.01189126667597399
-0.25885060241121155   -0.0237747241052371   -0.01189126667597399
-0.25885060241121155   -0.0237747241052371   -0.01189126667597399
-0.25885060241121155   -0.0237747241052371   -0.01189126667597399
-0.41776743089046453   -0.06466774137161733   0.0007941368418090721
-0.41776743089046453   -0.06466774137161733   0.0007941368418090721
-0.41776743089046453   -0.06466774137161733   0.0007941368418090721
-0.41776743089046453   -0.06466774137161733   0.0007941368418090721
-0.32638160024456   -0.03901259550735783   0.009207697982247954
-0.32638160024456   -0.03901259550735783   0.009207697982247954
-0.32638160024456   -0.03901259550735783   0.009207697982247954
-0.32638160024456   -0.03901259550735783   0.009207697982247954
-0.42097270922016383   -0.05816740947291095   -0.02173258670539093
-0.42097270922016383   -0.05816740947291095   -0.02173258670539093
-0.42097270922016383   -0.05816740947291095   -0.02173258670539093
-0.42097270922016383   -0.05816740947291095   -0.02173258670539093
-0.25871550696820256   -0.03334523889063365   -0.001645274675534515
-0.25871550696820256   -0.03334523889063365   -0.001645274675534515
-0.25871550696820256   -0.03334523889063365   -0.001645274675534515
-0.25871550696820256   -0.03334523889063365   -0.001645274675534515
-0.259270370382628   -0.0412945799536487   -0.008723974550354986
-0.259270370382628   -0.0412945799536487   -0.008723974550354986
-0.259270370382628   -0.0412945799536487   -0.008723974550354986
-0.259270370382628   -0.0412945799536487   -0.008723974550354986
-0.42823404295895345   -0.09858338868915822   0.006167673303406228
-0.42823404295895345   -0.09858338868915822   0.006167673303406228
-0.42823404295895345   -0.09858338868915822   0.006167673303406228
-0.42823404295895345   -0.09858338868915822   0.006167673303406228
-0.3263302466679809   -0.053565051978501796   0.000781148207292688
-0.3263302466679809   -0.053565051978501796   0.000781148207292688
-0.3263302466679809   -0.053565051978501796   0.000781148207292688
-0.3263302466679809   -0.053565051978501796   0.000781148207292688
-0.26169366347550815   -0.04445856544968904   -0.023422901266260596
-0.26169366347550815   -0.04445856544968904   -0.023422901266260596
-0.26169366347550815   -0.04445856544968904   -0.023422901266260596
-0.26169366347550815   -0.04445856544968904   -0.023422901266260596
-0.18098698296996923   -0.1183230952104318   -0.022118735350007714
-0.18098698296996923   -0.1183230952104318   -0.022118735350007714
-0.18098698296996923   -0.1183230952104318   -0.022118735350007714
-0.18098698296996923   -0.1183230952104318   -0.022118735350007714
-0.158894122770115   -0.026143490320929   -0.0015139379605282096
-0.158894122770115   -0.026143490320929   -0.0015139379605282096
-0.158894122770115   -0.026143490320929   -0.0015139379605282096
-0.158894122770115   -0.026143490320929   -0.0015139379605282096
-0.27867035975193555   -0.12513418230471   -0.027751284468217608
-0.27867035975193555   -0.12513418230471   -0.027751284468217608
-0.27867035975193555   -0.12513418230471   -0.027751284468217608
-0.27867035975193555   -0.12513418230471   -0.027751284468217608
-0.2175372068205621   -0.08325245505899567   -0.006376769632963231
-0.2175372068205621   -0.08325245505899567   -0.006376769632963231
-0.2175372068205621   -0.08325245505899567   -0.006376769632963231
-0.2175372068205621   -0.08325245505899567   -0.006376769632963231
-0.2616114292046903   -0.04991860568589883   -0.017672208350802052
-0.2616114292046903   -0.04991860568589883   -0.017672208350802052
-0.2616114292046903   -0.04991860568589883   -0.017672208350802052
-0.2616114292046903   -0.04991860568589883   -0.017672208350802052
-0.17700725863963399   -0.10241327226201383   -0.015809835367038293
-0.17700725863963399   -0.10241327226201383   -0.015809835367038293
-0.17700725863963399   -0.10241327226201383   -0.015809835367038293
-0.17700725863963399   -0.10241327226201383   -0.015809835367038293
-0.16092574278891883   -0.033827797993708844   0.00012458800743301435
-0.16092574278891883   -0.033827797993708844   0.00012458800743301435
-0.16092574278891883   -0.033827797993708844   0.00012458800743301435
-0.16092574278891883   -0.033827797993708844   0.00012458800743301435
-0.27988006513890584   -0.1244673759346656   -0.016345928485018636
-0.27988006513890584   -0.1244673759346656   -0.016345928485018636
-0.27988006513890584   -0.1244673759346656   -0.016345928485018636
-0.27988006513890584   -0.1244673759346656   -0.016345928485018636
-0.2152738941396275   -0.07803170021968041   -0.0067775257090058
-0.2152738941396275   -0.07803170021968041   -0.0067775257090058
-0.2152738941396275   -0.07803170021968041   -0.0067775257090058
-0.2152738941396275   -0.07803170021968041   -0.0067775257090058
-0.26587449126121904   -0.057499626913254345   -0.013285808117994277
-0.26587449126121904   -0.057499626913254345   -0.013285808117994277
-0.26587449126121904   -0.057499626913254345   -0.013285808117994277
-0.26587449126121904   -0.057499626913254345   -0.013285808117994277
-0.17713600323313614   -0.10300023358165064   -0.011754278625713533
-0.17713600323313614   -0.10300023358165064   -0.011754278625713533
-0.17713600323313614   -0.10300023358165064   -0.011754278625713533
-0.17713600323313614   -0.10300023358165064   -0.011754278625713533
-0.16111976396857364   -0.04334459882015641   0.0024661242846458764
-0.16111976396857364   -0.04334459882015641   0.0024661242846458764
-0.16111976396857364   -0.04334459882015641   0.0024661242846458764
-0.16111976396857364   -0.04334459882015641   0.0024661242846458764
-0.27941736666563993   -0.12636411423514265   -0.02438942168392378
-0.27941736666563993   -0.12636411423514265   -0.02438942168392378
-0.27941736666563993   -0.12636411423514265   -0.02438942168392378
-0.27941736666563993   -0.12636411423514265   -0.02438942168392378
-0.21876829817503207   -0.08388266397562809   -0.012615035087031308
-0.21876829817503207   -0.08388266397562809   -0.012615035087031308
-0.21876829817503207   -0.08388266397562809   -0.012615035087031308
-0.21876829817503207   -0.08388266397562809   -0.012615035087031308
-0.1590458448654157   -0.028683796435224517   -0.0020523436024474156
-0.1590458448654157   -0.028683796435224517   -0.0020523436024474156
-0.1590458448654157   -0.028683796435224517   -0.0020523436024474156
-0.1590458448654157   -0.028683796435224517   -0.0020523436024474156
-0.13459322948250563   -0.09077734374081109   -0.01566762268969786
-0.13459322948250563   -0.09077734374081109   -0.01566762268969786
-0.13459322948250563   -0.09077734374081109   -0.01566762268969786
-0.13459322948250563   -0.09077734374081109   -0.01566762268969786
-0.11604608897321109   -0.023997996911446193   0.006122073672842457
-0.11604608897321109   -0.023997996911446193   0.006122073672842457
-0.11604608897321109   -0.023997996911446193   0.006122073672842457
-0.11604608897321109   -0.023997996911446193   0.006122073672842457
-0.17648542281931373   -0.09838343687471715   -0.017230491652733788
-0.17648542281931373   -0.09838343687471715   -0.017230491652733788
-0.17648542281931373   -0.09838343687471715   -0.017230491652733788
-0.17648542281931373   -0.09838343687471715   -0.017230491652733788
-0.14591305075326422   -0.06126394689919917   -0.0072069273994792935
-0.14591305075326422   -0.06126394689919917   -0.0072069273994792935
-0.14591305075326422   -0.06126394689919917   -0.0072069273994792935
-0.14591305075326422   -0.06126394689919917   -0.0072069273994792935
-0.16010790170630781   -0.033983365654265255   0.00025704269184391676
-0.16010790170630781   -0.033983365654265255   0.00025704269184391676
-0.16010790170630781   -0.033983365654265255   0.00025704269184391676
-0.16010790170630781   -0.033983365654265255   0.00025704269184391676
-0.13336674911676885   -0.08934120716244995   -0.015138016793942655
-0.13336674911676885   -0.08934120716244995   -0.015138016793942655
-0.13336674911676885   -0.08934120716244995   -0.015138016793942655
-0.13336674911676885   -0.08934120716244995   -0.015138016793942655
-0.11629083902523915   -0.030322428187247022   0.007950328088121107
-0.11629083902523915   -0.030322428187247022   0.007950328088121107
-0.11629083902523915   -0.030322428187247022   0.007950328088121107
-0.11629083902523915   -0.030322428187247022   0.007950328088121107
-0.17724548493236414   -0.0999392454419355   -0.015362675261568697
-0.17724548493236414   -0.0999392454419355   -0.015362675261568697
-0.17724548493236414   -0.0999392454419355   -0.015362675261568697
-0.17724548493236414   -0.0999392454419355   -0.015362675261568697
-0.14582641949780123   -0.0636148811796225   -0.009357438259464735
-0.14582641949780123   -0.0636148811796225   -0.009357438259464735
-0.14582641949780123   -0.0636148811796225   -0.009357438259464735
-0.14582641949780123   -0.0636148811796225   -0.009357438259464735
-0.16167659231224535   -0.040400946652377485   0.002943489049467285
-0.16167659231224535   -0.040400946652377485   0.002943489049467285
-0.16167659231224535   -0.040400946652377485   0.002943489049467285
-0.16167659231224535   -0.040400946652377485   0.002943489049467285
-0.1323815179641393   -0.09038251329558511   -0.012442981498041576
-0.1323815179641393   -0.09038251329558511   -0.012442981498041576
-0.1323815179641393   -0.09038251329558511   -0.012442981498041576
-0.1323815179641393   -0.09038251329558511   -0.012442981498041576
-0.11515204574529538   -0.03633315086221371   0.00994939995135407
-0.11515204574529538   -0.03633315086221371   0.00994939995135407
-0.11515204574529538   -0.03633315086221371   0.00994939995135407
-0.11515204574529538   -0.03633315086221371   0.00994939995135407
-0.17537981895214041   -0.10114646200013341   -0.011032287453210988
-0.17537981895214041   -0.10114646200013341   -0.011032287453210988
-0.17537981895214041   -0.10114646200013341   -0.011032287453210988
-0.17537981895214041   -0.10114646200013341   -0.011032287453210988
-0.14561739234712767   -0.06674688489468933   -0.010881248946150644
-0.14561739234712767   -0.06674688489468933   -0.010881248946150644
-0.14561739234712767   -0.06674688489468933   -0.010881248946150644
-0.14561739234712767   -0.06674688489468933   -0.010881248946150644
-0.1118862074742913   -0.003886254786960877   0.010976398397523528
-0.1118862074742913   -0.003886254786960877   0.010976398397523528
-0.1118862074742913   -0.003886254786960877   0.010976398397523528
-0.1118862074742913   -0.003886254786960877   0.010976398397523528
-0.10698473767098847   -0.04829473944209023   -0.009488559105730956
-0.10698473767098847   -0.04829473944209023   -0.009488559105730956
-0.10698473767098847   -0.04829473944209023   -0.009488559105730956
-0.10698473767098847   -0.04829473944209023   -0.009488559105730956
-0.09244660437437957   -0.00698586241143676   0.012675170119601183
-0.09244660437437957   -0.00698586241143676   0.012675170119601183
-0.09244660437437957   -0.00698586241143676   0.012675170119601183
-0.09244660437437957   -0.00698586241143676   0.012675170119601183
-0.12490691379515108   -0.05550429712019901   -0.006675750228104635
-0.12490691379515108   -0.05550429712019901   -0.006675750228104635
-0.12490691379515108   -0.05550429712019901   -0.006675750228104635
-0.12490691379515108   -0.05550429712019901   -0.006675750228104635
-0.10941053212080522   -0.02838332379230272   -0.003922105173921404
-0.10941053212080522   -0.02838332379230272   -0.003922105173921404
-0.10941053212080522   -0.02838332379230272   -0.003922105173921404
-0.10941053212080522   -0.02838332379230272   -0.003922105173921404
-0.11212283648106225   -0.010923395843554536   0.012663735065694983
-0.11212283648106225   -0.010923395843554536   0.012663735065694983
-0.11212283648106225   -0.010923395843554536   0.012663735065694983
-0.11212283648106225   -0.010923395843554536   0.012663735065694983
-0.10624674689574994   -0.052582828895362775   -0.010728576003324589
-0.10624674689574994   -0.052582828895362775   -0.010728576003324589
-0.10624674689574994   -0.052582828895362775   -0.010728576003324589
-0.10624674689574994   -0.052582828895362775   -0.010728576003324589
-0.0927742204801309   -0.013141972309849606   0.013639281920950912
-0.0927742204801309   -0.013141972309849606   0.013639281920950912
-0.0927742204801309   -0.013141972309849606   0.013639281920950912
-0.0927742204801309   -0.013141972309849606   0.013639281920950912
-0.1250751120329403   -0.05890168099412059   -0.007391784143511096
-0.1250751120329403   -0.05890168099412059   -0.007391784143511096
-0.1250751120329403   -0.05890168099412059   -0.007391784143511096
-0.1250751120329403   -0.05890168099412059   -0.007391784143511096
-0.10911140425533501   -0.03330827665825245   -0.006676187547124125
-0.10911140425533501   -0.03330827665825245   -0.006676187547124125
-0.10911140425533501   -0.03330827665825245   -0.006676187547124125
-0.10911140425533501   -0.03330827665825245   -0.006676187547124125
-0.11231506148522685   -0.01689719947905924   0.014403987079998713
-0.11231506148522685   -0.01689719947905924   0.014403987079998713
-0.11231506148522685   -0.01689719947905924   0.014403987079998713
-0.11231506148522685   -0.01689719947905924   0.014403987079998713
-0.10615052097683111   -0.05576270377389708   -0.01062148909850274
-0.10615052097683111   -0.05576270377389708   -0.01062148909850274
-0.10615052097683111   -0.05576270377389708   -0.01062148909850274
-0.10615052097683111   -0.05576270377389708   -0.01062148909850274
-0.09219175343437513   -0.018930341527965692   0.01581549474363052
-0.09219175343437513   -0.018930341527965692   0.01581549474363052
-0.09219175343437513   -0.018930341527965692   0.01581549474363052
-0.09219175343437513   -0.018930341527965692   0.01581549474363052
-0.12333446261278369   -0.06228230623303985   -0.0050135290152614285
-0.12333446261278369   -0.06228230623303985   -0.0050135290152614285
-0.12333446261278369   -0.06228230623303985   -0.0050135290152614285
-0.12333446261278369   -0.06228230623303985   -0.0050135290152614285
-0.10900600601740582   -0.037580861493918316   -0.008618874774846151
-0.10900600601740582   -0.037580861493918316   -0.008618874774846151
-0.10900600601740582   -0.037580861493918316   -0.008618874774846151
-0.10900600601740582   -0.037580861493918316   -0.008618874774846151
-0.08946928092352462   0.012605148247865478   0.017188836941632625
-0.08946928092352462   0.012605148247865478   0.017188836941632625
-0.08946928092352462   0.012605148247865478   0.017188836941632625
-0.08946928092352462   0.012605148247865478   0.017188836941632625
-0.061072924474936514   -0.016062032542727925   -0.005915852030255913
-0.061072924474936514   -0.016062032542727925   -0.005915852030255913
-0.061072924474936514   -0.016062032542727925   -0.005915852030255913
-0.061072924474936514   -0.016062032542727925   -0.005915852030255913
-0.05375837475765557   0.014498632994869165   0.017001383785230435
-0.05375837475765557   0.014498632994869165   0.017001383785230435
-0.05375837475765557   0.014498632994869165   0.017001383785230435
-0.05375837475765557   0.014498632994869165   0.017001383785230435
-0.09903916480445703   -0.024194164831846818   -0.0030793296103760314
-0.09903916480445703   -0.024194164831846818   -0.0030793296103760314
-0.09903916480445703   -0.024194164831846818   -0.0030793296103760314
-0.09903916480445703   -0.024194164831846818   -0.0030793296103760314
-0.07472720480223294   -0.001603357895941189   -0.0030116698671618794
-0.07472720480223294   -0.001603357895941189   -0.0030116698671618794
-0.07472720480223294   -0.001603357895941189   -0.0030116698671618794
-0.07472720480223294   -0.001603357895941189   -0.0030116698671618794
-0.08824036444326433   0.007955049811208516   0.01876545755253595
-0.08824036444326433   0.007955049811208516   0.01876545755253595
-0.08824036444326433   0.007955049811208516   0.01876545755253595
-0.08824036444326433   0.007955049811208516   0.01876545755253595
-0.06467597262271685   -0.01776937915205412   -0.005318593393152731
-0.06467597262271685   -0.01776937915205412   -0.005318593393152731
-0.06467597262271685   -0.01776937915205412   -0.005318593393152731
-0.06467597262271685   -0.01776937915205412   -0.005318593393152731
-0.05629224713704252   0.011465351901202852   0.021373919274604823
-0.05629224713704252   0.011465351901202852   0.021373919274604823
-0.05629224713704252   0.011465351901202852   0.021373919274604823
-0.05629224713704252   0.011465351901202852   0.021373919274604823
-0.09880744697095688   -0.025787227169779214   -0.0038815956732493606
-0.09880744697095688   -0.025787227169779214   -0.0038815956732493606
-0.09880744697095688   -0.025787227169779214   -0.0038815956732493606
-0.09880744697095688   -0.025787227169779214   -0.0038815956732493606
-0.07717733269148803   -0.004909912478777019   -0.004376841868542054
-0.07717733269148803   -0.004909912478777019   -0.004376841868542054
-0.07717733269148803   -0.004909912478777019   -0.004376841868542054
-0.07717733269148803   -0.004909912478777019   -0.004376841868542054
-0.08750161066655986   0.0052673058968080964   0.021593052782148382
-0.08750161066655986   0.0052673058968080964   0.021593052782148382
-0.08750161066655986   0.0052673058968080964   0.021593052782148382
-0.08750161066655986   0.0052673058968080964   0.021593052782148382
-0.0683723663969788   -0.020363464120923727   -0.007197861002949991
-0.0683723663969788   -0.020363464120923727   -0.007197861002949991
-0.0683723663969788   -0.020363464120923727   -0.007197861002949991
-0.0683723663969788   -0.020363464120923727   -0.007197861002949991
-0.0643288085589794   0.0031168946825257393   0.022245097979241207
-0.0643288085589794   0.0031168946825257393   0.022245097979241207
-0.0643288085589794   0.0031168946825257393   0.022245097979241207
-0.0643288085589794   0.0031168946825257393   0.022245097979241207
-0.09767249336633478   -0.02728766968542446   -0.0032308767587089955
-0.09767249336633478   -0.02728766968542446   -0.0032308767587089955
-0.09767249336633478   -0.02728766968542446   -0.0032308767587089955
-0.09767249336633478   -0.02728766968542446   -0.0032308767587089955
-0.07844160907279484   -0.007343526315489327   -0.0065101292321165845
-0.07844160907279484   -0.007343526315489327   -0.0065101292321165845
-0.07844160907279484   -0.007343526315489327   -0.0065101292321165845
-0.07844160907279484   -0.007343526315489327   -0.0065101292321165845
-0.9048104672955066   -0.129275545964047   -0.0760585686376053
-0.9048104672955066   -0.129275545964047   -0.0760585686376053
-0.9048104672955066   -0.129275545964047   -0.0760585686376053
-0.9048104672955066   -0.129275545964047   -0.0760585686376053
-0.31546606493296186   -0.5077961721190447   -0.059310117476814694
-0.31546606493296186   -0.5077961721190447   -0.059310117476814694
-0.31546606493296186   -0.5077961721190447   -0.059310117476814694
-0.31546606493296186   -0.5077961721190447   -0.059310117476814694
-0.24220184948132806   -0.021976064368394353   0.00017404117316705166
-0.24220184948132806   -0.021976064368394353   0.00017404117316705166
-0.24220184948132806   -0.021976064368394353   0.00017404117316705166
-0.24220184948132806   -0.021976064368394353   0.00017404117316705166
-0.9691992119675975   -0.5944373356147823   -0.312727309516476
-0.9691992119675975   -0.5944373356147823   -0.312727309516476
-0.9691992119675975   -0.5944373356147823   -0.312727309516476
-0.9691992119675975   -0.5944373356147823   -0.312727309516476
-0.5926654713065875   -0.2953769474383646   -0.04308500636883298
-0.5926654713065875   -0.2953769474383646   -0.04308500636883298
-0.5926654713065875   -0.2953769474383646   -0.04308500636883298
-0.5926654713065875   -0.2953769474383646   -0.04308500636883298
-0.8409317953271984   -0.16243531179837986   -0.10339225013089003
-0.8409317953271984   -0.16243531179837986   -0.10339225013089003
-0.8409317953271984   -0.16243531179837986   -0.10339225013089003
-0.8409317953271984   -0.16243531179837986   -0.10339225013089003
-0.3411415855687673   -0.4246504076318378   -0.09185029600058393
-0.3411415855687673   -0.4246504076318378   -0.09185029600058393
-0.3411415855687673   -0.4246504076318378   -0.09185029600058393
-0.3411415855687673   -0.4246504076318378   -0.09185029600058393
-0.24750333579561332   -0.028926220007181546   0.009237648569136728
-0.24750333579561332   -0.028926220007181546   0.009237648569136728
-0.24750333579561332   -0.028926220007181546   0.009237648569136728
-0.24750333579561332   -0.028926220007181546   0.009237648569136728
-0.9072269139124591   -0.531592655986728   -0.2877639139798374
-0.9072269139124591   -0.531592655986728   -0.2877639139798374
-0.9072269139124591   -0.531592655986728   -0.2877639139798374
-0.9072269139124591   -0.531592655986728   -0.2877639139798374
-0.5584475494653128   -0.26678634661879774   0.02226652315866083
-0.5584475494653128   -0.26678634661879774   0.02226652315866083
-0.5584475494653128   -0.26678634661879774   0.02226652315866083
-0.5584475494653128   -0.26678634661879774   0.02226652315866083
-0.7897678673903991   -0.15469910292601693   -0.0773622344302545
-0.7897678673903991   -0.15469910292601693   -0.0773622344302545
-0.7897678673903991   -0.15469910292601693   -0.0773622344302545
-0.7897678673903991   -0.15469910292601693   -0.0773622344302545
-0.3323305233921152   -0.3731879141423352   -0.07063659527821743
-0.3323305233921152   -0.3731879141423352   -0.07063659527821743
-0.3323305233921152   -0.3731879141423352   -0.07063659527821743
-0.3323305233921152   -0.3731879141423352   -0.07063659527821743
-0.2853957012986751   -0.07428302934425363   -0.015168871632352959
-0.2853957012986751   -0.07428302934425363   -0.015168871632352959
-0.2853957012986751   -0.07428302934425363   -0.015168871632352959
-0.2853957012986751   -0.07428302934425363   -0.015168871632352959
-0.8270382463553757   -0.44851790490701887   -0.2551112302524789
-0.8270382463553757   -0.44851790490701887   -0.2551112302524789
-0.8270382463553757   -0.44851790490701887   -0.2551112302524789
-0.8270382463553757   -0.44851790490701887   -0.2551112302524789
-0.5175512122865977   -0.23162299636178882   0.0962158067118084
-0.5175512122865977   -0.23162299636178882   0.0962158067118084
-0.5175512122865977   -0.23162299636178882   0.0962158067118084
-0.5175512122865977   -0.23162299636178882   0.0962158067118084
-0.23135320990513425   -0.12773416368233992   -0.018807850774383298
-0.23135320990513425   -0.12773416368233992   -0.018807850774383298
-0.23135320990513425   -0.12773416368233992   -0.018807850774383298
-0.23135320990513425   -0.12773416368233992   -0.018807850774383298
-0.10828291315209285   -0.164174996135624   -0.026817198851299715
-0.10828291315209285   -0.164174996135624   -0.026817198851299715
-0.10828291315209285   -0.164174996135624   -0.026817198851299715
-0.10828291315209285   -0.164174996135624   -0.026817198851299715
-0.09469475492046002   -0.08232076935872426   0.0023401754302355623
-0.09469475492046002   -0.08232076935872426   0.0023401754302355623
-0.09469475492046002   -0.08232076935872426   0.0023401754302355623
-0.09469475492046002   -0.08232076935872426   0.0023401754302355623
-0.2851733515052302   -0.23747266078939763   0.0008131274746610503
-0.2851733515052302   -0.23747266078939763   0.0008131274746610503
-0.2851733515052302   -0.23747266078939763   0.0008131274746610503
-0.2851733515052302   -0.23747266078939763   0.0008131274746610503
-0.15258010057917953   -0.11481782946866732   0.04935303571692147
-0.15258010057917953   -0.11481782946866732   0.04935303571692147
-0.15258010057917953   -0.11481782946866732   0.04935303571692147
-0.15258010057917953   -0.11481782946866732   0.04935303571692147
-0.26408113141669814   -0.1190881385986956   -0.01211029427338305
-0.26408113141669814   -0.1190881385986956   -0.01211029427338305
-0.26408113141669814   -0.1190881385986956   -0.01211029427338305
-0.26408113141669814   -0.1190881385986956   -0.01211029427338305
-0.12398102774756267   -0.20889934428799695   -0.0175126137760031
-0.12398102774756267   -0.20889934428799695   -0.0175126137760031
-0.12398102774756267   -0.20889934428799695   -0.0175126137760031
-0.12398102774756267   -0.20889934428799695   -0.0175126137760031
-0.10266340551062297   -0.08525681288517992   0.0024902271341307562
-0.10266340551062297   -0.08525681288517992   0.0024902271341307562
-0.10266340551062297   -0.08525681288517992   0.0024902271341307562
-0.10266340551062297   -0.08525681288517992   0.0024902271341307562
-0.2996711037261766   -0.23491774415430117   -0.04560966693655847
-0.2996711037261766   -0.23491774415430117   -0.04560966693655847
-0.2996711037261766   -0.23491774415430117   -0.04560966693655847
-0.2996711037261766   -0.23491774415430117   -0.04560966693655847
-0.182680877456961   -0.14684380353022417   0.022178390599626667
-0.182680877456961   -0.14684380353022417   0.022178390599626667
-0.182680877456961   -0.14684380353022417   0.022178390599626667
-0.182680877456961   -0.14684380353022417   0.022178390599626667
-0.27297716354046314   -0.12435762662536048   -0.02270008353693188
-0.27297716354046314   -0.12435762662536048   -0.02270008353693188
-0.27297716354046314   -0.12435762662536048   -0.02270008353693188
-0.27297716354046314   -0.12435762662536048   -0.02270008353693188
-0.12861285720939056   -0.1950724419271747   -0.017441402317712358
-0.12861285720939056   -0.1950724419271747   -0.017441402317712358
-0.12861285720939056   -0.1950724419271747   -0.017441402317712358
-0.12861285720939056   -0.1950724419271747   -0.017441402317712358
-0.11507403299294662   -0.0878811778500928   0.003681926568636005
-0.11507403299294662   -0.0878811778500928   0.003681926568636005
-0.11507403299294662   -0.0878811778500928   0.003681926568636005
-0.11507403299294662   -0.0878811778500928   0.003681926568636005
-0.3211239573254786   -0.22861290156183334   -0.039480279548789736
-0.3211239573254786   -0.22861290156183334   -0.039480279548789736
-0.3211239573254786   -0.22861290156183334   -0.039480279548789736
-0.3211239573254786   -0.22861290156183334   -0.039480279548789736
-0.19166067880024254   -0.13848396881192457   0.02339447655113285
-0.19166067880024254   -0.13848396881192457   0.02339447655113285
-0.19166067880024254   -0.13848396881192457   0.02339447655113285
-0.19166067880024254   -0.13848396881192457   0.02339447655113285
-0.08425549712198065   -0.0764560797483659   0.005600964912003185
-0.08425549712198065   -0.0764560797483659   0.005600964912003185
-0.08425549712198065   -0.0764560797483659   0.005600964912003185
-0.08425549712198065   -0.0764560797483659   0.005600964912003185
-0.05255296247552952   -0.0531496216703535   -0.013189829920476981
-0.05255296247552952   -0.0531496216703535   -0.013189829920476981
-0.05255296247552952   -0.0531496216703535   -0.013189829920476981
-0.05255296247552952   -0.0531496216703535   -0.013189829920476981
-0.05059018609214216   -0.06864645859523741   0.005559163017489571
-0.05059018609214216   -0.06864645859523741   0.005559163017489571
-0.05059018609214216   -0.06864645859523741   0.005559163017489571
-0.05059018609214216   -0.06864645859523741   0.005559163017489571
-0.09414649151211323   -0.07173696799214493   -0.005502308894607904
-0.09414649151211323   -0.07173696799214493   -0.005502308894607904
-0.09414649151211323   -0.07173696799214493   -0.005502308894607904
-0.09414649151211323   -0.07173696799214493   -0.005502308894607904
-0.05931357176892438   -0.056832033188027445   0.02483437336372965
-0.05931357176892438   -0.056832033188027445   0.02483437336372965
-0.05931357176892438   -0.056832033188027445   0.02483437336372965
-0.05931357176892438   -0.056832033188027445   0.02483437336372965
-0.09287792436279577   -0.07699593923408293   0.0060994980939155265
-0.09287792436279577   -0.07699593923408293   0.0060994980939155265
-0.09287792436279577   -0.07699593923408293   0.0060994980939155265
-0.09287792436279577   -0.07699593923408293   0.0060994980939155265
-0.05275232448423184   -0.0642810585960725   -0.009616928942127574
-0.05275232448423184   -0.0642810585960725   -0.009616928942127574
-0.05275232448423184   -0.0642810585960725   -0.009616928942127574
-0.05275232448423184   -0.0642810585960725   -0.009616928942127574
-0.05140322047085148   -0.07070174106643026   0.00498258215444481
-0.05140322047085148   -0.07070174106643026   0.00498258215444481
-0.05140322047085148   -0.07070174106643026   0.00498258215444481
-0.05140322047085148   -0.07070174106643026   0.00498258215444481
-0.1003453141934943   -0.08347543913151312   0.01229930996610738
-0.1003453141934943   -0.08347543913151312   0.01229930996610738
-0.1003453141934943   -0.08347543913151312   0.01229930996610738
-0.1003453141934943   -0.08347543913151312   0.01229930996610738
-0.0649060976192443   -0.0634079228128541   0.020792262031708073
-0.0649060976192443   -0.0634079228128541   0.020792262031708073
-0.0649060976192443   -0.0634079228128541   0.020792262031708073
-0.0649060976192443   -0.0634079228128541   0.020792262031708073
-0.10044027725209954   -0.07986321478771333   0.008212270329281315
-0.10044027725209954   -0.07986321478771333   0.008212270329281315
-0.10044027725209954   -0.07986321478771333   0.008212270329281315
-0.10044027725209954   -0.07986321478771333   0.008212270329281315
-0.05573781528588602   -0.07874352328387048   -0.00864860970328769
-0.05573781528588602   -0.07874352328387048   -0.00864860970328769
-0.05573781528588602   -0.07874352328387048   -0.00864860970328769
-0.05573781528588602   -0.07874352328387048   -0.00864860970328769
-0.052423937547915606   -0.0729414799789406   0.007036741248532114
-0.052423937547915606   -0.0729414799789406   0.007036741248532114
-0.052423937547915606   -0.0729414799789406   0.007036741248532114
-0.052423937547915606   -0.0729414799789406   0.007036741248532114
-0.1180097250154577   -0.10214285325043451   0.003265141856422297
-0.1180097250154577   -0.10214285325043451   0.003265141856422297
-0.1180097250154577   -0.10214285325043451   0.003265141856422297
-0.1180097250154577   -0.10214285325043451   0.003265141856422297
-0.07290964184457838   -0.07208986638862773   0.009481960298935312
-0.07290964184457838   -0.07208986638862773   0.009481960298935312
-0.07290964184457838   -0.07208986638862773   0.009481960298935312
-0.07290964184457838   -0.07208986638862773   0.009481960298935312
-0.042426076878120715   -0.030521916819273152   0.014816893215486682
-0.042426076878120715   -0.030521916819273152   0.014816893215486682
-0.042426076878120715   -0.030521916819273152   0.014816893215486682
-0.042426076878120715   -0.030521916819273152   0.014816893215486682
-0.030547651862965288   -0.0017499687534636831   -0.0030125205525929916
-0.030547651862965288   -0.0017499687534636831   -0.0030125205525929916
-0.030547651862965288   -0.0017499687534636831   -0.0030125205525929916
-0.030547651862965288   -0.0017499687534636831   -0.0030125205525929916
-0.028933114506345795   -0.03314400472259861   0.009151912471095956
-0.028933114506345795   -0.03314400472259861   0.009151912471095956
-0.028933114506345795   -0.03314400472259861   0.009151912471095956
-0.028933114506345795   -0.03314400472259861   0.009151912471095956
-0.039822217973581285   -0.007694748582439015   -0.00155270640250445
-0.039822217973581285   -0.007694748582439015   -0.00155270640250445
-0.039822217973581285   -0.007694748582439015   -0.00155270640250445
-0.039822217973581285   -0.007694748582439015   -0.00155270640250445
-0.032720891357849904   -0.017400572630712843   0.007345312295498632
-0.032720891357849904   -0.017400572630712843   0.007345312295498632
-0.032720891357849904   -0.017400572630712843   0.007345312295498632
-0.032720891357849904   -0.017400572630712843   0.007345312295498632
-0.04213197160000497   -0.03481116938246834   0.014014946265406475
-0.04213197160000497   -0.03481116938246834   0.014014946265406475
-0.04213197160000497   -0.03481116938246834   0.014014946265406475
-0.04213197160000497   -0.03481116938246834   0.014014946265406475
-0.025922287407245694   -0.005326510449892868   -0.0036114463061092993
-0.025922287407245694   -0.005326510449892868   -0.0036114463061092993
-0.025922287407245694   -0.005326510449892868   -0.0036114463061092993
-0.025922287407245694   -0.005326510449892868   -0.0036114463061092993
-0.02673556999510948   -0.036059761173621876   0.008478272921151634
-0.02673556999510948   -0.036059761173621876   0.008478272921151634
-0.02673556999510948   -0.036059761173621876   0.008478272921151634
-0.02673556999510948   -0.036059761173621876   0.008478272921151634
-0.04039878406670347   -0.013672473126531677   0.002975496235286276
-0.04039878406670347   -0.013672473126531677   0.002975496235286276
-0.04039878406670347   -0.013672473126531677   0.002975496235286276
-0.04039878406670347   -0.013672473126531677   0.002975496235286276
-0.03029702002467838   -0.02000574199311206   0.008570984940470658
-0.03029702002467838   -0.02000574199311206   0.008570984940470658
-0.03029702002467838   -0.02000574199311206   0.008570984940470658
-0.03029702002467838   -0.02000574199311206   0.008570984940470658
-0.04259334215520767   -0.037717436380520296   0.016047669046757737
-0.04259334215520767   -0.037717436380520296   0.016047669046757737
-0.04259334215520767   -0.037717436380520296   0.016047669046757737
-0.04259334215520767   -0.037717436380520296   0.016047669046757737
-0.02482890129658578   -0.012302687309613121   -0.005745457450238635
-0.02482890129658578   -0.012302687309613121   -0.005745457450238635
-0.02482890129658578   -0.012302687309613121   -0.005745457450238635
-0.02482890129658578   -0.012302687309613121   -0.005745457450238635
-0.022746572536120845   -0.03929130640184426   0.009353580064049832
-0.022746572536120845   -0.03929130640184426   0.009353580064049832
-0.022746572536120845   -0.03929130640184426   0.009353580064049832
-0.022746572536120845   -0.03929130640184426   0.009353580064049832
-0.044052672231982344   -0.02790461309584107   0.0038562009450989025
-0.044052672231982344   -0.02790461309584107   0.0038562009450989025
-0.044052672231982344   -0.02790461309584107   0.0038562009450989025
-0.044052672231982344   -0.02790461309584107   0.0038562009450989025
-0.029490493186451798   -0.02513651244992921   0.007187935314789199
-0.029490493186451798   -0.02513651244992921   0.007187935314789199
-0.029490493186451798   -0.02513651244992921   0.007187935314789199
-0.029490493186451798   -0.02513651244992921   0.007187935314789199
-0.027632654703283674   -0.005190257403230557   0.015002753895581939
-0.027632654703283674   -0.005190257403230557   0.015002753895581939
-0.027632654703283674   -0.005190257403230557   0.015002753895581939
-0.027632654703283674   -0.005190257403230557   0.015002753895581939
-0.005429543165405635   0.002911646084420355   -0.000303477526426374
-0.005429543165405635   0.002911646084420355   -0.000303477526426374
-0.005429543165405635   0.002911646084420355   -0.000303477526426374
-0.005429543165405635   0.002911646084420355   -0.000303477526426374
0.0009217734426176425   -0.0017156379666630984   0.009352366468467883
0.0009217734426176425   -0.0017156379666630984   0.009352366468467883
0.0009217734426176425   -0.0017156379666630984   0.009352366468467883
0.0009217734426176425   -0.0017156379666630984   0.009352366468467883
-0.02392826799116236   0.001975658626628461   -0.0009435183022139543
-0.02392826799116236   0.001975658626628461   -0.0009435183022139543
-0.02392826799116236   0.001975658626628461   -0.0009435183022139543
-0.02392826799116236   0.001975658626628461   -0.0009435183022139543
-0.014220236822086665   -0.0011336389573361697   -0.0010992669471652605
-0.014220236822086665   -0.0011336389573361697   -0.0010992669471652605
-0.014220236822086665   -0.0011336389573361697   -0.0010992669471652605
-0.014220236822086665   -0.0011336389573361697   -0.0010992669471652605
-0.022019975282822925   -0.005049783526851404   0.015623387392963088
-0.022019975282822925   -0.005049783526851404   0.015623387392963088
-0.022019975282822925   -0.005049783526851404   0.015623387392963088
-0.022019975282822925   -0.005049783526851404   0.015623387392963088
-0.0001753980123107516   0.006120925440228448   -0.003970054213065632
-0.0001753980123107516   0.006120925440228448   -0.003970054213065632
-0.0001753980123107516   0.006120925440228448   -0.003970054213065632
-0.0001753980123107516   0.006120925440228448   -0.003970054213065632
0.003988991337718392   -0.0021437138828388127   0.01153953245277738
0.003988991337718392   -0.0021437138828388127   0.01153953245277738
0.003988991337718392   -0.0021437138828388127   0.01153953245277738
0.003988991337718392   -0.0021437138828388127   0.01153953245277738
-0.02124620875816974   0.0012302053487866504   -0.0013648874165582046
-0.02124620875816974   0.0012302053487866504   -0.0013648874165582046
-0.02124620875816974   0.0012302053487866504   -0.0013648874165582046
-0.02124620875816974   0.0012302053487866504   -0.0013648874165582046
-0.009663760994896988   -0.0004047086162726893   0.0014178325426248378
-0.009663760994896988   -0.0004047086162726893   0.0014178325426248378
-0.009663760994896988   -0.0004047086162726893   0.0014178325426248378
-0.009663760994896988   -0.0004047086162726893   0.0014178325426248378
-0.018990375602154663   -0.005682164182423444   0.01682664789472728
-0.018990375602154663   -0.005682164182423444   0.01682664789472728
-0.018990375602154663   -0.005682164182423444   0.01682664789472728
-0.018990375602154663   -0.005682164182423444   0.01682664789472728
0.0024375340597604265   0.0054730315264283945   -0.0038344993462796546
0.0024375340597604265   0.0054730315264283945   -0.0038344993462796546
0.0024375340597604265   0.0054730315264283945   -0.0038344993462796546
0.0024375340597604265   0.0054730315264283945   -0.0038344993462796546
0.006992793935252739   -0.003457150099822626   0.011256433867716489
0.006992793935252739   -0.003457150099822626   0.011256433867716489
0.006992793935252739   -0.003457150099822626   0.011256433867716489
0.006992793935252739   -0.003457150099822626   0.011256433867716489
-0.01688934848810538   0.0008711694407523519   -0.0015227755384694605
-0.01688934848810538   0.0008711694407523519   -0.0015227755384694605
-0.01688934848810538   0.0008711694407523519   -0.0015227755384694605
-0.01688934848810538   0.0008711694407523519   -0.0015227755384694605
-0.005645183214828047   -4.0223647582e-05   0.003562321672879518
-0.005645183214828047   -4.0223647582e-05   0.003562321672879518
-0.005645183214828047   -4.0223647582e-05   0.003562321672879518
-0.005645183214828047   -4.0223647582e-05   0.003562321672879518
              </DataArray>   
             <DataArray type="Float64" NumberOfComponents="3" Name="Displacements" format="ascii">   
0.0   0.0   0.0
-0.0025281569146137295   -0.0016653255186624709   -0.0008473179693584457
0.0   0.0   0.0
0.0   0.0   0.0
-0.0025281569146137295   -0.0016653255186624709   -0.0008473179693584457
-0.0016081126455710572   -0.0014977677157711434   -0.0006226061546236722
0.0   0.0   0.0
-0.0015758971088989   -0.0015725410470573957   -0.0005217457529464286
0.0   0.0   0.0
0.0   0.0   0.0
-0.0015758971088989   -0.0015725410470573957   -0.0005217457529464286
0.0   0.0   0.0
0.0   0.0   0.0
-0.0015758971088989   -0.0015725410470573957   -0.0005217457529464286
-0.0026453260416187986   -0.0017738503369523525   -0.0006804811528009735
-0.0025281569146137295   -0.0016653255186624709   -0.0008473179693584457
0.0   0.0   0.0
-0.0015758971088989   -0.0015725410470573957   -0.0005217457529464286
-0.0025281569146137295   -0.0016653255186624709   -0.0008473179693584457
0.0   0.0   0.0
0.0   0.0   0.0
-0.0026453260416187986   -0.0017738503369523525   -0.0006804811528009735
0.0   0.0   0.0
0.0   0.0   0.0
-0.0026453260416187986   -0.0017738503369523525   -0.0006804811528009735
-0.0015758971088989   -0.0015725410470573957   -0.0005217457529464286
0.0   0.0   0.0
-0.001579895615588985   -0.0016109113337669824   -0.00042108146500693483
0.0   0.0   0.0
0.0   0.0   0.0
-0.001579895615588985   -0.0016109113337669824   -0.00042108146500693483
0.0   0.0   0.0
0.0   0.0   0.0
-0.001579895615588985   -0.0016109113337669824   -0.00042108146500693483
-0.0027274081126095304   -0.0018266469161086528   -0.0005207220105192404
-0.0026453260416187986   -0.0017738503369523525   -0.0006804811528009735
0.0   0.0   0.0
-0.001579895615588985   -0.0016109113337669824   -0.00042108146500693483
-0.0026453260416187986   -0.0017738503369523525   -0.0006804811528009735
0.0   0.0   0.0
0.0   0.0   0.0
-0.0027274081126095304   -0.0018266469161086528   -0.0005207220105192404
0.0   0.0   0.0
0.0   0.0   0.0
-0.0027274081126095304   -0.0018266469161086528   -0.0005207220105192404
-0.001579895615588985   -0.0016109113337669824   -0.00042108146500693483
0.0   0.0   0.0
-0.0015785626441709277   -0.0016208412654448918   -0.00031705663680423794
0.0   0.0   0.0
0.0   0.0   0.0
-0.0015785626441709277   -0.0016208412654448918   -0.00031705663680423794
0.0   0.0   0.0
0.0   0.0   0.0
-0.0015785626441709277   -0.0016208412654448918   -0.00031705663680423794
-0.0029046779163341475   -0.00186680509926311   -0.0003354414428534066
-0.0027274081126095304   -0.0018266469161086528   -0.0005207220105192404
0.0   0.0   0.0
-0.0015785626441709277   -0.0016208412654448918   -0.00031705663680423794
-0.0027274081126095304   -0.0018266469161086528   -0.0005207220105192404
0.0   0.0   0.0
0.0   0.0   0.0
-0.0016081126455710572   -0.0014977677157711434   -0.0006226061546236722
0.0   0.0   0.0
0.0   0.0   0.0
-0.0016081126455710572   -0.0014977677157711434   -0.0006226061546236722
-0.0007328587323346492   -0.0014364076758937377   -0.00047375828942564953
0.0   0.0   0.0
-0.000704418665081997   -0.0014850235922018095   -0.0004260893949902805
0.0   0.0   0.0
0.0   0.0   0.0
-0.000704418665081997   -0.0014850235922018095   -0.0004260893949902805
0.0   0.0   0.0
0.0   0.0   0.0
-0.000704418665081997   -0.0014850235922018095   -0.0004260893949902805
-0.0015758971088989   -0.0015725410470573957   -0.0005217457529464286
-0.0016081126455710572   -0.0014977677157711434   -0.0006226061546236722
0.0   0.0   0.0
-0.000704418665081997   -0.0014850235922018095   -0.0004260893949902805
-0.0016081126455710572   -0.0014977677157711434   -0.0006226061546236722
0.0   0.0   0.0
0.0   0.0   0.0
-0.0015758971088989   -0.0015725410470573957   -0.0005217457529464286
0.0   0.0   0.0
0.0   0.0   0.0
-0.0015758971088989   -0.0015725410470573957   -0.0005217457529464286
-0.000704418665081997   -0.0014850235922018095   -0.0004260893949902805
0.0   0.0   0.0
-0.0006882636149995017   -0.0015035724521110217   -0.00037971541712229583
0.0   0.0   0.0
0.0   0.0   0.0
-0.0006882636149995017   -0.0015035724521110217   -0.00037971541712229583
0.0   0.0   0.0
0.0   0.0   0.0
-0.0006882636149995017   -0.0015035724521110217   -0.00037971541712229583
-0.001579895615588985   -0.0016109113337669824   -0.00042108146500693483
-0.0015758971088989   -0.0015725410470573957   -0.0005217457529464286
0.0   0.0   0.0
-0.0006882636149995017   -0.0015035724521110217   -0.00037971541712229583
-0.0015758971088989   -0.0015725410470573957   -0.0005217457529464286
0.0   0.0   0.0
0.0   0.0   0.0
-0.001579895615588985   -0.0016109113337669824   -0.00042108146500693483
0.0   0.0   0.0
0.0   0.0   0.0
-0.001579895615588985   -0.0016109113337669824   -0.00042108146500693483
-0.0006882636149995017   -0.0015035724521110217   -0.00037971541712229583
0.0   0.0   0.0
-0.0006734795325166555   -0.0014958765028533492   -0.00033182536058272866
0.0   0.0   0.0
0.0   0.0   0.0
-0.0006734795325166555   -0.0014958765028533492   -0.00033182536058272866
0.0   0.0   0.0
0.0   0.0   0.0
-0.0006734795325166555   -0.0014958765028533492   -0.00033182536058272866
-0.0015785626441709277   -0.0016208412654448918   -0.00031705663680423794
-0.001579895615588985   -0.0016109113337669824   -0.00042108146500693483
0.0   0.0   0.0
-0.0006734795325166555   -0.0014958765028533492   -0.00033182536058272866
-0.001579895615588985   -0.0016109113337669824   -0.00042108146500693483
0.0   0.0   0.0
0.0   0.0   0.0
-0.0007328587323346492   -0.0014364076758937377   -0.00047375828942564953
0.0   0.0   0.0
0.0   0.0   0.0
-0.0007328587323346492   -0.0014364076758937377   -0.00047375828942564953
9.371079704772698e-05   -0.0014443392267628305   -0.00037904218890165176
0.0   0.0   0.0
0.00011207069924293321   -0.0014694770814255075   -0.0003855094981431641
0.0   0.0   0.0
0.0   0.0   0.0
0.00011207069924293321   -0.0014694770814255075   -0.0003855094981431641
0.0   0.0   0.0
0.0   0.0   0.0
0.00011207069924293321   -0.0014694770814255075   -0.0003855094981431641
-0.000704418665081997   -0.0014850235922018095   -0.0004260893949902805
-0.0007328587323346492   -0.0014364076758937377   -0.00047375828942564953
0.0   0.0   0.0
0.00011207069924293321   -0.0014694770814255075   -0.0003855094981431641
-0.0007328587323346492   -0.0014364076758937377   -0.00047375828942564953
0.0   0.0   0.0
0.0   0.0   0.0
-0.000704418665081997   -0.0014850235922018095   -0.0004260893949902805
0.0   0.0   0.0
0.0   0.0   0.0
-0.000704418665081997   -0.0014850235922018095   -0.0004260893949902805
0.00011207069924293321   -0.0014694770814255075   -0.0003855094981431641
0.0   0.0   0.0
0.00012662042144778385   -0.001467340538205159   -0.0003913945485752458
0.0   0.0   0.0
0.0   0.0   0.0
0.00012662042144778385   -0.001467340538205159   -0.0003913945485752458
0.0   0.0   0.0
0.0   0.0   0.0
0.00012662042144778385   -0.001467340538205159   -0.0003913945485752458
-0.0006882636149995017   -0.0015035724521110217   -0.00037971541712229583
-0.000704418665081997   -0.0014850235922018095   -0.0004260893949902805
0.0   0.0   0.0
0.00012662042144778385   -0.001467340538205159   -0.0003913945485752458
-0.000704418665081997   -0.0014850235922018095   -0.0004260893949902805
0.0   0.0   0.0
0.0   0.0   0.0
-0.0006882636149995017   -0.0015035724521110217   -0.00037971541712229583
0.0   0.0   0.0
0.0   0.0   0.0
-0.0006882636149995017   -0.0015035724521110217   -0.00037971541712229583
0.00012662042144778385   -0.001467340538205159   -0.0003913945485752458
0.0   0.0   0.0
0.00014604915548686382   -0.001435701523702256   -0.00039749525641075075
0.0   0.0   0.0
0.0   0.0   0.0
0.00014604915548686382   -0.001435701523702256   -0.00039749525641075075
0.0   0.0   0.0
0.0   0.0   0.0
0.00014604915548686382   -0.001435701523702256   -0.00039749525641075075
-0.0006734795325166555   -0.0014958765028533492   -0.00033182536058272866
-0.0006882636149995017   -0.0015035724521110217   -0.00037971541712229583
0.0   0.0   0.0
0.00014604915548686382   -0.001435701523702256   -0.00039749525641075075
-0.0006882636149995017   -0.0015035724521110217   -0.00037971541712229583
0.0   0.0   0.0
0.0   0.0   0.0
9.371079704772698e-05   -0.0014443392267628305   -0.00037904218890165176
0.0   0.0   0.0
0.0   0.0   0.0
9.371079704772698e-05   -0.0014443392267628305   -0.00037904218890165176
0.0009913187918663073   -0.0015141035774446925   -0.0003323780749545275
0.0   0.0   0.0
0.00099362638607941   -0.00152199477457487   -0.0003958128512953143
0.0   0.0   0.0
0.0   0.0   0.0
0.00099362638607941   -0.00152199477457487   -0.0003958128512953143
0.0   0.0   0.0
0.0   0.0   0.0
0.00099362638607941   -0.00152199477457487   -0.0003958128512953143
0.00011207069924293321   -0.0014694770814255075   -0.0003855094981431641
9.371079704772698e-05   -0.0014443392267628305   -0.00037904218890165176
0.0   0.0   0.0
0.00099362638607941   -0.00152199477457487   -0.0003958128512953143
9.371079704772698e-05   -0.0014443392267628305   -0.00037904218890165176
0.0   0.0   0.0
0.0   0.0   0.0
0.00011207069924293321   -0.0014694770814255075   -0.0003855094981431641
0.0   0.0   0.0
0.0   0.0   0.0
0.00011207069924293321   -0.0014694770814255075   -0.0003855094981431641
0.00099362638607941   -0.00152199477457487   -0.0003958128512953143
0.0   0.0   0.0
0.000989840380623554   -0.0015002651673192465   -0.00045673133410327227
0.0   0.0   0.0
0.0   0.0   0.0
0.000989840380623554   -0.0015002651673192465   -0.00045673133410327227
0.0   0.0   0.0
0.0   0.0   0.0
0.000989840380623554   -0.0015002651673192465   -0.00045673133410327227
0.00012662042144778385   -0.001467340538205159   -0.0003913945485752458
0.00011207069924293321   -0.0014694770814255075   -0.0003855094981431641
0.0   0.0   0.0
0.000989840380623554   -0.0015002651673192465   -0.00045673133410327227
0.00011207069924293321   -0.0014694770814255075   -0.0003855094981431641
0.0   0.0   0.0
0.0   0.0   0.0
0.00012662042144778385   -0.001467340538205159   -0.0003913945485752458
0.0   0.0   0.0
0.0   0.0   0.0
0.00012662042144778385   -0.001467340538205159   -0.0003913945485752458
0.000989840380623554   -0.0015002651673192465   -0.00045673133410327227
0.0   0.0   0.0
0.0010094617876916271   -0.0014423146177798313   -0.0005165407122862078
0.0   0.0   0.0
0.0   0.0   0.0
0.0010094617876916271   -0.0014423146177798313   -0.0005165407122862078
0.0   0.0   0.0
0.0   0.0   0.0
0.0010094617876916271   -0.0014423146177798313   -0.0005165407122862078
0.00014604915548686382   -0.001435701523702256   -0.00039749525641075075
0.00012662042144778385   -0.001467340538205159   -0.0003913945485752458
0.0   0.0   0.0
0.0010094617876916271   -0.0014423146177798313   -0.0005165407122862078
0.00012662042144778385   -0.001467340538205159   -0.0003913945485752458
0.0   0.0   0.0
0.0   0.0   0.0
0.0009913187918663073   -0.0015141035774446925   -0.0003323780749545275
0.0   0.0   0.0
0.0   0.0   0.0
0.0009913187918663073   -0.0015141035774446925   -0.0003323780749545275
0.002240924630803505   -0.0016911758143844584   -0.0003140666209259552
0.0   0.0   0.0
0.0021052976024681066   -0.0016724824019063442   -0.0004580663714583613
0.0   0.0   0.0
0.0   0.0   0.0
0.0021052976024681066   -0.0016724824019063442   -0.0004580663714583613
0.0   0.0   0.0
0.0   0.0   0.0
0.0021052976024681066   -0.0016724824019063442   -0.0004580663714583613
0.00099362638607941   -0.00152199477457487   -0.0003958128512953143
0.0009913187918663073   -0.0015141035774446925   -0.0003323780749545275
0.0   0.0   0.0
0.0021052976024681066   -0.0016724824019063442   -0.0004580663714583613
0.0009913187918663073   -0.0015141035774446925   -0.0003323780749545275
0.0   0.0   0.0
0.0   0.0   0.0
0.00099362638607941   -0.00152199477457487   -0.0003958128512953143
0.0   0.0   0.0
0.0   0.0   0.0
0.00099362638607941   -0.00152199477457487   -0.0003958128512953143
0.0021052976024681066   -0.0016724824019063442   -0.0004580663714583613
0.0   0.0   0.0
0.0020429666487257257   -0.0016377157247216612   -0.0005798875390155312
0.0   0.0   0.0
0.0   0.0   0.0
0.0020429666487257257   -0.0016377157247216612   -0.0005798875390155312
0.0   0.0   0.0
0.0   0.0   0.0
0.0020429666487257257   -0.0016377157247216612   -0.0005798875390155312
0.000989840380623554   -0.0015002651673192465   -0.00045673133410327227
0.00099362638607941   -0.00152199477457487   -0.0003958128512953143
0.0   0.0   0.0
0.0020429666487257257   -0.0016377157247216612   -0.0005798875390155312
0.00099362638607941   -0.00152199477457487   -0.0003958128512953143
0.0   0.0   0.0
0.0   0.0   0.0
0.000989840380623554   -0.0015002651673192465   -0.00045673133410327227
0.0   0.0   0.0
0.0   0.0   0.0
0.000989840380623554   -0.0015002651673192465   -0.00045673133410327227
0.0020429666487257257   -0.0016377157247216612   -0.0005798875390155312
0.0   0.0   0.0
0.0019498452005632585   -0.0015489415480140058   -0.0007089133551915038
0.0   0.0   0.0
0.0   0.0   0.0
0.0019498452005632585   -0.0015489415480140058   -0.0007089133551915038
0.0   0.0   0.0
0.0   0.0   0.0
0.0019498452005632585   -0.0015489415480140058   -0.0007089133551915038
0.0010094617876916271   -0.0014423146177798313   -0.0005165407122862078
0.000989840380623554   -0.0015002651673192465   -0.00045673133410327227
0.0   0.0   0.0
0.0019498452005632585   -0.0015489415480140058   -0.0007089133551915038
0.000989840380623554   -0.0015002651673192465   -0.00045673133410327227
0.0   0.0   0.0
-0.0025281569146137295   -0.0016653255186624709   -0.0008473179693584457
-0.004717182652574572   -0.004639067517264581   -0.0011417977170619243
-0.0016081126455710572   -0.0014977677157711434   -0.0006226061546236722
-0.0026453260416187986   -0.0017738503369523525   -0.0006804811528009735
-0.004717182652574572   -0.004639067517264581   -0.0011417977170619243
-0.0030105712731445093   -0.004488549481333856   -0.000940334188478396
-0.0016081126455710572   -0.0014977677157711434   -0.0006226061546236722
-0.003013406427058506   -0.0045649570554919935   -0.0008471780216454156
-0.0026453260416187986   -0.0017738503369523525   -0.0006804811528009735
-0.0015758971088989   -0.0015725410470573957   -0.0005217457529464286
-0.003013406427058506   -0.0045649570554919935   -0.0008471780216454156
-0.0016081126455710572   -0.0014977677157711434   -0.0006226061546236722
-0.0026453260416187986   -0.0017738503369523525   -0.0006804811528009735
-0.003013406427058506   -0.0045649570554919935   -0.0008471780216454156
-0.0048575544588189065   -0.004745761981856653   -0.0009906356425590107
-0.004717182652574572   -0.004639067517264581   -0.0011417977170619243
-0.0026453260416187986   -0.0017738503369523525   -0.0006804811528009735
-0.003013406427058506   -0.0045649570554919935   -0.0008471780216454156
-0.004717182652574572   -0.004639067517264581   -0.0011417977170619243
-0.0016081126455710572   -0.0014977677157711434   -0.0006226061546236722
-0.0026453260416187986   -0.0017738503369523525   -0.0006804811528009735
-0.0048575544588189065   -0.004745761981856653   -0.0009906356425590107
-0.0015758971088989   -0.0015725410470573957   -0.0005217457529464286
-0.0027274081126095304   -0.0018266469161086528   -0.0005207220105192404
-0.0048575544588189065   -0.004745761981856653   -0.0009906356425590107
-0.003013406427058506   -0.0045649570554919935   -0.0008471780216454156
-0.0015758971088989   -0.0015725410470573957   -0.0005217457529464286
-0.0030244989290951134   -0.004611602140774914   -0.0007577058199374692
-0.0027274081126095304   -0.0018266469161086528   -0.0005207220105192404
-0.001579895615588985   -0.0016109113337669824   -0.00042108146500693483
-0.0030244989290951134   -0.004611602140774914   -0.0007577058199374692
-0.0015758971088989   -0.0015725410470573957   -0.0005217457529464286
-0.0027274081126095304   -0.0018266469161086528   -0.0005207220105192404
-0.0030244989290951134   -0.004611602140774914   -0.0007577058199374692
-0.004954779204614101   -0.004806082138469273   -0.0008426871504404744
-0.0048575544588189065   -0.004745761981856653   -0.0009906356425590107
-0.0027274081126095304   -0.0018266469161086528   -0.0005207220105192404
-0.0030244989290951134   -0.004611602140774914   -0.0007577058199374692
-0.0048575544588189065   -0.004745761981856653   -0.0009906356425590107
-0.0015758971088989   -0.0015725410470573957   -0.0005217457529464286
-0.0027274081126095304   -0.0018266469161086528   -0.0005207220105192404
-0.004954779204614101   -0.004806082138469273   -0.0008426871504404744
-0.001579895615588985   -0.0016109113337669824   -0.00042108146500693483
-0.0029046779163341475   -0.00186680509926311   -0.0003354414428534066
-0.004954779204614101   -0.004806082138469273   -0.0008426871504404744
-0.0030244989290951134   -0.004611602140774914   -0.0007577058199374692
-0.001579895615588985   -0.0016109113337669824   -0.00042108146500693483
-0.003014683658218077   -0.004635918184435203   -0.0006740037876736311
-0.0029046779163341475   -0.00186680509926311   -0.0003354414428534066
-0.0015785626441709277   -0.0016208412654448918   -0.00031705663680423794
-0.003014683658218077   -0.004635918184435203   -0.0006740037876736311
-0.001579895615588985   -0.0016109113337669824   -0.00042108146500693483
-0.0029046779163341475   -0.00186680509926311   -0.0003354414428534066
-0.003014683658218077   -0.004635918184435203   -0.0006740037876736311
-0.005069661919225115   -0.004841352201115985   -0.0007081859155370824
-0.004954779204614101   -0.004806082138469273   -0.0008426871504404744
-0.0029046779163341475   -0.00186680509926311   -0.0003354414428534066
-0.003014683658218077   -0.004635918184435203   -0.0006740037876736311
-0.004954779204614101   -0.004806082138469273   -0.0008426871504404744
-0.001579895615588985   -0.0016109113337669824   -0.00042108146500693483
-0.0016081126455710572   -0.0014977677157711434   -0.0006226061546236722
-0.0030105712731445093   -0.004488549481333856   -0.000940334188478396
-0.0007328587323346492   -0.0014364076758937377   -0.00047375828942564953
-0.0015758971088989   -0.0015725410470573957   -0.0005217457529464286
-0.0030105712731445093   -0.004488549481333856   -0.000940334188478396
-0.0013981467999041126   -0.004418505979808934   -0.0008028777407336067
-0.0007328587323346492   -0.0014364076758937377   -0.00047375828942564953
-0.0013853505972088308   -0.004467066297957148   -0.0007550722642932005
-0.0015758971088989   -0.0015725410470573957   -0.0005217457529464286
-0.000704418665081997   -0.0014850235922018095   -0.0004260893949902805
-0.0013853505972088308   -0.004467066297957148   -0.0007550722642932005
-0.0007328587323346492   -0.0014364076758937377   -0.00047375828942564953
-0.0015758971088989   -0.0015725410470573957   -0.0005217457529464286
-0.0013853505972088308   -0.004467066297957148   -0.0007550722642932005
-0.003013406427058506   -0.0045649570554919935   -0.0008471780216454156
-0.0030105712731445093   -0.004488549481333856   -0.000940334188478396
-0.0015758971088989   -0.0015725410470573957   -0.0005217457529464286
-0.0013853505972088308   -0.004467066297957148   -0.0007550722642932005
-0.0030105712731445093   -0.004488549481333856   -0.000940334188478396
-0.0007328587323346492   -0.0014364076758937377   -0.00047375828942564953
-0.0015758971088989   -0.0015725410470573957   -0.0005217457529464286
-0.003013406427058506   -0.0045649570554919935   -0.0008471780216454156
-0.000704418665081997   -0.0014850235922018095   -0.0004260893949902805
-0.001579895615588985   -0.0016109113337669824   -0.00042108146500693483
-0.003013406427058506   -0.0045649570554919935   -0.0008471780216454156
-0.0013853505972088308   -0.004467066297957148   -0.0007550722642932005
-0.000704418665081997   -0.0014850235922018095   -0.0004260893949902805
-0.0013739284270503273   -0.0044906432209053165   -0.000711767204432549
-0.001579895615588985   -0.0016109113337669824   -0.00042108146500693483
-0.0006882636149995017   -0.0015035724521110217   -0.00037971541712229583
-0.0013739284270503273   -0.0044906432209053165   -0.000711767204432549
-0.000704418665081997   -0.0014850235922018095   -0.0004260893949902805
-0.001579895615588985   -0.0016109113337669824   -0.00042108146500693483
-0.0013739284270503273   -0.0044906432209053165   -0.000711767204432549
-0.0030244989290951134   -0.004611602140774914   -0.0007577058199374692
-0.003013406427058506   -0.0045649570554919935   -0.0008471780216454156
-0.001579895615588985   -0.0016109113337669824   -0.00042108146500693483
-0.0013739284270503273   -0.0044906432209053165   -0.000711767204432549
-0.003013406427058506   -0.0045649570554919935   -0.0008471780216454156
-0.000704418665081997   -0.0014850235922018095   -0.0004260893949902805
-0.001579895615588985   -0.0016109113337669824   -0.00042108146500693483
-0.0030244989290951134   -0.004611602140774914   -0.0007577058199374692
-0.0006882636149995017   -0.0015035724521110217   -0.00037971541712229583
-0.0015785626441709277   -0.0016208412654448918   -0.00031705663680423794
-0.0030244989290951134   -0.004611602140774914   -0.0007577058199374692
-0.0013739284270503273   -0.0044906432209053165   -0.000711767204432549
-0.0006882636149995017   -0.0015035724521110217   -0.00037971541712229583
-0.0013572255202925316   -0.0044901236051711115   -0.0006741024311863056
-0.0015785626441709277   -0.0016208412654448918   -0.00031705663680423794
-0.0006734795325166555   -0.0014958765028533492   -0.00033182536058272866
-0.0013572255202925316   -0.0044901236051711115   -0.0006741024311863056
-0.0006882636149995017   -0.0015035724521110217   -0.00037971541712229583
-0.0015785626441709277   -0.0016208412654448918   -0.00031705663680423794
-0.0013572255202925316   -0.0044901236051711115   -0.0006741024311863056
-0.003014683658218077   -0.004635918184435203   -0.0006740037876736311
-0.0030244989290951134   -0.004611602140774914   -0.0007577058199374692
-0.0015785626441709277   -0.0016208412654448918   -0.00031705663680423794
-0.0013572255202925316   -0.0044901236051711115   -0.0006741024311863056
-0.0030244989290951134   -0.004611602140774914   -0.0007577058199374692
-0.0006882636149995017   -0.0015035724521110217   -0.00037971541712229583
-0.0007328587323346492   -0.0014364076758937377   -0.00047375828942564953
-0.0013981467999041126   -0.004418505979808934   -0.0008028777407336067
9.371079704772698e-05   -0.0014443392267628305   -0.00037904218890165176
-0.000704418665081997   -0.0014850235922018095   -0.0004260893949902805
-0.0013981467999041126   -0.004418505979808934   -0.0008028777407336067
0.0001562513757305011   -0.004420635470126944   -0.0007161450548676258
9.371079704772698e-05   -0.0014443392267628305   -0.00037904218890165176
0.00017185206793705397   -0.004443530254372665   -0.0007128438700141571
-0.000704418665081997   -0.0014850235922018095   -0.0004260893949902805
0.00011207069924293321   -0.0014694770814255075   -0.0003855094981431641
0.00017185206793705397   -0.004443530254372665   -0.0007128438700141571
9.371079704772698e-05   -0.0014443392267628305   -0.00037904218890165176
-0.000704418665081997   -0.0014850235922018095   -0.0004260893949902805
0.00017185206793705397   -0.004443530254372665   -0.0007128438700141571
-0.0013853505972088308   -0.004467066297957148   -0.0007550722642932005
-0.0013981467999041126   -0.004418505979808934   -0.0008028777407336067
-0.000704418665081997   -0.0014850235922018095   -0.0004260893949902805
0.00017185206793705397   -0.004443530254372665   -0.0007128438700141571
-0.0013981467999041126   -0.004418505979808934   -0.0008028777407336067
9.371079704772698e-05   -0.0014443392267628305   -0.00037904218890165176
-0.000704418665081997   -0.0014850235922018095   -0.0004260893949902805
-0.0013853505972088308   -0.004467066297957148   -0.0007550722642932005
0.00011207069924293321   -0.0014694770814255075   -0.0003855094981431641
-0.0006882636149995017   -0.0015035724521110217   -0.00037971541712229583
-0.0013853505972088308   -0.004467066297957148   -0.0007550722642932005
0.00017185206793705397   -0.004443530254372665   -0.0007128438700141571
0.00011207069924293321   -0.0014694770814255075   -0.0003855094981431641
0.00018258207859946977   -0.004442024746682014   -0.0007146477909750629
-0.0006882636149995017   -0.0015035724521110217   -0.00037971541712229583
0.00012662042144778385   -0.001467340538205159   -0.0003913945485752458
0.00018258207859946977   -0.004442024746682014   -0.0007146477909750629
0.00011207069924293321   -0.0014694770814255075   -0.0003855094981431641
-0.0006882636149995017   -0.0015035724521110217   -0.00037971541712229583
0.00018258207859946977   -0.004442024746682014   -0.0007146477909750629
-0.0013739284270503273   -0.0044906432209053165   -0.000711767204432549
-0.0013853505972088308   -0.004467066297957148   -0.0007550722642932005
-0.0006882636149995017   -0.0015035724521110217   -0.00037971541712229583
0.00018258207859946977   -0.004442024746682014   -0.0007146477909750629
-0.0013853505972088308   -0.004467066297957148   -0.0007550722642932005
0.00011207069924293321   -0.0014694770814255075   -0.0003855094981431641
-0.0006882636149995017   -0.0015035724521110217   -0.00037971541712229583
-0.0013739284270503273   -0.0044906432209053165   -0.000711767204432549
0.00012662042144778385   -0.001467340538205159   -0.0003913945485752458
-0.0006734795325166555   -0.0014958765028533492   -0.00033182536058272866
-0.0013739284270503273   -0.0044906432209053165   -0.000711767204432549
0.00018258207859946977   -0.004442024746682014   -0.0007146477909750629
0.00012662042144778385   -0.001467340538205159   -0.0003913945485752458
0.00019403909034955462   -0.00441537794585059   -0.0007216366157651292
-0.0006734795325166555   -0.0014958765028533492   -0.00033182536058272866
0.00014604915548686382   -0.001435701523702256   -0.00039749525641075075
0.00019403909034955462   -0.00441537794585059   -0.0007216366157651292
0.00012662042144778385   -0.001467340538205159   -0.0003913945485752458
-0.0006734795325166555   -0.0014958765028533492   -0.00033182536058272866
0.00019403909034955462   -0.00441537794585059   -0.0007216366157651292
-0.0013572255202925316   -0.0044901236051711115   -0.0006741024311863056
-0.0013739284270503273   -0.0044906432209053165   -0.000711767204432549
-0.0006734795325166555   -0.0014958765028533492   -0.00033182536058272866
0.00019403909034955462   -0.00441537794585059   -0.0007216366157651292
-0.0013739284270503273   -0.0044906432209053165   -0.000711767204432549
0.00012662042144778385   -0.001467340538205159   -0.0003913945485752458
9.371079704772698e-05   -0.0014443392267628305   -0.00037904218890165176
0.0001562513757305011   -0.004420635470126944   -0.0007161450548676258
0.0009913187918663073   -0.0015141035774446925   -0.0003323780749545275
0.00011207069924293321   -0.0014694770814255075   -0.0003855094981431641
0.0001562513757305011   -0.004420635470126944   -0.0007161450548676258
0.0018038859216353298   -0.004492347145028426   -0.0006759595581126329
0.0009913187918663073   -0.0015141035774446925   -0.0003323780749545275
0.0018131385408113087   -0.0044918918299246685   -0.0007186007566923509
0.00011207069924293321   -0.0014694770814255075   -0.0003855094981431641
0.00099362638607941   -0.00152199477457487   -0.0003958128512953143
0.0018131385408113087   -0.0044918918299246685   -0.0007186007566923509
0.0009913187918663073   -0.0015141035774446925   -0.0003323780749545275
0.00011207069924293321   -0.0014694770814255075   -0.0003855094981431641
0.0018131385408113087   -0.0044918918299246685   -0.0007186007566923509
0.00017185206793705397   -0.004443530254372665   -0.0007128438700141571
0.0001562513757305011   -0.004420635470126944   -0.0007161450548676258
0.00011207069924293321   -0.0014694770814255075   -0.0003855094981431641
0.0018131385408113087   -0.0044918918299246685   -0.0007186007566923509
0.0001562513757305011   -0.004420635470126944   -0.0007161450548676258
0.0009913187918663073   -0.0015141035774446925   -0.0003323780749545275
0.00011207069924293321   -0.0014694770814255075   -0.0003855094981431641
0.00017185206793705397   -0.004443530254372665   -0.0007128438700141571
0.00099362638607941   -0.00152199477457487   -0.0003958128512953143
0.00012662042144778385   -0.001467340538205159   -0.0003913945485752458
0.00017185206793705397   -0.004443530254372665   -0.0007128438700141571
0.0018131385408113087   -0.0044918918299246685   -0.0007186007566923509
0.00099362638607941   -0.00152199477457487   -0.0003958128512953143
0.001805600043634523   -0.0044675327671744106   -0.0007670171972751723
0.00012662042144778385   -0.001467340538205159   -0.0003913945485752458
0.000989840380623554   -0.0015002651673192465   -0.00045673133410327227
0.001805600043634523   -0.0044675327671744106   -0.0007670171972751723
0.00099362638607941   -0.00152199477457487   -0.0003958128512953143
0.00012662042144778385   -0.001467340538205159   -0.0003913945485752458
0.001805600043634523   -0.0044675327671744106   -0.0007670171972751723
0.00018258207859946977   -0.004442024746682014   -0.0007146477909750629
0.00017185206793705397   -0.004443530254372665   -0.0007128438700141571
0.00012662042144778385   -0.001467340538205159   -0.0003913945485752458
0.001805600043634523   -0.0044675327671744106   -0.0007670171972751723
0.00017185206793705397   -0.004443530254372665   -0.0007128438700141571
0.00099362638607941   -0.00152199477457487   -0.0003958128512953143
0.00012662042144778385   -0.001467340538205159   -0.0003913945485752458
0.00018258207859946977   -0.004442024746682014   -0.0007146477909750629
0.000989840380623554   -0.0015002651673192465   -0.00045673133410327227
0.00014604915548686382   -0.001435701523702256   -0.00039749525641075075
0.00018258207859946977   -0.004442024746682014   -0.0007146477909750629
0.001805600043634523   -0.0044675327671744106   -0.0007670171972751723
0.000989840380623554   -0.0015002651673192465   -0.00045673133410327227
0.0018015846934192434   -0.004412642683198775   -0.0008194146765005299
0.00014604915548686382   -0.001435701523702256   -0.00039749525641075075
0.0010094617876916271   -0.0014423146177798313   -0.0005165407122862078
0.0018015846934192434   -0.004412642683198775   -0.0008194146765005299
0.000989840380623554   -0.0015002651673192465   -0.00045673133410327227
0.00014604915548686382   -0.001435701523702256   -0.00039749525641075075
0.0018015846934192434   -0.004412642683198775   -0.0008194146765005299
0.00019403909034955462   -0.00441537794585059   -0.0007216366157651292
0.00018258207859946977   -0.004442024746682014   -0.0007146477909750629
0.00014604915548686382   -0.001435701523702256   -0.00039749525641075075
0.0018015846934192434   -0.004412642683198775   -0.0008194146765005299
0.00018258207859946977   -0.004442024746682014   -0.0007146477909750629
0.000989840380623554   -0.0015002651673192465   -0.00045673133410327227
0.0009913187918663073   -0.0015141035774446925   -0.0003323780749545275
0.0018038859216353298   -0.004492347145028426   -0.0006759595581126329
0.002240924630803505   -0.0016911758143844584   -0.0003140666209259552
0.00099362638607941   -0.00152199477457487   -0.0003958128512953143
0.0018038859216353298   -0.004492347145028426   -0.0006759595581126329
0.0037932011643058024   -0.0046254926713929344   -0.0006657048282155248
0.002240924630803505   -0.0016911758143844584   -0.0003140666209259552
0.003717276998997698   -0.0046125400265108266   -0.000761750196126012
0.00099362638607941   -0.00152199477457487   -0.0003958128512953143
0.0021052976024681066   -0.0016724824019063442   -0.0004580663714583613
0.003717276998997698   -0.0046125400265108266   -0.000761750196126012
0.002240924630803505   -0.0016911758143844584   -0.0003140666209259552
0.00099362638607941   -0.00152199477457487   -0.0003958128512953143
0.003717276998997698   -0.0046125400265108266   -0.000761750196126012
0.0018131385408113087   -0.0044918918299246685   -0.0007186007566923509
0.0018038859216353298   -0.004492347145028426   -0.0006759595581126329
0.00099362638607941   -0.00152199477457487   -0.0003958128512953143
0.003717276998997698   -0.0046125400265108266   -0.000761750196126012
0.0018038859216353298   -0.004492347145028426   -0.0006759595581126329
0.002240924630803505   -0.0016911758143844584   -0.0003140666209259552
0.00099362638607941   -0.00152199477457487   -0.0003958128512953143
0.0018131385408113087   -0.0044918918299246685   -0.0007186007566923509
0.0021052976024681066   -0.0016724824019063442   -0.0004580663714583613
0.000989840380623554   -0.0015002651673192465   -0.00045673133410327227
0.0018131385408113087   -0.0044918918299246685   -0.0007186007566923509
0.003717276998997698   -0.0046125400265108266   -0.000761750196126012
0.0021052976024681066   -0.0016724824019063442   -0.0004580663714583613
0.003649318472791822   -0.0045750331998420405   -0.0008699370310040889
0.000989840380623554   -0.0015002651673192465   -0.00045673133410327227
0.0020429666487257257   -0.0016377157247216612   -0.0005798875390155312
0.003649318472791822   -0.0045750331998420405   -0.0008699370310040889
0.0021052976024681066   -0.0016724824019063442   -0.0004580663714583613
0.000989840380623554   -0.0015002651673192465   -0.00045673133410327227
0.003649318472791822   -0.0045750331998420405   -0.0008699370310040889
0.001805600043634523   -0.0044675327671744106   -0.0007670171972751723
0.0018131385408113087   -0.0044918918299246685   -0.0007186007566923509
0.000989840380623554   -0.0015002651673192465   -0.00045673133410327227
0.003649318472791822   -0.0045750331998420405   -0.0008699370310040889
0.0018131385408113087   -0.0044918918299246685   -0.0007186007566923509
0.0021052976024681066   -0.0016724824019063442   -0.0004580663714583613
0.000989840380623554   -0.0015002651673192465   -0.00045673133410327227
0.001805600043634523   -0.0044675327671744106   -0.0007670171972751723
0.0020429666487257257   -0.0016377157247216612   -0.0005798875390155312
0.0010094617876916271   -0.0014423146177798313   -0.0005165407122862078
0.001805600043634523   -0.0044675327671744106   -0.0007670171972751723
0.003649318472791822   -0.0045750331998420405   -0.0008699370310040889
0.0020429666487257257   -0.0016377157247216612   -0.0005798875390155312
0.0035469544856089183   -0.004491862487200182   -0.000982639420620525
0.0010094617876916271   -0.0014423146177798313   -0.0005165407122862078
0.0019498452005632585   -0.0015489415480140058   -0.0007089133551915038
0.0035469544856089183   -0.004491862487200182   -0.000982639420620525
0.0020429666487257257   -0.0016377157247216612   -0.0005798875390155312
0.0010094617876916271   -0.0014423146177798313   -0.0005165407122862078
0.0035469544856089183   -0.004491862487200182   -0.000982639420620525
0.0018015846934192434   -0.004412642683198775   -0.0008194146765005299
0.001805600043634523   -0.0044675327671744106   -0.0007670171972751723
0.0010094617876916271   -0.0014423146177798313   -0.0005165407122862078
0.0035469544856089183   -0.004491862487200182   -0.000982639420620525
0.001805600043634523   -0.0044675327671744106   -0.0007670171972751723
0.0020429666487257257   -0.0016377157247216612   -0.0005798875390155312
-0.004717182652574572   -0.004639067517264581   -0.0011417977170619243
-0.0064572303711503   -0.008687240428877412   -0.001301224886592402
-0.0030105712731445093   -0.004488549481333856   -0.000940334188478396
-0.0048575544588189065   -0.004745761981856653   -0.0009906356425590107
-0.0064572303711503   -0.008687240428877412   -0.001301224886592402
-0.00415222741972212   -0.008572422695231773   -0.0011382040278029588
-0.0030105712731445093   -0.004488549481333856   -0.000940334188478396
-0.004160445005870063   -0.008638238795669453   -0.001066054790143474
-0.0048575544588189065   -0.004745761981856653   -0.0009906356425590107
-0.003013406427058506   -0.0045649570554919935   -0.0008471780216454156
-0.004160445005870063   -0.008638238795669453   -0.001066054790143474
-0.0030105712731445093   -0.004488549481333856   -0.000940334188478396
-0.0048575544588189065   -0.004745761981856653   -0.0009906356425590107
-0.004160445005870063   -0.008638238795669453   -0.001066054790143474
-0.006570835551676982   -0.00877724000183028   -0.0011887772447214992
-0.0064572303711503   -0.008687240428877412   -0.001301224886592402
-0.0048575544588189065   -0.004745761981856653   -0.0009906356425590107
-0.004160445005870063   -0.008638238795669453   -0.001066054790143474
-0.0064572303711503   -0.008687240428877412   -0.001301224886592402
-0.0030105712731445093   -0.004488549481333856   -0.000940334188478396
-0.0048575544588189065   -0.004745761981856653   -0.0009906356425590107
-0.006570835551676982   -0.00877724000183028   -0.0011887772447214992
-0.003013406427058506   -0.0045649570554919935   -0.0008471780216454156
-0.004954779204614101   -0.004806082138469273   -0.0008426871504404744
-0.006570835551676982   -0.00877724000183028   -0.0011887772447214992
-0.004160445005870063   -0.008638238795669453   -0.001066054790143474
-0.003013406427058506   -0.0045649570554919935   -0.0008471780216454156
-0.004170229972973704   -0.008684115503129603   -0.0009991593110466213
-0.004954779204614101   -0.004806082138469273   -0.0008426871504404744
-0.0030244989290951134   -0.004611602140774914   -0.0007577058199374692
-0.004170229972973704   -0.008684115503129603   -0.0009991593110466213
-0.003013406427058506   -0.0045649570554919935   -0.0008471780216454156
-0.004954779204614101   -0.004806082138469273   -0.0008426871504404744
-0.004170229972973704   -0.008684115503129603   -0.0009991593110466213
-0.006642046919392757   -0.00883376020205426   -0.0010840277243282755
-0.006570835551676982   -0.00877724000183028   -0.0011887772447214992
-0.004954779204614101   -0.004806082138469273   -0.0008426871504404744
-0.004170229972973704   -0.008684115503129603   -0.0009991593110466213
-0.006570835551676982   -0.00877724000183028   -0.0011887772447214992
-0.003013406427058506   -0.0045649570554919935   -0.0008471780216454156
-0.004954779204614101   -0.004806082138469273   -0.0008426871504404744
-0.006642046919392757   -0.00883376020205426   -0.0010840277243282755
-0.0030244989290951134   -0.004611602140774914   -0.0007577058199374692
-0.005069661919225115   -0.004841352201115985   -0.0007081859155370824
-0.006642046919392757   -0.00883376020205426   -0.0010840277243282755
-0.004170229972973704   -0.008684115503129603   -0.0009991593110466213
-0.0030244989290951134   -0.004611602140774914   -0.0007577058199374692
-0.004161475005475899   -0.008714412317946344   -0.0009363961068423524
-0.005069661919225115   -0.004841352201115985   -0.0007081859155370824
-0.003014683658218077   -0.004635918184435203   -0.0006740037876736311
-0.004161475005475899   -0.008714412317946344   -0.0009363961068423524
-0.0030244989290951134   -0.004611602140774914   -0.0007577058199374692
-0.005069661919225115   -0.004841352201115985   -0.0007081859155370824
-0.004161475005475899   -0.008714412317946344   -0.0009363961068423524
-0.006723070317088805   -0.008874593575947977   -0.0009876970350971978
-0.006642046919392757   -0.00883376020205426   -0.0010840277243282755
-0.005069661919225115   -0.004841352201115985   -0.0007081859155370824
-0.004161475005475899   -0.008714412317946344   -0.0009363961068423524
-0.006642046919392757   -0.00883376020205426   -0.0010840277243282755
-0.0030244989290951134   -0.004611602140774914   -0.0007577058199374692
-0.0030105712731445093   -0.004488549481333856   -0.000940334188478396
-0.00415222741972212   -0.008572422695231773   -0.0011382040278029588
-0.0013981467999041126   -0.004418505979808934   -0.0008028777407336067
-0.003013406427058506   -0.0045649570554919935   -0.0008471780216454156
-0.00415222741972212   -0.008572422695231773   -0.0011382040278029588
-0.00198018254009059   -0.008515097950910749   -0.00102498440809812
-0.0013981467999041126   -0.004418505979808934   -0.0008028777407336067
-0.0019743441563731864   -0.008557114224874242   -0.0009841219667851482
-0.003013406427058506   -0.0045649570554919935   -0.0008471780216454156
-0.0013853505972088308   -0.004467066297957148   -0.0007550722642932005
-0.0019743441563731864   -0.008557114224874242   -0.0009841219667851482
-0.0013981467999041126   -0.004418505979808934   -0.0008028777407336067
-0.003013406427058506   -0.0045649570554919935   -0.0008471780216454156
-0.0019743441563731864   -0.008557114224874242   -0.0009841219667851482
-0.004160445005870063   -0.008638238795669453   -0.001066054790143474
-0.00415222741972212   -0.008572422695231773   -0.0011382040278029588
-0.003013406427058506   -0.0045649570554919935   -0.0008471780216454156
-0.0019743441563731864   -0.008557114224874242   -0.0009841219667851482
-0.00415222741972212   -0.008572422695231773   -0.0011382040278029588
-0.0013981467999041126   -0.004418505979808934   -0.0008028777407336067
-0.003013406427058506   -0.0045649570554919935   -0.0008471780216454156
-0.004160445005870063   -0.008638238795669453   -0.001066054790143474
-0.0013853505972088308   -0.004467066297957148   -0.0007550722642932005
-0.0030244989290951134   -0.004611602140774914   -0.0007577058199374692
-0.004160445005870063   -0.008638238795669453   -0.001066054790143474
-0.0019743441563731864   -0.008557114224874242   -0.0009841219667851482
-0.0013853505972088308   -0.004467066297957148   -0.0007550722642932005
-0.0019673955609049616   -0.008581823558555097   -0.0009482567866415407
-0.0030244989290951134   -0.004611602140774914   -0.0007577058199374692
-0.0013739284270503273   -0.0044906432209053165   -0.000711767204432549
-0.0019673955609049616   -0.008581823558555097   -0.0009482567866415407
-0.0013853505972088308   -0.004467066297957148   -0.0007550722642932005
-0.0030244989290951134   -0.004611602140774914   -0.0007577058199374692
-0.0019673955609049616   -0.008581823558555097   -0.0009482567866415407
-0.004170229972973704   -0.008684115503129603   -0.0009991593110466213
-0.004160445005870063   -0.008638238795669453   -0.001066054790143474
-0.0030244989290951134   -0.004611602140774914   -0.0007577058199374692
-0.0019673955609049616   -0.008581823558555097   -0.0009482567866415407
-0.004160445005870063   -0.008638238795669453   -0.001066054790143474
-0.0013853505972088308   -0.004467066297957148   -0.0007550722642932005
-0.0030244989290951134   -0.004611602140774914   -0.0007577058199374692
-0.004170229972973704   -0.008684115503129603   -0.0009991593110466213
-0.0013739284270503273   -0.0044906432209053165   -0.000711767204432549
-0.003014683658218077   -0.004635918184435203   -0.0006740037876736311
-0.004170229972973704   -0.008684115503129603   -0.0009991593110466213
-0.0019673955609049616   -0.008581823558555097   -0.0009482567866415407
-0.0013739284270503273   -0.0044906432209053165   -0.000711767204432549
-0.001956522750015244   -0.008589579005386781   -0.0009173765573413953
-0.003014683658218077   -0.004635918184435203   -0.0006740037876736311
-0.0013572255202925316   -0.0044901236051711115   -0.0006741024311863056
-0.001956522750015244   -0.008589579005386781   -0.0009173765573413953
-0.0013739284270503273   -0.0044906432209053165   -0.000711767204432549
-0.003014683658218077   -0.004635918184435203   -0.0006740037876736311
-0.001956522750015244   -0.008589579005386781   -0.0009173765573413953
-0.004161475005475899   -0.008714412317946344   -0.0009363961068423524
-0.004170229972973704   -0.008684115503129603   -0.0009991593110466213
-0.003014683658218077   -0.004635918184435203   -0.0006740037876736311
-0.001956522750015244   -0.008589579005386781   -0.0009173765573413953
-0.004170229972973704   -0.008684115503129603   -0.0009991593110466213
-0.0013739284270503273   -0.0044906432209053165   -0.000711767204432549
-0.0013981467999041126   -0.004418505979808934   -0.0008028777407336067
-0.00198018254009059   -0.008515097950910749   -0.00102498440809812
0.0001562513757305011   -0.004420635470126944   -0.0007161450548676258
-0.0013853505972088308   -0.004467066297957148   -0.0007550722642932005
-0.00198018254009059   -0.008515097950910749   -0.00102498440809812
0.0001276951292731285   -0.008512031639411964   -0.0009549705364125221
0.0001562513757305011   -0.004420635470126944   -0.0007161450548676258
0.00013772718099938026   -0.008530599145770573   -0.0009452329781827006
-0.0013853505972088308   -0.004467066297957148   -0.0007550722642932005
0.00017185206793705397   -0.004443530254372665   -0.0007128438700141571
0.00013772718099938026   -0.008530599145770573   -0.0009452329781827006
0.0001562513757305011   -0.004420635470126944   -0.0007161450548676258
-0.0013853505972088308   -0.004467066297957148   -0.0007550722642932005
0.00013772718099938026   -0.008530599145770573   -0.0009452329781827006
-0.0019743441563731864   -0.008557114224874242   -0.0009841219667851482
-0.00198018254009059   -0.008515097950910749   -0.00102498440809812
-0.0013853505972088308   -0.004467066297957148   -0.0007550722642932005
0.00013772718099938026   -0.008530599145770573   -0.0009452329781827006
-0.00198018254009059   -0.008515097950910749   -0.00102498440809812
0.0001562513757305011   -0.004420635470126944   -0.0007161450548676258
-0.0013853505972088308   -0.004467066297957148   -0.0007550722642932005
-0.0019743441563731864   -0.008557114224874242   -0.0009841219667851482
0.00017185206793705397   -0.004443530254372665   -0.0007128438700141571
-0.0013739284270503273   -0.0044906432209053165   -0.000711767204432549
-0.0019743441563731864   -0.008557114224874242   -0.0009841219667851482
0.00013772718099938026   -0.008530599145770573   -0.0009452329781827006
0.00017185206793705397   -0.004443530254372665   -0.0007128438700141571
0.00014447215126343882   -0.00853192741039958   -0.0009403651524384968
-0.0013739284270503273   -0.0044906432209053165   -0.000711767204432549
0.00018258207859946977   -0.004442024746682014   -0.0007146477909750629
0.00014447215126343882   -0.00853192741039958   -0.0009403651524384968
0.00017185206793705397   -0.004443530254372665   -0.0007128438700141571
-0.0013739284270503273   -0.0044906432209053165   -0.000711767204432549
0.00014447215126343882   -0.00853192741039958   -0.0009403651524384968
-0.0019673955609049616   -0.008581823558555097   -0.0009482567866415407
-0.0019743441563731864   -0.008557114224874242   -0.0009841219667851482
-0.0013739284270503273   -0.0044906432209053165   -0.000711767204432549
0.00014447215126343882   -0.00853192741039958   -0.0009403651524384968
-0.0019743441563731864   -0.008557114224874242   -0.0009841219667851482
0.00017185206793705397   -0.004443530254372665   -0.0007128438700141571
-0.0013739284270503273   -0.0044906432209053165   -0.000711767204432549
-0.0019673955609049616   -0.008581823558555097   -0.0009482567866415407
0.00018258207859946977   -0.004442024746682014   -0.0007146477909750629
-0.0013572255202925316   -0.0044901236051711115   -0.0006741024311863056
-0.0019673955609049616   -0.008581823558555097   -0.0009482567866415407
0.00014447215126343882   -0.00853192741039958   -0.0009403651524384968
0.00018258207859946977   -0.004442024746682014   -0.0007146477909750629
0.0001496043525832621   -0.008515760613764932   -0.0009406596303661167
-0.0013572255202925316   -0.0044901236051711115   -0.0006741024311863056
0.00019403909034955462   -0.00441537794585059   -0.0007216366157651292
0.0001496043525832621   -0.008515760613764932   -0.0009406596303661167
0.00018258207859946977   -0.004442024746682014   -0.0007146477909750629
-0.0013572255202925316   -0.0044901236051711115   -0.0006741024311863056
0.0001496043525832621   -0.008515760613764932   -0.0009406596303661167
-0.001956522750015244   -0.008589579005386781   -0.0009173765573413953
-0.0019673955609049616   -0.008581823558555097   -0.0009482567866415407
-0.0013572255202925316   -0.0044901236051711115   -0.0006741024311863056
0.0001496043525832621   -0.008515760613764932   -0.0009406596303661167
-0.0019673955609049616   -0.008581823558555097   -0.0009482567866415407
0.00018258207859946977   -0.004442024746682014   -0.0007146477909750629
0.0001562513757305011   -0.004420635470126944   -0.0007161450548676258
0.0001276951292731285   -0.008512031639411964   -0.0009549705364125221
0.0018038859216353298   -0.004492347145028426   -0.0006759595581126329
0.00017185206793705397   -0.004443530254372665   -0.0007128438700141571
0.0001276951292731285   -0.008512031639411964   -0.0009549705364125221
0.0023257880694624315   -0.008559990565603012   -0.0009269921440678903
0.0018038859216353298   -0.004492347145028426   -0.0006759595581126329
0.002334751052323206   -0.008557033910486822   -0.0009490186580333426
0.00017185206793705397   -0.004443530254372665   -0.0007128438700141571
0.0018131385408113087   -0.0044918918299246685   -0.0007186007566923509
0.002334751052323206   -0.008557033910486822   -0.0009490186580333426
0.0018038859216353298   -0.004492347145028426   -0.0006759595581126329
0.00017185206793705397   -0.004443530254372665   -0.0007128438700141571
0.002334751052323206   -0.008557033910486822   -0.0009490186580333426
0.00013772718099938026   -0.008530599145770573   -0.0009452329781827006
0.0001276951292731285   -0.008512031639411964   -0.0009549705364125221
0.00017185206793705397   -0.004443530254372665   -0.0007128438700141571
0.002334751052323206   -0.008557033910486822   -0.0009490186580333426
0.0001276951292731285   -0.008512031639411964   -0.0009549705364125221
0.0018038859216353298   -0.004492347145028426   -0.0006759595581126329
0.00017185206793705397   -0.004443530254372665   -0.0007128438700141571
0.00013772718099938026   -0.008530599145770573   -0.0009452329781827006
0.0018131385408113087   -0.0044918918299246685   -0.0007186007566923509
0.00018258207859946977   -0.004442024746682014   -0.0007146477909750629
0.00013772718099938026   -0.008530599145770573   -0.0009452329781827006
0.002334751052323206   -0.008557033910486822   -0.0009490186580333426
0.0018131385408113087   -0.0044918918299246685   -0.0007186007566923509
0.002329845708438877   -0.008537237931592204   -0.0009755570921138146
0.00018258207859946977   -0.004442024746682014   -0.0007146477909750629
0.001805600043634523   -0.0044675327671744106   -0.0007670171972751723
0.002329845708438877   -0.008537237931592204   -0.0009755570921138146
0.0018131385408113087   -0.0044918918299246685   -0.0007186007566923509
0.00018258207859946977   -0.004442024746682014   -0.0007146477909750629
0.002329845708438877   -0.008537237931592204   -0.0009755570921138146
0.00014447215126343882   -0.00853192741039958   -0.0009403651524384968
0.00013772718099938026   -0.008530599145770573   -0.0009452329781827006
0.00018258207859946977   -0.004442024746682014   -0.0007146477909750629
0.002329845708438877   -0.008537237931592204   -0.0009755570921138146
0.00013772718099938026   -0.008530599145770573   -0.0009452329781827006
0.0018131385408113087   -0.0044918918299246685   -0.0007186007566923509
0.00018258207859946977   -0.004442024746682014   -0.0007146477909750629
0.00014447215126343882   -0.00853192741039958   -0.0009403651524384968
0.001805600043634523   -0.0044675327671744106   -0.0007670171972751723
0.00019403909034955462   -0.00441537794585059   -0.0007216366157651292
0.00014447215126343882   -0.00853192741039958   -0.0009403651524384968
0.002329845708438877   -0.008537237931592204   -0.0009755570921138146
0.001805600043634523   -0.0044675327671744106   -0.0007670171972751723
0.0023219323941824554   -0.008496399351898132   -0.0010071447187577445
0.00019403909034955462   -0.00441537794585059   -0.0007216366157651292
0.0018015846934192434   -0.004412642683198775   -0.0008194146765005299
0.0023219323941824554   -0.008496399351898132   -0.0010071447187577445
0.001805600043634523   -0.0044675327671744106   -0.0007670171972751723
0.00019403909034955462   -0.00441537794585059   -0.0007216366157651292
0.0023219323941824554   -0.008496399351898132   -0.0010071447187577445
0.0001496043525832621   -0.008515760613764932   -0.0009406596303661167
0.00014447215126343882   -0.00853192741039958   -0.0009403651524384968
0.00019403909034955462   -0.00441537794585059   -0.0007216366157651292
0.0023219323941824554   -0.008496399351898132   -0.0010071447187577445
0.00014447215126343882   -0.00853192741039958   -0.0009403651524384968
0.001805600043634523   -0.0044675327671744106   -0.0007670171972751723
0.0018038859216353298   -0.004492347145028426   -0.0006759595581126329
0.0023257880694624315   -0.008559990565603012   -0.0009269921440678903
0.0037932011643058024   -0.0046254926713929344   -0.0006657048282155248
0.0018131385408113087   -0.0044918918299246685   -0.0007186007566923509
0.0023257880694624315   -0.008559990565603012   -0.0009269921440678903
0.004829609772668171   -0.008646777769289443   -0.000928285344309329
0.0037932011643058024   -0.0046254926713929344   -0.0006657048282155248
0.004789081636938439   -0.008631369605214009   -0.0009860656764341523
0.0018131385408113087   -0.0044918918299246685   -0.0007186007566923509
0.003717276998997698   -0.0046125400265108266   -0.000761750196126012
0.004789081636938439   -0.008631369605214009   -0.0009860656764341523
0.0037932011643058024   -0.0046254926713929344   -0.0006657048282155248
0.0018131385408113087   -0.0044918918299246685   -0.0007186007566923509
0.004789081636938439   -0.008631369605214009   -0.0009860656764341523
0.002334751052323206   -0.008557033910486822   -0.0009490186580333426
0.0023257880694624315   -0.008559990565603012   -0.0009269921440678903
0.0018131385408113087   -0.0044918918299246685   -0.0007186007566923509
0.004789081636938439   -0.008631369605214009   -0.0009860656764341523
0.0023257880694624315   -0.008559990565603012   -0.0009269921440678903
0.0037932011643058024   -0.0046254926713929344   -0.0006657048282155248
0.0018131385408113087   -0.0044918918299246685   -0.0007186007566923509
0.002334751052323206   -0.008557033910486822   -0.0009490186580333426
0.003717276998997698   -0.0046125400265108266   -0.000761750196126012
0.001805600043634523   -0.0044675327671744106   -0.0007670171972751723
0.002334751052323206   -0.008557033910486822   -0.0009490186580333426
0.004789081636938439   -0.008631369605214009   -0.0009860656764341523
0.003717276998997698   -0.0046125400265108266   -0.000761750196126012
0.00474841718548052   -0.008600950013917977   -0.0010519829095227233
0.001805600043634523   -0.0044675327671744106   -0.0007670171972751723
0.003649318472791822   -0.0045750331998420405   -0.0008699370310040889
0.00474841718548052   -0.008600950013917977   -0.0010519829095227233
0.003717276998997698   -0.0046125400265108266   -0.000761750196126012
0.001805600043634523   -0.0044675327671744106   -0.0007670171972751723
0.00474841718548052   -0.008600950013917977   -0.0010519829095227233
0.002329845708438877   -0.008537237931592204   -0.0009755570921138146
0.002334751052323206   -0.008557033910486822   -0.0009490186580333426
0.001805600043634523   -0.0044675327671744106   -0.0007670171972751723
0.00474841718548052   -0.008600950013917977   -0.0010519829095227233
0.002334751052323206   -0.008557033910486822   -0.0009490186580333426
0.003717276998997698   -0.0046125400265108266   -0.000761750196126012
0.001805600043634523   -0.0044675327671744106   -0.0007670171972751723
0.002329845708438877   -0.008537237931592204   -0.0009755570921138146
0.003649318472791822   -0.0045750331998420405   -0.0008699370310040889
0.0018015846934192434   -0.004412642683198775   -0.0008194146765005299
0.002329845708438877   -0.008537237931592204   -0.0009755570921138146
0.00474841718548052   -0.008600950013917977   -0.0010519829095227233
0.003649318472791822   -0.0045750331998420405   -0.0008699370310040889
0.004675213921951643   -0.00853746252267783   -0.0011260460596700425
0.0018015846934192434   -0.004412642683198775   -0.0008194146765005299
0.0035469544856089183   -0.004491862487200182   -0.000982639420620525
0.004675213921951643   -0.00853746252267783   -0.0011260460596700425
0.003649318472791822   -0.0045750331998420405   -0.0008699370310040889
0.0018015846934192434   -0.004412642683198775   -0.0008194146765005299
0.004675213921951643   -0.00853746252267783   -0.0011260460596700425
0.0023219323941824554   -0.008496399351898132   -0.0010071447187577445
0.002329845708438877   -0.008537237931592204   -0.0009755570921138146
0.0018015846934192434   -0.004412642683198775   -0.0008194146765005299
0.004675213921951643   -0.00853746252267783   -0.0011260460596700425
0.002329845708438877   -0.008537237931592204   -0.0009755570921138146
0.003649318472791822   -0.0045750331998420405   -0.0008699370310040889
-0.0064572303711503   -0.008687240428877412   -0.001301224886592402
-0.007704459026254503   -0.013479873608595374   -0.0013887191533010696
-0.00415222741972212   -0.008572422695231773   -0.0011382040278029588
-0.006570835551676982   -0.00877724000183028   -0.0011887772447214992
-0.007704459026254503   -0.013479873608595374   -0.0013887191533010696
-0.005002711362830283   -0.01340701726554761   -0.0012561431230704977
-0.00415222741972212   -0.008572422695231773   -0.0011382040278029588
-0.005007808540633419   -0.013463497713608275   -0.0012045996872377541
-0.006570835551676982   -0.00877724000183028   -0.0011887772447214992
-0.004160445005870063   -0.008638238795669453   -0.001066054790143474
-0.005007808540633419   -0.013463497713608275   -0.0012045996872377541
-0.00415222741972212   -0.008572422695231773   -0.0011382040278029588
-0.006570835551676982   -0.00877724000183028   -0.0011887772447214992
-0.005007808540633419   -0.013463497713608275   -0.0012045996872377541
-0.007780461533518578   -0.013556329938171604   -0.0013142899126276774
-0.007704459026254503   -0.013479873608595374   -0.0013887191533010696
-0.006570835551676982   -0.00877724000183028   -0.0011887772447214992
-0.005007808540633419   -0.013463497713608275   -0.0012045996872377541
-0.007704459026254503   -0.013479873608595374   -0.0013887191533010696
-0.00415222741972212   -0.008572422695231773   -0.0011382040278029588
-0.006570835551676982   -0.00877724000183028   -0.0011887772447214992
-0.007780461533518578   -0.013556329938171604   -0.0013142899126276774
-0.004160445005870063   -0.008638238795669453   -0.001066054790143474
-0.006642046919392757   -0.00883376020205426   -0.0010840277243282755
-0.007780461533518578   -0.013556329938171604   -0.0013142899126276774
-0.005007808540633419   -0.013463497713608275   -0.0012045996872377541
-0.004160445005870063   -0.008638238795669453   -0.001066054790143474
-0.005011150681362346   -0.013508354400805738   -0.0011582087722787895
-0.006642046919392757   -0.00883376020205426   -0.0010840277243282755
-0.004170229972973704   -0.008684115503129603   -0.0009991593110466213
-0.005011150681362346   -0.013508354400805738   -0.0011582087722787895
-0.004160445005870063   -0.008638238795669453   -0.001066054790143474
-0.006642046919392757   -0.00883376020205426   -0.0010840277243282755
-0.005011150681362346   -0.013508354400805738   -0.0011582087722787895
-0.007823616647376172   -0.013610520107297158   -0.001247042097419112
-0.007780461533518578   -0.013556329938171604   -0.0013142899126276774
-0.006642046919392757   -0.00883376020205426   -0.0010840277243282755
-0.005011150681362346   -0.013508354400805738   -0.0011582087722787895
-0.007780461533518578   -0.013556329938171604   -0.0013142899126276774
-0.004160445005870063   -0.008638238795669453   -0.001066054790143474
-0.006642046919392757   -0.00883376020205426   -0.0010840277243282755
-0.007823616647376172   -0.013610520107297158   -0.001247042097419112
-0.004170229972973704   -0.008684115503129603   -0.0009991593110466213
-0.006723070317088805   -0.008874593575947977   -0.0009876970350971978
-0.007823616647376172   -0.013610520107297158   -0.001247042097419112
-0.005011150681362346   -0.013508354400805738   -0.0011582087722787895
-0.004170229972973704   -0.008684115503129603   -0.0009991593110466213
-0.004999851081473852   -0.013545315971497558   -0.001116279625532049
-0.006723070317088805   -0.008874593575947977   -0.0009876970350971978
-0.004161475005475899   -0.008714412317946344   -0.0009363961068423524
-0.004999851081473852   -0.013545315971497558   -0.001116279625532049
-0.004170229972973704   -0.008684115503129603   -0.0009991593110466213
-0.006723070317088805   -0.008874593575947977   -0.0009876970350971978
-0.004999851081473852   -0.013545315971497558   -0.001116279625532049
-0.007867992087709604   -0.0136592586399286   -0.0011878346877090991
-0.007823616647376172   -0.013610520107297158   -0.001247042097419112
-0.006723070317088805   -0.008874593575947977   -0.0009876970350971978
-0.004999851081473852   -0.013545315971497558   -0.001116279625532049
-0.007823616647376172   -0.013610520107297158   -0.001247042097419112
-0.004170229972973704   -0.008684115503129603   -0.0009991593110466213
-0.00415222741972212   -0.008572422695231773   -0.0011382040278029588
-0.005002711362830283   -0.01340701726554761   -0.0012561431230704977
-0.00198018254009059   -0.008515097950910749   -0.00102498440809812
-0.004160445005870063   -0.008638238795669453   -0.001066054790143474
-0.005002711362830283   -0.01340701726554761   -0.0012561431230704977
-0.002470665218217679   -0.013369226924156648   -0.001164371112063792
-0.00198018254009059   -0.008515097950910749   -0.00102498440809812
-0.00246507715735986   -0.013404600272273703   -0.0011302345645165263
-0.004160445005870063   -0.008638238795669453   -0.001066054790143474
-0.0019743441563731864   -0.008557114224874242   -0.0009841219667851482
-0.00246507715735986   -0.013404600272273703   -0.0011302345645165263
-0.00198018254009059   -0.008515097950910749   -0.00102498440809812
-0.004160445005870063   -0.008638238795669453   -0.001066054790143474
-0.00246507715735986   -0.013404600272273703   -0.0011302345645165263
-0.005007808540633419   -0.013463497713608275   -0.0012045996872377541
-0.005002711362830283   -0.01340701726554761   -0.0012561431230704977
-0.004160445005870063   -0.008638238795669453   -0.001066054790143474
-0.00246507715735986   -0.013404600272273703   -0.0011302345645165263
-0.005002711362830283   -0.01340701726554761   -0.0012561431230704977
-0.00198018254009059   -0.008515097950910749   -0.00102498440809812
-0.004160445005870063   -0.008638238795669453   -0.001066054790143474
-0.005007808540633419   -0.013463497713608275   -0.0012045996872377541
-0.0019743441563731864   -0.008557114224874242   -0.0009841219667851482
-0.004170229972973704   -0.008684115503129603   -0.0009991593110466213
-0.005007808540633419   -0.013463497713608275   -0.0012045996872377541
-0.00246507715735986   -0.013404600272273703   -0.0011302345645165263
-0.0019743441563731864   -0.008557114224874242   -0.0009841219667851482
-0.0024577831368526822   -0.013430224728930379   -0.0011011684285566552
-0.004170229972973704   -0.008684115503129603   -0.0009991593110466213
-0.0019673955609049616   -0.008581823558555097   -0.0009482567866415407
-0.0024577831368526822   -0.013430224728930379   -0.0011011684285566552
-0.0019743441563731864   -0.008557114224874242   -0.0009841219667851482
-0.004170229972973704   -0.008684115503129603   -0.0009991593110466213
-0.0024577831368526822   -0.013430224728930379   -0.0011011684285566552
-0.005011150681362346   -0.013508354400805738   -0.0011582087722787895
-0.005007808540633419   -0.013463497713608275   -0.0012045996872377541
-0.004170229972973704   -0.008684115503129603   -0.0009991593110466213
-0.0024577831368526822   -0.013430224728930379   -0.0011011684285566552
-0.005007808540633419   -0.013463497713608275   -0.0012045996872377541
-0.0019743441563731864   -0.008557114224874242   -0.0009841219667851482
-0.004170229972973704   -0.008684115503129603   -0.0009991593110466213
-0.005011150681362346   -0.013508354400805738   -0.0011582087722787895
-0.0019673955609049616   -0.008581823558555097   -0.0009482567866415407
-0.004161475005475899   -0.008714412317946344   -0.0009363961068423524
-0.005011150681362346   -0.013508354400805738   -0.0011582087722787895
-0.0024577831368526822   -0.013430224728930379   -0.0011011684285566552
-0.0019673955609049616   -0.008581823558555097   -0.0009482567866415407
-0.002447328416409008   -0.013446269243265982   -0.0010772601100455057
-0.004161475005475899   -0.008714412317946344   -0.0009363961068423524
-0.001956522750015244   -0.008589579005386781   -0.0009173765573413953
-0.002447328416409008   -0.013446269243265982   -0.0010772601100455057
-0.0019673955609049616   -0.008581823558555097   -0.0009482567866415407
-0.004161475005475899   -0.008714412317946344   -0.0009363961068423524
-0.002447328416409008   -0.013446269243265982   -0.0010772601100455057
-0.004999851081473852   -0.013545315971497558   -0.001116279625532049
-0.005011150681362346   -0.013508354400805738   -0.0011582087722787895
-0.004161475005475899   -0.008714412317946344   -0.0009363961068423524
-0.002447328416409008   -0.013446269243265982   -0.0010772601100455057
-0.005011150681362346   -0.013508354400805738   -0.0011582087722787895
-0.0019673955609049616   -0.008581823558555097   -0.0009482567866415407
-0.00198018254009059   -0.008515097950910749   -0.00102498440809812
-0.002470665218217679   -0.013369226924156648   -0.001164371112063792
0.0001276951292731285   -0.008512031639411964   -0.0009549705364125221
-0.0019743441563731864   -0.008557114224874242   -0.0009841219667851482
-0.002470665218217679   -0.013369226924156648   -0.001164371112063792
-7.599355561334656e-06   -0.01336264386107919   -0.0011111183267908011
0.0001276951292731285   -0.008512031639411964   -0.0009549705364125221
2.155466504043616e-06   -0.013376768203026676   -0.0010945349892885598
-0.0019743441563731864   -0.008557114224874242   -0.0009841219667851482
0.00013772718099938026   -0.008530599145770573   -0.0009452329781827006
2.155466504043616e-06   -0.013376768203026676   -0.0010945349892885598
0.0001276951292731285   -0.008512031639411964   -0.0009549705364125221
-0.0019743441563731864   -0.008557114224874242   -0.0009841219667851482
2.155466504043616e-06   -0.013376768203026676   -0.0010945349892885598
-0.00246507715735986   -0.013404600272273703   -0.0011302345645165263
-0.002470665218217679   -0.013369226924156648   -0.001164371112063792
-0.0019743441563731864   -0.008557114224874242   -0.0009841219667851482
2.155466504043616e-06   -0.013376768203026676   -0.0010945349892885598
-0.002470665218217679   -0.013369226924156648   -0.001164371112063792
0.0001276951292731285   -0.008512031639411964   -0.0009549705364125221
-0.0019743441563731864   -0.008557114224874242   -0.0009841219667851482
-0.00246507715735986   -0.013404600272273703   -0.0011302345645165263
0.00013772718099938026   -0.008530599145770573   -0.0009452329781827006
-0.0019673955609049616   -0.008581823558555097   -0.0009482567866415407
-0.00246507715735986   -0.013404600272273703   -0.0011302345645165263
2.155466504043616e-06   -0.013376768203026676   -0.0010945349892885598
0.00013772718099938026   -0.008530599145770573   -0.0009452329781827006
9.355332139307696e-06   -0.013381075292336533   -0.001082961044292296
-0.0019673955609049616   -0.008581823558555097   -0.0009482567866415407
0.00014447215126343882   -0.00853192741039958   -0.0009403651524384968
9.355332139307696e-06   -0.013381075292336533   -0.001082961044292296
0.00013772718099938026   -0.008530599145770573   -0.0009452329781827006
-0.0019673955609049616   -0.008581823558555097   -0.0009482567866415407
9.355332139307696e-06   -0.013381075292336533   -0.001082961044292296
-0.0024577831368526822   -0.013430224728930379   -0.0011011684285566552
-0.00246507715735986   -0.013404600272273703   -0.0011302345645165263
-0.0019673955609049616   -0.008581823558555097   -0.0009482567866415407
9.355332139307696e-06   -0.013381075292336533   -0.001082961044292296
-0.00246507715735986   -0.013404600272273703   -0.0011302345645165263
0.00013772718099938026   -0.008530599145770573   -0.0009452329781827006
-0.0019673955609049616   -0.008581823558555097   -0.0009482567866415407
-0.0024577831368526822   -0.013430224728930379   -0.0011011684285566552
0.00014447215126343882   -0.00853192741039958   -0.0009403651524384968
-0.001956522750015244   -0.008589579005386781   -0.0009173765573413953
-0.0024577831368526822   -0.013430224728930379   -0.0011011684285566552
9.355332139307696e-06   -0.013381075292336533   -0.001082961044292296
0.00014447215126343882   -0.00853192741039958   -0.0009403651524384968
1.4268551879163318e-05   -0.01337542974192672   -0.0010766154283127593
-0.001956522750015244   -0.008589579005386781   -0.0009173765573413953
0.0001496043525832621   -0.008515760613764932   -0.0009406596303661167
1.4268551879163318e-05   -0.01337542974192672   -0.0010766154283127593
0.00014447215126343882   -0.00853192741039958   -0.0009403651524384968
-0.001956522750015244   -0.008589579005386781   -0.0009173765573413953
1.4268551879163318e-05   -0.01337542974192672   -0.0010766154283127593
-0.002447328416409008   -0.013446269243265982   -0.0010772601100455057
-0.0024577831368526822   -0.013430224728930379   -0.0011011684285566552
-0.001956522750015244   -0.008589579005386781   -0.0009173765573413953
1.4268551879163318e-05   -0.01337542974192672   -0.0010766154283127593
-0.0024577831368526822   -0.013430224728930379   -0.0011011684285566552
0.00014447215126343882   -0.00853192741039958   -0.0009403651524384968
0.0001276951292731285   -0.008512031639411964   -0.0009549705364125221
-7.599355561334656e-06   -0.01336264386107919   -0.0011111183267908011
0.0023257880694624315   -0.008559990565603012   -0.0009269921440678903
0.00013772718099938026   -0.008530599145770573   -0.0009452329781827006
-7.599355561334656e-06   -0.01336264386107919   -0.0011111183267908011
0.0025402189300215024   -0.01338457968381617   -0.0010962037503635745
0.0023257880694624315   -0.008559990565603012   -0.0009269921440678903
0.0025520268549414863   -0.013378661942892691   -0.001097536420575533
0.00013772718099938026   -0.008530599145770573   -0.0009452329781827006
0.002334751052323206   -0.008557033910486822   -0.0009490186580333426
0.0025520268549414863   -0.013378661942892691   -0.001097536420575533
0.0023257880694624315   -0.008559990565603012   -0.0009269921440678903
0.00013772718099938026   -0.008530599145770573   -0.0009452329781827006
0.0025520268549414863   -0.013378661942892691   -0.001097536420575533
2.155466504043616e-06   -0.013376768203026676   -0.0010945349892885598
-7.599355561334656e-06   -0.01336264386107919   -0.0011111183267908011
0.00013772718099938026   -0.008530599145770573   -0.0009452329781827006
0.0025520268549414863   -0.013378661942892691   -0.001097536420575533
-7.599355561334656e-06   -0.01336264386107919   -0.0011111183267908011
0.0023257880694624315   -0.008559990565603012   -0.0009269921440678903
0.00013772718099938026   -0.008530599145770573   -0.0009452329781827006
2.155466504043616e-06   -0.013376768203026676   -0.0010945349892885598
0.002334751052323206   -0.008557033910486822   -0.0009490186580333426
0.00014447215126343882   -0.00853192741039958   -0.0009403651524384968
2.155466504043616e-06   -0.013376768203026676   -0.0010945349892885598
0.0025520268549414863   -0.013378661942892691   -0.001097536420575533
0.002334751052323206   -0.008557033910486822   -0.0009490186580333426
0.0025539006307937406   -0.013363713423416317   -0.0011036063921839262
0.00014447215126343882   -0.00853192741039958   -0.0009403651524384968
0.002329845708438877   -0.008537237931592204   -0.0009755570921138146
0.0025539006307937406   -0.013363713423416317   -0.0011036063921839262
0.002334751052323206   -0.008557033910486822   -0.0009490186580333426
0.00014447215126343882   -0.00853192741039958   -0.0009403651524384968
0.0025539006307937406   -0.013363713423416317   -0.0011036063921839262
9.355332139307696e-06   -0.013381075292336533   -0.001082961044292296
2.155466504043616e-06   -0.013376768203026676   -0.0010945349892885598
0.00014447215126343882   -0.00853192741039958   -0.0009403651524384968
0.0025539006307937406   -0.013363713423416317   -0.0011036063921839262
2.155466504043616e-06   -0.013376768203026676   -0.0010945349892885598
0.002334751052323206   -0.008557033910486822   -0.0009490186580333426
0.00014447215126343882   -0.00853192741039958   -0.0009403651524384968
9.355332139307696e-06   -0.013381075292336533   -0.001082961044292296
0.002329845708438877   -0.008537237931592204   -0.0009755570921138146
0.0001496043525832621   -0.008515760613764932   -0.0009406596303661167
9.355332139307696e-06   -0.013381075292336533   -0.001082961044292296
0.0025539006307937406   -0.013363713423416317   -0.0011036063921839262
0.002329845708438877   -0.008537237931592204   -0.0009755570921138146
0.0025493239801088453   -0.013336026868436638   -0.001114597281378796
0.0001496043525832621   -0.008515760613764932   -0.0009406596303661167
0.0023219323941824554   -0.008496399351898132   -0.0010071447187577445
0.0025493239801088453   -0.013336026868436638   -0.001114597281378796
0.002329845708438877   -0.008537237931592204   -0.0009755570921138146
0.0001496043525832621   -0.008515760613764932   -0.0009406596303661167
0.0025493239801088453   -0.013336026868436638   -0.001114597281378796
1.4268551879163318e-05   -0.01337542974192672   -0.0010766154283127593
9.355332139307696e-06   -0.013381075292336533   -0.001082961044292296
0.0001496043525832621   -0.008515760613764932   -0.0009406596303661167
0.0025493239801088453   -0.013336026868436638   -0.001114597281378796
9.355332139307696e-06   -0.013381075292336533   -0.001082961044292296
0.002329845708438877   -0.008537237931592204   -0.0009755570921138146
0.0023257880694624315   -0.008559990565603012   -0.0009269921440678903
0.0025402189300215024   -0.01338457968381617   -0.0010962037503635745
0.004829609772668171   -0.008646777769289443   -0.000928285344309329
0.002334751052323206   -0.008557033910486822   -0.0009490186580333426
0.0025402189300215024   -0.01338457968381617   -0.0010962037503635745
0.005353542024224359   -0.013424730090628003   -0.0011114202410324031
0.004829609772668171   -0.008646777769289443   -0.000928285344309329
0.005350168610804301   -0.013405201668636102   -0.001131978448542777
0.002334751052323206   -0.008557033910486822   -0.0009490186580333426
0.004789081636938439   -0.008631369605214009   -0.0009860656764341523
0.005350168610804301   -0.013405201668636102   -0.001131978448542777
0.004829609772668171   -0.008646777769289443   -0.000928285344309329
0.002334751052323206   -0.008557033910486822   -0.0009490186580333426
0.005350168610804301   -0.013405201668636102   -0.001131978448542777
0.0025520268549414863   -0.013378661942892691   -0.001097536420575533
0.0025402189300215024   -0.01338457968381617   -0.0010962037503635745
0.002334751052323206   -0.008557033910486822   -0.0009490186580333426
0.005350168610804301   -0.013405201668636102   -0.001131978448542777
0.0025402189300215024   -0.01338457968381617   -0.0010962037503635745
0.004829609772668171   -0.008646777769289443   -0.000928285344309329
0.002334751052323206   -0.008557033910486822   -0.0009490186580333426
0.0025520268549414863   -0.013378661942892691   -0.001097536420575533
0.004789081636938439   -0.008631369605214009   -0.0009860656764341523
0.002329845708438877   -0.008537237931592204   -0.0009755570921138146
0.0025520268549414863   -0.013378661942892691   -0.001097536420575533
0.005350168610804301   -0.013405201668636102   -0.001131978448542777
0.004789081636938439   -0.008631369605214009   -0.0009860656764341523
0.005338151100504688   -0.013380888625061895   -0.0011602291723991226
0.002329845708438877   -0.008537237931592204   -0.0009755570921138146
0.00474841718548052   -0.008600950013917977   -0.0010519829095227233
0.005338151100504688   -0.013380888625061895   -0.0011602291723991226
0.004789081636938439   -0.008631369605214009   -0.0009860656764341523
0.002329845708438877   -0.008537237931592204   -0.0009755570921138146
0.005338151100504688   -0.013380888625061895   -0.0011602291723991226
0.0025539006307937406   -0.013363713423416317   -0.0011036063921839262
0.0025520268549414863   -0.013378661942892691   -0.001097536420575533
0.002329845708438877   -0.008537237931592204   -0.0009755570921138146
0.005338151100504688   -0.013380888625061895   -0.0011602291723991226
0.0025520268549414863   -0.013378661942892691   -0.001097536420575533
0.004789081636938439   -0.008631369605214009   -0.0009860656764341523
0.002329845708438877   -0.008537237931592204   -0.0009755570921138146
0.0025539006307937406   -0.013363713423416317   -0.0011036063921839262
0.00474841718548052   -0.008600950013917977   -0.0010519829095227233
0.0023219323941824554   -0.008496399351898132   -0.0010071447187577445
0.0025539006307937406   -0.013363713423416317   -0.0011036063921839262
0.005338151100504688   -0.013380888625061895   -0.0011602291723991226
0.00474841718548052   -0.008600950013917977   -0.0010519829095227233
0.005303086608327773   -0.01333485317704114   -0.0011961164934909964
0.0023219323941824554   -0.008496399351898132   -0.0010071447187577445
0.004675213921951643   -0.00853746252267783   -0.0011260460596700425
0.005303086608327773   -0.01333485317704114   -0.0011961164934909964
0.00474841718548052   -0.008600950013917977   -0.0010519829095227233
0.0023219323941824554   -0.008496399351898132   -0.0010071447187577445
0.005303086608327773   -0.01333485317704114   -0.0011961164934909964
0.0025493239801088453   -0.013336026868436638   -0.001114597281378796
0.0025539006307937406   -0.013363713423416317   -0.0011036063921839262
0.0023219323941824554   -0.008496399351898132   -0.0010071447187577445
0.005303086608327773   -0.01333485317704114   -0.0011961164934909964
0.0025539006307937406   -0.013363713423416317   -0.0011036063921839262
0.00474841718548052   -0.008600950013917977   -0.0010519829095227233
-0.007704459026254503   -0.013479873608595374   -0.0013887191533010696
-0.008456579094800937   -0.018689558140831817   -0.0014152472442118965
-0.005002711362830283   -0.01340701726554761   -0.0012561431230704977
-0.007780461533518578   -0.013556329938171604   -0.0013142899126276774
-0.008456579094800937   -0.018689558140831817   -0.0014152472442118965
-0.005559772191760154   -0.018660045604230662   -0.0013099461987469809
-0.005002711362830283   -0.01340701726554761   -0.0012561431230704977
-0.0055567710997266335   -0.018708097510683235   -0.0012784014121733132
-0.007780461533518578   -0.013556329938171604   -0.0013142899126276774
-0.005007808540633419   -0.013463497713608275   -0.0012045996872377541
-0.0055567710997266335   -0.018708097510683235   -0.0012784014121733132
-0.005002711362830283   -0.01340701726554761   -0.0012561431230704977
-0.007780461533518578   -0.013556329938171604   -0.0013142899126276774
-0.0055567710997266335   -0.018708097510683235   -0.0012784014121733132
-0.008491502458271395   -0.01875419531843083   -0.0013770835528448503
-0.008456579094800937   -0.018689558140831817   -0.0014152472442118965
-0.007780461533518578   -0.013556329938171604   -0.0013142899126276774
-0.0055567710997266335   -0.018708097510683235   -0.0012784014121733132
-0.008456579094800937   -0.018689558140831817   -0.0014152472442118965
-0.005002711362830283   -0.01340701726554761   -0.0012561431230704977
-0.007780461533518578   -0.013556329938171604   -0.0013142899126276774
-0.008491502458271395   -0.01875419531843083   -0.0013770835528448503
-0.005007808540633419   -0.013463497713608275   -0.0012045996872377541
-0.007823616647376172   -0.013610520107297158   -0.001247042097419112
-0.008491502458271395   -0.01875419531843083   -0.0013770835528448503
-0.0055567710997266335   -0.018708097510683235   -0.0012784014121733132
-0.005007808540633419   -0.013463497713608275   -0.0012045996872377541
-0.0055485259334354916   -0.01875251956552819   -0.0012520974742531467
-0.007823616647376172   -0.013610520107297158   -0.001247042097419112
-0.005011150681362346   -0.013508354400805738   -0.0011582087722787895
-0.0055485259334354916   -0.01875251956552819   -0.0012520974742531467
-0.005007808540633419   -0.013463497713608275   -0.0012045996872377541
-0.007823616647376172   -0.013610520107297158   -0.001247042097419112
-0.0055485259334354916   -0.01875251956552819   -0.0012520974742531467
-0.008501975395115251   -0.018807029285904213   -0.0013464603162432484
-0.008491502458271395   -0.01875419531843083   -0.0013770835528448503
-0.007823616647376172   -0.013610520107297158   -0.001247042097419112
-0.0055485259334354916   -0.01875251956552819   -0.0012520974742531467
-0.008491502458271395   -0.01875419531843083   -0.0013770835528448503
-0.005007808540633419   -0.013463497713608275   -0.0012045996872377541
-0.007823616647376172   -0.013610520107297158   -0.001247042097419112
-0.008501975395115251   -0.018807029285904213   -0.0013464603162432484
-0.005011150681362346   -0.013508354400805738   -0.0011582087722787895
-0.007867992087709604   -0.0136592586399286   -0.0011878346877090991
-0.008501975395115251   -0.018807029285904213   -0.0013464603162432484
-0.0055485259334354916   -0.01875251956552819   -0.0012520974742531467
-0.005011150681362346   -0.013508354400805738   -0.0011582087722787895
-0.005529408595328831   -0.01879670673352481   -0.0012306591008653031
-0.007867992087709604   -0.0136592586399286   -0.0011878346877090991
-0.004999851081473852   -0.013545315971497558   -0.001116279625532049
-0.005529408595328831   -0.01879670673352481   -0.0012306591008653031
-0.005011150681362346   -0.013508354400805738   -0.0011582087722787895
-0.007867992087709604   -0.0136592586399286   -0.0011878346877090991
-0.005529408595328831   -0.01879670673352481   -0.0012306591008653031
-0.008504755560983667   -0.018864557142542152   -0.0013240342148955972
-0.008501975395115251   -0.018807029285904213   -0.0013464603162432484
-0.007867992087709604   -0.0136592586399286   -0.0011878346877090991
-0.005529408595328831   -0.01879670673352481   -0.0012306591008653031
-0.008501975395115251   -0.018807029285904213   -0.0013464603162432484
-0.005011150681362346   -0.013508354400805738   -0.0011582087722787895
-0.005002711362830283   -0.01340701726554761   -0.0012561431230704977
-0.005559772191760154   -0.018660045604230662   -0.0013099461987469809
-0.002470665218217679   -0.013369226924156648   -0.001164371112063792
-0.005007808540633419   -0.013463497713608275   -0.0012045996872377541
-0.005559772191760154   -0.018660045604230662   -0.0013099461987469809
-0.0028690274711254777   -0.01864292821928735   -0.0012382857256377636
-0.002470665218217679   -0.013369226924156648   -0.001164371112063792
-0.002858202485627533   -0.01867194493989816   -0.0012106542174821723
-0.005007808540633419   -0.013463497713608275   -0.0012045996872377541
-0.00246507715735986   -0.013404600272273703   -0.0011302345645165263
-0.002858202485627533   -0.01867194493989816   -0.0012106542174821723
-0.002470665218217679   -0.013369226924156648   -0.001164371112063792
-0.005007808540633419   -0.013463497713608275   -0.0012045996872377541
-0.002858202485627533   -0.01867194493989816   -0.0012106542174821723
-0.0055567710997266335   -0.018708097510683235   -0.0012784014121733132
-0.005559772191760154   -0.018660045604230662   -0.0013099461987469809
-0.005007808540633419   -0.013463497713608275   -0.0012045996872377541
-0.002858202485627533   -0.01867194493989816   -0.0012106542174821723
-0.005559772191760154   -0.018660045604230662   -0.0013099461987469809
-0.002470665218217679   -0.013369226924156648   -0.001164371112063792
-0.005007808540633419   -0.013463497713608275   -0.0012045996872377541
-0.0055567710997266335   -0.018708097510683235   -0.0012784014121733132
-0.00246507715735986   -0.013404600272273703   -0.0011302345645165263
-0.005011150681362346   -0.013508354400805738   -0.0011582087722787895
-0.0055567710997266335   -0.018708097510683235   -0.0012784014121733132
-0.002858202485627533   -0.01867194493989816   -0.0012106542174821723
-0.00246507715735986   -0.013404600272273703   -0.0011302345645165263
-0.0028451158013758906   -0.018698640219835267   -0.0011882636024738874
-0.005011150681362346   -0.013508354400805738   -0.0011582087722787895
-0.0024577831368526822   -0.013430224728930379   -0.0011011684285566552
-0.0028451158013758906   -0.018698640219835267   -0.0011882636024738874
-0.00246507715735986   -0.013404600272273703   -0.0011302345645165263
-0.005011150681362346   -0.013508354400805738   -0.0011582087722787895
-0.0028451158013758906   -0.018698640219835267   -0.0011882636024738874
-0.0055485259334354916   -0.01875251956552819   -0.0012520974742531467
-0.0055567710997266335   -0.018708097510683235   -0.0012784014121733132
-0.005011150681362346   -0.013508354400805738   -0.0011582087722787895
-0.0028451158013758906   -0.018698640219835267   -0.0011882636024738874
-0.0055567710997266335   -0.018708097510683235   -0.0012784014121733132
-0.00246507715735986   -0.013404600272273703   -0.0011302345645165263
-0.005011150681362346   -0.013508354400805738   -0.0011582087722787895
-0.0055485259334354916   -0.01875251956552819   -0.0012520974742531467
-0.0024577831368526822   -0.013430224728930379   -0.0011011684285566552
-0.004999851081473852   -0.013545315971497558   -0.001116279625532049
-0.0055485259334354916   -0.01875251956552819   -0.0012520974742531467
-0.0028451158013758906   -0.018698640219835267   -0.0011882636024738874
-0.0024577831368526822   -0.013430224728930379   -0.0011011684285566552
-0.002829535097919941   -0.018723103424123623   -0.0011712439572291644
-0.004999851081473852   -0.013545315971497558   -0.001116279625532049
-0.002447328416409008   -0.013446269243265982   -0.0010772601100455057
-0.002829535097919941   -0.018723103424123623   -0.0011712439572291644
-0.0024577831368526822   -0.013430224728930379   -0.0011011684285566552
-0.004999851081473852   -0.013545315971497558   -0.001116279625532049
-0.002829535097919941   -0.018723103424123623   -0.0011712439572291644
-0.005529408595328831   -0.01879670673352481   -0.0012306591008653031
-0.0055485259334354916   -0.01875251956552819   -0.0012520974742531467
-0.004999851081473852   -0.013545315971497558   -0.001116279625532049
-0.002829535097919941   -0.018723103424123623   -0.0011712439572291644
-0.0055485259334354916   -0.01875251956552819   -0.0012520974742531467
-0.0024577831368526822   -0.013430224728930379   -0.0011011684285566552
-0.002470665218217679   -0.013369226924156648   -0.001164371112063792
-0.0028690274711254777   -0.01864292821928735   -0.0012382857256377636
-7.599355561334656e-06   -0.01336264386107919   -0.0011111183267908011
-0.00246507715735986   -0.013404600272273703   -0.0011302345645165263
-0.0028690274711254777   -0.01864292821928735   -0.0012382857256377636
-0.00025113838999769064   -0.01863300270187701   -0.001201434566220772
-7.599355561334656e-06   -0.01336264386107919   -0.0011111183267908011
-0.00023629549725188645   -0.018642601385382974   -0.0011780020744216828
-0.00246507715735986   -0.013404600272273703   -0.0011302345645165263
2.155466504043616e-06   -0.013376768203026676   -0.0010945349892885598
-0.00023629549725188645   -0.018642601385382974   -0.0011780020744216828
-7.599355561334656e-06   -0.01336264386107919   -0.0011111183267908011
-0.00246507715735986   -0.013404600272273703   -0.0011302345645165263
-0.00023629549725188645   -0.018642601385382974   -0.0011780020744216828
-0.002858202485627533   -0.01867194493989816   -0.0012106542174821723
-0.0028690274711254777   -0.01864292821928735   -0.0012382857256377636
-0.00246507715735986   -0.013404600272273703   -0.0011302345645165263
-0.00023629549725188645   -0.018642601385382974   -0.0011780020744216828
-0.0028690274711254777   -0.01864292821928735   -0.0012382857256377636
-7.599355561334656e-06   -0.01336264386107919   -0.0011111183267908011
-0.00246507715735986   -0.013404600272273703   -0.0011302345645165263
-0.002858202485627533   -0.01867194493989816   -0.0012106542174821723
2.155466504043616e-06   -0.013376768203026676   -0.0010945349892885598
-0.0024577831368526822   -0.013430224728930379   -0.0011011684285566552
-0.002858202485627533   -0.01867194493989816   -0.0012106542174821723
-0.00023629549725188645   -0.018642601385382974   -0.0011780020744216828
2.155466504043616e-06   -0.013376768203026676   -0.0010945349892885598
-0.00022334256110919214   -0.018649709906427454   -0.0011597687700346181
-0.0024577831368526822   -0.013430224728930379   -0.0011011684285566552
9.355332139307696e-06   -0.013381075292336533   -0.001082961044292296
-0.00022334256110919214   -0.018649709906427454   -0.0011597687700346181
2.155466504043616e-06   -0.013376768203026676   -0.0010945349892885598
-0.0024577831368526822   -0.013430224728930379   -0.0011011684285566552
-0.00022334256110919214   -0.018649709906427454   -0.0011597687700346181
-0.0028451158013758906   -0.018698640219835267   -0.0011882636024738874
-0.002858202485627533   -0.01867194493989816   -0.0012106542174821723
-0.0024577831368526822   -0.013430224728930379   -0.0011011684285566552
-0.00022334256110919214   -0.018649709906427454   -0.0011597687700346181
-0.002858202485627533   -0.01867194493989816   -0.0012106542174821723
2.155466504043616e-06   -0.013376768203026676   -0.0010945349892885598
-0.0024577831368526822   -0.013430224728930379   -0.0011011684285566552
-0.0028451158013758906   -0.018698640219835267   -0.0011882636024738874
9.355332139307696e-06   -0.013381075292336533   -0.001082961044292296
-0.002447328416409008   -0.013446269243265982   -0.0010772601100455057
-0.0028451158013758906   -0.018698640219835267   -0.0011882636024738874
-0.00022334256110919214   -0.018649709906427454   -0.0011597687700346181
9.355332139307696e-06   -0.013381075292336533   -0.001082961044292296
-0.00021326889231894762   -0.01865428914523688   -0.0011469219839221826
-0.002447328416409008   -0.013446269243265982   -0.0010772601100455057
1.4268551879163318e-05   -0.01337542974192672   -0.0010766154283127593
-0.00021326889231894762   -0.01865428914523688   -0.0011469219839221826
9.355332139307696e-06   -0.013381075292336533   -0.001082961044292296
-0.002447328416409008   -0.013446269243265982   -0.0010772601100455057
-0.00021326889231894762   -0.01865428914523688   -0.0011469219839221826
-0.002829535097919941   -0.018723103424123623   -0.0011712439572291644
-0.0028451158013758906   -0.018698640219835267   -0.0011882636024738874
-0.002447328416409008   -0.013446269243265982   -0.0010772601100455057
-0.00021326889231894762   -0.01865428914523688   -0.0011469219839221826
-0.0028451158013758906   -0.018698640219835267   -0.0011882636024738874
9.355332139307696e-06   -0.013381075292336533   -0.001082961044292296
-7.599355561334656e-06   -0.01336264386107919   -0.0011111183267908011
-0.00025113838999769064   -0.01863300270187701   -0.001201434566220772
0.0025402189300215024   -0.01338457968381617   -0.0010962037503635745
2.155466504043616e-06   -0.013376768203026676   -0.0010945349892885598
-0.00025113838999769064   -0.01863300270187701   -0.001201434566220772
0.002446478163634626   -0.01862855287423429   -0.0011997516309700498
0.0025402189300215024   -0.01338457968381617   -0.0010962037503635745
0.002465957014410494   -0.018619318545828396   -0.001180724670106488
2.155466504043616e-06   -0.013376768203026676   -0.0010945349892885598
0.0025520268549414863   -0.013378661942892691   -0.001097536420575533
0.002465957014410494   -0.018619318545828396   -0.001180724670106488
0.0025402189300215024   -0.01338457968381617   -0.0010962037503635745
2.155466504043616e-06   -0.013376768203026676   -0.0010945349892885598
0.002465957014410494   -0.018619318545828396   -0.001180724670106488
-0.00023629549725188645   -0.018642601385382974   -0.0011780020744216828
-0.00025113838999769064   -0.01863300270187701   -0.001201434566220772
2.155466504043616e-06   -0.013376768203026676   -0.0010945349892885598
0.002465957014410494   -0.018619318545828396   -0.001180724670106488
-0.00025113838999769064   -0.01863300270187701   -0.001201434566220772
0.0025402189300215024   -0.01338457968381617   -0.0010962037503635745
2.155466504043616e-06   -0.013376768203026676   -0.0010945349892885598
-0.00023629549725188645   -0.018642601385382974   -0.0011780020744216828
0.0025520268549414863   -0.013378661942892691   -0.001097536420575533
9.355332139307696e-06   -0.013381075292336533   -0.001082961044292296
-0.00023629549725188645   -0.018642601385382974   -0.0011780020744216828
0.002465957014410494   -0.018619318545828396   -0.001180724670106488
0.0025520268549414863   -0.013378661942892691   -0.001097536420575533
0.0024793314023370287   -0.018608703014686256   -0.0011667451327450548
9.355332139307696e-06   -0.013381075292336533   -0.001082961044292296
0.0025539006307937406   -0.013363713423416317   -0.0011036063921839262
0.0024793314023370287   -0.018608703014686256   -0.0011667451327450548
0.0025520268549414863   -0.013378661942892691   -0.001097536420575533
9.355332139307696e-06   -0.013381075292336533   -0.001082961044292296
0.0024793314023370287   -0.018608703014686256   -0.0011667451327450548
-0.00022334256110919214   -0.018649709906427454   -0.0011597687700346181
-0.00023629549725188645   -0.018642601385382974   -0.0011780020744216828
9.355332139307696e-06   -0.013381075292336533   -0.001082961044292296
0.0024793314023370287   -0.018608703014686256   -0.0011667451327450548
-0.00023629549725188645   -0.018642601385382974   -0.0011780020744216828
0.0025520268549414863   -0.013378661942892691   -0.001097536420575533
9.355332139307696e-06   -0.013381075292336533   -0.001082961044292296
-0.00022334256110919214   -0.018649709906427454   -0.0011597687700346181
0.0025539006307937406   -0.013363713423416317   -0.0011036063921839262
1.4268551879163318e-05   -0.01337542974192672   -0.0010766154283127593
-0.00022334256110919214   -0.018649709906427454   -0.0011597687700346181
0.0024793314023370287   -0.018608703014686256   -0.0011667451327450548
0.0025539006307937406   -0.013363713423416317   -0.0011036063921839262
0.0024827655395856193   -0.01859327066661456   -0.0011577115494309268
1.4268551879163318e-05   -0.01337542974192672   -0.0010766154283127593
0.0025493239801088453   -0.013336026868436638   -0.001114597281378796
0.0024827655395856193   -0.01859327066661456   -0.0011577115494309268
0.0025539006307937406   -0.013363713423416317   -0.0011036063921839262
1.4268551879163318e-05   -0.01337542974192672   -0.0010766154283127593
0.0024827655395856193   -0.01859327066661456   -0.0011577115494309268
-0.00021326889231894762   -0.01865428914523688   -0.0011469219839221826
-0.00022334256110919214   -0.018649709906427454   -0.0011597687700346181
1.4268551879163318e-05   -0.01337542974192672   -0.0010766154283127593
0.0024827655395856193   -0.01859327066661456   -0.0011577115494309268
-0.00022334256110919214   -0.018649709906427454   -0.0011597687700346181
0.0025539006307937406   -0.013363713423416317   -0.0011036063921839262
0.0025402189300215024   -0.01338457968381617   -0.0010962037503635745
0.002446478163634626   -0.01862855287423429   -0.0011997516309700498
0.005353542024224359   -0.013424730090628003   -0.0011114202410324031
0.0025520268549414863   -0.013378661942892691   -0.001097536420575533
0.002446478163634626   -0.01862855287423429   -0.0011997516309700498
0.0053691759331671194   -0.01862215082861271   -0.0012298486666131084
0.005353542024224359   -0.013424730090628003   -0.0011114202410324031
0.005407001187432674   -0.018598001882557356   -0.0012139420282220547
0.0025520268549414863   -0.013378661942892691   -0.001097536420575533
0.005350168610804301   -0.013405201668636102   -0.001131978448542777
0.005407001187432674   -0.018598001882557356   -0.0012139420282220547
0.005353542024224359   -0.013424730090628003   -0.0011114202410324031
0.0025520268549414863   -0.013378661942892691   -0.001097536420575533
0.005407001187432674   -0.018598001882557356   -0.0012139420282220547
0.002465957014410494   -0.018619318545828396   -0.001180724670106488
0.002446478163634626   -0.01862855287423429   -0.0011997516309700498
0.0025520268549414863   -0.013378661942892691   -0.001097536420575533
0.005407001187432674   -0.018598001882557356   -0.0012139420282220547
0.002446478163634626   -0.01862855287423429   -0.0011997516309700498
0.005353542024224359   -0.013424730090628003   -0.0011114202410324031
0.0025520268549414863   -0.013378661942892691   -0.001097536420575533
0.002465957014410494   -0.018619318545828396   -0.001180724670106488
0.005350168610804301   -0.013405201668636102   -0.001131978448542777
0.0025539006307937406   -0.013363713423416317   -0.0011036063921839262
0.002465957014410494   -0.018619318545828396   -0.001180724670106488
0.005407001187432674   -0.018598001882557356   -0.0012139420282220547
0.005350168610804301   -0.013405201668636102   -0.001131978448542777
0.005427530732481291   -0.018579013453918623   -0.0012057142741779363
0.0025539006307937406   -0.013363713423416317   -0.0011036063921839262
0.005338151100504688   -0.013380888625061895   -0.0011602291723991226
0.005427530732481291   -0.018579013453918623   -0.0012057142741779363
0.005350168610804301   -0.013405201668636102   -0.001131978448542777
0.0025539006307937406   -0.013363713423416317   -0.0011036063921839262
0.005427530732481291   -0.018579013453918623   -0.0012057142741779363
0.0024793314023370287   -0.018608703014686256   -0.0011667451327450548
0.002465957014410494   -0.018619318545828396   -0.001180724670106488
0.0025539006307937406   -0.013363713423416317   -0.0011036063921839262
0.005427530732481291   -0.018579013453918623   -0.0012057142741779363
0.002465957014410494   -0.018619318545828396   -0.001180724670106488
0.005350168610804301   -0.013405201668636102   -0.001131978448542777
0.0025539006307937406   -0.013363713423416317   -0.0011036063921839262
0.0024793314023370287   -0.018608703014686256   -0.0011667451327450548
0.005338151100504688   -0.013380888625061895   -0.0011602291723991226
0.0025493239801088453   -0.013336026868436638   -0.001114597281378796
0.0024793314023370287   -0.018608703014686256   -0.0011667451327450548
0.005427530732481291   -0.018579013453918623   -0.0012057142741779363
0.005338151100504688   -0.013380888625061895   -0.0011602291723991226
0.005433636141967662   -0.01854880311673812   -0.0012052966755922536
0.0025493239801088453   -0.013336026868436638   -0.001114597281378796
0.005303086608327773   -0.01333485317704114   -0.0011961164934909964
0.005433636141967662   -0.01854880311673812   -0.0012052966755922536
0.005338151100504688   -0.013380888625061895   -0.0011602291723991226
0.0025493239801088453   -0.013336026868436638   -0.001114597281378796
0.005433636141967662   -0.01854880311673812   -0.0012052966755922536
0.0024827655395856193   -0.01859327066661456   -0.0011577115494309268
0.0024793314023370287   -0.018608703014686256   -0.0011667451327450548
0.0025493239801088453   -0.013336026868436638   -0.001114597281378796
0.005433636141967662   -0.01854880311673812   -0.0012052966755922536
0.0024793314023370287   -0.018608703014686256   -0.0011667451327450548
0.005338151100504688   -0.013380888625061895   -0.0011602291723991226
-0.008456579094800937   -0.018689558140831817   -0.0014152472442118965
-0.008715515727461374   -0.023986310711975347   -0.001392390475682889
-0.005559772191760154   -0.018660045604230662   -0.0013099461987469809
-0.008491502458271395   -0.01875419531843083   -0.0013770835528448503
-0.008715515727461374   -0.023986310711975347   -0.001392390475682889
-0.005825162866940079   -0.02400030833882702   -0.001314787691010195
-0.005559772191760154   -0.018660045604230662   -0.0013099461987469809
-0.005809041887916943   -0.02403980591254997   -0.0013028697142851565
-0.008491502458271395   -0.01875419531843083   -0.0013770835528448503
-0.0055567710997266335   -0.018708097510683235   -0.0012784014121733132
-0.005809041887916943   -0.02403980591254997   -0.0013028697142851565
-0.005559772191760154   -0.018660045604230662   -0.0013099461987469809
-0.008491502458271395   -0.01875419531843083   -0.0013770835528448503
-0.005809041887916943   -0.02403980591254997   -0.0013028697142851565
-0.008704680288727734   -0.024039190039739724   -0.0013902091215269696
-0.008715515727461374   -0.023986310711975347   -0.001392390475682889
-0.008491502458271395   -0.01875419531843083   -0.0013770835528448503
-0.005809041887916943   -0.02403980591254997   -0.0013028697142851565
-0.008715515727461374   -0.023986310711975347   -0.001392390475682889
-0.005559772191760154   -0.018660045604230662   -0.0013099461987469809
-0.008491502458271395   -0.01875419531843083   -0.0013770835528448503
-0.008704680288727734   -0.024039190039739724   -0.0013902091215269696
-0.0055567710997266335   -0.018708097510683235   -0.0012784014121733132
-0.008501975395115251   -0.018807029285904213   -0.0013464603162432484
-0.008704680288727734   -0.024039190039739724   -0.0013902091215269696
-0.005809041887916943   -0.02403980591254997   -0.0013028697142851565
-0.0055567710997266335   -0.018708097510683235   -0.0012784014121733132
-0.005784210811655823   -0.02408368556410996   -0.001296329339070934
-0.008501975395115251   -0.018807029285904213   -0.0013464603162432484
-0.0055485259334354916   -0.01875251956552819   -0.0012520974742531467
-0.005784210811655823   -0.02408368556410996   -0.001296329339070934
-0.0055567710997266335   -0.018708097510683235   -0.0012784014121733132
-0.008501975395115251   -0.018807029285904213   -0.0013464603162432484
-0.005784210811655823   -0.02408368556410996   -0.001296329339070934
-0.008677413761051682   -0.02409067668548207   -0.0013960611029814308
-0.008704680288727734   -0.024039190039739724   -0.0013902091215269696
-0.008501975395115251   -0.018807029285904213   -0.0013464603162432484
-0.005784210811655823   -0.02408368556410996   -0.001296329339070934
-0.008704680288727734   -0.024039190039739724   -0.0013902091215269696
-0.0055567710997266335   -0.018708097510683235   -0.0012784014121733132
-0.008501975395115251   -0.018807029285904213   -0.0013464603162432484
-0.008677413761051682   -0.02409067668548207   -0.0013960611029814308
-0.0055485259334354916   -0.01875251956552819   -0.0012520974742531467
-0.008504755560983667   -0.018864557142542152   -0.0013240342148955972
-0.008677413761051682   -0.02409067668548207   -0.0013960611029814308
-0.005784210811655823   -0.02408368556410996   -0.001296329339070934
-0.0055485259334354916   -0.01875251956552819   -0.0012520974742531467
-0.005752240488877292   -0.024134976941514286   -0.0012950707950285484
-0.008504755560983667   -0.018864557142542152   -0.0013240342148955972
-0.005529408595328831   -0.01879670673352481   -0.0012306591008653031
-0.005752240488877292   -0.024134976941514286   -0.0012950707950285484
-0.0055485259334354916   -0.01875251956552819   -0.0012520974742531467
-0.008504755560983667   -0.018864557142542152   -0.0013240342148955972
-0.005752240488877292   -0.024134976941514286   -0.0012950707950285484
-0.00863359767362675   -0.024157126842745666   -0.0014103633771375135
-0.008677413761051682   -0.02409067668548207   -0.0013960611029814308
-0.008504755560983667   -0.018864557142542152   -0.0013240342148955972
-0.005752240488877292   -0.024134976941514286   -0.0012950707950285484
-0.008677413761051682   -0.02409067668548207   -0.0013960611029814308
-0.0055485259334354916   -0.01875251956552819   -0.0012520974742531467
-0.005559772191760154   -0.018660045604230662   -0.0013099461987469809
-0.005825162866940079   -0.02400030833882702   -0.001314787691010195
-0.0028690274711254777   -0.01864292821928735   -0.0012382857256377636
-0.0055567710997266335   -0.018708097510683235   -0.0012784014121733132
-0.005825162866940079   -0.02400030833882702   -0.001314787691010195
-0.003177114799319249   -0.024003219372205564   -0.0012632402183784686
-0.0028690274711254777   -0.01864292821928735   -0.0012382857256377636
-0.0031557558428432384   -0.024025808406243493   -0.001241904362019688
-0.0055567710997266335   -0.018708097510683235   -0.0012784014121733132
-0.002858202485627533   -0.01867194493989816   -0.0012106542174821723
-0.0031557558428432384   -0.024025808406243493   -0.001241904362019688
-0.0028690274711254777   -0.01864292821928735   -0.0012382857256377636
-0.0055567710997266335   -0.018708097510683235   -0.0012784014121733132
-0.0031557558428432384   -0.024025808406243493   -0.001241904362019688
-0.005809041887916943   -0.02403980591254997   -0.0013028697142851565
-0.005825162866940079   -0.02400030833882702   -0.001314787691010195
-0.0055567710997266335   -0.018708097510683235   -0.0012784014121733132
-0.0031557558428432384   -0.024025808406243493   -0.001241904362019688
-0.005825162866940079   -0.02400030833882702   -0.001314787691010195
-0.0028690274711254777   -0.01864292821928735   -0.0012382857256377636
-0.0055567710997266335   -0.018708097510683235   -0.0012784014121733132
-0.005809041887916943   -0.02403980591254997   -0.0013028697142851565
-0.002858202485627533   -0.01867194493989816   -0.0012106542174821723
-0.0055485259334354916   -0.01875251956552819   -0.0012520974742531467
-0.005809041887916943   -0.02403980591254997   -0.0013028697142851565
-0.0031557558428432384   -0.024025808406243493   -0.001241904362019688
-0.002858202485627533   -0.01867194493989816   -0.0012106542174821723
-0.003131707472067937   -0.024053384433263363   -0.001225963179626248
-0.0055485259334354916   -0.01875251956552819   -0.0012520974742531467
-0.0028451158013758906   -0.018698640219835267   -0.0011882636024738874
-0.003131707472067937   -0.024053384433263363   -0.001225963179626248
-0.002858202485627533   -0.01867194493989816   -0.0012106542174821723
-0.0055485259334354916   -0.01875251956552819   -0.0012520974742531467
-0.003131707472067937   -0.024053384433263363   -0.001225963179626248
-0.005784210811655823   -0.02408368556410996   -0.001296329339070934
-0.005809041887916943   -0.02403980591254997   -0.0013028697142851565
-0.0055485259334354916   -0.01875251956552819   -0.0012520974742531467
-0.003131707472067937   -0.024053384433263363   -0.001225963179626248
-0.005809041887916943   -0.02403980591254997   -0.0013028697142851565
-0.002858202485627533   -0.01867194493989816   -0.0012106542174821723
-0.0055485259334354916   -0.01875251956552819   -0.0012520974742531467
-0.005784210811655823   -0.02408368556410996   -0.001296329339070934
-0.0028451158013758906   -0.018698640219835267   -0.0011882636024738874
-0.005529408595328831   -0.01879670673352481   -0.0012306591008653031
-0.005784210811655823   -0.02408368556410996   -0.001296329339070934
-0.003131707472067937   -0.024053384433263363   -0.001225963179626248
-0.0028451158013758906   -0.018698640219835267   -0.0011882636024738874
-0.003105826127238217   -0.024086033675846545   -0.0012155961252380315
-0.005529408595328831   -0.01879670673352481   -0.0012306591008653031
-0.002829535097919941   -0.018723103424123623   -0.0011712439572291644
-0.003105826127238217   -0.024086033675846545   -0.0012155961252380315
-0.0028451158013758906   -0.018698640219835267   -0.0011882636024738874
-0.005529408595328831   -0.01879670673352481   -0.0012306591008653031
-0.003105826127238217   -0.024086033675846545   -0.0012155961252380315
-0.005752240488877292   -0.024134976941514286   -0.0012950707950285484
-0.005784210811655823   -0.02408368556410996   -0.001296329339070934
-0.005529408595328831   -0.01879670673352481   -0.0012306591008653031
-0.003105826127238217   -0.024086033675846545   -0.0012155961252380315
-0.005784210811655823   -0.02408368556410996   -0.001296329339070934
-0.0028451158013758906   -0.018698640219835267   -0.0011882636024738874
-0.0028690274711254777   -0.01864292821928735   -0.0012382857256377636
-0.003177114799319249   -0.024003219372205564   -0.0012632402183784686
-0.00025113838999769064   -0.01863300270187701   -0.001201434566220772
-0.002858202485627533   -0.01867194493989816   -0.0012106542174821723
-0.003177114799319249   -0.024003219372205564   -0.0012632402183784686
-0.0006038716493856176   -0.02398902907396443   -0.0012424181101992652
-0.00025113838999769064   -0.01863300270187701   -0.001201434566220772
-0.0005786921213287101   -0.023994110150462804   -0.0012121347164327659
-0.002858202485627533   -0.01867194493989816   -0.0012106542174821723
-0.00023629549725188645   -0.018642601385382974   -0.0011780020744216828
-0.0005786921213287101   -0.023994110150462804   -0.0012121347164327659
-0.00025113838999769064   -0.01863300270187701   -0.001201434566220772
-0.002858202485627533   -0.01867194493989816   -0.0012106542174821723
-0.0005786921213287101   -0.023994110150462804   -0.0012121347164327659
-0.0031557558428432384   -0.024025808406243493   -0.001241904362019688
-0.003177114799319249   -0.024003219372205564   -0.0012632402183784686
-0.002858202485627533   -0.01867194493989816   -0.0012106542174821723
-0.0005786921213287101   -0.023994110150462804   -0.0012121347164327659
-0.003177114799319249   -0.024003219372205564   -0.0012632402183784686
-0.00025113838999769064   -0.01863300270187701   -0.001201434566220772
-0.002858202485627533   -0.01867194493989816   -0.0012106542174821723
-0.0031557558428432384   -0.024025808406243493   -0.001241904362019688
-0.00023629549725188645   -0.018642601385382974   -0.0011780020744216828
-0.0028451158013758906   -0.018698640219835267   -0.0011882636024738874
-0.0031557558428432384   -0.024025808406243493   -0.001241904362019688
-0.0005786921213287101   -0.023994110150462804   -0.0012121347164327659
-0.00023629549725188645   -0.018642601385382974   -0.0011780020744216828
-0.0005548435616301223   -0.024003798347389662   -0.0011872115779148079
-0.0028451158013758906   -0.018698640219835267   -0.0011882636024738874
-0.00022334256110919214   -0.018649709906427454   -0.0011597687700346181
-0.0005548435616301223   -0.024003798347389662   -0.0011872115779148079
-0.00023629549725188645   -0.018642601385382974   -0.0011780020744216828
-0.0028451158013758906   -0.018698640219835267   -0.0011882636024738874
-0.0005548435616301223   -0.024003798347389662   -0.0011872115779148079
-0.003131707472067937   -0.024053384433263363   -0.001225963179626248
-0.0031557558428432384   -0.024025808406243493   -0.001241904362019688
-0.0028451158013758906   -0.018698640219835267   -0.0011882636024738874
-0.0005548435616301223   -0.024003798347389662   -0.0011872115779148079
-0.0031557558428432384   -0.024025808406243493   -0.001241904362019688
-0.00023629549725188645   -0.018642601385382974   -0.0011780020744216828
-0.0028451158013758906   -0.018698640219835267   -0.0011882636024738874
-0.003131707472067937   -0.024053384433263363   -0.001225963179626248
-0.00022334256110919214   -0.018649709906427454   -0.0011597687700346181
-0.002829535097919941   -0.018723103424123623   -0.0011712439572291644
-0.003131707472067937   -0.024053384433263363   -0.001225963179626248
-0.0005548435616301223   -0.024003798347389662   -0.0011872115779148079
-0.00022334256110919214   -0.018649709906427454   -0.0011597687700346181
-0.0005345000584368642   -0.024018309771763374   -0.0011678338746588847
-0.002829535097919941   -0.018723103424123623   -0.0011712439572291644
-0.00021326889231894762   -0.01865428914523688   -0.0011469219839221826
-0.0005345000584368642   -0.024018309771763374   -0.0011678338746588847
-0.00022334256110919214   -0.018649709906427454   -0.0011597687700346181
-0.002829535097919941   -0.018723103424123623   -0.0011712439572291644
-0.0005345000584368642   -0.024018309771763374   -0.0011678338746588847
-0.003105826127238217   -0.024086033675846545   -0.0012155961252380315
-0.003131707472067937   -0.024053384433263363   -0.001225963179626248
-0.002829535097919941   -0.018723103424123623   -0.0011712439572291644
-0.0005345000584368642   -0.024018309771763374   -0.0011678338746588847
-0.003131707472067937   -0.024053384433263363   -0.001225963179626248
-0.00022334256110919214   -0.018649709906427454   -0.0011597687700346181
-0.00025113838999769064   -0.01863300270187701   -0.001201434566220772
-0.0006038716493856176   -0.02398902907396443   -0.0012424181101992652
0.002446478163634626   -0.01862855287423429   -0.0011997516309700498
-0.00023629549725188645   -0.018642601385382974   -0.0011780020744216828
-0.0006038716493856176   -0.02398902907396443   -0.0012424181101992652
0.002046379539907381   -0.02395755692266442   -0.0012533550563441447
0.002446478163634626   -0.01862855287423429   -0.0011997516309700498
0.0020784121974382376   -0.023945054232007087   -0.0012142679291795237
-0.00023629549725188645   -0.018642601385382974   -0.0011780020744216828
0.002465957014410494   -0.018619318545828396   -0.001180724670106488
0.0020784121974382376   -0.023945054232007087   -0.0012142679291795237
0.002446478163634626   -0.01862855287423429   -0.0011997516309700498
-0.00023629549725188645   -0.018642601385382974   -0.0011780020744216828
0.0020784121974382376   -0.023945054232007087   -0.0012142679291795237
-0.0005786921213287101   -0.023994110150462804   -0.0012121347164327659
-0.0006038716493856176   -0.02398902907396443   -0.0012424181101992652
-0.00023629549725188645   -0.018642601385382974   -0.0011780020744216828
0.0020784121974382376   -0.023945054232007087   -0.0012142679291795237
-0.0006038716493856176   -0.02398902907396443   -0.0012424181101992652
0.002446478163634626   -0.01862855287423429   -0.0011997516309700498
-0.00023629549725188645   -0.018642601385382974   -0.0011780020744216828
-0.0005786921213287101   -0.023994110150462804   -0.0012121347164327659
0.002465957014410494   -0.018619318545828396   -0.001180724670106488
-0.00022334256110919214   -0.018649709906427454   -0.0011597687700346181
-0.0005786921213287101   -0.023994110150462804   -0.0012121347164327659
0.0020784121974382376   -0.023945054232007087   -0.0012142679291795237
0.002465957014410494   -0.018619318545828396   -0.001180724670106488
0.0021081172527514297   -0.023938541347698024   -0.0011805226344097756
-0.00022334256110919214   -0.018649709906427454   -0.0011597687700346181
0.0024793314023370287   -0.018608703014686256   -0.0011667451327450548
0.0021081172527514297   -0.023938541347698024   -0.0011805226344097756
0.002465957014410494   -0.018619318545828396   -0.001180724670106488
-0.00022334256110919214   -0.018649709906427454   -0.0011597687700346181
0.0021081172527514297   -0.023938541347698024   -0.0011805226344097756
-0.0005548435616301223   -0.024003798347389662   -0.0011872115779148079
-0.0005786921213287101   -0.023994110150462804   -0.0012121347164327659
-0.00022334256110919214   -0.018649709906427454   -0.0011597687700346181
0.0021081172527514297   -0.023938541347698024   -0.0011805226344097756
-0.0005786921213287101   -0.023994110150462804   -0.0012121347164327659
0.002465957014410494   -0.018619318545828396   -0.001180724670106488
-0.00022334256110919214   -0.018649709906427454   -0.0011597687700346181
-0.0005548435616301223   -0.024003798347389662   -0.0011872115779148079
0.0024793314023370287   -0.018608703014686256   -0.0011667451327450548
-0.00021326889231894762   -0.01865428914523688   -0.0011469219839221826
-0.0005548435616301223   -0.024003798347389662   -0.0011872115779148079
0.0021081172527514297   -0.023938541347698024   -0.0011805226344097756
0.0024793314023370287   -0.018608703014686256   -0.0011667451327450548
0.0021243534599874746   -0.023934928132240317   -0.001151770382340762
-0.00021326889231894762   -0.01865428914523688   -0.0011469219839221826
0.0024827655395856193   -0.01859327066661456   -0.0011577115494309268
0.0021243534599874746   -0.023934928132240317   -0.001151770382340762
0.0024793314023370287   -0.018608703014686256   -0.0011667451327450548
-0.00021326889231894762   -0.01865428914523688   -0.0011469219839221826
0.0021243534599874746   -0.023934928132240317   -0.001151770382340762
-0.0005345000584368642   -0.024018309771763374   -0.0011678338746588847
-0.0005548435616301223   -0.024003798347389662   -0.0011872115779148079
-0.00021326889231894762   -0.01865428914523688   -0.0011469219839221826
0.0021243534599874746   -0.023934928132240317   -0.001151770382340762
-0.0005548435616301223   -0.024003798347389662   -0.0011872115779148079
0.0024793314023370287   -0.018608703014686256   -0.0011667451327450548
0.002446478163634626   -0.01862855287423429   -0.0011997516309700498
0.002046379539907381   -0.02395755692266442   -0.0012533550563441447
0.0053691759331671194   -0.01862215082861271   -0.0012298486666131084
0.002465957014410494   -0.018619318545828396   -0.001180724670106488
0.002046379539907381   -0.02395755692266442   -0.0012533550563441447
0.00488261377839454   -0.023904545388384515   -0.0012978118444427497
0.0053691759331671194   -0.01862215082861271   -0.0012298486666131084
0.004965716341419993   -0.02387607335146644   -0.0012463604333628937
0.002465957014410494   -0.018619318545828396   -0.001180724670106488
0.005407001187432674   -0.018598001882557356   -0.0012139420282220547
0.004965716341419993   -0.02387607335146644   -0.0012463604333628937
0.0053691759331671194   -0.01862215082861271   -0.0012298486666131084
0.002465957014410494   -0.018619318545828396   -0.001180724670106488
0.004965716341419993   -0.02387607335146644   -0.0012463604333628937
0.0020784121974382376   -0.023945054232007087   -0.0012142679291795237
0.002046379539907381   -0.02395755692266442   -0.0012533550563441447
0.002465957014410494   -0.018619318545828396   -0.001180724670106488
0.004965716341419993   -0.02387607335146644   -0.0012463604333628937
0.002046379539907381   -0.02395755692266442   -0.0012533550563441447
0.0053691759331671194   -0.01862215082861271   -0.0012298486666131084
0.002465957014410494   -0.018619318545828396   -0.001180724670106488
0.0020784121974382376   -0.023945054232007087   -0.0012142679291795237
0.005407001187432674   -0.018598001882557356   -0.0012139420282220547
0.0024793314023370287   -0.018608703014686256   -0.0011667451327450548
0.0020784121974382376   -0.023945054232007087   -0.0012142679291795237
0.004965716341419993   -0.02387607335146644   -0.0012463604333628937
0.005407001187432674   -0.018598001882557356   -0.0012139420282220547
0.005023072567844524   -0.02386225111902179   -0.0012025270373544749
0.0024793314023370287   -0.018608703014686256   -0.0011667451327450548
0.005427530732481291   -0.018579013453918623   -0.0012057142741779363
0.005023072567844524   -0.02386225111902179   -0.0012025270373544749
0.005407001187432674   -0.018598001882557356   -0.0012139420282220547
0.0024793314023370287   -0.018608703014686256   -0.0011667451327450548
0.005023072567844524   -0.02386225111902179   -0.0012025270373544749
0.0021081172527514297   -0.023938541347698024   -0.0011805226344097756
0.0020784121974382376   -0.023945054232007087   -0.0012142679291795237
0.0024793314023370287   -0.018608703014686256   -0.0011667451327450548
0.005023072567844524   -0.02386225111902179   -0.0012025270373544749
0.0020784121974382376   -0.023945054232007087   -0.0012142679291795237
0.005407001187432674   -0.018598001882557356   -0.0012139420282220547
0.0024793314023370287   -0.018608703014686256   -0.0011667451327450548
0.0021081172527514297   -0.023938541347698024   -0.0011805226344097756
0.005427530732481291   -0.018579013453918623   -0.0012057142741779363
0.0024827655395856193   -0.01859327066661456   -0.0011577115494309268
0.0021081172527514297   -0.023938541347698024   -0.0011805226344097756
0.005023072567844524   -0.02386225111902179   -0.0012025270373544749
0.005427530732481291   -0.018579013453918623   -0.0012057142741779363
0.005074335347152844   -0.023847389590102394   -0.0011666305104608334
0.0024827655395856193   -0.01859327066661456   -0.0011577115494309268
0.005433636141967662   -0.01854880311673812   -0.0012052966755922536
0.005074335347152844   -0.023847389590102394   -0.0011666305104608334
0.005427530732481291   -0.018579013453918623   -0.0012057142741779363
0.0024827655395856193   -0.01859327066661456   -0.0011577115494309268
0.005074335347152844   -0.023847389590102394   -0.0011666305104608334
0.0021243534599874746   -0.023934928132240317   -0.001151770382340762
0.0021081172527514297   -0.023938541347698024   -0.0011805226344097756
0.0024827655395856193   -0.01859327066661456   -0.0011577115494309268
0.005074335347152844   -0.023847389590102394   -0.0011666305104608334
0.0021081172527514297   -0.023938541347698024   -0.0011805226344097756
0.005427530732481291   -0.018579013453918623   -0.0012057142741779363
-0.008715515727461374   -0.023986310711975347   -0.001392390475682889
-0.008479067626404492   -0.029038130756575742   -0.0013321297966181092
-0.005825162866940079   -0.02400030833882702   -0.001314787691010195
-0.008704680288727734   -0.024039190039739724   -0.0013902091215269696
-0.008479067626404492   -0.029038130756575742   -0.0013321297966181092
-0.005800354106203659   -0.029096249226893092   -0.0012855860092227114
-0.005825162866940079   -0.02400030833882702   -0.001314787691010195
-0.005766287349359038   -0.02912566706732253   -0.0012927130077937591
-0.008704680288727734   -0.024039190039739724   -0.0013902091215269696
-0.005809041887916943   -0.02403980591254997   -0.0013028697142851565
-0.005766287349359038   -0.02912566706732253   -0.0012927130077937591
-0.005825162866940079   -0.02400030833882702   -0.001314787691010195
-0.008704680288727734   -0.024039190039739724   -0.0013902091215269696
-0.005766287349359038   -0.02912566706732253   -0.0012927130077937591
-0.008417532812284542   -0.029077862223985736   -0.0013658751786550585
-0.008479067626404492   -0.029038130756575742   -0.0013321297966181092
-0.008704680288727734   -0.024039190039739724   -0.0013902091215269696
-0.005766287349359038   -0.02912566706732253   -0.0012927130077937591
-0.008479067626404492   -0.029038130756575742   -0.0013321297966181092
-0.005825162866940079   -0.02400030833882702   -0.001314787691010195
-0.008704680288727734   -0.024039190039739724   -0.0013902091215269696
-0.008417532812284542   -0.029077862223985736   -0.0013658751786550585
-0.005809041887916943   -0.02403980591254997   -0.0013028697142851565
-0.008677413761051682   -0.02409067668548207   -0.0013960611029814308
-0.008417532812284542   -0.029077862223985736   -0.0013658751786550585
-0.005766287349359038   -0.02912566706732253   -0.0012927130077937591
-0.005809041887916943   -0.02403980591254997   -0.0013028697142851565
-0.005720269311464574   -0.029167695715585067   -0.001305331517273182
-0.008677413761051682   -0.02409067668548207   -0.0013960611029814308
-0.005784210811655823   -0.02408368556410996   -0.001296329339070934
-0.005720269311464574   -0.029167695715585067   -0.001305331517273182
-0.005809041887916943   -0.02403980591254997   -0.0013028697142851565
-0.008677413761051682   -0.02409067668548207   -0.0013960611029814308
-0.005720269311464574   -0.029167695715585067   -0.001305331517273182
-0.00834751844553565   -0.029126809765383305   -0.0014082532822632362
-0.008417532812284542   -0.029077862223985736   -0.0013658751786550585
-0.008677413761051682   -0.02409067668548207   -0.0013960611029814308
-0.005720269311464574   -0.029167695715585067   -0.001305331517273182
-0.008417532812284542   -0.029077862223985736   -0.0013658751786550585
-0.005809041887916943   -0.02403980591254997   -0.0013028697142851565
-0.008677413761051682   -0.02409067668548207   -0.0013960611029814308
-0.00834751844553565   -0.029126809765383305   -0.0014082532822632362
-0.005784210811655823   -0.02408368556410996   -0.001296329339070934
-0.00863359767362675   -0.024157126842745666   -0.0014103633771375135
-0.00834751844553565   -0.029126809765383305   -0.0014082532822632362
-0.005720269311464574   -0.029167695715585067   -0.001305331517273182
-0.005784210811655823   -0.02408368556410996   -0.001296329339070934
-0.005670939920081699   -0.029224906107840787   -0.0013235961222653658
-0.00863359767362675   -0.024157126842745666   -0.0014103633771375135
-0.005752240488877292   -0.024134976941514286   -0.0012950707950285484
-0.005670939920081699   -0.029224906107840787   -0.0013235961222653658
-0.005784210811655823   -0.02408368556410996   -0.001296329339070934
-0.00863359767362675   -0.024157126842745666   -0.0014103633771375135
-0.005670939920081699   -0.029224906107840787   -0.0013235961222653658
-0.008252342267678405   -0.029201412088986967   -0.0014594347799598594
-0.00834751844553565   -0.029126809765383305   -0.0014082532822632362
-0.00863359767362675   -0.024157126842745666   -0.0014103633771375135
-0.005670939920081699   -0.029224906107840787   -0.0013235961222653658
-0.00834751844553565   -0.029126809765383305   -0.0014082532822632362
-0.005784210811655823   -0.02408368556410996   -0.001296329339070934
-0.005825162866940079   -0.02400030833882702   -0.001314787691010195
-0.005800354106203659   -0.029096249226893092   -0.0012855860092227114
-0.003177114799319249   -0.024003219372205564   -0.0012632402183784686
-0.005809041887916943   -0.02403980591254997   -0.0013028697142851565
-0.005800354106203659   -0.029096249226893092   -0.0012855860092227114
-0.0033979624770297924   -0.02911906123227783   -0.0012558415407975885
-0.003177114799319249   -0.024003219372205564   -0.0012632402183784686
-0.0033609236060835324   -0.029134291937576138   -0.0012402973398809422
-0.005809041887916943   -0.02403980591254997   -0.0013028697142851565
-0.0031557558428432384   -0.024025808406243493   -0.001241904362019688
-0.0033609236060835324   -0.029134291937576138   -0.0012402973398809422
-0.003177114799319249   -0.024003219372205564   -0.0012632402183784686
-0.005809041887916943   -0.02403980591254997   -0.0013028697142851565
-0.0033609236060835324   -0.029134291937576138   -0.0012402973398809422
-0.005766287349359038   -0.02912566706732253   -0.0012927130077937591
-0.005800354106203659   -0.029096249226893092   -0.0012855860092227114
-0.005809041887916943   -0.02403980591254997   -0.0013028697142851565
-0.0033609236060835324   -0.029134291937576138   -0.0012402973398809422
-0.005800354106203659   -0.029096249226893092   -0.0012855860092227114
-0.003177114799319249   -0.024003219372205564   -0.0012632402183784686
-0.005809041887916943   -0.02403980591254997   -0.0013028697142851565
-0.005766287349359038   -0.02912566706732253   -0.0012927130077937591
-0.0031557558428432384   -0.024025808406243493   -0.001241904362019688
-0.005784210811655823   -0.02408368556410996   -0.001296329339070934
-0.005766287349359038   -0.02912566706732253   -0.0012927130077937591
-0.0033609236060835324   -0.029134291937576138   -0.0012402973398809422
-0.0031557558428432384   -0.024025808406243493   -0.001241904362019688
-0.003321103297754915   -0.02916163566887075   -0.0012301763503939384
-0.005784210811655823   -0.02408368556410996   -0.001296329339070934
-0.003131707472067937   -0.024053384433263363   -0.001225963179626248
-0.003321103297754915   -0.02916163566887075   -0.0012301763503939384
-0.0031557558428432384   -0.024025808406243493   -0.001241904362019688
-0.005784210811655823   -0.02408368556410996   -0.001296329339070934
-0.003321103297754915   -0.02916163566887075   -0.0012301763503939384
-0.005720269311464574   -0.029167695715585067   -0.001305331517273182
-0.005766287349359038   -0.02912566706732253   -0.0012927130077937591
-0.005784210811655823   -0.02408368556410996   -0.001296329339070934
-0.003321103297754915   -0.02916163566887075   -0.0012301763503939384
-0.005766287349359038   -0.02912566706732253   -0.0012927130077937591
-0.0031557558428432384   -0.024025808406243493   -0.001241904362019688
-0.005784210811655823   -0.02408368556410996   -0.001296329339070934
-0.005720269311464574   -0.029167695715585067   -0.001305331517273182
-0.003131707472067937   -0.024053384433263363   -0.001225963179626248
-0.005752240488877292   -0.024134976941514286   -0.0012950707950285484
-0.005720269311464574   -0.029167695715585067   -0.001305331517273182
-0.003321103297754915   -0.02916163566887075   -0.0012301763503939384
-0.003131707472067937   -0.024053384433263363   -0.001225963179626248
-0.003280173951683566   -0.029201432163501413   -0.001225748506083852
-0.005752240488877292   -0.024134976941514286   -0.0012950707950285484
-0.003105826127238217   -0.024086033675846545   -0.0012155961252380315
-0.003280173951683566   -0.029201432163501413   -0.001225748506083852
-0.003131707472067937   -0.024053384433263363   -0.001225963179626248
-0.005752240488877292   -0.024134976941514286   -0.0012950707950285484
-0.003280173951683566   -0.029201432163501413   -0.001225748506083852
-0.005670939920081699   -0.029224906107840787   -0.0013235961222653658
-0.005720269311464574   -0.029167695715585067   -0.001305331517273182
-0.005752240488877292   -0.024134976941514286   -0.0012950707950285484
-0.003280173951683566   -0.029201432163501413   -0.001225748506083852
-0.005720269311464574   -0.029167695715585067   -0.001305331517273182
-0.003131707472067937   -0.024053384433263363   -0.001225963179626248
-0.003177114799319249   -0.024003219372205564   -0.0012632402183784686
-0.0033979624770297924   -0.02911906123227783   -0.0012558415407975885
-0.0006038716493856176   -0.02398902907396443   -0.0012424181101992652
-0.0031557558428432384   -0.024025808406243493   -0.001241904362019688
-0.0033979624770297924   -0.02911906123227783   -0.0012558415407975885
-0.001068128924008373   -0.0291011841386045   -0.0012512380822000363
-0.0006038716493856176   -0.02398902907396443   -0.0012424181101992652
-0.0010271719442729488   -0.02910137434633889   -0.0012138003046726373
-0.0031557558428432384   -0.024025808406243493   -0.001241904362019688
-0.0005786921213287101   -0.023994110150462804   -0.0012121347164327659
-0.0010271719442729488   -0.02910137434633889   -0.0012138003046726373
-0.0006038716493856176   -0.02398902907396443   -0.0012424181101992652
-0.0031557558428432384   -0.024025808406243493   -0.001241904362019688
-0.0010271719442729488   -0.02910137434633889   -0.0012138003046726373
-0.0033609236060835324   -0.029134291937576138   -0.0012402973398809422
-0.0033979624770297924   -0.02911906123227783   -0.0012558415407975885
-0.0031557558428432384   -0.024025808406243493   -0.001241904362019688
-0.0010271719442729488   -0.02910137434633889   -0.0012138003046726373
-0.0033979624770297924   -0.02911906123227783   -0.0012558415407975885
-0.0006038716493856176   -0.02398902907396443   -0.0012424181101992652
-0.0031557558428432384   -0.024025808406243493   -0.001241904362019688
-0.0033609236060835324   -0.029134291937576138   -0.0012402973398809422
-0.0005786921213287101   -0.023994110150462804   -0.0012121347164327659
-0.003131707472067937   -0.024053384433263363   -0.001225963179626248
-0.0033609236060835324   -0.029134291937576138   -0.0012402973398809422
-0.0010271719442729488   -0.02910137434633889   -0.0012138003046726373
-0.0005786921213287101   -0.023994110150462804   -0.0012121347164327659
-0.000987272690731273   -0.029112808110393126   -0.0011818023353918268
-0.003131707472067937   -0.024053384433263363   -0.001225963179626248
-0.0005548435616301223   -0.024003798347389662   -0.0011872115779148079
-0.000987272690731273   -0.029112808110393126   -0.0011818023353918268
-0.0005786921213287101   -0.023994110150462804   -0.0012121347164327659
-0.003131707472067937   -0.024053384433263363   -0.001225963179626248
-0.000987272690731273   -0.029112808110393126   -0.0011818023353918268
-0.003321103297754915   -0.02916163566887075   -0.0012301763503939384
-0.0033609236060835324   -0.029134291937576138   -0.0012402973398809422
-0.003131707472067937   -0.024053384433263363   -0.001225963179626248
-0.000987272690731273   -0.029112808110393126   -0.0011818023353918268
-0.0033609236060835324   -0.029134291937576138   -0.0012402973398809422
-0.0005786921213287101   -0.023994110150462804   -0.0012121347164327659
-0.003131707472067937   -0.024053384433263363   -0.001225963179626248
-0.003321103297754915   -0.02916163566887075   -0.0012301763503939384
-0.0005548435616301223   -0.024003798347389662   -0.0011872115779148079
-0.003105826127238217   -0.024086033675846545   -0.0012155961252380315
-0.003321103297754915   -0.02916163566887075   -0.0012301763503939384
-0.000987272690731273   -0.029112808110393126   -0.0011818023353918268
-0.0005548435616301223   -0.024003798347389662   -0.0011872115779148079
-0.0009516276569504355   -0.029136418097083634   -0.001155431843146429
-0.003105826127238217   -0.024086033675846545   -0.0012155961252380315
-0.0005345000584368642   -0.024018309771763374   -0.0011678338746588847
-0.0009516276569504355   -0.029136418097083634   -0.001155431843146429
-0.0005548435616301223   -0.024003798347389662   -0.0011872115779148079
-0.003105826127238217   -0.024086033675846545   -0.0012155961252380315
-0.0009516276569504355   -0.029136418097083634   -0.001155431843146429
-0.003280173951683566   -0.029201432163501413   -0.001225748506083852
-0.003321103297754915   -0.02916163566887075   -0.0012301763503939384
-0.003105826127238217   -0.024086033675846545   -0.0012155961252380315
-0.0009516276569504355   -0.029136418097083634   -0.001155431843146429
-0.003321103297754915   -0.02916163566887075   -0.0012301763503939384
-0.0005548435616301223   -0.024003798347389662   -0.0011872115779148079
-0.0006038716493856176   -0.02398902907396443   -0.0012424181101992652
-0.001068128924008373   -0.0291011841386045   -0.0012512380822000363
0.002046379539907381   -0.02395755692266442   -0.0012533550563441447
-0.0005786921213287101   -0.023994110150462804   -0.0012121347164327659
-0.001068128924008373   -0.0291011841386045   -0.0012512380822000363
0.001341168192155517   -0.029043737899529014   -0.001273743147432294
0.002046379539907381   -0.02395755692266442   -0.0012533550563441447
0.0013912628724246632   -0.029027871423422454   -0.0012146016592537478
-0.0005786921213287101   -0.023994110150462804   -0.0012121347164327659
0.0020784121974382376   -0.023945054232007087   -0.0012142679291795237
0.0013912628724246632   -0.029027871423422454   -0.0012146016592537478
0.002046379539907381   -0.02395755692266442   -0.0012533550563441447
-0.0005786921213287101   -0.023994110150462804   -0.0012121347164327659
0.0013912628724246632   -0.029027871423422454   -0.0012146016592537478
-0.0010271719442729488   -0.02910137434633889   -0.0012138003046726373
-0.001068128924008373   -0.0291011841386045   -0.0012512380822000363
-0.0005786921213287101   -0.023994110150462804   -0.0012121347164327659
0.0013912628724246632   -0.029027871423422454   -0.0012146016592537478
-0.001068128924008373   -0.0291011841386045   -0.0012512380822000363
0.002046379539907381   -0.02395755692266442   -0.0012533550563441447
-0.0005786921213287101   -0.023994110150462804   -0.0012121347164327659
-0.0010271719442729488   -0.02910137434633889   -0.0012138003046726373
0.0020784121974382376   -0.023945054232007087   -0.0012142679291795237
-0.0005548435616301223   -0.024003798347389662   -0.0011872115779148079
-0.0010271719442729488   -0.02910137434633889   -0.0012138003046726373
0.0013912628724246632   -0.029027871423422454   -0.0012146016592537478
0.0020784121974382376   -0.023945054232007087   -0.0012142679291795237
0.0014426909838130403   -0.029024858302598523   -0.001161244052797747
-0.0005548435616301223   -0.024003798347389662   -0.0011872115779148079
0.0021081172527514297   -0.023938541347698024   -0.0011805226344097756
0.0014426909838130403   -0.029024858302598523   -0.001161244052797747
0.0020784121974382376   -0.023945054232007087   -0.0012142679291795237
-0.0005548435616301223   -0.024003798347389662   -0.0011872115779148079
0.0014426909838130403   -0.029024858302598523   -0.001161244052797747
-0.000987272690731273   -0.029112808110393126   -0.0011818023353918268
-0.0010271719442729488   -0.02910137434633889   -0.0012138003046726373
-0.0005548435616301223   -0.024003798347389662   -0.0011872115779148079
0.0014426909838130403   -0.029024858302598523   -0.001161244052797747
-0.0010271719442729488   -0.02910137434633889   -0.0012138003046726373
0.0020784121974382376   -0.023945054232007087   -0.0012142679291795237
-0.0005548435616301223   -0.024003798347389662   -0.0011872115779148079
-0.000987272690731273   -0.029112808110393126   -0.0011818023353918268
0.0021081172527514297   -0.023938541347698024   -0.0011805226344097756
-0.0005345000584368642   -0.024018309771763374   -0.0011678338746588847
-0.000987272690731273   -0.029112808110393126   -0.0011818023353918268
0.0014426909838130403   -0.029024858302598523   -0.001161244052797747
0.0021081172527514297   -0.023938541347698024   -0.0011805226344097756
0.001477000209779799   -0.02903233988022317   -0.0011129062362216914
-0.0005345000584368642   -0.024018309771763374   -0.0011678338746588847
0.0021243534599874746   -0.023934928132240317   -0.001151770382340762
0.001477000209779799   -0.02903233988022317   -0.0011129062362216914
0.0021081172527514297   -0.023938541347698024   -0.0011805226344097756
-0.0005345000584368642   -0.024018309771763374   -0.0011678338746588847
0.001477000209779799   -0.02903233988022317   -0.0011129062362216914
-0.0009516276569504355   -0.029136418097083634   -0.001155431843146429
-0.000987272690731273   -0.029112808110393126   -0.0011818023353918268
-0.0005345000584368642   -0.024018309771763374   -0.0011678338746588847
0.001477000209779799   -0.02903233988022317   -0.0011129062362216914
-0.000987272690731273   -0.029112808110393126   -0.0011818023353918268
0.0021081172527514297   -0.023938541347698024   -0.0011805226344097756
0.002046379539907381   -0.02395755692266442   -0.0012533550563441447
0.001341168192155517   -0.029043737899529014   -0.001273743147432294
0.00488261377839454   -0.023904545388384515   -0.0012978118444427497
0.0020784121974382376   -0.023945054232007087   -0.0012142679291795237
0.001341168192155517   -0.029043737899529014   -0.001273743147432294
0.003902306393805633   -0.028944923265551578   -0.0013312548626836012
0.00488261377839454   -0.023904545388384515   -0.0012978118444427497
0.004035653628047741   -0.028912357628687164   -0.0012451055006005211
0.0020784121974382376   -0.023945054232007087   -0.0012142679291795237
0.004965716341419993   -0.02387607335146644   -0.0012463604333628937
0.004035653628047741   -0.028912357628687164   -0.0012451055006005211
0.00488261377839454   -0.023904545388384515   -0.0012978118444427497
0.0020784121974382376   -0.023945054232007087   -0.0012142679291795237
0.004035653628047741   -0.028912357628687164   -0.0012451055006005211
0.0013912628724246632   -0.029027871423422454   -0.0012146016592537478
0.001341168192155517   -0.029043737899529014   -0.001273743147432294
0.0020784121974382376   -0.023945054232007087   -0.0012142679291795237
0.004035653628047741   -0.028912357628687164   -0.0012451055006005211
0.001341168192155517   -0.029043737899529014   -0.001273743147432294
0.00488261377839454   -0.023904545388384515   -0.0012978118444427497
0.0020784121974382376   -0.023945054232007087   -0.0012142679291795237
0.0013912628724246632   -0.029027871423422454   -0.0012146016592537478
0.004965716341419993   -0.02387607335146644   -0.0012463604333628937
0.0021081172527514297   -0.023938541347698024   -0.0011805226344097756
0.0013912628724246632   -0.029027871423422454   -0.0012146016592537478
0.004035653628047741   -0.028912357628687164   -0.0012451055006005211
0.004965716341419993   -0.02387607335146644   -0.0012463604333628937
0.004134533487823574   -0.02890335150450865   -0.0011666572085617917
0.0021081172527514297   -0.023938541347698024   -0.0011805226344097756
0.005023072567844524   -0.02386225111902179   -0.0012025270373544749
0.004134533487823574   -0.02890335150450865   -0.0011666572085617917
0.004965716341419993   -0.02387607335146644   -0.0012463604333628937
0.0021081172527514297   -0.023938541347698024   -0.0011805226344097756
0.004134533487823574   -0.02890335150450865   -0.0011666572085617917
0.0014426909838130403   -0.029024858302598523   -0.001161244052797747
0.0013912628724246632   -0.029027871423422454   -0.0012146016592537478
0.0021081172527514297   -0.023938541347698024   -0.0011805226344097756
0.004134533487823574   -0.02890335150450865   -0.0011666572085617917
0.0013912628724246632   -0.029027871423422454   -0.0012146016592537478
0.004965716341419993   -0.02387607335146644   -0.0012463604333628937
0.0021081172527514297   -0.023938541347698024   -0.0011805226344097756
0.0014426909838130403   -0.029024858302598523   -0.001161244052797747
0.005023072567844524   -0.02386225111902179   -0.0012025270373544749
0.0021243534599874746   -0.023934928132240317   -0.001151770382340762
0.0014426909838130403   -0.029024858302598523   -0.001161244052797747
0.004134533487823574   -0.02890335150450865   -0.0011666572085617917
0.005023072567844524   -0.02386225111902179   -0.0012025270373544749
0.004235028377403343   -0.02890331684378086   -0.001096267726630791
0.0021243534599874746   -0.023934928132240317   -0.001151770382340762
0.005074335347152844   -0.023847389590102394   -0.0011666305104608334
0.004235028377403343   -0.02890331684378086   -0.001096267726630791
0.005023072567844524   -0.02386225111902179   -0.0012025270373544749
0.0021243534599874746   -0.023934928132240317   -0.001151770382340762
0.004235028377403343   -0.02890331684378086   -0.001096267726630791
0.001477000209779799   -0.02903233988022317   -0.0011129062362216914
0.0014426909838130403   -0.029024858302598523   -0.001161244052797747
0.0021243534599874746   -0.023934928132240317   -0.001151770382340762
0.004235028377403343   -0.02890331684378086   -0.001096267726630791
0.0014426909838130403   -0.029024858302598523   -0.001161244052797747
0.005023072567844524   -0.02386225111902179   -0.0012025270373544749
-0.008479067626404492   -0.029038130756575742   -0.0013321297966181092
-0.007739136806260868   -0.0335035122184392   -0.001242920518345357
-0.005800354106203659   -0.029096249226893092   -0.0012855860092227114
-0.008417532812284542   -0.029077862223985736   -0.0013658751786550585
-0.007739136806260868   -0.0335035122184392   -0.001242920518345357
-0.005485832977103977   -0.033607973867861914   -0.0012355540886546312
-0.005800354106203659   -0.029096249226893092   -0.0012855860092227114
-0.0054299082821889265   -0.03362305740743103   -0.0012603110855592332
-0.008417532812284542   -0.029077862223985736   -0.0013658751786550585
-0.005766287349359038   -0.02912566706732253   -0.0012927130077937591
-0.0054299082821889265   -0.03362305740743103   -0.0012603110855592332
-0.005800354106203659   -0.029096249226893092   -0.0012855860092227114
-0.008417532812284542   -0.029077862223985736   -0.0013658751786550585
-0.0054299082821889265   -0.03362305740743103   -0.0012603110855592332
-0.007622364727093368   -0.033525864392656556   -0.0013123617523135682
-0.007739136806260868   -0.0335035122184392   -0.001242920518345357
-0.008417532812284542   -0.029077862223985736   -0.0013658751786550585
-0.0054299082821889265   -0.03362305740743103   -0.0012603110855592332
-0.007739136806260868   -0.0335035122184392   -0.001242920518345357
-0.005800354106203659   -0.029096249226893092   -0.0012855860092227114
-0.008417532812284542   -0.029077862223985736   -0.0013658751786550585
-0.007622364727093368   -0.033525864392656556   -0.0013123617523135682
-0.005766287349359038   -0.02912566706732253   -0.0012927130077937591
-0.00834751844553565   -0.029126809765383305   -0.0014082532822632362
-0.007622364727093368   -0.033525864392656556   -0.0013123617523135682
-0.0054299082821889265   -0.03362305740743103   -0.0012603110855592332
-0.005766287349359038   -0.02912566706732253   -0.0012927130077937591
-0.0053596532355913796   -0.03365932339778659   -0.0012906200072034903
-0.00834751844553565   -0.029126809765383305   -0.0014082532822632362
-0.005720269311464574   -0.029167695715585067   -0.001305331517273182
-0.0053596532355913796   -0.03365932339778659   -0.0012906200072034903
-0.005766287349359038   -0.02912566706732253   -0.0012927130077937591
-0.00834751844553565   -0.029126809765383305   -0.0014082532822632362
-0.0053596532355913796   -0.03365932339778659   -0.0012906200072034903
-0.007506041368901389   -0.03356843075627906   -0.0013908412552898978
-0.007622364727093368   -0.033525864392656556   -0.0013123617523135682
-0.00834751844553565   -0.029126809765383305   -0.0014082532822632362
-0.0053596532355913796   -0.03365932339778659   -0.0012906200072034903
-0.007622364727093368   -0.033525864392656556   -0.0013123617523135682
-0.005766287349359038   -0.02912566706732253   -0.0012927130077937591
-0.00834751844553565   -0.029126809765383305   -0.0014082532822632362
-0.007506041368901389   -0.03356843075627906   -0.0013908412552898978
-0.005720269311464574   -0.029167695715585067   -0.001305331517273182
-0.008252342267678405   -0.029201412088986967   -0.0014594347799598594
-0.007506041368901389   -0.03356843075627906   -0.0013908412552898978
-0.0053596532355913796   -0.03365932339778659   -0.0012906200072034903
-0.005720269311464574   -0.029167695715585067   -0.001305331517273182
-0.00529036285872684   -0.033718834323802585   -0.0013264282688720953
-0.008252342267678405   -0.029201412088986967   -0.0014594347799598594
-0.005670939920081699   -0.029224906107840787   -0.0013235961222653658
-0.00529036285872684   -0.033718834323802585   -0.0013264282688720953
-0.005720269311464574   -0.029167695715585067   -0.001305331517273182
-0.008252342267678405   -0.029201412088986967   -0.0014594347799598594
-0.00529036285872684   -0.033718834323802585   -0.0013264282688720953
-0.007357081993858803   -0.03364780577636135   -0.00147820450174695
-0.007506041368901389   -0.03356843075627906   -0.0013908412552898978
-0.008252342267678405   -0.029201412088986967   -0.0014594347799598594
-0.00529036285872684   -0.033718834323802585   -0.0013264282688720953
-0.007506041368901389   -0.03356843075627906   -0.0013908412552898978
-0.005720269311464574   -0.029167695715585067   -0.001305331517273182
-0.005800354106203659   -0.029096249226893092   -0.0012855860092227114
-0.005485832977103977   -0.033607973867861914   -0.0012355540886546312
-0.0033979624770297924   -0.02911906123227783   -0.0012558415407975885
-0.005766287349359038   -0.02912566706732253   -0.0012927130077937591
-0.005485832977103977   -0.033607973867861914   -0.0012355540886546312
-0.0035328779308482937   -0.03365661536850374   -0.00123271980156606
-0.0033979624770297924   -0.02911906123227783   -0.0012558415407975885
-0.003475554322419203   -0.03366151672480414   -0.00122156987742881
-0.005766287349359038   -0.02912566706732253   -0.0012927130077937591
-0.0033609236060835324   -0.029134291937576138   -0.0012402973398809422
-0.003475554322419203   -0.03366151672480414   -0.00122156987742881
-0.0033979624770297924   -0.02911906123227783   -0.0012558415407975885
-0.005766287349359038   -0.02912566706732253   -0.0012927130077937591
-0.003475554322419203   -0.03366151672480414   -0.00122156987742881
-0.0054299082821889265   -0.03362305740743103   -0.0012603110855592332
-0.005485832977103977   -0.033607973867861914   -0.0012355540886546312
-0.005766287349359038   -0.02912566706732253   -0.0012927130077937591
-0.003475554322419203   -0.03366151672480414   -0.00122156987742881
-0.005485832977103977   -0.033607973867861914   -0.0012355540886546312
-0.0033979624770297924   -0.02911906123227783   -0.0012558415407975885
-0.005766287349359038   -0.02912566706732253   -0.0012927130077937591
-0.0054299082821889265   -0.03362305740743103   -0.0012603110855592332
-0.0033609236060835324   -0.029134291937576138   -0.0012402973398809422
-0.005720269311464574   -0.029167695715585067   -0.001305331517273182
-0.0054299082821889265   -0.03362305740743103   -0.0012603110855592332
-0.003475554322419203   -0.03366151672480414   -0.00122156987742881
-0.0033609236060835324   -0.029134291937576138   -0.0012402973398809422
-0.0034163681748618875   -0.03368534444037164   -0.0012158071957585745
-0.005720269311464574   -0.029167695715585067   -0.001305331517273182
-0.003321103297754915   -0.02916163566887075   -0.0012301763503939384
-0.0034163681748618875   -0.03368534444037164   -0.0012158071957585745
-0.0033609236060835324   -0.029134291937576138   -0.0012402973398809422
-0.005720269311464574   -0.029167695715585067   -0.001305331517273182
-0.0034163681748618875   -0.03368534444037164   -0.0012158071957585745
-0.0053596532355913796   -0.03365932339778659   -0.0012906200072034903
-0.0054299082821889265   -0.03362305740743103   -0.0012603110855592332
-0.005720269311464574   -0.029167695715585067   -0.001305331517273182
-0.0034163681748618875   -0.03368534444037164   -0.0012158071957585745
-0.0054299082821889265   -0.03362305740743103   -0.0012603110855592332
-0.0033609236060835324   -0.029134291937576138   -0.0012402973398809422
-0.005720269311464574   -0.029167695715585067   -0.001305331517273182
-0.0053596532355913796   -0.03365932339778659   -0.0012906200072034903
-0.003321103297754915   -0.02916163566887075   -0.0012301763503939384
-0.005670939920081699   -0.029224906107840787   -0.0013235961222653658
-0.0053596532355913796   -0.03365932339778659   -0.0012906200072034903
-0.0034163681748618875   -0.03368534444037164   -0.0012158071957585745
-0.003321103297754915   -0.02916163566887075   -0.0012301763503939384
-0.0033572674394584424   -0.03372918660317957   -0.0012153714449581272
-0.005670939920081699   -0.029224906107840787   -0.0013235961222653658
-0.003280173951683566   -0.029201432163501413   -0.001225748506083852
-0.0033572674394584424   -0.03372918660317957   -0.0012153714449581272
-0.003321103297754915   -0.02916163566887075   -0.0012301763503939384
-0.005670939920081699   -0.029224906107840787   -0.0013235961222653658
-0.0033572674394584424   -0.03372918660317957   -0.0012153714449581272
-0.00529036285872684   -0.033718834323802585   -0.0013264282688720953
-0.0053596532355913796   -0.03365932339778659   -0.0012906200072034903
-0.005670939920081699   -0.029224906107840787   -0.0013235961222653658
-0.0033572674394584424   -0.03372918660317957   -0.0012153714449581272
-0.0053596532355913796   -0.03365932339778659   -0.0012906200072034903
-0.003321103297754915   -0.02916163566887075   -0.0012301763503939384
-0.0033979624770297924   -0.02911906123227783   -0.0012558415407975885
-0.0035328779308482937   -0.03365661536850374   -0.00123271980156606
-0.001068128924008373   -0.0291011841386045   -0.0012512380822000363
-0.0033609236060835324   -0.029134291937576138   -0.0012402973398809422
-0.0035328779308482937   -0.03365661536850374   -0.00123271980156606
-0.0016445610952478783   -0.03364721154254169   -0.0012469584618119668
-0.001068128924008373   -0.0291011841386045   -0.0012512380822000363
-0.001581777473999615   -0.03364065567578861   -0.0012011555745191163
-0.0033609236060835324   -0.029134291937576138   -0.0012402973398809422
-0.0010271719442729488   -0.02910137434633889   -0.0012138003046726373
-0.001581777473999615   -0.03364065567578861   -0.0012011555745191163
-0.001068128924008373   -0.0291011841386045   -0.0012512380822000363
-0.0033609236060835324   -0.029134291937576138   -0.0012402973398809422
-0.001581777473999615   -0.03364065567578861   -0.0012011555745191163
-0.003475554322419203   -0.03366151672480414   -0.00122156987742881
-0.0035328779308482937   -0.03365661536850374   -0.00123271980156606
-0.0033609236060835324   -0.029134291937576138   -0.0012402973398809422
-0.001581777473999615   -0.03364065567578861   -0.0012011555745191163
-0.0035328779308482937   -0.03365661536850374   -0.00123271980156606
-0.001068128924008373   -0.0291011841386045   -0.0012512380822000363
-0.0033609236060835324   -0.029134291937576138   -0.0012402973398809422
-0.003475554322419203   -0.03366151672480414   -0.00122156987742881
-0.0010271719442729488   -0.02910137434633889   -0.0012138003046726373
-0.003321103297754915   -0.02916163566887075   -0.0012301763503939384
-0.003475554322419203   -0.03366151672480414   -0.00122156987742881
-0.001581777473999615   -0.03364065567578861   -0.0012011555745191163
-0.0010271719442729488   -0.02910137434633889   -0.0012138003046726373
-0.0015208138197230364   -0.033651246518847114   -0.0011610964847794973
-0.003321103297754915   -0.02916163566887075   -0.0012301763503939384
-0.000987272690731273   -0.029112808110393126   -0.0011818023353918268
-0.0015208138197230364   -0.033651246518847114   -0.0011610964847794973
-0.0010271719442729488   -0.02910137434633889   -0.0012138003046726373
-0.003321103297754915   -0.02916163566887075   -0.0012301763503939384
-0.0015208138197230364   -0.033651246518847114   -0.0011610964847794973
-0.0034163681748618875   -0.03368534444037164   -0.0012158071957585745
-0.003475554322419203   -0.03366151672480414   -0.00122156987742881
-0.003321103297754915   -0.02916163566887075   -0.0012301763503939384
-0.0015208138197230364   -0.033651246518847114   -0.0011610964847794973
-0.003475554322419203   -0.03366151672480414   -0.00122156987742881
-0.0010271719442729488   -0.02910137434633889   -0.0012138003046726373
-0.003321103297754915   -0.02916163566887075   -0.0012301763503939384
-0.0034163681748618875   -0.03368534444037164   -0.0012158071957585745
-0.000987272690731273   -0.029112808110393126   -0.0011818023353918268
-0.003280173951683566   -0.029201432163501413   -0.001225748506083852
-0.0034163681748618875   -0.03368534444037164   -0.0012158071957585745
-0.0015208138197230364   -0.033651246518847114   -0.0011610964847794973
-0.000987272690731273   -0.029112808110393126   -0.0011818023353918268
-0.0014657062396882146   -0.033681414648817125   -0.0011262883954640639
-0.003280173951683566   -0.029201432163501413   -0.001225748506083852
-0.0009516276569504355   -0.029136418097083634   -0.001155431843146429
-0.0014657062396882146   -0.033681414648817125   -0.0011262883954640639
-0.000987272690731273   -0.029112808110393126   -0.0011818023353918268
-0.003280173951683566   -0.029201432163501413   -0.001225748506083852
-0.0014657062396882146   -0.033681414648817125   -0.0011262883954640639
-0.0033572674394584424   -0.03372918660317957   -0.0012153714449581272
-0.0034163681748618875   -0.03368534444037164   -0.0012158071957585745
-0.003280173951683566   -0.029201432163501413   -0.001225748506083852
-0.0014657062396882146   -0.033681414648817125   -0.0011262883954640639
-0.0034163681748618875   -0.03368534444037164   -0.0012158071957585745
-0.000987272690731273   -0.029112808110393126   -0.0011818023353918268
-0.001068128924008373   -0.0291011841386045   -0.0012512380822000363
-0.0016445610952478783   -0.03364721154254169   -0.0012469584618119668
0.001341168192155517   -0.029043737899529014   -0.001273743147432294
-0.0010271719442729488   -0.02910137434633889   -0.0012138003046726373
-0.0016445610952478783   -0.03364721154254169   -0.0012469584618119668
0.0003308675131891947   -0.033577674406326426   -0.0012813064683598197
0.001341168192155517   -0.029043737899529014   -0.001273743147432294
0.0004073036614331234   -0.03355660776071132   -0.0012009525441101195
-0.0010271719442729488   -0.02910137434633889   -0.0012138003046726373
0.0013912628724246632   -0.029027871423422454   -0.0012146016592537478
0.0004073036614331234   -0.03355660776071132   -0.0012009525441101195
0.001341168192155517   -0.029043737899529014   -0.001273743147432294
-0.0010271719442729488   -0.02910137434633889   -0.0012138003046726373
0.0004073036614331234   -0.03355660776071132   -0.0012009525441101195
-0.001581777473999615   -0.03364065567578861   -0.0012011555745191163
-0.0016445610952478783   -0.03364721154254169   -0.0012469584618119668
-0.0010271719442729488   -0.02910137434633889   -0.0012138003046726373
0.0004073036614331234   -0.03355660776071132   -0.0012009525441101195
-0.0016445610952478783   -0.03364721154254169   -0.0012469584618119668
0.001341168192155517   -0.029043737899529014   -0.001273743147432294
-0.0010271719442729488   -0.02910137434633889   -0.0012138003046726373
-0.001581777473999615   -0.03364065567578861   -0.0012011555745191163
0.0013912628724246632   -0.029027871423422454   -0.0012146016592537478
-0.000987272690731273   -0.029112808110393126   -0.0011818023353918268
-0.001581777473999615   -0.03364065567578861   -0.0012011555745191163
0.0004073036614331234   -0.03355660776071132   -0.0012009525441101195
0.0013912628724246632   -0.029027871423422454   -0.0012146016592537478
0.0004879538093935704   -0.03355470779839539   -0.0011278715279440918
-0.000987272690731273   -0.029112808110393126   -0.0011818023353918268
0.0014426909838130403   -0.029024858302598523   -0.001161244052797747
0.0004879538093935704   -0.03355470779839539   -0.0011278715279440918
0.0013912628724246632   -0.029027871423422454   -0.0012146016592537478
-0.000987272690731273   -0.029112808110393126   -0.0011818023353918268
0.0004879538093935704   -0.03355470779839539   -0.0011278715279440918
-0.0015208138197230364   -0.033651246518847114   -0.0011610964847794973
-0.001581777473999615   -0.03364065567578861   -0.0012011555745191163
-0.000987272690731273   -0.029112808110393126   -0.0011818023353918268
0.0004879538093935704   -0.03355470779839539   -0.0011278715279440918
-0.001581777473999615   -0.03364065567578861   -0.0012011555745191163
0.0013912628724246632   -0.029027871423422454   -0.0012146016592537478
-0.000987272690731273   -0.029112808110393126   -0.0011818023353918268
-0.0015208138197230364   -0.033651246518847114   -0.0011610964847794973
0.0014426909838130403   -0.029024858302598523   -0.001161244052797747
-0.0009516276569504355   -0.029136418097083634   -0.001155431843146429
-0.0015208138197230364   -0.033651246518847114   -0.0011610964847794973
0.0004879538093935704   -0.03355470779839539   -0.0011278715279440918
0.0014426909838130403   -0.029024858302598523   -0.001161244052797747
0.000546936155571332   -0.033571088115821775   -0.0010597945180300218
-0.0009516276569504355   -0.029136418097083634   -0.001155431843146429
0.001477000209779799   -0.02903233988022317   -0.0011129062362216914
0.000546936155571332   -0.033571088115821775   -0.0010597945180300218
0.0014426909838130403   -0.029024858302598523   -0.001161244052797747
-0.0009516276569504355   -0.029136418097083634   -0.001155431843146429
0.000546936155571332   -0.033571088115821775   -0.0010597945180300218
-0.0014657062396882146   -0.033681414648817125   -0.0011262883954640639
-0.0015208138197230364   -0.033651246518847114   -0.0011610964847794973
-0.0009516276569504355   -0.029136418097083634   -0.001155431843146429
0.000546936155571332   -0.033571088115821775   -0.0010597945180300218
-0.0015208138197230364   -0.033651246518847114   -0.0011610964847794973
0.0014426909838130403   -0.029024858302598523   -0.001161244052797747
0.001341168192155517   -0.029043737899529014   -0.001273743147432294
0.0003308675131891947   -0.033577674406326426   -0.0012813064683598197
0.003902306393805633   -0.028944923265551578   -0.0013312548626836012
0.0013912628724246632   -0.029027871423422454   -0.0012146016592537478
0.0003308675131891947   -0.033577674406326426   -0.0012813064683598197
0.0024342783190093977   -0.033441452418030745   -0.0013542720524027595
0.003902306393805633   -0.028944923265551578   -0.0013312548626836012
0.002628645846165927   -0.03340109986110893   -0.0012312484293750506
0.0013912628724246632   -0.029027871423422454   -0.0012146016592537478
0.004035653628047741   -0.028912357628687164   -0.0012451055006005211
0.002628645846165927   -0.03340109986110893   -0.0012312484293750506
0.003902306393805633   -0.028944923265551578   -0.0013312548626836012
0.0013912628724246632   -0.029027871423422454   -0.0012146016592537478
0.002628645846165927   -0.03340109986110893   -0.0012312484293750506
0.0004073036614331234   -0.03355660776071132   -0.0012009525441101195
0.0003308675131891947   -0.033577674406326426   -0.0012813064683598197
0.0013912628724246632   -0.029027871423422454   -0.0012146016592537478
0.002628645846165927   -0.03340109986110893   -0.0012312484293750506
0.0003308675131891947   -0.033577674406326426   -0.0012813064683598197
0.003902306393805633   -0.028944923265551578   -0.0013312548626836012
0.0013912628724246632   -0.029027871423422454   -0.0012146016592537478
0.0004073036614331234   -0.03355660776071132   -0.0012009525441101195
0.004035653628047741   -0.028912357628687164   -0.0012451055006005211
0.0014426909838130403   -0.029024858302598523   -0.001161244052797747
0.0004073036614331234   -0.03355660776071132   -0.0012009525441101195
0.002628645846165927   -0.03340109986110893   -0.0012312484293750506
0.004035653628047741   -0.028912357628687164   -0.0012451055006005211
0.0027777283895320045   -0.033394109548946754   -0.0011172470899444107
0.0014426909838130403   -0.029024858302598523   -0.001161244052797747
0.004134533487823574   -0.02890335150450865   -0.0011666572085617917
0.0027777283895320045   -0.033394109548946754   -0.0011172470899444107
0.004035653628047741   -0.028912357628687164   -0.0012451055006005211
0.0014426909838130403   -0.029024858302598523   -0.001161244052797747
0.0027777283895320045   -0.033394109548946754   -0.0011172470899444107
0.0004879538093935704   -0.03355470779839539   -0.0011278715279440918
0.0004073036614331234   -0.03355660776071132   -0.0012009525441101195
0.0014426909838130403   -0.029024858302598523   -0.001161244052797747
0.0027777283895320045   -0.033394109548946754   -0.0011172470899444107
0.0004073036614331234   -0.03355660776071132   -0.0012009525441101195
0.004035653628047741   -0.028912357628687164   -0.0012451055006005211
0.0014426909838130403   -0.029024858302598523   -0.001161244052797747
0.0004879538093935704   -0.03355470779839539   -0.0011278715279440918
0.004134533487823574   -0.02890335150450865   -0.0011666572085617917
0.001477000209779799   -0.02903233988022317   -0.0011129062362216914
0.0004879538093935704   -0.03355470779839539   -0.0011278715279440918
0.0027777283895320045   -0.033394109548946754   -0.0011172470899444107
0.004134533487823574   -0.02890335150450865   -0.0011666572085617917
0.00293251452196172   -0.03340619907095295   -0.0010131935165567719
0.001477000209779799   -0.02903233988022317   -0.0011129062362216914
0.004235028377403343   -0.02890331684378086   -0.001096267726630791
0.00293251452196172   -0.03340619907095295   -0.0010131935165567719
0.004134533487823574   -0.02890335150450865   -0.0011666572085617917
0.001477000209779799   -0.02903233988022317   -0.0011129062362216914
0.00293251452196172   -0.03340619907095295   -0.0010131935165567719
0.000546936155571332   -0.033571088115821775   -0.0010597945180300218
0.0004879538093935704   -0.03355470779839539   -0.0011278715279440918
0.001477000209779799   -0.02903233988022317   -0.0011129062362216914
0.00293251452196172   -0.03340619907095295   -0.0010131935165567719
0.0004879538093935704   -0.03355470779839539   -0.0011278715279440918
0.004134533487823574   -0.02890335150450865   -0.0011666572085617917
-0.007739136806260868   -0.0335035122184392   -0.001242920518345357
-0.0064886247697463735   -0.03700645043313652   -0.0011282400639710292
-0.005485832977103977   -0.033607973867861914   -0.0012355540886546312
-0.007622364727093368   -0.033525864392656556   -0.0013123617523135682
-0.0064886247697463735   -0.03700645043313652   -0.0011282400639710292
-0.0048842325029533045   -0.037160705924547344   -0.0011744172895648767
-0.005485832977103977   -0.033607973867861914   -0.0012355540886546312
-0.004804112391085499   -0.03715290724239343   -0.0012124940466717528
-0.007622364727093368   -0.033525864392656556   -0.0013123617523135682
-0.0054299082821889265   -0.03362305740743103   -0.0012603110855592332
-0.004804112391085499   -0.03715290724239343   -0.0012124940466717528
-0.005485832977103977   -0.033607973867861914   -0.0012355540886546312
-0.007622364727093368   -0.033525864392656556   -0.0013123617523135682
-0.004804112391085499   -0.03715290724239343   -0.0012124940466717528
-0.006315270110839031   -0.03700220449981182   -0.0012308765326223873
-0.0064886247697463735   -0.03700645043313652   -0.0011282400639710292
-0.007622364727093368   -0.033525864392656556   -0.0013123617523135682
-0.004804112391085499   -0.03715290724239343   -0.0012124940466717528
-0.0064886247697463735   -0.03700645043313652   -0.0011282400639710292
-0.005485832977103977   -0.033607973867861914   -0.0012355540886546312
-0.007622364727093368   -0.033525864392656556   -0.0013123617523135682
-0.006315270110839031   -0.03700220449981182   -0.0012308765326223873
-0.0054299082821889265   -0.03362305740743103   -0.0012603110855592332
-0.007506041368901389   -0.03356843075627906   -0.0013908412552898978
-0.006315270110839031   -0.03700220449981182   -0.0012308765326223873
-0.004804112391085499   -0.03715290724239343   -0.0012124940466717528
-0.0054299082821889265   -0.03362305740743103   -0.0012603110855592332
-0.004709776965809713   -0.0371753676720188   -0.0012562240659579349
-0.007506041368901389   -0.03356843075627906   -0.0013908412552898978
-0.0053596532355913796   -0.03365932339778659   -0.0012906200072034903
-0.004709776965809713   -0.0371753676720188   -0.0012562240659579349
-0.0054299082821889265   -0.03362305740743103   -0.0012603110855592332
-0.007506041368901389   -0.03356843075627906   -0.0013908412552898978
-0.004709776965809713   -0.0371753676720188   -0.0012562240659579349
-0.00615557829194048   -0.037029913621829065   -0.0013414823459487774
-0.006315270110839031   -0.03700220449981182   -0.0012308765326223873
-0.007506041368901389   -0.03356843075627906   -0.0013908412552898978
-0.004709776965809713   -0.0371753676720188   -0.0012562240659579349
-0.006315270110839031   -0.03700220449981182   -0.0012308765326223873
-0.0054299082821889265   -0.03362305740743103   -0.0012603110855592332
-0.007506041368901389   -0.03356843075627906   -0.0013908412552898978
-0.00615557829194048   -0.037029913621829065   -0.0013414823459487774
-0.0053596532355913796   -0.03365932339778659   -0.0012906200072034903
-0.007357081993858803   -0.03364780577636135   -0.00147820450174695
-0.00615557829194048   -0.037029913621829065   -0.0013414823459487774
-0.004709776965809713   -0.0371753676720188   -0.0012562240659579349
-0.0053596532355913796   -0.03365932339778659   -0.0012906200072034903
-0.004624201839460109   -0.037228614381058206   -0.0013052478767773146
-0.007357081993858803   -0.03364780577636135   -0.00147820450174695
-0.00529036285872684   -0.033718834323802585   -0.0013264282688720953
-0.004624201839460109   -0.037228614381058206   -0.0013052478767773146
-0.0053596532355913796   -0.03365932339778659   -0.0012906200072034903
-0.007357081993858803   -0.03364780577636135   -0.00147820450174695
-0.004624201839460109   -0.037228614381058206   -0.0013052478767773146
-0.0059607363141517   -0.03710357203859793   -0.0014595997058238098
-0.00615557829194048   -0.037029913621829065   -0.0013414823459487774
-0.007357081993858803   -0.03364780577636135   -0.00147820450174695
-0.004624201839460109   -0.037228614381058206   -0.0013052478767773146
-0.00615557829194048   -0.037029913621829065   -0.0013414823459487774
-0.0053596532355913796   -0.03365932339778659   -0.0012906200072034903
-0.005485832977103977   -0.033607973867861914   -0.0012355540886546312
-0.0048842325029533045   -0.037160705924547344   -0.0011744172895648767
-0.0035328779308482937   -0.03365661536850374   -0.00123271980156606
-0.0054299082821889265   -0.03362305740743103   -0.0012603110855592332
-0.0048842325029533045   -0.037160705924547344   -0.0011744172895648767
-0.0035711457104470505   -0.037260001844351597   -0.001210579155385892
-0.0035328779308482937   -0.03365661536850374   -0.00123271980156606
-0.0034890261616782213   -0.037247356441544296   -0.0011989488445954823
-0.0054299082821889265   -0.03362305740743103   -0.0012603110855592332
-0.003475554322419203   -0.03366151672480414   -0.00122156987742881
-0.0034890261616782213   -0.037247356441544296   -0.0011989488445954823
-0.0035328779308482937   -0.03365661536850374   -0.00123271980156606
-0.0054299082821889265   -0.03362305740743103   -0.0012603110855592332
-0.0034890261616782213   -0.037247356441544296   -0.0011989488445954823
-0.004804112391085499   -0.03715290724239343   -0.0012124940466717528
-0.0048842325029533045   -0.037160705924547344   -0.0011744172895648767
-0.0054299082821889265   -0.03362305740743103   -0.0012603110855592332
-0.0034890261616782213   -0.037247356441544296   -0.0011989488445954823
-0.0048842325029533045   -0.037160705924547344   -0.0011744172895648767
-0.0035328779308482937   -0.03365661536850374   -0.00123271980156606
-0.0054299082821889265   -0.03362305740743103   -0.0012603110855592332
-0.004804112391085499   -0.03715290724239343   -0.0012124940466717528
-0.003475554322419203   -0.03366151672480414   -0.00122156987742881
-0.0053596532355913796   -0.03365932339778659   -0.0012906200072034903
-0.004804112391085499   -0.03715290724239343   -0.0012124940466717528
-0.0034890261616782213   -0.037247356441544296   -0.0011989488445954823
-0.003475554322419203   -0.03366151672480414   -0.00122156987742881
-0.0034080032874971265   -0.03726086160271968   -0.001192816330489208
-0.0053596532355913796   -0.03365932339778659   -0.0012906200072034903
-0.0034163681748618875   -0.03368534444037164   -0.0012158071957585745
-0.0034080032874971265   -0.03726086160271968   -0.001192816330489208
-0.003475554322419203   -0.03366151672480414   -0.00122156987742881
-0.0053596532355913796   -0.03365932339778659   -0.0012906200072034903
-0.0034080032874971265   -0.03726086160271968   -0.001192816330489208
-0.004709776965809713   -0.0371753676720188   -0.0012562240659579349
-0.004804112391085499   -0.03715290724239343   -0.0012124940466717528
-0.0053596532355913796   -0.03365932339778659   -0.0012906200072034903
-0.0034080032874971265   -0.03726086160271968   -0.001192816330489208
-0.004804112391085499   -0.03715290724239343   -0.0012124940466717528
-0.003475554322419203   -0.03366151672480414   -0.00122156987742881
-0.0053596532355913796   -0.03365932339778659   -0.0012906200072034903
-0.004709776965809713   -0.0371753676720188   -0.0012562240659579349
-0.0034163681748618875   -0.03368534444037164   -0.0012158071957585745
-0.00529036285872684   -0.033718834323802585   -0.0013264282688720953
-0.004709776965809713   -0.0371753676720188   -0.0012562240659579349
-0.0034080032874971265   -0.03726086160271968   -0.001192816330489208
-0.0034163681748618875   -0.03368534444037164   -0.0012158071957585745
-0.0033333901695238237   -0.03730136168689091   -0.0011933230100063584
-0.00529036285872684   -0.033718834323802585   -0.0013264282688720953
-0.0033572674394584424   -0.03372918660317957   -0.0012153714449581272
-0.0033333901695238237   -0.03730136168689091   -0.0011933230100063584
-0.0034163681748618875   -0.03368534444037164   -0.0012158071957585745
-0.00529036285872684   -0.033718834323802585   -0.0013264282688720953
-0.0033333901695238237   -0.03730136168689091   -0.0011933230100063584
-0.004624201839460109   -0.037228614381058206   -0.0013052478767773146
-0.004709776965809713   -0.0371753676720188   -0.0012562240659579349
-0.00529036285872684   -0.033718834323802585   -0.0013264282688720953
-0.0033333901695238237   -0.03730136168689091   -0.0011933230100063584
-0.004709776965809713   -0.0371753676720188   -0.0012562240659579349
-0.0034163681748618875   -0.03368534444037164   -0.0012158071957585745
-0.0035328779308482937   -0.03365661536850374   -0.00123271980156606
-0.0035711457104470505   -0.037260001844351597   -0.001210579155385892
-0.0016445610952478783   -0.03364721154254169   -0.0012469584618119668
-0.003475554322419203   -0.03366151672480414   -0.00122156987742881
-0.0035711457104470505   -0.037260001844351597   -0.001210579155385892
-0.0023132501954324356   -0.037311106336044696   -0.0012535449909166574
-0.0016445610952478783   -0.03364721154254169   -0.0012469584618119668
-0.002220701064838376   -0.03729272115372464   -0.0011949964319475771
-0.003475554322419203   -0.03366151672480414   -0.00122156987742881
-0.001581777473999615   -0.03364065567578861   -0.0012011555745191163
-0.002220701064838376   -0.03729272115372464   -0.0011949964319475771
-0.0016445610952478783   -0.03364721154254169   -0.0012469584618119668
-0.003475554322419203   -0.03366151672480414   -0.00122156987742881
-0.002220701064838376   -0.03729272115372464   -0.0011949964319475771
-0.0034890261616782213   -0.037247356441544296   -0.0011989488445954823
-0.0035711457104470505   -0.037260001844351597   -0.001210579155385892
-0.003475554322419203   -0.03366151672480414   -0.00122156987742881
-0.002220701064838376   -0.03729272115372464   -0.0011949964319475771
-0.0035711457104470505   -0.037260001844351597   -0.001210579155385892
-0.0016445610952478783   -0.03364721154254169   -0.0012469584618119668
-0.003475554322419203   -0.03366151672480414   -0.00122156987742881
-0.0034890261616782213   -0.037247356441544296   -0.0011989488445954823
-0.001581777473999615   -0.03364065567578861   -0.0012011555745191163
-0.0034163681748618875   -0.03368534444037164   -0.0012158071957585745
-0.0034890261616782213   -0.037247356441544296   -0.0011989488445954823
-0.002220701064838376   -0.03729272115372464   -0.0011949964319475771
-0.001581777473999615   -0.03364065567578861   -0.0012011555745191163
-0.0021324308988376656   -0.037297389122023655   -0.0011413325374578565
-0.0034163681748618875   -0.03368534444037164   -0.0012158071957585745
-0.0015208138197230364   -0.033651246518847114   -0.0011610964847794973
-0.0021324308988376656   -0.037297389122023655   -0.0011413325374578565
-0.001581777473999615   -0.03364065567578861   -0.0012011555745191163
-0.0034163681748618875   -0.03368534444037164   -0.0012158071957585745
-0.0021324308988376656   -0.037297389122023655   -0.0011413325374578565
-0.0034080032874971265   -0.03726086160271968   -0.001192816330489208
-0.0034890261616782213   -0.037247356441544296   -0.0011989488445954823
-0.0034163681748618875   -0.03368534444037164   -0.0012158071957585745
-0.0021324308988376656   -0.037297389122023655   -0.0011413325374578565
-0.0034890261616782213   -0.037247356441544296   -0.0011989488445954823
-0.001581777473999615   -0.03364065567578861   -0.0012011555745191163
-0.0034163681748618875   -0.03368534444037164   -0.0012158071957585745
-0.0034080032874971265   -0.03726086160271968   -0.001192816330489208
-0.0015208138197230364   -0.033651246518847114   -0.0011610964847794973
-0.0033572674394584424   -0.03372918660317957   -0.0012153714449581272
-0.0034080032874971265   -0.03726086160271968   -0.001192816330489208
-0.0021324308988376656   -0.037297389122023655   -0.0011413325374578565
-0.0015208138197230364   -0.033651246518847114   -0.0011610964847794973
-0.002058925637061051   -0.037329495100054684   -0.0010955478233054944
-0.0033572674394584424   -0.03372918660317957   -0.0012153714449581272
-0.0014657062396882146   -0.033681414648817125   -0.0011262883954640639
-0.002058925637061051   -0.037329495100054684   -0.0010955478233054944
-0.0015208138197230364   -0.033651246518847114   -0.0011610964847794973
-0.0033572674394584424   -0.03372918660317957   -0.0012153714449581272
-0.002058925637061051   -0.037329495100054684   -0.0010955478233054944
-0.0033333901695238237   -0.03730136168689091   -0.0011933230100063584
-0.0034080032874971265   -0.03726086160271968   -0.001192816330489208
-0.0033572674394584424   -0.03372918660317957   -0.0012153714449581272
-0.002058925637061051   -0.037329495100054684   -0.0010955478233054944
-0.0034080032874971265   -0.03726086160271968   -0.001192816330489208
-0.0015208138197230364   -0.033651246518847114   -0.0011610964847794973
-0.0016445610952478783   -0.03364721154254169   -0.0012469584618119668
-0.0023132501954324356   -0.037311106336044696   -0.0012535449909166574
0.0003308675131891947   -0.033577674406326426   -0.0012813064683598197
-0.001581777473999615   -0.03364065567578861   -0.0012011555745191163
-0.0023132501954324356   -0.037311106336044696   -0.0012535449909166574
-0.000977261257629251   -0.03729591397514904   -0.0013043545774005624
0.0003308675131891947   -0.033577674406326426   -0.0012813064683598197
-0.0008584322219639815   -0.03726705297709369   -0.0012008623567671905
-0.001581777473999615   -0.03364065567578861   -0.0012011555745191163
0.0004073036614331234   -0.03355660776071132   -0.0012009525441101195
-0.0008584322219639815   -0.03726705297709369   -0.0012008623567671905
0.0003308675131891947   -0.033577674406326426   -0.0012813064683598197
-0.001581777473999615   -0.03364065567578861   -0.0012011555745191163
-0.0008584322219639815   -0.03726705297709369   -0.0012008623567671905
-0.002220701064838376   -0.03729272115372464   -0.0011949964319475771
-0.0023132501954324356   -0.037311106336044696   -0.0012535449909166574
-0.001581777473999615   -0.03364065567578861   -0.0012011555745191163
-0.0008584322219639815   -0.03726705297709369   -0.0012008623567671905
-0.0023132501954324356   -0.037311106336044696   -0.0012535449909166574
0.0003308675131891947   -0.033577674406326426   -0.0012813064683598197
-0.001581777473999615   -0.03364065567578861   -0.0012011555745191163
-0.002220701064838376   -0.03729272115372464   -0.0011949964319475771
0.0004073036614331234   -0.03355660776071132   -0.0012009525441101195
-0.0015208138197230364   -0.033651246518847114   -0.0011610964847794973
-0.002220701064838376   -0.03729272115372464   -0.0011949964319475771
-0.0008584322219639815   -0.03726705297709369   -0.0012008623567671905
0.0004073036614331234   -0.03355660776071132   -0.0012009525441101195
-0.0007367238706344915   -0.03726209165131328   -0.001102580705632344
-0.0015208138197230364   -0.033651246518847114   -0.0011610964847794973
0.0004879538093935704   -0.03355470779839539   -0.0011278715279440918
-0.0007367238706344915   -0.03726209165131328   -0.001102580705632344
0.0004073036614331234   -0.03355660776071132   -0.0012009525441101195
-0.0015208138197230364   -0.033651246518847114   -0.0011610964847794973
-0.0007367238706344915   -0.03726209165131328   -0.001102580705632344
-0.0021324308988376656   -0.037297389122023655   -0.0011413325374578565
-0.002220701064838376   -0.03729272115372464   -0.0011949964319475771
-0.0015208138197230364   -0.033651246518847114   -0.0011610964847794973
-0.0007367238706344915   -0.03726209165131328   -0.001102580705632344
-0.002220701064838376   -0.03729272115372464   -0.0011949964319475771
0.0004073036614331234   -0.03355660776071132   -0.0012009525441101195
-0.0015208138197230364   -0.033651246518847114   -0.0011610964847794973
-0.0021324308988376656   -0.037297389122023655   -0.0011413325374578565
0.0004879538093935704   -0.03355470779839539   -0.0011278715279440918
-0.0014657062396882146   -0.033681414648817125   -0.0011262883954640639
-0.0021324308988376656   -0.037297389122023655   -0.0011413325374578565
-0.0007367238706344915   -0.03726209165131328   -0.001102580705632344
0.0004879538093935704   -0.03355470779839539   -0.0011278715279440918
-0.0006467082987605876   -0.03728608301967716   -0.0010132080313918089
-0.0014657062396882146   -0.033681414648817125   -0.0011262883954640639
0.000546936155571332   -0.033571088115821775   -0.0010597945180300218
-0.0006467082987605876   -0.03728608301967716   -0.0010132080313918089
0.0004879538093935704   -0.03355470779839539   -0.0011278715279440918
-0.0014657062396882146   -0.033681414648817125   -0.0011262883954640639
-0.0006467082987605876   -0.03728608301967716   -0.0010132080313918089
-0.002058925637061051   -0.037329495100054684   -0.0010955478233054944
-0.0021324308988376656   -0.037297389122023655   -0.0011413325374578565
-0.0014657062396882146   -0.033681414648817125   -0.0011262883954640639
-0.0006467082987605876   -0.03728608301967716   -0.0010132080313918089
-0.0021324308988376656   -0.037297389122023655   -0.0011413325374578565
0.0004879538093935704   -0.03355470779839539   -0.0011278715279440918
0.0003308675131891947   -0.033577674406326426   -0.0012813064683598197
-0.000977261257629251   -0.03729591397514904   -0.0013043545774005624
0.0024342783190093977   -0.033441452418030745   -0.0013542720524027595
0.0004073036614331234   -0.03355660776071132   -0.0012009525441101195
-0.000977261257629251   -0.03729591397514904   -0.0013043545774005624
0.00045740509753091095   -0.03716687861434884   -0.0014077912509503658
0.0024342783190093977   -0.033441452418030745   -0.0013542720524027595
0.0007360206482359215   -0.0371042940359697   -0.0012386163484725088
0.0004073036614331234   -0.03355660776071132   -0.0012009525441101195
0.002628645846165927   -0.03340109986110893   -0.0012312484293750506
0.0007360206482359215   -0.0371042940359697   -0.0012386163484725088
0.0024342783190093977   -0.033441452418030745   -0.0013542720524027595
0.0004073036614331234   -0.03355660776071132   -0.0012009525441101195
0.0007360206482359215   -0.0371042940359697   -0.0012386163484725088
-0.0008584322219639815   -0.03726705297709369   -0.0012008623567671905
-0.000977261257629251   -0.03729591397514904   -0.0013043545774005624
0.0004073036614331234   -0.03355660776071132   -0.0012009525441101195
0.0007360206482359215   -0.0371042940359697   -0.0012386163484725088
-0.000977261257629251   -0.03729591397514904   -0.0013043545774005624
0.0024342783190093977   -0.033441452418030745   -0.0013542720524027595
0.0004073036614331234   -0.03355660776071132   -0.0012009525441101195
-0.0008584322219639815   -0.03726705297709369   -0.0012008623567671905
0.002628645846165927   -0.03340109986110893   -0.0012312484293750506
0.0004879538093935704   -0.03355470779839539   -0.0011278715279440918
-0.0008584322219639815   -0.03726705297709369   -0.0012008623567671905
0.0007360206482359215   -0.0371042940359697   -0.0012386163484725088
0.002628645846165927   -0.03340109986110893   -0.0012312484293750506
0.0009548846260854617   -0.03709172691109047   -0.0010796316103684098
0.0004879538093935704   -0.03355470779839539   -0.0011278715279440918
0.0027777283895320045   -0.033394109548946754   -0.0011172470899444107
0.0009548846260854617   -0.03709172691109047   -0.0010796316103684098
0.002628645846165927   -0.03340109986110893   -0.0012312484293750506
0.0004879538093935704   -0.03355470779839539   -0.0011278715279440918
0.0009548846260854617   -0.03709172691109047   -0.0010796316103684098
-0.0007367238706344915   -0.03726209165131328   -0.001102580705632344
-0.0008584322219639815   -0.03726705297709369   -0.0012008623567671905
0.0004879538093935704   -0.03355470779839539   -0.0011278715279440918
0.0009548846260854617   -0.03709172691109047   -0.0010796316103684098
-0.0008584322219639815   -0.03726705297709369   -0.0012008623567671905
0.002628645846165927   -0.03340109986110893   -0.0012312484293750506
0.0004879538093935704   -0.03355470779839539   -0.0011278715279440918
-0.0007367238706344915   -0.03726209165131328   -0.001102580705632344
0.0027777283895320045   -0.033394109548946754   -0.0011172470899444107
0.000546936155571332   -0.033571088115821775   -0.0010597945180300218
-0.0007367238706344915   -0.03726209165131328   -0.001102580705632344
0.0009548846260854617   -0.03709172691109047   -0.0010796316103684098
0.0027777283895320045   -0.033394109548946754   -0.0011172470899444107
0.0011827511912945521   -0.037102832761893016   -0.0009342657379301884
0.000546936155571332   -0.033571088115821775   -0.0010597945180300218
0.00293251452196172   -0.03340619907095295   -0.0010131935165567719
0.0011827511912945521   -0.037102832761893016   -0.0009342657379301884
0.0027777283895320045   -0.033394109548946754   -0.0011172470899444107
0.000546936155571332   -0.033571088115821775   -0.0010597945180300218
0.0011827511912945521   -0.037102832761893016   -0.0009342657379301884
-0.0006467082987605876   -0.03728608301967716   -0.0010132080313918089
-0.0007367238706344915   -0.03726209165131328   -0.001102580705632344
0.000546936155571332   -0.033571088115821775   -0.0010597945180300218
0.0011827511912945521   -0.037102832761893016   -0.0009342657379301884
-0.0007367238706344915   -0.03726209165131328   -0.001102580705632344
0.0027777283895320045   -0.033394109548946754   -0.0011172470899444107
-0.0064886247697463735   -0.03700645043313652   -0.0011282400639710292
-0.004773503062621829   -0.03909165653720588   -0.0009933497154058443
-0.0048842325029533045   -0.037160705924547344   -0.0011744172895648767
-0.006315270110839031   -0.03700220449981182   -0.0012308765326223873
-0.004773503062621829   -0.03909165653720588   -0.0009933497154058443
-0.004023221689049607   -0.03928640833637125   -0.0011099096844579869
-0.0048842325029533045   -0.037160705924547344   -0.0011744172895648767
-0.003922434220174989   -0.03924826867698009   -0.0011505458687395688
-0.006315270110839031   -0.03700220449981182   -0.0012308765326223873
-0.004804112391085499   -0.03715290724239343   -0.0012124940466717528
-0.003922434220174989   -0.03924826867698009   -0.0011505458687395688
-0.0048842325029533045   -0.037160705924547344   -0.0011744172895648767
-0.006315270110839031   -0.03700220449981182   -0.0012308765326223873
-0.003922434220174989   -0.03924826867698009   -0.0011505458687395688
-0.0045578889442499096   -0.03904864268536905   -0.0011164013281776714
-0.004773503062621829   -0.03909165653720588   -0.0009933497154058443
-0.006315270110839031   -0.03700220449981182   -0.0012308765326223873
-0.003922434220174989   -0.03924826867698009   -0.0011505458687395688
-0.004773503062621829   -0.03909165653720588   -0.0009933497154058443
-0.0048842325029533045   -0.037160705924547344   -0.0011744172895648767
-0.006315270110839031   -0.03700220449981182   -0.0012308765326223873
-0.0045578889442499096   -0.03904864268536905   -0.0011164013281776714
-0.004804112391085499   -0.03715290724239343   -0.0012124940466717528
-0.00615557829194048   -0.037029913621829065   -0.0013414823459487774
-0.0045578889442499096   -0.03904864268536905   -0.0011164013281776714
-0.003922434220174989   -0.03924826867698009   -0.0011505458687395688
-0.004804112391085499   -0.03715290724239343   -0.0012124940466717528
-0.003810638460328545   -0.039250609328788565   -0.0011916018165072106
-0.00615557829194048   -0.037029913621829065   -0.0013414823459487774
-0.004709776965809713   -0.0371753676720188   -0.0012562240659579349
-0.003810638460328545   -0.039250609328788565   -0.0011916018165072106
-0.004804112391085499   -0.03715290724239343   -0.0012124940466717528
-0.00615557829194048   -0.037029913621829065   -0.0013414823459487774
-0.003810638460328545   -0.039250609328788565   -0.0011916018165072106
-0.004371898233484538   -0.03905283511496859   -0.0012390192149061433
-0.0045578889442499096   -0.03904864268536905   -0.0011164013281776714
-0.00615557829194048   -0.037029913621829065   -0.0013414823459487774
-0.003810638460328545   -0.039250609328788565   -0.0011916018165072106
-0.0045578889442499096   -0.03904864268536905   -0.0011164013281776714
-0.004804112391085499   -0.03715290724239343   -0.0012124940466717528
-0.00615557829194048   -0.037029913621829065   -0.0013414823459487774
-0.004371898233484538   -0.03905283511496859   -0.0012390192149061433
-0.004709776965809713   -0.0371753676720188   -0.0012562240659579349
-0.0059607363141517   -0.03710357203859793   -0.0014595997058238098
-0.004371898233484538   -0.03905283511496859   -0.0012390192149061433
-0.003810638460328545   -0.039250609328788565   -0.0011916018165072106
-0.004709776965809713   -0.0371753676720188   -0.0012562240659579349
-0.003706875640898321   -0.03929363961663036   -0.0012332483551245651
-0.0059607363141517   -0.03710357203859793   -0.0014595997058238098
-0.004624201839460109   -0.037228614381058206   -0.0013052478767773146
-0.003706875640898321   -0.03929363961663036   -0.0012332483551245651
-0.004709776965809713   -0.0371753676720188   -0.0012562240659579349
-0.0059607363141517   -0.03710357203859793   -0.0014595997058238098
-0.003706875640898321   -0.03929363961663036   -0.0012332483551245651
-0.004151156466581124   -0.03910699354402923   -0.001364265476135694
-0.004371898233484538   -0.03905283511496859   -0.0012390192149061433
-0.0059607363141517   -0.03710357203859793   -0.0014595997058238098
-0.003706875640898321   -0.03929363961663036   -0.0012332483551245651
-0.004371898233484538   -0.03905283511496859   -0.0012390192149061433
-0.004709776965809713   -0.0371753676720188   -0.0012562240659579349
-0.0048842325029533045   -0.037160705924547344   -0.0011744172895648767
-0.004023221689049607   -0.03928640833637125   -0.0011099096844579869
-0.0035711457104470505   -0.037260001844351597   -0.001210579155385892
-0.004804112391085499   -0.03715290724239343   -0.0012124940466717528
-0.004023221689049607   -0.03928640833637125   -0.0011099096844579869
-0.003471959938943282   -0.039480192968982884   -0.0012128091364602693
-0.0035711457104470505   -0.037260001844351597   -0.001210579155385892
-0.003365787927413821   -0.039440971667682435   -0.0011848209434643675
-0.004804112391085499   -0.03715290724239343   -0.0012124940466717528
-0.0034890261616782213   -0.037247356441544296   -0.0011989488445954823
-0.003365787927413821   -0.039440971667682435   -0.0011848209434643675
-0.0035711457104470505   -0.037260001844351597   -0.001210579155385892
-0.004804112391085499   -0.03715290724239343   -0.0012124940466717528
-0.003365787927413821   -0.039440971667682435   -0.0011848209434643675
-0.003922434220174989   -0.03924826867698009   -0.0011505458687395688
-0.004023221689049607   -0.03928640833637125   -0.0011099096844579869
-0.004804112391085499   -0.03715290724239343   -0.0012124940466717528
-0.003365787927413821   -0.039440971667682435   -0.0011848209434643675
-0.004023221689049607   -0.03928640833637125   -0.0011099096844579869
-0.0035711457104470505   -0.037260001844351597   -0.001210579155385892
-0.004804112391085499   -0.03715290724239343   -0.0012124940466717528
-0.003922434220174989   -0.03924826867698009   -0.0011505458687395688
-0.0034890261616782213   -0.037247356441544296   -0.0011989488445954823
-0.004709776965809713   -0.0371753676720188   -0.0012562240659579349
-0.003922434220174989   -0.03924826867698009   -0.0011505458687395688
-0.003365787927413821   -0.039440971667682435   -0.0011848209434643675
-0.0034890261616782213   -0.037247356441544296   -0.0011989488445954823
-0.0032630581742911016   -0.03944060772565311   -0.0011564963972398366
-0.004709776965809713   -0.0371753676720188   -0.0012562240659579349
-0.0034080032874971265   -0.03726086160271968   -0.001192816330489208
-0.0032630581742911016   -0.03944060772565311   -0.0011564963972398366
-0.0034890261616782213   -0.037247356441544296   -0.0011989488445954823
-0.004709776965809713   -0.0371753676720188   -0.0012562240659579349
-0.0032630581742911016   -0.03944060772565311   -0.0011564963972398366
-0.003810638460328545   -0.039250609328788565   -0.0011916018165072106
-0.003922434220174989   -0.03924826867698009   -0.0011505458687395688
-0.004709776965809713   -0.0371753676720188   -0.0012562240659579349
-0.0032630581742911016   -0.03944060772565311   -0.0011564963972398366
-0.003922434220174989   -0.03924826867698009   -0.0011505458687395688
-0.0034890261616782213   -0.037247356441544296   -0.0011989488445954823
-0.004709776965809713   -0.0371753676720188   -0.0012562240659579349
-0.003810638460328545   -0.039250609328788565   -0.0011916018165072106
-0.0034080032874971265   -0.03726086160271968   -0.001192816330489208
-0.004624201839460109   -0.037228614381058206   -0.0013052478767773146
-0.003810638460328545   -0.039250609328788565   -0.0011916018165072106
-0.0032630581742911016   -0.03944060772565311   -0.0011564963972398366
-0.0034080032874971265   -0.03726086160271968   -0.001192816330489208
-0.003156018302400011   -0.03947831109495759   -0.0011293190854696326
-0.004624201839460109   -0.037228614381058206   -0.0013052478767773146
-0.0033333901695238237   -0.03730136168689091   -0.0011933230100063584
-0.003156018302400011   -0.03947831109495759   -0.0011293190854696326
-0.0034080032874971265   -0.03726086160271968   -0.001192816330489208
-0.004624201839460109   -0.037228614381058206   -0.0013052478767773146
-0.003156018302400011   -0.03947831109495759   -0.0011293190854696326
-0.003706875640898321   -0.03929363961663036   -0.0012332483551245651
-0.003810638460328545   -0.039250609328788565   -0.0011916018165072106
-0.004624201839460109   -0.037228614381058206   -0.0013052478767773146
-0.003156018302400011   -0.03947831109495759   -0.0011293190854696326
-0.003810638460328545   -0.039250609328788565   -0.0011916018165072106
-0.0034080032874971265   -0.03726086160271968   -0.001192816330489208
-0.0035711457104470505   -0.037260001844351597   -0.001210579155385892
-0.003471959938943282   -0.039480192968982884   -0.0012128091364602693
-0.0023132501954324356   -0.037311106336044696   -0.0012535449909166574
-0.0034890261616782213   -0.037247356441544296   -0.0011989488445954823
-0.003471959938943282   -0.039480192968982884   -0.0012128091364602693
-0.002967888307283748   -0.039712276291989757   -0.0013263646401699297
-0.0023132501954324356   -0.037311106336044696   -0.0012535449909166574
-0.0028378404890295954   -0.039678054419143356   -0.0012259384746433678
-0.0034890261616782213   -0.037247356441544296   -0.0011989488445954823
-0.002220701064838376   -0.03729272115372464   -0.0011949964319475771
-0.0028378404890295954   -0.039678054419143356   -0.0012259384746433678
-0.0023132501954324356   -0.037311106336044696   -0.0012535449909166574
-0.0034890261616782213   -0.037247356441544296   -0.0011989488445954823
-0.0028378404890295954   -0.039678054419143356   -0.0012259384746433678
-0.003365787927413821   -0.039440971667682435   -0.0011848209434643675
-0.003471959938943282   -0.039480192968982884   -0.0012128091364602693
-0.0034890261616782213   -0.037247356441544296   -0.0011989488445954823
-0.0028378404890295954   -0.039678054419143356   -0.0012259384746433678
-0.003471959938943282   -0.039480192968982884   -0.0012128091364602693
-0.0023132501954324356   -0.037311106336044696   -0.0012535449909166574
-0.0034890261616782213   -0.037247356441544296   -0.0011989488445954823
-0.003365787927413821   -0.039440971667682435   -0.0011848209434643675
-0.002220701064838376   -0.03729272115372464   -0.0011949964319475771
-0.0034080032874971265   -0.03726086160271968   -0.001192816330489208
-0.003365787927413821   -0.039440971667682435   -0.0011848209434643675
-0.0028378404890295954   -0.039678054419143356   -0.0012259384746433678
-0.002220701064838376   -0.03729272115372464   -0.0011949964319475771
-0.0027172197282621393   -0.03967642070858209   -0.0011257799974065282
-0.0034080032874971265   -0.03726086160271968   -0.001192816330489208
-0.0021324308988376656   -0.037297389122023655   -0.0011413325374578565
-0.0027172197282621393   -0.03967642070858209   -0.0011257799974065282
-0.002220701064838376   -0.03729272115372464   -0.0011949964319475771
-0.0034080032874971265   -0.03726086160271968   -0.001192816330489208
-0.0027172197282621393   -0.03967642070858209   -0.0011257799974065282
-0.0032630581742911016   -0.03944060772565311   -0.0011564963972398366
-0.003365787927413821   -0.039440971667682435   -0.0011848209434643675
-0.0034080032874971265   -0.03726086160271968   -0.001192816330489208
-0.0027172197282621393   -0.03967642070858209   -0.0011257799974065282
-0.003365787927413821   -0.039440971667682435   -0.0011848209434643675
-0.002220701064838376   -0.03729272115372464   -0.0011949964319475771
-0.0034080032874971265   -0.03726086160271968   -0.001192816330489208
-0.0032630581742911016   -0.03944060772565311   -0.0011564963972398366
-0.0021324308988376656   -0.037297389122023655   -0.0011413325374578565
-0.0033333901695238237   -0.03730136168689091   -0.0011933230100063584
-0.0032630581742911016   -0.03944060772565311   -0.0011564963972398366
-0.0027172197282621393   -0.03967642070858209   -0.0011257799974065282
-0.0021324308988376656   -0.037297389122023655   -0.0011413325374578565
-0.0025878745656222088   -0.03970566705414095   -0.0010255200626374964
-0.0033333901695238237   -0.03730136168689091   -0.0011933230100063584
-0.002058925637061051   -0.037329495100054684   -0.0010955478233054944
-0.0025878745656222088   -0.03970566705414095   -0.0010255200626374964
-0.0021324308988376656   -0.037297389122023655   -0.0011413325374578565
-0.0033333901695238237   -0.03730136168689091   -0.0011933230100063584
-0.0025878745656222088   -0.03970566705414095   -0.0010255200626374964
-0.003156018302400011   -0.03947831109495759   -0.0011293190854696326
-0.0032630581742911016   -0.03944060772565311   -0.0011564963972398366
-0.0033333901695238237   -0.03730136168689091   -0.0011933230100063584
-0.0025878745656222088   -0.03970566705414095   -0.0010255200626374964
-0.0032630581742911016   -0.03944060772565311   -0.0011564963972398366
-0.0021324308988376656   -0.037297389122023655   -0.0011413325374578565
-0.0023132501954324356   -0.037311106336044696   -0.0012535449909166574
-0.002967888307283748   -0.039712276291989757   -0.0013263646401699297
-0.000977261257629251   -0.03729591397514904   -0.0013043545774005624
-0.002220701064838376   -0.03729272115372464   -0.0011949964319475771
-0.002967888307283748   -0.039712276291989757   -0.0013263646401699297
-0.0024717890103575692   -0.04   -0.0014145299323264683
-0.000977261257629251   -0.03729591397514904   -0.0013043545774005624
-0.0023079598335165783   -0.04   -0.0012612690285678943
-0.002220701064838376   -0.03729272115372464   -0.0011949964319475771
-0.0008584322219639815   -0.03726705297709369   -0.0012008623567671905
-0.0023079598335165783   -0.04   -0.0012612690285678943
-0.000977261257629251   -0.03729591397514904   -0.0013043545774005624
-0.002220701064838376   -0.03729272115372464   -0.0011949964319475771
-0.0023079598335165783   -0.04   -0.0012612690285678943
-0.0028378404890295954   -0.039678054419143356   -0.0012259384746433678
-0.002967888307283748   -0.039712276291989757   -0.0013263646401699297
-0.002220701064838376   -0.03729272115372464   -0.0011949964319475771
-0.0023079598335165783   -0.04   -0.0012612690285678943
-0.002967888307283748   -0.039712276291989757   -0.0013263646401699297
-0.000977261257629251   -0.03729591397514904   -0.0013043545774005624
-0.002220701064838376   -0.03729272115372464   -0.0011949964319475771
-0.0028378404890295954   -0.039678054419143356   -0.0012259384746433678
-0.0008584322219639815   -0.03726705297709369   -0.0012008623567671905
-0.0021324308988376656   -0.037297389122023655   -0.0011413325374578565
-0.0028378404890295954   -0.039678054419143356   -0.0012259384746433678
-0.0023079598335165783   -0.04   -0.0012612690285678943
-0.0008584322219639815   -0.03726705297709369   -0.0012008623567671905
-0.002143138952250409   -0.04   -0.0011061978151240984
-0.0021324308988376656   -0.037297389122023655   -0.0011413325374578565
-0.0007367238706344915   -0.03726209165131328   -0.001102580705632344
-0.002143138952250409   -0.04   -0.0011061978151240984
-0.0008584322219639815   -0.03726705297709369   -0.0012008623567671905
-0.0021324308988376656   -0.037297389122023655   -0.0011413325374578565
-0.002143138952250409   -0.04   -0.0011061978151240984
-0.0027172197282621393   -0.03967642070858209   -0.0011257799974065282
-0.0028378404890295954   -0.039678054419143356   -0.0012259384746433678
-0.0021324308988376656   -0.037297389122023655   -0.0011413325374578565
-0.002143138952250409   -0.04   -0.0011061978151240984
-0.0028378404890295954   -0.039678054419143356   -0.0012259384746433678
-0.0008584322219639815   -0.03726705297709369   -0.0012008623567671905
-0.0021324308988376656   -0.037297389122023655   -0.0011413325374578565
-0.0027172197282621393   -0.03967642070858209   -0.0011257799974065282
-0.0007367238706344915   -0.03726209165131328   -0.001102580705632344
-0.002058925637061051   -0.037329495100054684   -0.0010955478233054944
-0.0027172197282621393   -0.03967642070858209   -0.0011257799974065282
-0.002143138952250409   -0.04   -0.0011061978151240984
-0.0007367238706344915   -0.03726209165131328   -0.001102580705632344
-0.0019822898011171877   -0.04   -0.0009531950346536549
-0.002058925637061051   -0.037329495100054684   -0.0010955478233054944
-0.0006467082987605876   -0.03728608301967716   -0.0010132080313918089
-0.0019822898011171877   -0.04   -0.0009531950346536549
-0.0007367238706344915   -0.03726209165131328   -0.001102580705632344
-0.002058925637061051   -0.037329495100054684   -0.0010955478233054944
-0.0019822898011171877   -0.04   -0.0009531950346536549
-0.0025878745656222088   -0.03970566705414095   -0.0010255200626374964
-0.0027172197282621393   -0.03967642070858209   -0.0011257799974065282
-0.002058925637061051   -0.037329495100054684   -0.0010955478233054944
-0.0019822898011171877   -0.04   -0.0009531950346536549
-0.0027172197282621393   -0.03967642070858209   -0.0011257799974065282
-0.0007367238706344915   -0.03726209165131328   -0.001102580705632344
-0.000977261257629251   -0.03729591397514904   -0.0013043545774005624
-0.0024717890103575692   -0.04   -0.0014145299323264683
0.00045740509753091095   -0.03716687861434884   -0.0014077912509503658
-0.0008584322219639815   -0.03726705297709369   -0.0012008623567671905
-0.0024717890103575692   -0.04   -0.0014145299323264683
-0.002109599799754804   -0.04   -0.0015213001254406468
0.00045740509753091095   -0.03716687861434884   -0.0014077912509503658
-0.0017653413461094585   -0.04   -0.0012991933307147775
-0.0008584322219639815   -0.03726705297709369   -0.0012008623567671905
0.0007360206482359215   -0.0371042940359697   -0.0012386163484725088
-0.0017653413461094585   -0.04   -0.0012991933307147775
0.00045740509753091095   -0.03716687861434884   -0.0014077912509503658
-0.0008584322219639815   -0.03726705297709369   -0.0012008623567671905
-0.0017653413461094585   -0.04   -0.0012991933307147775
-0.0023079598335165783   -0.04   -0.0012612690285678943
-0.0024717890103575692   -0.04   -0.0014145299323264683
-0.0008584322219639815   -0.03726705297709369   -0.0012008623567671905
-0.0017653413461094585   -0.04   -0.0012991933307147775
-0.0024717890103575692   -0.04   -0.0014145299323264683
0.00045740509753091095   -0.03716687861434884   -0.0014077912509503658
-0.0008584322219639815   -0.03726705297709369   -0.0012008623567671905
-0.0023079598335165783   -0.04   -0.0012612690285678943
0.0007360206482359215   -0.0371042940359697   -0.0012386163484725088
-0.0007367238706344915   -0.03726209165131328   -0.001102580705632344
-0.0023079598335165783   -0.04   -0.0012612690285678943
-0.0017653413461094585   -0.04   -0.0012991933307147775
0.0007360206482359215   -0.0371042940359697   -0.0012386163484725088
-0.0014908176816018554   -0.04   -0.001086742171014321
-0.0007367238706344915   -0.03726209165131328   -0.001102580705632344
0.0009548846260854617   -0.03709172691109047   -0.0010796316103684098
-0.0014908176816018554   -0.04   -0.001086742171014321
0.0007360206482359215   -0.0371042940359697   -0.0012386163484725088
-0.0007367238706344915   -0.03726209165131328   -0.001102580705632344
-0.0014908176816018554   -0.04   -0.001086742171014321
-0.002143138952250409   -0.04   -0.0011061978151240984
-0.0023079598335165783   -0.04   -0.0012612690285678943
-0.0007367238706344915   -0.03726209165131328   -0.001102580705632344
-0.0014908176816018554   -0.04   -0.001086742171014321
-0.0023079598335165783   -0.04   -0.0012612690285678943
0.0007360206482359215   -0.0371042940359697   -0.0012386163484725088
-0.0007367238706344915   -0.03726209165131328   -0.001102580705632344
-0.002143138952250409   -0.04   -0.0011061978151240984
0.0009548846260854617   -0.03709172691109047   -0.0010796316103684098
-0.0006467082987605876   -0.03728608301967716   -0.0010132080313918089
-0.002143138952250409   -0.04   -0.0011061978151240984
-0.0014908176816018554   -0.04   -0.001086742171014321
0.0009548846260854617   -0.03709172691109047   -0.0010796316103684098
-0.0011517669610126395   -0.04   -0.0008661751592400888
-0.0006467082987605876   -0.03728608301967716   -0.0010132080313918089
0.0011827511912945521   -0.037102832761893016   -0.0009342657379301884
-0.0011517669610126395   -0.04   -0.0008661751592400888
0.0009548846260854617   -0.03709172691109047   -0.0010796316103684098
-0.0006467082987605876   -0.03728608301967716   -0.0010132080313918089
-0.0011517669610126395   -0.04   -0.0008661751592400888
-0.0019822898011171877   -0.04   -0.0009531950346536549
-0.002143138952250409   -0.04   -0.0011061978151240984
-0.0006467082987605876   -0.03728608301967716   -0.0010132080313918089
-0.0011517669610126395   -0.04   -0.0008661751592400888
-0.002143138952250409   -0.04   -0.0011061978151240984
0.0009548846260854617   -0.03709172691109047   -0.0010796316103684098
-0.004773503062621829   -0.03909165653720588   -0.0009933497154058443
-0.0028760904036970753   -0.039211770103708465   -0.000850543686084856
-0.004023221689049607   -0.03928640833637125   -0.0011099096844579869
-0.0045578889442499096   -0.03904864268536905   -0.0011164013281776714
-0.0028760904036970753   -0.039211770103708465   -0.000850543686084856
-0.0030402269509427183   -0.03936251343388351   -0.001000670521382455
-0.004023221689049607   -0.03928640833637125   -0.0011099096844579869
-0.0029638738942126402   -0.039310352333399225   -0.0010558839950577366
-0.0045578889442499096   -0.03904864268536905   -0.0011164013281776714
-0.003922434220174989   -0.03924826867698009   -0.0011505458687395688
-0.0029638738942126402   -0.039310352333399225   -0.0010558839950577366
-0.004023221689049607   -0.03928640833637125   -0.0011099096844579869
-0.0045578889442499096   -0.03904864268536905   -0.0011164013281776714
-0.0029638738942126402   -0.039310352333399225   -0.0010558839950577366
-0.002680360531849842   -0.03914474116687039   -0.0009798784475402987
-0.0028760904036970753   -0.039211770103708465   -0.000850543686084856
-0.0045578889442499096   -0.03904864268536905   -0.0011164013281776714
-0.0029638738942126402   -0.039310352333399225   -0.0010558839950577366
-0.0028760904036970753   -0.039211770103708465   -0.000850543686084856
-0.004023221689049607   -0.03928640833637125   -0.0011099096844579869
-0.0045578889442499096   -0.03904864268536905   -0.0011164013281776714
-0.002680360531849842   -0.03914474116687039   -0.0009798784475402987
-0.003922434220174989   -0.03924826867698009   -0.0011505458687395688
-0.004371898233484538   -0.03905283511496859   -0.0012390192149061433
-0.002680360531849842   -0.03914474116687039   -0.0009798784475402987
-0.0029638738942126402   -0.039310352333399225   -0.0010558839950577366
-0.003922434220174989   -0.03924826867698009   -0.0011505458687395688
-0.002874209816215964   -0.039291557928264914   -0.0011068972200787783
-0.004371898233484538   -0.03905283511496859   -0.0012390192149061433
-0.003810638460328545   -0.039250609328788565   -0.0011916018165072106
-0.002874209816215964   -0.039291557928264914   -0.0011068972200787783
-0.003922434220174989   -0.03924826867698009   -0.0011505458687395688
-0.004371898233484538   -0.03905283511496859   -0.0012390192149061433
-0.002874209816215964   -0.039291557928264914   -0.0011068972200787783
-0.0025174730797373236   -0.03912462980496449   -0.001104005067808868
-0.002680360531849842   -0.03914474116687039   -0.0009798784475402987
-0.004371898233484538   -0.03905283511496859   -0.0012390192149061433
-0.002874209816215964   -0.039291557928264914   -0.0011068972200787783
-0.002680360531849842   -0.03914474116687039   -0.0009798784475402987
-0.003922434220174989   -0.03924826867698009   -0.0011505458687395688
-0.004371898233484538   -0.03905283511496859   -0.0012390192149061433
-0.0025174730797373236   -0.03912462980496449   -0.001104005067808868
-0.003810638460328545   -0.039250609328788565   -0.0011916018165072106
-0.004151156466581124   -0.03910699354402923   -0.001364265476135694
-0.0025174730797373236   -0.03912462980496449   -0.001104005067808868
-0.002874209816215964   -0.039291557928264914   -0.0011068972200787783
-0.003810638460328545   -0.039250609328788565   -0.0011916018165072106
-0.002797463219156825   -0.039306422827030243   -0.0011534510835049035
-0.004151156466581124   -0.03910699354402923   -0.001364265476135694
-0.003706875640898321   -0.03929363961663036   -0.0012332483551245651
-0.002797463219156825   -0.039306422827030243   -0.0011534510835049035
-0.003810638460328545   -0.039250609328788565   -0.0011916018165072106
-0.004151156466581124   -0.03910699354402923   -0.001364265476135694
-0.002797463219156825   -0.039306422827030243   -0.0011534510835049035
-0.002332939828866077   -0.039143151698479574   -0.001222387862182204
-0.0025174730797373236   -0.03912462980496449   -0.001104005067808868
-0.004151156466581124   -0.03910699354402923   -0.001364265476135694
-0.002797463219156825   -0.039306422827030243   -0.0011534510835049035
-0.0025174730797373236   -0.03912462980496449   -0.001104005067808868
-0.003810638460328545   -0.039250609328788565   -0.0011916018165072106
-0.004023221689049607   -0.03928640833637125   -0.0011099096844579869
-0.0030402269509427183   -0.03936251343388351   -0.001000670521382455
-0.003471959938943282   -0.039480192968982884   -0.0012128091364602693
-0.003922434220174989   -0.03924826867698009   -0.0011505458687395688
-0.0030402269509427183   -0.03936251343388351   -0.001000670521382455
-0.0032666736740163582   -0.03945495104421059   -0.0011205903381376861
-0.003471959938943282   -0.039480192968982884   -0.0012128091364602693
-0.0031991658614767453   -0.039408341660192824   -0.0011219290642690105
-0.003922434220174989   -0.03924826867698009   -0.0011505458687395688
-0.003365787927413821   -0.039440971667682435   -0.0011848209434643675
-0.0031991658614767453   -0.039408341660192824   -0.0011219290642690105
-0.003471959938943282   -0.039480192968982884   -0.0012128091364602693
-0.003922434220174989   -0.03924826867698009   -0.0011505458687395688
-0.0031991658614767453   -0.039408341660192824   -0.0011219290642690105
-0.0029638738942126402   -0.039310352333399225   -0.0010558839950577366
-0.0030402269509427183   -0.03936251343388351   -0.001000670521382455
-0.003922434220174989   -0.03924826867698009   -0.0011505458687395688
-0.0031991658614767453   -0.039408341660192824   -0.0011219290642690105
-0.0030402269509427183   -0.03936251343388351   -0.001000670521382455
-0.003471959938943282   -0.039480192968982884   -0.0012128091364602693
-0.003922434220174989   -0.03924826867698009   -0.0011505458687395688
-0.0029638738942126402   -0.039310352333399225   -0.0010558839950577366
-0.003365787927413821   -0.039440971667682435   -0.0011848209434643675
-0.003810638460328545   -0.039250609328788565   -0.0011916018165072106
-0.0029638738942126402   -0.039310352333399225   -0.0010558839950577366
-0.0031991658614767453   -0.039408341660192824   -0.0011219290642690105
-0.003365787927413821   -0.039440971667682435   -0.0011848209434643675
-0.0031240531498559613   -0.03939194749834579   -0.001117823259395923
-0.003810638460328545   -0.039250609328788565   -0.0011916018165072106
-0.0032630581742911016   -0.03944060772565311   -0.0011564963972398366
-0.0031240531498559613   -0.03939194749834579   -0.001117823259395923
-0.003365787927413821   -0.039440971667682435   -0.0011848209434643675
-0.003810638460328545   -0.039250609328788565   -0.0011916018165072106
-0.0031240531498559613   -0.03939194749834579   -0.001117823259395923
-0.002874209816215964   -0.039291557928264914   -0.0011068972200787783
-0.0029638738942126402   -0.039310352333399225   -0.0010558839950577366
-0.003810638460328545   -0.039250609328788565   -0.0011916018165072106
-0.0031240531498559613   -0.03939194749834579   -0.001117823259395923
-0.0029638738942126402   -0.039310352333399225   -0.0010558839950577366
-0.003365787927413821   -0.039440971667682435   -0.0011848209434643675
-0.003810638460328545   -0.039250609328788565   -0.0011916018165072106
-0.002874209816215964   -0.039291557928264914   -0.0011068972200787783
-0.0032630581742911016   -0.03944060772565311   -0.0011564963972398366
-0.003706875640898321   -0.03929363961663036   -0.0012332483551245651
-0.002874209816215964   -0.039291557928264914   -0.0011068972200787783
-0.0031240531498559613   -0.03939194749834579   -0.001117823259395923
-0.0032630581742911016   -0.03944060772565311   -0.0011564963972398366
-0.003047715960846263   -0.03940442694144222   -0.0011094434550247764
-0.003706875640898321   -0.03929363961663036   -0.0012332483551245651
-0.003156018302400011   -0.03947831109495759   -0.0011293190854696326
-0.003047715960846263   -0.03940442694144222   -0.0011094434550247764
-0.0032630581742911016   -0.03944060772565311   -0.0011564963972398366
-0.003706875640898321   -0.03929363961663036   -0.0012332483551245651
-0.003047715960846263   -0.03940442694144222   -0.0011094434550247764
-0.002797463219156825   -0.039306422827030243   -0.0011534510835049035
-0.002874209816215964   -0.039291557928264914   -0.0011068972200787783
-0.003706875640898321   -0.03929363961663036   -0.0012332483551245651
-0.003047715960846263   -0.03940442694144222   -0.0011094434550247764
-0.002874209816215964   -0.039291557928264914   -0.0011068972200787783
-0.0032630581742911016   -0.03944060772565311   -0.0011564963972398366
-0.003471959938943282   -0.039480192968982884   -0.0012128091364602693
-0.0032666736740163582   -0.03945495104421059   -0.0011205903381376861
-0.002967888307283748   -0.039712276291989757   -0.0013263646401699297
-0.003365787927413821   -0.039440971667682435   -0.0011848209434643675
-0.0032666736740163582   -0.03945495104421059   -0.0011205903381376861
-0.003509982515592508   -0.03949263204464826   -0.0012387409373855582
-0.002967888307283748   -0.039712276291989757   -0.0013263646401699297
-0.003440047435095414   -0.03944809295786191   -0.0011882653426813666
-0.003365787927413821   -0.039440971667682435   -0.0011848209434643675
-0.0028378404890295954   -0.039678054419143356   -0.0012259384746433678
-0.003440047435095414   -0.03944809295786191   -0.0011882653426813666
-0.002967888307283748   -0.039712276291989757   -0.0013263646401699297
-0.003365787927413821   -0.039440971667682435   -0.0011848209434643675
-0.003440047435095414   -0.03944809295786191   -0.0011882653426813666
-0.0031991658614767453   -0.039408341660192824   -0.0011219290642690105
-0.0032666736740163582   -0.03945495104421059   -0.0011205903381376861
-0.003365787927413821   -0.039440971667682435   -0.0011848209434643675
-0.003440047435095414   -0.03944809295786191   -0.0011882653426813666
-0.0032666736740163582   -0.03945495104421059   -0.0011205903381376861
-0.002967888307283748   -0.039712276291989757   -0.0013263646401699297
-0.003365787927413821   -0.039440971667682435   -0.0011848209434643675
-0.0031991658614767453   -0.039408341660192824   -0.0011219290642690105
-0.0028378404890295954   -0.039678054419143356   -0.0012259384746433678
-0.0032630581742911016   -0.03944060772565311   -0.0011564963972398366
-0.0031991658614767453   -0.039408341660192824   -0.0011219290642690105
-0.003440047435095414   -0.03944809295786191   -0.0011882653426813666
-0.0028378404890295954   -0.039678054419143356   -0.0012259384746433678
-0.003356243016055183   -0.039434252995321155   -0.0011311561134595422
-0.0032630581742911016   -0.03944060772565311   -0.0011564963972398366
-0.0027172197282621393   -0.03967642070858209   -0.0011257799974065282
-0.003356243016055183   -0.039434252995321155   -0.0011311561134595422
-0.0028378404890295954   -0.039678054419143356   -0.0012259384746433678
-0.0032630581742911016   -0.03944060772565311   -0.0011564963972398366
-0.003356243016055183   -0.039434252995321155   -0.0011311561134595422
-0.0031240531498559613   -0.03939194749834579   -0.001117823259395923
-0.0031991658614767453   -0.039408341660192824   -0.0011219290642690105
-0.0032630581742911016   -0.03944060772565311   -0.0011564963972398366
-0.003356243016055183   -0.039434252995321155   -0.0011311561134595422
-0.0031991658614767453   -0.039408341660192824   -0.0011219290642690105
-0.0028378404890295954   -0.039678054419143356   -0.0012259384746433678
-0.0032630581742911016   -0.03944060772565311   -0.0011564963972398366
-0.0031240531498559613   -0.03939194749834579   -0.001117823259395923
-0.0027172197282621393   -0.03967642070858209   -0.0011257799974065282
-0.003156018302400011   -0.03947831109495759   -0.0011293190854696326
-0.0031240531498559613   -0.03939194749834579   -0.001117823259395923
-0.003356243016055183   -0.039434252995321155   -0.0011311561134595422
-0.0027172197282621393   -0.03967642070858209   -0.0011257799974065282
-0.003270109811213828   -0.03944638486954757   -0.001070376292470787
-0.003156018302400011   -0.03947831109495759   -0.0011293190854696326
-0.0025878745656222088   -0.03970566705414095   -0.0010255200626374964
-0.003270109811213828   -0.03944638486954757   -0.001070376292470787
-0.0027172197282621393   -0.03967642070858209   -0.0011257799974065282
-0.003156018302400011   -0.03947831109495759   -0.0011293190854696326
-0.003270109811213828   -0.03944638486954757   -0.001070376292470787
-0.003047715960846263   -0.03940442694144222   -0.0011094434550247764
-0.0031240531498559613   -0.03939194749834579   -0.001117823259395923
-0.003156018302400011   -0.03947831109495759   -0.0011293190854696326
-0.003270109811213828   -0.03944638486954757   -0.001070376292470787
-0.0031240531498559613   -0.03939194749834579   -0.001117823259395923
-0.0027172197282621393   -0.03967642070858209   -0.0011257799974065282
-0.002967888307283748   -0.039712276291989757   -0.0013263646401699297
-0.003509982515592508   -0.03949263204464826   -0.0012387409373855582
-0.0024717890103575692   -0.04   -0.0014145299323264683
-0.0028378404890295954   -0.039678054419143356   -0.0012259384746433678
-0.003509982515592508   -0.03949263204464826   -0.0012387409373855582
-0.0038627230387102323   -0.03944871271738035   -0.0013513136890747784
-0.0024717890103575692   -0.04   -0.0014145299323264683
-0.0037714101627981216   -0.03940648710852184   -0.001251433378602324
-0.0028378404890295954   -0.039678054419143356   -0.0012259384746433678
-0.0023079598335165783   -0.04   -0.0012612690285678943
-0.0037714101627981216   -0.03940648710852184   -0.001251433378602324
-0.0024717890103575692   -0.04   -0.0014145299323264683
-0.0028378404890295954   -0.039678054419143356   -0.0012259384746433678
-0.0037714101627981216   -0.03940648710852184   -0.001251433378602324
-0.003440047435095414   -0.03944809295786191   -0.0011882653426813666
-0.003509982515592508   -0.03949263204464826   -0.0012387409373855582
-0.0028378404890295954   -0.039678054419143356   -0.0012259384746433678
-0.0037714101627981216   -0.03940648710852184   -0.001251433378602324
-0.003509982515592508   -0.03949263204464826   -0.0012387409373855582
-0.0024717890103575692   -0.04   -0.0014145299323264683
-0.0028378404890295954   -0.039678054419143356   -0.0012259384746433678
-0.003440047435095414   -0.03944809295786191   -0.0011882653426813666
-0.0023079598335165783   -0.04   -0.0012612690285678943
-0.0027172197282621393   -0.03967642070858209   -0.0011257799974065282
-0.003440047435095414   -0.03944809295786191   -0.0011882653426813666
-0.0037714101627981216   -0.03940648710852184   -0.001251433378602324
-0.0023079598335165783   -0.04   -0.0012612690285678943
-0.0036507330893512115   -0.03939712591224278   -0.001144136536251064
-0.0027172197282621393   -0.03967642070858209   -0.0011257799974065282
-0.002143138952250409   -0.04   -0.0011061978151240984
-0.0036507330893512115   -0.03939712591224278   -0.001144136536251064
-0.0023079598335165783   -0.04   -0.0012612690285678943
-0.0027172197282621393   -0.03967642070858209   -0.0011257799974065282
-0.0036507330893512115   -0.03939712591224278   -0.001144136536251064
-0.003356243016055183   -0.039434252995321155   -0.0011311561134595422
-0.003440047435095414   -0.03944809295786191   -0.0011882653426813666
-0.0027172197282621393   -0.03967642070858209   -0.0011257799974065282
-0.0036507330893512115   -0.03939712591224278   -0.001144136536251064
-0.003440047435095414   -0.03944809295786191   -0.0011882653426813666
-0.0023079598335165783   -0.04   -0.0012612690285678943
-0.0027172197282621393   -0.03967642070858209   -0.0011257799974065282
-0.003356243016055183   -0.039434252995321155   -0.0011311561134595422
-0.002143138952250409   -0.04   -0.0011061978151240984
-0.0025878745656222088   -0.03970566705414095   -0.0010255200626374964
-0.003356243016055183   -0.039434252995321155   -0.0011311561134595422
-0.0036507330893512115   -0.03939712591224278   -0.001144136536251064
-0.002143138952250409   -0.04   -0.0011061978151240984
-0.003537511149228249   -0.039414356564143535   -0.0010327624744198658
-0.0025878745656222088   -0.03970566705414095   -0.0010255200626374964
-0.0019822898011171877   -0.04   -0.0009531950346536549
-0.003537511149228249   -0.039414356564143535   -0.0010327624744198658
-0.002143138952250409   -0.04   -0.0011061978151240984
-0.0025878745656222088   -0.03970566705414095   -0.0010255200626374964
-0.003537511149228249   -0.039414356564143535   -0.0010327624744198658
-0.003270109811213828   -0.03944638486954757   -0.001070376292470787
-0.003356243016055183   -0.039434252995321155   -0.0011311561134595422
-0.0025878745656222088   -0.03970566705414095   -0.0010255200626374964
-0.003537511149228249   -0.039414356564143535   -0.0010327624744198658
-0.003356243016055183   -0.039434252995321155   -0.0011311561134595422
-0.002143138952250409   -0.04   -0.0011061978151240984
-0.0024717890103575692   -0.04   -0.0014145299323264683
-0.0038627230387102323   -0.03944871271738035   -0.0013513136890747784
-0.002109599799754804   -0.04   -0.0015213001254406468
-0.0023079598335165783   -0.04   -0.0012612690285678943
-0.0038627230387102323   -0.03944871271738035   -0.0013513136890747784
-0.004552716253750915   -0.03925605110667668   -0.0014712861155361675
-0.002109599799754804   -0.04   -0.0015213001254406468
-0.0043079376983439594   -0.03922015895971433   -0.0013074610378766784
-0.0023079598335165783   -0.04   -0.0012612690285678943
-0.0017653413461094585   -0.04   -0.0012991933307147775
-0.0043079376983439594   -0.03922015895971433   -0.0013074610378766784
-0.002109599799754804   -0.04   -0.0015213001254406468
-0.0023079598335165783   -0.04   -0.0012612690285678943
-0.0043079376983439594   -0.03922015895971433   -0.0013074610378766784
-0.0037714101627981216   -0.03940648710852184   -0.001251433378602324
-0.0038627230387102323   -0.03944871271738035   -0.0013513136890747784
-0.0023079598335165783   -0.04   -0.0012612690285678943
-0.0043079376983439594   -0.03922015895971433   -0.0013074610378766784
-0.0038627230387102323   -0.03944871271738035   -0.0013513136890747784
-0.002109599799754804   -0.04   -0.0015213001254406468
-0.0023079598335165783   -0.04   -0.0012612690285678943
-0.0037714101627981216   -0.03940648710852184   -0.001251433378602324
-0.0017653413461094585   -0.04   -0.0012991933307147775
-0.002143138952250409   -0.04   -0.0011061978151240984
-0.0037714101627981216   -0.03940648710852184   -0.001251433378602324
-0.0043079376983439594   -0.03922015895971433   -0.0013074610378766784
-0.0017653413461094585   -0.04   -0.0012991933307147775
-0.004083450431594898   -0.03921543544421875   -0.001132786320628478
-0.002143138952250409   -0.04   -0.0011061978151240984
-0.0014908176816018554   -0.04   -0.001086742171014321
-0.004083450431594898   -0.03921543544421875   -0.001132786320628478
-0.0017653413461094585   -0.04   -0.0012991933307147775
-0.002143138952250409   -0.04   -0.0011061978151240984
-0.004083450431594898   -0.03921543544421875   -0.001132786320628478
-0.0036507330893512115   -0.03939712591224278   -0.001144136536251064
-0.0037714101627981216   -0.03940648710852184   -0.001251433378602324
-0.002143138952250409   -0.04   -0.0011061978151240984
-0.004083450431594898   -0.03921543544421875   -0.001132786320628478
-0.0037714101627981216   -0.03940648710852184   -0.001251433378602324
-0.0017653413461094585   -0.04   -0.0012991933307147775
-0.002143138952250409   -0.04   -0.0011061978151240984
-0.0036507330893512115   -0.03939712591224278   -0.001144136536251064
-0.0014908176816018554   -0.04   -0.001086742171014321
-0.0019822898011171877   -0.04   -0.0009531950346536549
-0.0036507330893512115   -0.03939712591224278   -0.001144136536251064
-0.004083450431594898   -0.03921543544421875   -0.001132786320628478
-0.0014908176816018554   -0.04   -0.001086742171014321
-0.003799869956855892   -0.039262458071422306   -0.0009502664200497896
-0.0019822898011171877   -0.04   -0.0009531950346536549
-0.0011517669610126395   -0.04   -0.0008661751592400888
-0.003799869956855892   -0.039262458071422306   -0.0009502664200497896
-0.0014908176816018554   -0.04   -0.001086742171014321
-0.0019822898011171877   -0.04   -0.0009531950346536549
-0.003799869956855892   -0.039262458071422306   -0.0009502664200497896
-0.003537511149228249   -0.039414356564143535   -0.0010327624744198658
-0.0036507330893512115   -0.03939712591224278   -0.001144136536251064
-0.0019822898011171877   -0.04   -0.0009531950346536549
-0.003799869956855892   -0.039262458071422306   -0.0009502664200497896
-0.0036507330893512115   -0.03939712591224278   -0.001144136536251064
-0.0014908176816018554   -0.04   -0.001086742171014321
-0.0028760904036970753   -0.039211770103708465   -0.000850543686084856
-0.0012023338000026727   -0.03775419275547665   -0.0007340810295303957
-0.0030402269509427183   -0.03936251343388351   -0.001000670521382455
-0.002680360531849842   -0.03914474116687039   -0.0009798784475402987
-0.0012023338000026727   -0.03775419275547665   -0.0007340810295303957
-0.0021947274423097683   -0.03786843525501483   -0.0008936801831466786
-0.0030402269509427183   -0.03936251343388351   -0.001000670521382455
-0.0021404020852365626   -0.03780528289350999   -0.0009430310211128851
-0.002680360531849842   -0.03914474116687039   -0.0009798784475402987
-0.0029638738942126402   -0.039310352333399225   -0.0010558839950577366
-0.0021404020852365626   -0.03780528289350999   -0.0009430310211128851
-0.0030402269509427183   -0.03936251343388351   -0.001000670521382455
-0.002680360531849842   -0.03914474116687039   -0.0009798784475402987
-0.0021404020852365626   -0.03780528289350999   -0.0009430310211128851
-0.0010458066110721367   -0.03767594983506107   -0.0008461997180147999
-0.0012023338000026727   -0.03775419275547665   -0.0007340810295303957
-0.002680360531849842   -0.03914474116687039   -0.0009798784475402987
-0.0021404020852365626   -0.03780528289350999   -0.0009430310211128851
-0.0012023338000026727   -0.03775419275547665   -0.0007340810295303957
-0.0030402269509427183   -0.03936251343388351   -0.001000670521382455
-0.002680360531849842   -0.03914474116687039   -0.0009798784475402987
-0.0010458066110721367   -0.03767594983506107   -0.0008461997180147999
-0.0029638738942126402   -0.039310352333399225   -0.0010558839950577366
-0.0025174730797373236   -0.03912462980496449   -0.001104005067808868
-0.0010458066110721367   -0.03767594983506107   -0.0008461997180147999
-0.0021404020852365626   -0.03780528289350999   -0.0009430310211128851
-0.0029638738942126402   -0.039310352333399225   -0.0010558839950577366
-0.002079116474656859   -0.03777076064946357   -0.0009880004136526169
-0.0025174730797373236   -0.03912462980496449   -0.001104005067808868
-0.002874209816215964   -0.039291557928264914   -0.0011068972200787783
-0.002079116474656859   -0.03777076064946357   -0.0009880004136526169
-0.0029638738942126402   -0.039310352333399225   -0.0010558839950577366
-0.0025174730797373236   -0.03912462980496449   -0.001104005067808868
-0.002079116474656859   -0.03777076064946357   -0.0009880004136526169
-0.0009226257654118562   -0.037639219959193365   -0.0009518280122779282
-0.0010458066110721367   -0.03767594983506107   -0.0008461997180147999
-0.0025174730797373236   -0.03912462980496449   -0.001104005067808868
-0.002079116474656859   -0.03777076064946357   -0.0009880004136526169
-0.0010458066110721367   -0.03767594983506107   -0.0008461997180147999
-0.0029638738942126402   -0.039310352333399225   -0.0010558839950577366
-0.0025174730797373236   -0.03912462980496449   -0.001104005067808868
-0.0009226257654118562   -0.037639219959193365   -0.0009518280122779282
-0.002874209816215964   -0.039291557928264914   -0.0011068972200787783
-0.002332939828866077   -0.039143151698479574   -0.001222387862182204
-0.0009226257654118562   -0.037639219959193365   -0.0009518280122779282
-0.002079116474656859   -0.03777076064946357   -0.0009880004136526169
-0.002874209816215964   -0.039291557928264914   -0.0011068972200787783
-0.0020321655114920656   -0.037763898165581636   -0.001028732596932623
-0.002332939828866077   -0.039143151698479574   -0.001222387862182204
-0.002797463219156825   -0.039306422827030243   -0.0011534510835049035
-0.0020321655114920656   -0.037763898165581636   -0.001028732596932623
-0.002874209816215964   -0.039291557928264914   -0.0011068972200787783
-0.002332939828866077   -0.039143151698479574   -0.001222387862182204
-0.0020321655114920656   -0.037763898165581636   -0.001028732596932623
-0.0007878146220749591   -0.03763334692823131   -0.0010506969499169678
-0.0009226257654118562   -0.037639219959193365   -0.0009518280122779282
-0.002332939828866077   -0.039143151698479574   -0.001222387862182204
-0.0020321655114920656   -0.037763898165581636   -0.001028732596932623
-0.0009226257654118562   -0.037639219959193365   -0.0009518280122779282
-0.002874209816215964   -0.039291557928264914   -0.0011068972200787783
-0.0030402269509427183   -0.03936251343388351   -0.001000670521382455
-0.0021947274423097683   -0.03786843525501483   -0.0008936801831466786
-0.0032666736740163582   -0.03945495104421059   -0.0011205903381376861
-0.0029638738942126402   -0.039310352333399225   -0.0010558839950577366
-0.0021947274423097683   -0.03786843525501483   -0.0008936801831466786
-0.0031764406094435065   -0.03790855248161457   -0.0010236563333713249
-0.0032666736740163582   -0.03945495104421059   -0.0011205903381376861
-0.003130843715699139   -0.03785347469379953   -0.001026260778953917
-0.0029638738942126402   -0.039310352333399225   -0.0010558839950577366
-0.0031991658614767453   -0.039408341660192824   -0.0011219290642690105
-0.003130843715699139   -0.03785347469379953   -0.001026260778953917
-0.0032666736740163582   -0.03945495104421059   -0.0011205903381376861
-0.0029638738942126402   -0.039310352333399225   -0.0010558839950577366
-0.003130843715699139   -0.03785347469379953   -0.001026260778953917
-0.0021404020852365626   -0.03780528289350999   -0.0009430310211128851
-0.0021947274423097683   -0.03786843525501483   -0.0008936801831466786
-0.0029638738942126402   -0.039310352333399225   -0.0010558839950577366
-0.003130843715699139   -0.03785347469379953   -0.001026260778953917
-0.0021947274423097683   -0.03786843525501483   -0.0008936801831466786
-0.0032666736740163582   -0.03945495104421059   -0.0011205903381376861
-0.0029638738942126402   -0.039310352333399225   -0.0010558839950577366
-0.0021404020852365626   -0.03780528289350999   -0.0009430310211128851
-0.0031991658614767453   -0.039408341660192824   -0.0011219290642690105
-0.002874209816215964   -0.039291557928264914   -0.0011068972200787783
-0.0021404020852365626   -0.03780528289350999   -0.0009430310211128851
-0.003130843715699139   -0.03785347469379953   -0.001026260778953917
-0.0031991658614767453   -0.039408341660192824   -0.0011219290642690105
-0.0030836698616928684   -0.03782419951922141   -0.0010248056545234575
-0.002874209816215964   -0.039291557928264914   -0.0011068972200787783
-0.0031240531498559613   -0.03939194749834579   -0.001117823259395923
-0.0030836698616928684   -0.03782419951922141   -0.0010248056545234575
-0.0031991658614767453   -0.039408341660192824   -0.0011219290642690105
-0.002874209816215964   -0.039291557928264914   -0.0011068972200787783
-0.0030836698616928684   -0.03782419951922141   -0.0010248056545234575
-0.002079116474656859   -0.03777076064946357   -0.0009880004136526169
-0.0021404020852365626   -0.03780528289350999   -0.0009430310211128851
-0.002874209816215964   -0.039291557928264914   -0.0011068972200787783
-0.0030836698616928684   -0.03782419951922141   -0.0010248056545234575
-0.0021404020852365626   -0.03780528289350999   -0.0009430310211128851
-0.0031991658614767453   -0.039408341660192824   -0.0011219290642690105
-0.002874209816215964   -0.039291557928264914   -0.0011068972200787783
-0.002079116474656859   -0.03777076064946357   -0.0009880004136526169
-0.0031240531498559613   -0.03939194749834579   -0.001117823259395923
-0.002797463219156825   -0.039306422827030243   -0.0011534510835049035
-0.002079116474656859   -0.03777076064946357   -0.0009880004136526169
-0.0030836698616928684   -0.03782419951922141   -0.0010248056545234575
-0.0031240531498559613   -0.03939194749834579   -0.001117823259395923
-0.003038192828020764   -0.037819515368681174   -0.0010192613242384577
-0.002797463219156825   -0.039306422827030243   -0.0011534510835049035
-0.003047715960846263   -0.03940442694144222   -0.0011094434550247764
-0.003038192828020764   -0.037819515368681174   -0.0010192613242384577
-0.0031240531498559613   -0.03939194749834579   -0.001117823259395923
-0.002797463219156825   -0.039306422827030243   -0.0011534510835049035
-0.003038192828020764   -0.037819515368681174   -0.0010192613242384577
-0.0020321655114920656   -0.037763898165581636   -0.001028732596932623
-0.002079116474656859   -0.03777076064946357   -0.0009880004136526169
-0.002797463219156825   -0.039306422827030243   -0.0011534510835049035
-0.003038192828020764   -0.037819515368681174   -0.0010192613242384577
-0.002079116474656859   -0.03777076064946357   -0.0009880004136526169
-0.0031240531498559613   -0.03939194749834579   -0.001117823259395923
-0.0032666736740163582   -0.03945495104421059   -0.0011205903381376861
-0.0031764406094435065   -0.03790855248161457   -0.0010236563333713249
-0.003509982515592508   -0.03949263204464826   -0.0012387409373855582
-0.0031991658614767453   -0.039408341660192824   -0.0011219290642690105
-0.0031764406094435065   -0.03790855248161457   -0.0010236563333713249
-0.004151675274521682   -0.03787248015774354   -0.001145352059794971
-0.003509982515592508   -0.03949263204464826   -0.0012387409373855582
-0.0041064394145580935   -0.03782351884476814   -0.0011031146156074902
-0.0031991658614767453   -0.039408341660192824   -0.0011219290642690105
-0.003440047435095414   -0.03944809295786191   -0.0011882653426813666
-0.0041064394145580935   -0.03782351884476814   -0.0011031146156074902
-0.003509982515592508   -0.03949263204464826   -0.0012387409373855582
-0.0031991658614767453   -0.039408341660192824   -0.0011219290642690105
-0.0041064394145580935   -0.03782351884476814   -0.0011031146156074902
-0.003130843715699139   -0.03785347469379953   -0.001026260778953917
-0.0031764406094435065   -0.03790855248161457   -0.0010236563333713249
-0.0031991658614767453   -0.039408341660192824   -0.0011219290642690105
-0.0041064394145580935   -0.03782351884476814   -0.0011031146156074902
-0.0031764406094435065   -0.03790855248161457   -0.0010236563333713249
-0.003509982515592508   -0.03949263204464826   -0.0012387409373855582
-0.0031991658614767453   -0.039408341660192824   -0.0011219290642690105
-0.003130843715699139   -0.03785347469379953   -0.001026260778953917
-0.003440047435095414   -0.03944809295786191   -0.0011882653426813666
-0.0031240531498559613   -0.03939194749834579   -0.001117823259395923
-0.003130843715699139   -0.03785347469379953   -0.001026260778953917
-0.0041064394145580935   -0.03782351884476814   -0.0011031146156074902
-0.003440047435095414   -0.03944809295786191   -0.0011882653426813666
-0.004055677390757502   -0.03779993688934045   -0.0010568815355550358
-0.0031240531498559613   -0.03939194749834579   -0.001117823259395923
-0.003356243016055183   -0.039434252995321155   -0.0011311561134595422
-0.004055677390757502   -0.03779993688934045   -0.0010568815355550358
-0.003440047435095414   -0.03944809295786191   -0.0011882653426813666
-0.0031240531498559613   -0.03939194749834579   -0.001117823259395923
-0.004055677390757502   -0.03779993688934045   -0.0010568815355550358
-0.0030836698616928684   -0.03782419951922141   -0.0010248056545234575
-0.003130843715699139   -0.03785347469379953   -0.001026260778953917
-0.0031240531498559613   -0.03939194749834579   -0.001117823259395923
-0.004055677390757502   -0.03779993688934045   -0.0010568815355550358
-0.003130843715699139   -0.03785347469379953   -0.001026260778953917
-0.003440047435095414   -0.03944809295786191   -0.0011882653426813666
-0.0031240531498559613   -0.03939194749834579   -0.001117823259395923
-0.0030836698616928684   -0.03782419951922141   -0.0010248056545234575
-0.003356243016055183   -0.039434252995321155   -0.0011311561134595422
-0.003047715960846263   -0.03940442694144222   -0.0011094434550247764
-0.0030836698616928684   -0.03782419951922141   -0.0010248056545234575
-0.004055677390757502   -0.03779993688934045   -0.0010568815355550358
-0.003356243016055183   -0.039434252995321155   -0.0011311561134595422
-0.00400474668336304   -0.03779933771874355   -0.0010061667043063428
-0.003047715960846263   -0.03940442694144222   -0.0011094434550247764
-0.003270109811213828   -0.03944638486954757   -0.001070376292470787
-0.00400474668336304   -0.03779933771874355   -0.0010061667043063428
-0.003356243016055183   -0.039434252995321155   -0.0011311561134595422
-0.003047715960846263   -0.03940442694144222   -0.0011094434550247764
-0.00400474668336304   -0.03779933771874355   -0.0010061667043063428
-0.003038192828020764   -0.037819515368681174   -0.0010192613242384577
-0.0030836698616928684   -0.03782419951922141   -0.0010248056545234575
-0.003047715960846263   -0.03940442694144222   -0.0011094434550247764
-0.00400474668336304   -0.03779933771874355   -0.0010061667043063428
-0.0030836698616928684   -0.03782419951922141   -0.0010248056545234575
-0.003356243016055183   -0.039434252995321155   -0.0011311561134595422
-0.003509982515592508   -0.03949263204464826   -0.0012387409373855582
-0.004151675274521682   -0.03787248015774354   -0.001145352059794971
-0.0038627230387102323   -0.03944871271738035   -0.0013513136890747784
-0.003440047435095414   -0.03944809295786191   -0.0011882653426813666
-0.004151675274521682   -0.03787248015774354   -0.001145352059794971
-0.005222278171201069   -0.03775551406408512   -0.001257296151694586
-0.0038627230387102323   -0.03944871271738035   -0.0013513136890747784
-0.005166787616184971   -0.03771264920225755   -0.0011711713742194399
-0.003440047435095414   -0.03944809295786191   -0.0011882653426813666
-0.0037714101627981216   -0.03940648710852184   -0.001251433378602324
-0.005166787616184971   -0.03771264920225755   -0.0011711713742194399
-0.0038627230387102323   -0.03944871271738035   -0.0013513136890747784
-0.003440047435095414   -0.03944809295786191   -0.0011882653426813666
-0.005166787616184971   -0.03771264920225755   -0.0011711713742194399
-0.0041064394145580935   -0.03782351884476814   -0.0011031146156074902
-0.004151675274521682   -0.03787248015774354   -0.001145352059794971
-0.003440047435095414   -0.03944809295786191   -0.0011882653426813666
-0.005166787616184971   -0.03771264920225755   -0.0011711713742194399
-0.004151675274521682   -0.03787248015774354   -0.001145352059794971
-0.0038627230387102323   -0.03944871271738035   -0.0013513136890747784
-0.003440047435095414   -0.03944809295786191   -0.0011882653426813666
-0.0041064394145580935   -0.03782351884476814   -0.0011031146156074902
-0.0037714101627981216   -0.03940648710852184   -0.001251433378602324
-0.003356243016055183   -0.039434252995321155   -0.0011311561134595422
-0.0041064394145580935   -0.03782351884476814   -0.0011031146156074902
-0.005166787616184971   -0.03771264920225755   -0.0011711713742194399
-0.0037714101627981216   -0.03940648710852184   -0.001251433378602324
-0.005090062611658155   -0.037694738068942045   -0.0010813559005562804
-0.003356243016055183   -0.039434252995321155   -0.0011311561134595422
-0.0036507330893512115   -0.03939712591224278   -0.001144136536251064
-0.005090062611658155   -0.037694738068942045   -0.0010813559005562804
-0.0037714101627981216   -0.03940648710852184   -0.001251433378602324
-0.003356243016055183   -0.039434252995321155   -0.0011311561134595422
-0.005090062611658155   -0.037694738068942045   -0.0010813559005562804
-0.004055677390757502   -0.03779993688934045   -0.0010568815355550358
-0.0041064394145580935   -0.03782351884476814   -0.0011031146156074902
-0.003356243016055183   -0.039434252995321155   -0.0011311561134595422
-0.005090062611658155   -0.037694738068942045   -0.0010813559005562804
-0.0041064394145580935   -0.03782351884476814   -0.0011031146156074902
-0.0037714101627981216   -0.03940648710852184   -0.001251433378602324
-0.003356243016055183   -0.039434252995321155   -0.0011311561134595422
-0.004055677390757502   -0.03779993688934045   -0.0010568815355550358
-0.0036507330893512115   -0.03939712591224278   -0.001144136536251064
-0.003270109811213828   -0.03944638486954757   -0.001070376292470787
-0.004055677390757502   -0.03779993688934045   -0.0010568815355550358
-0.005090062611658155   -0.037694738068942045   -0.0010813559005562804
-0.0036507330893512115   -0.03939712591224278   -0.001144136536251064
-0.005023287552754844   -0.03770179934633964   -0.0009853780173421547
-0.003270109811213828   -0.03944638486954757   -0.001070376292470787
-0.003537511149228249   -0.039414356564143535   -0.0010327624744198658
-0.005023287552754844   -0.03770179934633964   -0.0009853780173421547
-0.0036507330893512115   -0.03939712591224278   -0.001144136536251064
-0.003270109811213828   -0.03944638486954757   -0.001070376292470787
-0.005023287552754844   -0.03770179934633964   -0.0009853780173421547
-0.00400474668336304   -0.03779933771874355   -0.0010061667043063428
-0.004055677390757502   -0.03779993688934045   -0.0010568815355550358
-0.003270109811213828   -0.03944638486954757   -0.001070376292470787
-0.005023287552754844   -0.03770179934633964   -0.0009853780173421547
-0.004055677390757502   -0.03779993688934045   -0.0010568815355550358
-0.0036507330893512115   -0.03939712591224278   -0.001144136536251064
-0.0038627230387102323   -0.03944871271738035   -0.0013513136890747784
-0.005222278171201069   -0.03775551406408512   -0.001257296151694586
-0.004552716253750915   -0.03925605110667668   -0.0014712861155361675
-0.0037714101627981216   -0.03940648710852184   -0.001251433378602324
-0.005222278171201069   -0.03775551406408512   -0.001257296151694586
-0.006600782486969802   -0.037565287757320445   -0.0013652289091753696
-0.004552716253750915   -0.03925605110667668   -0.0014712861155361675
-0.006420395549807661   -0.037518609382417765   -0.0012292005538416955
-0.0037714101627981216   -0.03940648710852184   -0.001251433378602324
-0.0043079376983439594   -0.03922015895971433   -0.0013074610378766784
-0.006420395549807661   -0.037518609382417765   -0.0012292005538416955
-0.004552716253750915   -0.03925605110667668   -0.0014712861155361675
-0.0037714101627981216   -0.03940648710852184   -0.001251433378602324
-0.006420395549807661   -0.037518609382417765   -0.0012292005538416955
-0.005166787616184971   -0.03771264920225755   -0.0011711713742194399
-0.005222278171201069   -0.03775551406408512   -0.001257296151694586
-0.0037714101627981216   -0.03940648710852184   -0.001251433378602324
-0.006420395549807661   -0.037518609382417765   -0.0012292005538416955
-0.005222278171201069   -0.03775551406408512   -0.001257296151694586
-0.004552716253750915   -0.03925605110667668   -0.0014712861155361675
-0.0037714101627981216   -0.03940648710852184   -0.001251433378602324
-0.005166787616184971   -0.03771264920225755   -0.0011711713742194399
-0.0043079376983439594   -0.03922015895971433   -0.0013074610378766784
-0.0036507330893512115   -0.03939712591224278   -0.001144136536251064
-0.005166787616184971   -0.03771264920225755   -0.0011711713742194399
-0.006420395549807661   -0.037518609382417765   -0.0012292005538416955
-0.0043079376983439594   -0.03922015895971433   -0.0013074610378766784
-0.006259047797288497   -0.037502042220009676   -0.0010854067510886554
-0.0036507330893512115   -0.03939712591224278   -0.001144136536251064
-0.004083450431594898   -0.03921543544421875   -0.001132786320628478
-0.006259047797288497   -0.037502042220009676   -0.0010854067510886554
-0.0043079376983439594   -0.03922015895971433   -0.0013074610378766784
-0.0036507330893512115   -0.03939712591224278   -0.001144136536251064
-0.006259047797288497   -0.037502042220009676   -0.0010854067510886554
-0.005090062611658155   -0.037694738068942045   -0.0010813559005562804
-0.005166787616184971   -0.03771264920225755   -0.0011711713742194399
-0.0036507330893512115   -0.03939712591224278   -0.001144136536251064
-0.006259047797288497   -0.037502042220009676   -0.0010854067510886554
-0.005166787616184971   -0.03771264920225755   -0.0011711713742194399
-0.0043079376983439594   -0.03922015895971433   -0.0013074610378766784
-0.0036507330893512115   -0.03939712591224278   -0.001144136536251064
-0.005090062611658155   -0.037694738068942045   -0.0010813559005562804
-0.004083450431594898   -0.03921543544421875   -0.001132786320628478
-0.003537511149228249   -0.039414356564143535   -0.0010327624744198658
-0.005090062611658155   -0.037694738068942045   -0.0010813559005562804
-0.006259047797288497   -0.037502042220009676   -0.0010854067510886554
-0.004083450431594898   -0.03921543544421875   -0.001132786320628478
-0.006049977135169066   -0.03752424547406204   -0.0009352003207418422
-0.003537511149228249   -0.039414356564143535   -0.0010327624744198658
-0.003799869956855892   -0.039262458071422306   -0.0009502664200497896
-0.006049977135169066   -0.03752424547406204   -0.0009352003207418422
-0.004083450431594898   -0.03921543544421875   -0.001132786320628478
-0.003537511149228249   -0.039414356564143535   -0.0010327624744198658
-0.006049977135169066   -0.03752424547406204   -0.0009352003207418422
-0.005023287552754844   -0.03770179934633964   -0.0009853780173421547
-0.005090062611658155   -0.037694738068942045   -0.0010813559005562804
-0.003537511149228249   -0.039414356564143535   -0.0010327624744198658
-0.006049977135169066   -0.03752424547406204   -0.0009352003207418422
-0.005090062611658155   -0.037694738068942045   -0.0010813559005562804
-0.004083450431594898   -0.03921543544421875   -0.001132786320628478
-0.0012023338000026727   -0.03775419275547665   -0.0007340810295303957
0.00016048587685188435   -0.035052984740080145   -0.0006065124274836282
-0.0021947274423097683   -0.03786843525501483   -0.0008936801831466786
-0.0010458066110721367   -0.03767594983506107   -0.0008461997180147999
0.00016048587685188435   -0.035052984740080145   -0.0006065124274836282
-0.001520832597836477   -0.035137170928760654   -0.000763325449454824
-0.0021947274423097683   -0.03786843525501483   -0.0008936801831466786
-0.001491896754936948   -0.03507095838240633   -0.0008026266423664143
-0.0010458066110721367   -0.03767594983506107   -0.0008461997180147999
-0.0021404020852365626   -0.03780528289350999   -0.0009430310211128851
-0.001491896754936948   -0.03507095838240633   -0.0008026266423664143
-0.0021947274423097683   -0.03786843525501483   -0.0008936801831466786
-0.0010458066110721367   -0.03767594983506107   -0.0008461997180147999
-0.001491896754936948   -0.03507095838240633   -0.0008026266423664143
0.0002703584505529519   -0.034973411311038684   -0.000696160419370822
0.00016048587685188435   -0.035052984740080145   -0.0006065124274836282
-0.0010458066110721367   -0.03767594983506107   -0.0008461997180147999
-0.001491896754936948   -0.03507095838240633   -0.0008026266423664143
0.00016048587685188435   -0.035052984740080145   -0.0006065124274836282
-0.0021947274423097683   -0.03786843525501483   -0.0008936801831466786
-0.0010458066110721367   -0.03767594983506107   -0.0008461997180147999
0.0002703584505529519   -0.034973411311038684   -0.000696160419370822
-0.0021404020852365626   -0.03780528289350999   -0.0009430310211128851
-0.0009226257654118562   -0.037639219959193365   -0.0009518280122779282
0.0002703584505529519   -0.034973411311038684   -0.000696160419370822
-0.001491896754936948   -0.03507095838240633   -0.0008026266423664143
-0.0021404020852365626   -0.03780528289350999   -0.0009430310211128851
-0.0014588476843845613   -0.03502818531295784   -0.0008374211299318675
-0.0009226257654118562   -0.037639219959193365   -0.0009518280122779282
-0.002079116474656859   -0.03777076064946357   -0.0009880004136526169
-0.0014588476843845613   -0.03502818531295784   -0.0008374211299318675
-0.0021404020852365626   -0.03780528289350999   -0.0009430310211128851
-0.0009226257654118562   -0.037639219959193365   -0.0009518280122779282
-0.0014588476843845613   -0.03502818531295784   -0.0008374211299318675
0.0003512420930286924   -0.034927978072512356   -0.0007794999688652261
0.0002703584505529519   -0.034973411311038684   -0.000696160419370822
-0.0009226257654118562   -0.037639219959193365   -0.0009518280122779282
-0.0014588476843845613   -0.03502818531295784   -0.0008374211299318675
0.0002703584505529519   -0.034973411311038684   -0.000696160419370822
-0.0021404020852365626   -0.03780528289350999   -0.0009430310211128851
-0.0009226257654118562   -0.037639219959193365   -0.0009518280122779282
0.0003512420930286924   -0.034927978072512356   -0.0007794999688652261
-0.002079116474656859   -0.03777076064946357   -0.0009880004136526169
-0.0007878146220749591   -0.03763334692823131   -0.0010506969499169678
0.0003512420930286924   -0.034927978072512356   -0.0007794999688652261
-0.0014588476843845613   -0.03502818531295784   -0.0008374211299318675
-0.002079116474656859   -0.03777076064946357   -0.0009880004136526169
-0.0014390769889448998   -0.0350075695534642   -0.0008681545541235992
-0.0007878146220749591   -0.03763334692823131   -0.0010506969499169678
-0.0020321655114920656   -0.037763898165581636   -0.001028732596932623
-0.0014390769889448998   -0.0350075695534642   -0.0008681545541235992
-0.002079116474656859   -0.03777076064946357   -0.0009880004136526169
-0.0007878146220749591   -0.03763334692823131   -0.0010506969499169678
-0.0014390769889448998   -0.0350075695534642   -0.0008681545541235992
0.00043810101323018207   -0.03490640919663528   -0.0008565046861669881
0.0003512420930286924   -0.034927978072512356   -0.0007794999688652261
-0.0007878146220749591   -0.03763334692823131   -0.0010506969499169678
-0.0014390769889448998   -0.0350075695534642   -0.0008681545541235992
0.0003512420930286924   -0.034927978072512356   -0.0007794999688652261
-0.002079116474656859   -0.03777076064946357   -0.0009880004136526169
-0.0021947274423097683   -0.03786843525501483   -0.0008936801831466786
-0.001520832597836477   -0.035137170928760654   -0.000763325449454824
-0.0031764406094435065   -0.03790855248161457   -0.0010236563333713249
-0.0021404020852365626   -0.03780528289350999   -0.0009430310211128851
-0.001520832597836477   -0.035137170928760654   -0.000763325449454824
-0.0031492469924255264   -0.03515332136481761   -0.0008922420254511376
-0.0031764406094435065   -0.03790855248161457   -0.0010236563333713249
-0.0031280485908285454   -0.03509655220636949   -0.0008931698539865391
-0.0021404020852365626   -0.03780528289350999   -0.0009430310211128851
-0.003130843715699139   -0.03785347469379953   -0.001026260778953917
-0.0031280485908285454   -0.03509655220636949   -0.0008931698539865391
-0.0031764406094435065   -0.03790855248161457   -0.0010236563333713249
-0.0021404020852365626   -0.03780528289350999   -0.0009430310211128851
-0.0031280485908285454   -0.03509655220636949   -0.0008931698539865391
-0.001491896754936948   -0.03507095838240633   -0.0008026266423664143
-0.001520832597836477   -0.035137170928760654   -0.000763325449454824
-0.0021404020852365626   -0.03780528289350999   -0.0009430310211128851
-0.0031280485908285454   -0.03509655220636949   -0.0008931698539865391
-0.001520832597836477   -0.035137170928760654   -0.000763325449454824
-0.0031764406094435065   -0.03790855248161457   -0.0010236563333713249
-0.0021404020852365626   -0.03780528289350999   -0.0009430310211128851
-0.001491896754936948   -0.03507095838240633   -0.0008026266423664143
-0.003130843715699139   -0.03785347469379953   -0.001026260778953917
-0.002079116474656859   -0.03777076064946357   -0.0009880004136526169
-0.001491896754936948   -0.03507095838240633   -0.0008026266423664143
-0.0031280485908285454   -0.03509655220636949   -0.0008931698539865391
-0.003130843715699139   -0.03785347469379953   -0.001026260778953917
-0.0031062372915042756   -0.035060755384414805   -0.0008897758510176291
-0.002079116474656859   -0.03777076064946357   -0.0009880004136526169
-0.0030836698616928684   -0.03782419951922141   -0.0010248056545234575
-0.0031062372915042756   -0.035060755384414805   -0.0008897758510176291
-0.003130843715699139   -0.03785347469379953   -0.001026260778953917
-0.002079116474656859   -0.03777076064946357   -0.0009880004136526169
-0.0031062372915042756   -0.035060755384414805   -0.0008897758510176291
-0.0014588476843845613   -0.03502818531295784   -0.0008374211299318675
-0.001491896754936948   -0.03507095838240633   -0.0008026266423664143
-0.002079116474656859   -0.03777076064946357   -0.0009880004136526169
-0.0031062372915042756   -0.035060755384414805   -0.0008897758510176291
-0.001491896754936948   -0.03507095838240633   -0.0008026266423664143
-0.003130843715699139   -0.03785347469379953   -0.001026260778953917
-0.002079116474656859   -0.03777076064946357   -0.0009880004136526169
-0.0014588476843845613   -0.03502818531295784   -0.0008374211299318675
-0.0030836698616928684   -0.03782419951922141   -0.0010248056545234575
-0.0020321655114920656   -0.037763898165581636   -0.001028732596932623
-0.0014588476843845613   -0.03502818531295784   -0.0008374211299318675
-0.0031062372915042756   -0.035060755384414805   -0.0008897758510176291
-0.0030836698616928684   -0.03782419951922141   -0.0010248056545234575
-0.003087165166215288   -0.035045596246115536   -0.0008823539510307365
-0.0020321655114920656   -0.037763898165581636   -0.001028732596932623
-0.003038192828020764   -0.037819515368681174   -0.0010192613242384577
-0.003087165166215288   -0.035045596246115536   -0.0008823539510307365
-0.0030836698616928684   -0.03782419951922141   -0.0010248056545234575
-0.0020321655114920656   -0.037763898165581636   -0.001028732596932623
-0.003087165166215288   -0.035045596246115536   -0.0008823539510307365
-0.0014390769889448998   -0.0350075695534642   -0.0008681545541235992
-0.0014588476843845613   -0.03502818531295784   -0.0008374211299318675
-0.0020321655114920656   -0.037763898165581636   -0.001028732596932623
-0.003087165166215288   -0.035045596246115536   -0.0008823539510307365
-0.0014588476843845613   -0.03502818531295784   -0.0008374211299318675
-0.0030836698616928684   -0.03782419951922141   -0.0010248056545234575
-0.0031764406094435065   -0.03790855248161457   -0.0010236563333713249
-0.0031492469924255264   -0.03515332136481761   -0.0008922420254511376
-0.004151675274521682   -0.03787248015774354   -0.001145352059794971
-0.003130843715699139   -0.03785347469379953   -0.001026260778953917
-0.0031492469924255264   -0.03515332136481761   -0.0008922420254511376
-0.004752469367534371   -0.03510127380263526   -0.0010085814151221007
-0.004151675274521682   -0.03787248015774354   -0.001145352059794971
-0.004732740990281847   -0.03505231797872537   -0.0009720561261854639
-0.003130843715699139   -0.03785347469379953   -0.001026260778953917
-0.0041064394145580935   -0.03782351884476814   -0.0011031146156074902
-0.004732740990281847   -0.03505231797872537   -0.0009720561261854639
-0.004151675274521682   -0.03787248015774354   -0.001145352059794971
-0.003130843715699139   -0.03785347469379953   -0.001026260778953917
-0.004732740990281847   -0.03505231797872537   -0.0009720561261854639
-0.0031280485908285454   -0.03509655220636949   -0.0008931698539865391
-0.0031492469924255264   -0.03515332136481761   -0.0008922420254511376
-0.003130843715699139   -0.03785347469379953   -0.001026260778953917
-0.004732740990281847   -0.03505231797872537   -0.0009720561261854639
-0.0031492469924255264   -0.03515332136481761   -0.0008922420254511376
-0.004151675274521682   -0.03787248015774354   -0.001145352059794971
-0.003130843715699139   -0.03785347469379953   -0.001026260778953917
-0.0031280485908285454   -0.03509655220636949   -0.0008931698539865391
-0.0041064394145580935   -0.03782351884476814   -0.0011031146156074902
-0.0030836698616928684   -0.03782419951922141   -0.0010248056545234575
-0.0031280485908285454   -0.03509655220636949   -0.0008931698539865391
-0.004732740990281847   -0.03505231797872537   -0.0009720561261854639
-0.0041064394145580935   -0.03782351884476814   -0.0011031146156074902
-0.004708894396468995   -0.03502410587435114   -0.0009313062043296095
-0.0030836698616928684   -0.03782419951922141   -0.0010248056545234575
-0.004055677390757502   -0.03779993688934045   -0.0010568815355550358
-0.004708894396468995   -0.03502410587435114   -0.0009313062043296095
-0.0041064394145580935   -0.03782351884476814   -0.0011031146156074902
-0.0030836698616928684   -0.03782419951922141   -0.0010248056545234575
-0.004708894396468995   -0.03502410587435114   -0.0009313062043296095
-0.0031062372915042756   -0.035060755384414805   -0.0008897758510176291
-0.0031280485908285454   -0.03509655220636949   -0.0008931698539865391
-0.0030836698616928684   -0.03782419951922141   -0.0010248056545234575
-0.004708894396468995   -0.03502410587435114   -0.0009313062043296095
-0.0031280485908285454   -0.03509655220636949   -0.0008931698539865391
-0.0041064394145580935   -0.03782351884476814   -0.0011031146156074902
-0.0030836698616928684   -0.03782419951922141   -0.0010248056545234575
-0.0031062372915042756   -0.035060755384414805   -0.0008897758510176291
-0.004055677390757502   -0.03779993688934045   -0.0010568815355550358
-0.003038192828020764   -0.037819515368681174   -0.0010192613242384577
-0.0031062372915042756   -0.035060755384414805   -0.0008897758510176291
-0.004708894396468995   -0.03502410587435114   -0.0009313062043296095
-0.004055677390757502   -0.03779993688934045   -0.0010568815355550358
-0.004685726857208264   -0.03501569522789105   -0.0008864609103263341
-0.003038192828020764   -0.037819515368681174   -0.0010192613242384577
-0.00400474668336304   -0.03779933771874355   -0.0010061667043063428
-0.004685726857208264   -0.03501569522789105   -0.0008864609103263341
-0.004055677390757502   -0.03779993688934045   -0.0010568815355550358
-0.003038192828020764   -0.037819515368681174   -0.0010192613242384577
-0.004685726857208264   -0.03501569522789105   -0.0008864609103263341
-0.003087165166215288   -0.035045596246115536   -0.0008823539510307365
-0.0031062372915042756   -0.035060755384414805   -0.0008897758510176291
-0.003038192828020764   -0.037819515368681174   -0.0010192613242384577
-0.004685726857208264   -0.03501569522789105   -0.0008864609103263341
-0.0031062372915042756   -0.035060755384414805   -0.0008897758510176291
-0.004055677390757502   -0.03779993688934045   -0.0010568815355550358
-0.004151675274521682   -0.03787248015774354   -0.001145352059794971
-0.004752469367534371   -0.03510127380263526   -0.0010085814151221007
-0.005222278171201069   -0.03775551406408512   -0.001257296151694586
-0.0041064394145580935   -0.03782351884476814   -0.0011031146156074902
-0.004752469367534371   -0.03510127380263526   -0.0010085814151221007
-0.006432042505446442   -0.03498281660065393   -0.001111969930024735
-0.005222278171201069   -0.03775551406408512   -0.001257296151694586
-0.006406154692249544   -0.03494128217661885   -0.0010379254885630347
-0.0041064394145580935   -0.03782351884476814   -0.0011031146156074902
-0.005166787616184971   -0.03771264920225755   -0.0011711713742194399
-0.006406154692249544   -0.03494128217661885   -0.0010379254885630347
-0.005222278171201069   -0.03775551406408512   -0.001257296151694586
-0.0041064394145580935   -0.03782351884476814   -0.0011031146156074902
-0.006406154692249544   -0.03494128217661885   -0.0010379254885630347
-0.004732740990281847   -0.03505231797872537   -0.0009720561261854639
-0.004752469367534371   -0.03510127380263526   -0.0010085814151221007
-0.0041064394145580935   -0.03782351884476814   -0.0011031146156074902
-0.006406154692249544   -0.03494128217661885   -0.0010379254885630347
-0.004752469367534371   -0.03510127380263526   -0.0010085814151221007
-0.005222278171201069   -0.03775551406408512   -0.001257296151694586
-0.0041064394145580935   -0.03782351884476814   -0.0011031146156074902
-0.004732740990281847   -0.03505231797872537   -0.0009720561261854639
-0.005166787616184971   -0.03771264920225755   -0.0011711713742194399
-0.004055677390757502   -0.03779993688934045   -0.0010568815355550358
-0.004732740990281847   -0.03505231797872537   -0.0009720561261854639
-0.006406154692249544   -0.03494128217661885   -0.0010379254885630347
-0.005166787616184971   -0.03771264920225755   -0.0011711713742194399
-0.006362202031186108   -0.03491994595600276   -0.0009603110930196026
-0.004055677390757502   -0.03779993688934045   -0.0010568815355550358
-0.005090062611658155   -0.037694738068942045   -0.0010813559005562804
-0.006362202031186108   -0.03491994595600276   -0.0009603110930196026
-0.005166787616184971   -0.03771264920225755   -0.0011711713742194399
-0.004055677390757502   -0.03779993688934045   -0.0010568815355550358
-0.006362202031186108   -0.03491994595600276   -0.0009603110930196026
-0.004708894396468995   -0.03502410587435114   -0.0009313062043296095
-0.004732740990281847   -0.03505231797872537   -0.0009720561261854639
-0.004055677390757502   -0.03779993688934045   -0.0010568815355550358
-0.006362202031186108   -0.03491994595600276   -0.0009603110930196026
-0.004732740990281847   -0.03505231797872537   -0.0009720561261854639
-0.005166787616184971   -0.03771264920225755   -0.0011711713742194399
-0.004055677390757502   -0.03779993688934045   -0.0010568815355550358
-0.004708894396468995   -0.03502410587435114   -0.0009313062043296095
-0.005090062611658155   -0.037694738068942045   -0.0010813559005562804
-0.00400474668336304   -0.03779933771874355   -0.0010061667043063428
-0.004708894396468995   -0.03502410587435114   -0.0009313062043296095
-0.006362202031186108   -0.03491994595600276   -0.0009603110930196026
-0.005090062611658155   -0.037694738068942045   -0.0010813559005562804
-0.006326638426321865   -0.034919963386182716   -0.000878002080734743
-0.00400474668336304   -0.03779933771874355   -0.0010061667043063428
-0.005023287552754844   -0.03770179934633964   -0.0009853780173421547
-0.006326638426321865   -0.034919963386182716   -0.000878002080734743
-0.005090062611658155   -0.037694738068942045   -0.0010813559005562804
-0.00400474668336304   -0.03779933771874355   -0.0010061667043063428
-0.006326638426321865   -0.034919963386182716   -0.000878002080734743
-0.004685726857208264   -0.03501569522789105   -0.0008864609103263341
-0.004708894396468995   -0.03502410587435114   -0.0009313062043296095
-0.00400474668336304   -0.03779933771874355   -0.0010061667043063428
-0.006326638426321865   -0.034919963386182716   -0.000878002080734743
-0.004708894396468995   -0.03502410587435114   -0.0009313062043296095
-0.005090062611658155   -0.037694738068942045   -0.0010813559005562804
-0.005222278171201069   -0.03775551406408512   -0.001257296151694586
-0.006432042505446442   -0.03498281660065393   -0.001111969930024735
-0.006600782486969802   -0.037565287757320445   -0.0013652289091753696
-0.005166787616184971   -0.03771264920225755   -0.0011711713742194399
-0.006432042505446442   -0.03498281660065393   -0.001111969930024735
-0.008390536890493197   -0.03481187846100388   -0.0012087066050884823
-0.006600782486969802   -0.037565287757320445   -0.0013652289091753696
-0.008256783437473268   -0.03476840619790963   -0.0010927293280485737
-0.005166787616184971   -0.03771264920225755   -0.0011711713742194399
-0.006420395549807661   -0.037518609382417765   -0.0012292005538416955
-0.008256783437473268   -0.03476840619790963   -0.0010927293280485737
-0.006600782486969802   -0.037565287757320445   -0.0013652289091753696
-0.005166787616184971   -0.03771264920225755   -0.0011711713742194399
-0.008256783437473268   -0.03476840619790963   -0.0010927293280485737
-0.006406154692249544   -0.03494128217661885   -0.0010379254885630347
-0.006432042505446442   -0.03498281660065393   -0.001111969930024735
-0.005166787616184971   -0.03771264920225755   -0.0011711713742194399
-0.008256783437473268   -0.03476840619790963   -0.0010927293280485737
-0.006432042505446442   -0.03498281660065393   -0.001111969930024735
-0.006600782486969802   -0.037565287757320445   -0.0013652289091753696
-0.005166787616184971   -0.03771264920225755   -0.0011711713742194399
-0.006406154692249544   -0.03494128217661885   -0.0010379254885630347
-0.006420395549807661   -0.037518609382417765   -0.0012292005538416955
-0.005090062611658155   -0.037694738068942045   -0.0010813559005562804
-0.006406154692249544   -0.03494128217661885   -0.0010379254885630347
-0.008256783437473268   -0.03476840619790963   -0.0010927293280485737
-0.006420395549807661   -0.037518609382417765   -0.0012292005538416955
-0.0081409160273229   -0.034748937708011685   -0.000970849778572394
-0.005090062611658155   -0.037694738068942045   -0.0010813559005562804
-0.006259047797288497   -0.037502042220009676   -0.0010854067510886554
-0.0081409160273229   -0.034748937708011685   -0.000970849778572394
-0.006420395549807661   -0.037518609382417765   -0.0012292005538416955
-0.005090062611658155   -0.037694738068942045   -0.0010813559005562804
-0.0081409160273229   -0.034748937708011685   -0.000970849778572394
-0.006362202031186108   -0.03491994595600276   -0.0009603110930196026
-0.006406154692249544   -0.03494128217661885   -0.0010379254885630347
-0.005090062611658155   -0.037694738068942045   -0.0010813559005562804
-0.0081409160273229   -0.034748937708011685   -0.000970849778572394
-0.006406154692249544   -0.03494128217661885   -0.0010379254885630347
-0.006420395549807661   -0.037518609382417765   -0.0012292005538416955
-0.005090062611658155   -0.037694738068942045   -0.0010813559005562804
-0.006362202031186108   -0.03491994595600276   -0.0009603110930196026
-0.006259047797288497   -0.037502042220009676   -0.0010854067510886554
-0.005023287552754844   -0.03770179934633964   -0.0009853780173421547
-0.006362202031186108   -0.03491994595600276   -0.0009603110930196026
-0.0081409160273229   -0.034748937708011685   -0.000970849778572394
-0.006259047797288497   -0.037502042220009676   -0.0010854067510886554
-0.007984905725592741   -0.03476205235266893   -0.0008438415422090227
-0.005023287552754844   -0.03770179934633964   -0.0009853780173421547
-0.006049977135169066   -0.03752424547406204   -0.0009352003207418422
-0.007984905725592741   -0.03476205235266893   -0.0008438415422090227
-0.006259047797288497   -0.037502042220009676   -0.0010854067510886554
-0.005023287552754844   -0.03770179934633964   -0.0009853780173421547
-0.007984905725592741   -0.03476205235266893   -0.0008438415422090227
-0.006326638426321865   -0.034919963386182716   -0.000878002080734743
-0.006362202031186108   -0.03491994595600276   -0.0009603110930196026
-0.005023287552754844   -0.03770179934633964   -0.0009853780173421547
-0.007984905725592741   -0.03476205235266893   -0.0008438415422090227
-0.006362202031186108   -0.03491994595600276   -0.0009603110930196026
-0.006259047797288497   -0.037502042220009676   -0.0010854067510886554
0.00016048587685188435   -0.035052984740080145   -0.0006065124274836282
0.0012001014260114838   -0.03137281926567226   -0.00046193533808310997
-0.001520832597836477   -0.035137170928760654   -0.000763325449454824
0.0002703584505529519   -0.034973411311038684   -0.000696160419370822
0.0012001014260114838   -0.03137281926567226   -0.00046193533808310997
-0.0010318583632411057   -0.03142882889154003   -0.0006116713869442165
-0.001520832597836477   -0.035137170928760654   -0.000763325449454824
-0.0010256412865382763   -0.03136296486283588   -0.0006390800745022901
0.0002703584505529519   -0.034973411311038684   -0.000696160419370822
-0.001491896754936948   -0.03507095838240633   -0.0008026266423664143
-0.0010256412865382763   -0.03136296486283588   -0.0006390800745022901
-0.001520832597836477   -0.035137170928760654   -0.000763325449454824
0.0002703584505529519   -0.034973411311038684   -0.000696160419370822
-0.0010256412865382763   -0.03136296486283588   -0.0006390800745022901
0.0012659832859300674   -0.03129512022633197   -0.0005285989361554658
0.0012001014260114838   -0.03137281926567226   -0.00046193533808310997
0.0002703584505529519   -0.034973411311038684   -0.000696160419370822
-0.0010256412865382763   -0.03136296486283588   -0.0006390800745022901
0.0012001014260114838   -0.03137281926567226   -0.00046193533808310997
-0.001520832597836477   -0.035137170928760654   -0.000763325449454824
0.0002703584505529519   -0.034973411311038684   -0.000696160419370822
0.0012659832859300674   -0.03129512022633197   -0.0005285989361554658
-0.001491896754936948   -0.03507095838240633   -0.0008026266423664143
0.0003512420930286924   -0.034927978072512356   -0.0007794999688652261
0.0012659832859300674   -0.03129512022633197   -0.0005285989361554658
-0.0010256412865382763   -0.03136296486283588   -0.0006390800745022901
-0.001491896754936948   -0.03507095838240633   -0.0008026266423664143
-0.00101770163413232   -0.031315671227966156   -0.0006623528596050508
0.0003512420930286924   -0.034927978072512356   -0.0007794999688652261
-0.0014588476843845613   -0.03502818531295784   -0.0008374211299318675
-0.00101770163413232   -0.031315671227966156   -0.0006623528596050508
-0.001491896754936948   -0.03507095838240633   -0.0008026266423664143
0.0003512420930286924   -0.034927978072512356   -0.0007794999688652261
-0.00101770163413232   -0.031315671227966156   -0.0006623528596050508
0.001308271269598581   -0.031244685105613894   -0.0005894138350249615
0.0012659832859300674   -0.03129512022633197   -0.0005285989361554658
0.0003512420930286924   -0.034927978072512356   -0.0007794999688652261
-0.00101770163413232   -0.031315671227966156   -0.0006623528596050508
0.0012659832859300674   -0.03129512022633197   -0.0005285989361554658
-0.001491896754936948   -0.03507095838240633   -0.0008026266423664143
0.0003512420930286924   -0.034927978072512356   -0.0007794999688652261
0.001308271269598581   -0.031244685105613894   -0.0005894138350249615
-0.0014588476843845613   -0.03502818531295784   -0.0008374211299318675
0.00043810101323018207   -0.03490640919663528   -0.0008565046861669881
0.001308271269598581   -0.031244685105613894   -0.0005894138350249615
-0.00101770163413232   -0.031315671227966156   -0.0006623528596050508
-0.0014588476843845613   -0.03502818531295784   -0.0008374211299318675
-0.0010211349634719222   -0.03128540916816881   -0.0006817907557456773
0.00043810101323018207   -0.03490640919663528   -0.0008565046861669881
-0.0014390769889448998   -0.0350075695534642   -0.0008681545541235992
-0.0010211349634719222   -0.03128540916816881   -0.0006817907557456773
-0.0014588476843845613   -0.03502818531295784   -0.0008374211299318675
0.00043810101323018207   -0.03490640919663528   -0.0008565046861669881
-0.0010211349634719222   -0.03128540916816881   -0.0006817907557456773
0.0013519454125012747   -0.031211580973041237   -0.0006445063916966093
0.001308271269598581   -0.031244685105613894   -0.0005894138350249615
0.00043810101323018207   -0.03490640919663528   -0.0008565046861669881
-0.0010211349634719222   -0.03128540916816881   -0.0006817907557456773
0.001308271269598581   -0.031244685105613894   -0.0005894138350249615
-0.0014588476843845613   -0.03502818531295784   -0.0008374211299318675
-0.001520832597836477   -0.035137170928760654   -0.000763325449454824
-0.0010318583632411057   -0.03142882889154003   -0.0006116713869442165
-0.0031492469924255264   -0.03515332136481761   -0.0008922420254511376
-0.001491896754936948   -0.03507095838240633   -0.0008026266423664143
-0.0010318583632411057   -0.03142882889154003   -0.0006116713869442165
-0.003181209040111649   -0.03142931192073514   -0.000734794208190542
-0.0031492469924255264   -0.03515332136481761   -0.0008922420254511376
-0.0031813881435489274   -0.03137370688625488   -0.0007321968401506025
-0.001491896754936948   -0.03507095838240633   -0.0008026266423664143
-0.0031280485908285454   -0.03509655220636949   -0.0008931698539865391
-0.0031813881435489274   -0.03137370688625488   -0.0007321968401506025
-0.0031492469924255264   -0.03515332136481761   -0.0008922420254511376
-0.001491896754936948   -0.03507095838240633   -0.0008026266423664143
-0.0031813881435489274   -0.03137370688625488   -0.0007321968401506025
-0.0010256412865382763   -0.03136296486283588   -0.0006390800745022901
-0.0010318583632411057   -0.03142882889154003   -0.0006116713869442165
-0.001491896754936948   -0.03507095838240633   -0.0008026266423664143
-0.0031813881435489274   -0.03137370688625488   -0.0007321968401506025
-0.0010318583632411057   -0.03142882889154003   -0.0006116713869442165
-0.0031492469924255264   -0.03515332136481761   -0.0008922420254511376
-0.001491896754936948   -0.03507095838240633   -0.0008026266423664143
-0.0010256412865382763   -0.03136296486283588   -0.0006390800745022901
-0.0031280485908285454   -0.03509655220636949   -0.0008931698539865391
-0.0014588476843845613   -0.03502818531295784   -0.0008374211299318675
-0.0010256412865382763   -0.03136296486283588   -0.0006390800745022901
-0.0031813881435489274   -0.03137370688625488   -0.0007321968401506025
-0.0031280485908285454   -0.03509655220636949   -0.0008931698539865391
-0.00318141682358312   -0.03133446623684663   -0.0007254753391565718
-0.0014588476843845613   -0.03502818531295784   -0.0008374211299318675
-0.0031062372915042756   -0.035060755384414805   -0.0008897758510176291
-0.00318141682358312   -0.03133446623684663   -0.0007254753391565718
-0.0031280485908285454   -0.03509655220636949   -0.0008931698539865391
-0.0014588476843845613   -0.03502818531295784   -0.0008374211299318675
-0.00318141682358312   -0.03133446623684663   -0.0007254753391565718
-0.00101770163413232   -0.031315671227966156   -0.0006623528596050508
-0.0010256412865382763   -0.03136296486283588   -0.0006390800745022901
-0.0014588476843845613   -0.03502818531295784   -0.0008374211299318675
-0.00318141682358312   -0.03133446623684663   -0.0007254753391565718
-0.0010256412865382763   -0.03136296486283588   -0.0006390800745022901
-0.0031280485908285454   -0.03509655220636949   -0.0008931698539865391
-0.0014588476843845613   -0.03502818531295784   -0.0008374211299318675
-0.00101770163413232   -0.031315671227966156   -0.0006623528596050508
-0.0031062372915042756   -0.035060755384414805   -0.0008897758510176291
-0.0014390769889448998   -0.0350075695534642   -0.0008681545541235992
-0.00101770163413232   -0.031315671227966156   -0.0006623528596050508
-0.00318141682358312   -0.03133446623684663   -0.0007254753391565718
-0.0031062372915042756   -0.035060755384414805   -0.0008897758510176291
-0.0031843078430626253   -0.03131162071926615   -0.0007148493089990128
-0.0014390769889448998   -0.0350075695534642   -0.0008681545541235992
-0.003087165166215288   -0.035045596246115536   -0.0008823539510307365
-0.0031843078430626253   -0.03131162071926615   -0.0007148493089990128
-0.0031062372915042756   -0.035060755384414805   -0.0008897758510176291
-0.0014390769889448998   -0.0350075695534642   -0.0008681545541235992
-0.0031843078430626253   -0.03131162071926615   -0.0007148493089990128
-0.0010211349634719222   -0.03128540916816881   -0.0006817907557456773
-0.00101770163413232   -0.031315671227966156   -0.0006623528596050508
-0.0014390769889448998   -0.0350075695534642   -0.0008681545541235992
-0.0031843078430626253   -0.03131162071926615   -0.0007148493089990128
-0.00101770163413232   -0.031315671227966156   -0.0006623528596050508
-0.0031062372915042756   -0.035060755384414805   -0.0008897758510176291
-0.0031492469924255264   -0.03515332136481761   -0.0008922420254511376
-0.003181209040111649   -0.03142931192073514   -0.000734794208190542
-0.004752469367534371   -0.03510127380263526   -0.0010085814151221007
-0.0031280485908285454   -0.03509655220636949   -0.0008931698539865391
-0.003181209040111649   -0.03142931192073514   -0.000734794208190542
-0.0052944306841890675   -0.03137566394126614   -0.0008425303920551739
-0.004752469367534371   -0.03510127380263526   -0.0010085814151221007
-0.005296213757873964   -0.03132903564991735   -0.0008102939130224986
-0.0031280485908285454   -0.03509655220636949   -0.0008931698539865391
-0.004732740990281847   -0.03505231797872537   -0.0009720561261854639
-0.005296213757873964   -0.03132903564991735   -0.0008102939130224986
-0.004752469367534371   -0.03510127380263526   -0.0010085814151221007
-0.0031280485908285454   -0.03509655220636949   -0.0008931698539865391
-0.005296213757873964   -0.03132903564991735   -0.0008102939130224986
-0.0031813881435489274   -0.03137370688625488   -0.0007321968401506025
-0.003181209040111649   -0.03142931192073514   -0.000734794208190542
-0.0031280485908285454   -0.03509655220636949   -0.0008931698539865391
-0.005296213757873964   -0.03132903564991735   -0.0008102939130224986
-0.003181209040111649   -0.03142931192073514   -0.000734794208190542
-0.004752469367534371   -0.03510127380263526   -0.0010085814151221007
-0.0031280485908285454   -0.03509655220636949   -0.0008931698539865391
-0.0031813881435489274   -0.03137370688625488   -0.0007321968401506025
-0.004732740990281847   -0.03505231797872537   -0.0009720561261854639
-0.0031062372915042756   -0.035060755384414805   -0.0008897758510176291
-0.0031813881435489274   -0.03137370688625488   -0.0007321968401506025
-0.005296213757873964   -0.03132903564991735   -0.0008102939130224986
-0.004732740990281847   -0.03505231797872537   -0.0009720561261854639
-0.005294405536947316   -0.03129862751277536   -0.0007740163289356066
-0.0031062372915042756   -0.035060755384414805   -0.0008897758510176291
-0.004708894396468995   -0.03502410587435114   -0.0009313062043296095
-0.005294405536947316   -0.03129862751277536   -0.0007740163289356066
-0.004732740990281847   -0.03505231797872537   -0.0009720561261854639
-0.0031062372915042756   -0.035060755384414805   -0.0008897758510176291
-0.005294405536947316   -0.03129862751277536   -0.0007740163289356066
-0.00318141682358312   -0.03133446623684663   -0.0007254753391565718
-0.0031813881435489274   -0.03137370688625488   -0.0007321968401506025
-0.0031062372915042756   -0.035060755384414805   -0.0008897758510176291
-0.005294405536947316   -0.03129862751277536   -0.0007740163289356066
-0.0031813881435489274   -0.03137370688625488   -0.0007321968401506025
-0.004732740990281847   -0.03505231797872537   -0.0009720561261854639
-0.0031062372915042756   -0.035060755384414805   -0.0008897758510176291
-0.00318141682358312   -0.03133446623684663   -0.0007254753391565718
-0.004708894396468995   -0.03502410587435114   -0.0009313062043296095
-0.003087165166215288   -0.035045596246115536   -0.0008823539510307365
-0.00318141682358312   -0.03133446623684663   -0.0007254753391565718
-0.005294405536947316   -0.03129862751277536   -0.0007740163289356066
-0.004708894396468995   -0.03502410587435114   -0.0009313062043296095
-0.005293258219329262   -0.03128416040310058   -0.000733814016270105
-0.003087165166215288   -0.035045596246115536   -0.0008823539510307365
-0.004685726857208264   -0.03501569522789105   -0.0008864609103263341
-0.005293258219329262   -0.03128416040310058   -0.000733814016270105
-0.004708894396468995   -0.03502410587435114   -0.0009313062043296095
-0.003087165166215288   -0.035045596246115536   -0.0008823539510307365
-0.005293258219329262   -0.03128416040310058   -0.000733814016270105
-0.0031843078430626253   -0.03131162071926615   -0.0007148493089990128
-0.00318141682358312   -0.03133446623684663   -0.0007254753391565718
-0.003087165166215288   -0.035045596246115536   -0.0008823539510307365
-0.005293258219329262   -0.03128416040310058   -0.000733814016270105
-0.00318141682358312   -0.03133446623684663   -0.0007254753391565718
-0.004708894396468995   -0.03502410587435114   -0.0009313062043296095
-0.004752469367534371   -0.03510127380263526   -0.0010085814151221007
-0.0052944306841890675   -0.03137566394126614   -0.0008425303920551739
-0.006432042505446442   -0.03498281660065393   -0.001111969930024735
-0.004732740990281847   -0.03505231797872537   -0.0009720561261854639
-0.0052944306841890675   -0.03137566394126614   -0.0008425303920551739
-0.0074732725899713985   -0.031269870453315855   -0.0009351371218087937
-0.006432042505446442   -0.03498281660065393   -0.001111969930024735
-0.00747054751474171   -0.031231806672620085   -0.0008729020615938192
-0.004732740990281847   -0.03505231797872537   -0.0009720561261854639
-0.006406154692249544   -0.03494128217661885   -0.0010379254885630347
-0.00747054751474171   -0.031231806672620085   -0.0008729020615938192
-0.006432042505446442   -0.03498281660065393   -0.001111969930024735
-0.004732740990281847   -0.03505231797872537   -0.0009720561261854639
-0.00747054751474171   -0.031231806672620085   -0.0008729020615938192
-0.005296213757873964   -0.03132903564991735   -0.0008102939130224986
-0.0052944306841890675   -0.03137566394126614   -0.0008425303920551739
-0.004732740990281847   -0.03505231797872537   -0.0009720561261854639
-0.00747054751474171   -0.031231806672620085   -0.0008729020615938192
-0.0052944306841890675   -0.03137566394126614   -0.0008425303920551739
-0.006432042505446442   -0.03498281660065393   -0.001111969930024735
-0.004732740990281847   -0.03505231797872537   -0.0009720561261854639
-0.005296213757873964   -0.03132903564991735   -0.0008102939130224986
-0.006406154692249544   -0.03494128217661885   -0.0010379254885630347
-0.004708894396468995   -0.03502410587435114   -0.0009313062043296095
-0.005296213757873964   -0.03132903564991735   -0.0008102939130224986
-0.00747054751474171   -0.031231806672620085   -0.0008729020615938192
-0.006406154692249544   -0.03494128217661885   -0.0010379254885630347
-0.007452067945191114   -0.031209408846520098   -0.0008072370402151277
-0.004708894396468995   -0.03502410587435114   -0.0009313062043296095
-0.006362202031186108   -0.03491994595600276   -0.0009603110930196026
-0.007452067945191114   -0.031209408846520098   -0.0008072370402151277
-0.006406154692249544   -0.03494128217661885   -0.0010379254885630347
-0.004708894396468995   -0.03502410587435114   -0.0009313062043296095
-0.007452067945191114   -0.031209408846520098   -0.0008072370402151277
-0.005294405536947316   -0.03129862751277536   -0.0007740163289356066
-0.005296213757873964   -0.03132903564991735   -0.0008102939130224986
-0.004708894396468995   -0.03502410587435114   -0.0009313062043296095
-0.007452067945191114   -0.031209408846520098   -0.0008072370402151277
-0.005296213757873964   -0.03132903564991735   -0.0008102939130224986
-0.006406154692249544   -0.03494128217661885   -0.0010379254885630347
-0.004708894396468995   -0.03502410587435114   -0.0009313062043296095
-0.005294405536947316   -0.03129862751277536   -0.0007740163289356066
-0.006362202031186108   -0.03491994595600276   -0.0009603110930196026
-0.004685726857208264   -0.03501569522789105   -0.0008864609103263341
-0.005294405536947316   -0.03129862751277536   -0.0007740163289356066
-0.007452067945191114   -0.031209408846520098   -0.0008072370402151277
-0.006362202031186108   -0.03491994595600276   -0.0009603110930196026
-0.007439765631771091   -0.031204297654723784   -0.0007373287269704638
-0.004685726857208264   -0.03501569522789105   -0.0008864609103263341
-0.006326638426321865   -0.034919963386182716   -0.000878002080734743
-0.007439765631771091   -0.031204297654723784   -0.0007373287269704638
-0.006362202031186108   -0.03491994595600276   -0.0009603110930196026
-0.004685726857208264   -0.03501569522789105   -0.0008864609103263341
-0.007439765631771091   -0.031204297654723784   -0.0007373287269704638
-0.005293258219329262   -0.03128416040310058   -0.000733814016270105
-0.005294405536947316   -0.03129862751277536   -0.0007740163289356066
-0.004685726857208264   -0.03501569522789105   -0.0008864609103263341
-0.007439765631771091   -0.031204297654723784   -0.0007373287269704638
-0.005294405536947316   -0.03129862751277536   -0.0007740163289356066
-0.006362202031186108   -0.03491994595600276   -0.0009603110930196026
-0.006432042505446442   -0.03498281660065393   -0.001111969930024735
-0.0074732725899713985   -0.031269870453315855   -0.0009351371218087937
-0.008390536890493197   -0.03481187846100388   -0.0012087066050884823
-0.006406154692249544   -0.03494128217661885   -0.0010379254885630347
-0.0074732725899713985   -0.031269870453315855   -0.0009351371218087937
-0.009907099373977128   -0.031123673200558567   -0.0010188319468098057
-0.008390536890493197   -0.03481187846100388   -0.0012087066050884823
-0.009815033660593372   -0.031086223875737933   -0.0009235124926592366
-0.006406154692249544   -0.03494128217661885   -0.0010379254885630347
-0.008256783437473268   -0.03476840619790963   -0.0010927293280485737
-0.009815033660593372   -0.031086223875737933   -0.0009235124926592366
-0.008390536890493197   -0.03481187846100388   -0.0012087066050884823
-0.006406154692249544   -0.03494128217661885   -0.0010379254885630347
-0.009815033660593372   -0.031086223875737933   -0.0009235124926592366
-0.00747054751474171   -0.031231806672620085   -0.0008729020615938192
-0.0074732725899713985   -0.031269870453315855   -0.0009351371218087937
-0.006406154692249544   -0.03494128217661885   -0.0010379254885630347
-0.009815033660593372   -0.031086223875737933   -0.0009235124926592366
-0.0074732725899713985   -0.031269870453315855   -0.0009351371218087937
-0.008390536890493197   -0.03481187846100388   -0.0012087066050884823
-0.006406154692249544   -0.03494128217661885   -0.0010379254885630347
-0.00747054751474171   -0.031231806672620085   -0.0008729020615938192
-0.008256783437473268   -0.03476840619790963   -0.0010927293280485737
-0.006362202031186108   -0.03491994595600276   -0.0009603110930196026
-0.00747054751474171   -0.031231806672620085   -0.0008729020615938192
-0.009815033660593372   -0.031086223875737933   -0.0009235124926592366
-0.008256783437473268   -0.03476840619790963   -0.0010927293280485737
-0.009736435604018231   -0.03106675400012628   -0.0008224149628551205
-0.006362202031186108   -0.03491994595600276   -0.0009603110930196026
-0.0081409160273229   -0.034748937708011685   -0.000970849778572394
-0.009736435604018231   -0.03106675400012628   -0.0008224149628551205
-0.008256783437473268   -0.03476840619790963   -0.0010927293280485737
-0.006362202031186108   -0.03491994595600276   -0.0009603110930196026
-0.009736435604018231   -0.03106675400012628   -0.0008224149628551205
-0.007452067945191114   -0.031209408846520098   -0.0008072370402151277
-0.00747054751474171   -0.031231806672620085   -0.0008729020615938192
-0.006362202031186108   -0.03491994595600276   -0.0009603110930196026
-0.009736435604018231   -0.03106675400012628   -0.0008224149628551205
-0.00747054751474171   -0.031231806672620085   -0.0008729020615938192
-0.008256783437473268   -0.03476840619790963   -0.0010927293280485737
-0.006362202031186108   -0.03491994595600276   -0.0009603110930196026
-0.007452067945191114   -0.031209408846520098   -0.0008072370402151277
-0.0081409160273229   -0.034748937708011685   -0.000970849778572394
-0.006326638426321865   -0.034919963386182716   -0.000878002080734743
-0.007452067945191114   -0.031209408846520098   -0.0008072370402151277
-0.009736435604018231   -0.03106675400012628   -0.0008224149628551205
-0.0081409160273229   -0.034748937708011685   -0.000970849778572394
-0.009623196130881792   -0.031074651607605693   -0.0007163374974609975
-0.006326638426321865   -0.034919963386182716   -0.000878002080734743
-0.007984905725592741   -0.03476205235266893   -0.0008438415422090227
-0.009623196130881792   -0.031074651607605693   -0.0007163374974609975
-0.0081409160273229   -0.034748937708011685   -0.000970849778572394
-0.006326638426321865   -0.034919963386182716   -0.000878002080734743
-0.009623196130881792   -0.031074651607605693   -0.0007163374974609975
-0.007439765631771091   -0.031204297654723784   -0.0007373287269704638
-0.007452067945191114   -0.031209408846520098   -0.0008072370402151277
-0.006326638426321865   -0.034919963386182716   -0.000878002080734743
-0.009623196130881792   -0.031074651607605693   -0.0007163374974609975
-0.007452067945191114   -0.031209408846520098   -0.0008072370402151277
-0.0081409160273229   -0.034748937708011685   -0.000970849778572394
0.0012001014260114838   -0.03137281926567226   -0.00046193533808310997
0.0019211413783499056   -0.026934894623361735   -0.0003079411547907856
-0.0010318583632411057   -0.03142882889154003   -0.0006116713869442165
0.0012659832859300674   -0.03129512022633197   -0.0005285989361554658
0.0019211413783499056   -0.026934894623361735   -0.0003079411547907856
-0.0007323710097177039   -0.02696283824655634   -0.00044878177290012507
-0.0010318583632411057   -0.03142882889154003   -0.0006116713869442165
-0.0007444866807840766   -0.026898605367118293   -0.00046373730115382457
0.0012659832859300674   -0.03129512022633197   -0.0005285989361554658
-0.0010256412865382763   -0.03136296486283588   -0.0006390800745022901
-0.0007444866807840766   -0.026898605367118293   -0.00046373730115382457
-0.0010318583632411057   -0.03142882889154003   -0.0006116713869442165
0.0012659832859300674   -0.03129512022633197   -0.0005285989361554658
-0.0007444866807840766   -0.026898605367118293   -0.00046373730115382457
0.0019479223882154647   -0.02686003124877642   -0.00035197049979406785
0.0019211413783499056   -0.026934894623361735   -0.0003079411547907856
0.0012659832859300674   -0.03129512022633197   -0.0005285989361554658
-0.0007444866807840766   -0.026898605367118293   -0.00046373730115382457
0.0019211413783499056   -0.026934894623361735   -0.0003079411547907856
-0.0010318583632411057   -0.03142882889154003   -0.0006116713869442165
0.0012659832859300674   -0.03129512022633197   -0.0005285989361554658
0.0019479223882154647   -0.02686003124877642   -0.00035197049979406785
-0.0010256412865382763   -0.03136296486283588   -0.0006390800745022901
0.001308271269598581   -0.031244685105613894   -0.0005894138350249615
0.0019479223882154647   -0.02686003124877642   -0.00035197049979406785
-0.0007444866807840766   -0.026898605367118293   -0.00046373730115382457
-0.0010256412865382763   -0.03136296486283588   -0.0006390800745022901
-0.0007571753065431813   -0.026848205882160924   -0.0004749826450683202
0.001308271269598581   -0.031244685105613894   -0.0005894138350249615
-0.00101770163413232   -0.031315671227966156   -0.0006623528596050508
-0.0007571753065431813   -0.026848205882160924   -0.0004749826450683202
-0.0010256412865382763   -0.03136296486283588   -0.0006390800745022901
0.001308271269598581   -0.031244685105613894   -0.0005894138350249615
-0.0007571753065431813   -0.026848205882160924   -0.0004749826450683202
0.0019566060616884517   -0.026805995912395502   -0.00039052179270282836
0.0019479223882154647   -0.02686003124877642   -0.00035197049979406785
0.001308271269598581   -0.031244685105613894   -0.0005894138350249615
-0.0007571753065431813   -0.026848205882160924   -0.0004749826450683202
0.0019479223882154647   -0.02686003124877642   -0.00035197049979406785
-0.0010256412865382763   -0.03136296486283588   -0.0006390800745022901
0.001308271269598581   -0.031244685105613894   -0.0005894138350249615
0.0019566060616884517   -0.026805995912395502   -0.00039052179270282836
-0.00101770163413232   -0.031315671227966156   -0.0006623528596050508
0.0013519454125012747   -0.031211580973041237   -0.0006445063916966093
0.0019566060616884517   -0.026805995912395502   -0.00039052179270282836
-0.0007571753065431813   -0.026848205882160924   -0.0004749826450683202
-0.00101770163413232   -0.031315671227966156   -0.0006623528596050508
-0.0007791157941001222   -0.026810026380249746   -0.00048264225386281605
0.0013519454125012747   -0.031211580973041237   -0.0006445063916966093
-0.0010211349634719222   -0.03128540916816881   -0.0006817907557456773
-0.0007791157941001222   -0.026810026380249746   -0.00048264225386281605
-0.00101770163413232   -0.031315671227966156   -0.0006623528596050508
0.0013519454125012747   -0.031211580973041237   -0.0006445063916966093
-0.0007791157941001222   -0.026810026380249746   -0.00048264225386281605
0.001962099691691228   -0.02676308621499116   -0.0004238565384798696
0.0019566060616884517   -0.026805995912395502   -0.00039052179270282836
0.0013519454125012747   -0.031211580973041237   -0.0006445063916966093
-0.0007791157941001222   -0.026810026380249746   -0.00048264225386281605
0.0019566060616884517   -0.026805995912395502   -0.00039052179270282836
-0.00101770163413232   -0.031315671227966156   -0.0006623528596050508
-0.0010318583632411057   -0.03142882889154003   -0.0006116713869442165
-0.0007323710097177039   -0.02696283824655634   -0.00044878177290012507
-0.003181209040111649   -0.03142931192073514   -0.000734794208190542
-0.0010256412865382763   -0.03136296486283588   -0.0006390800745022901
-0.0007323710097177039   -0.02696283824655634   -0.00044878177290012507
-0.0032769495660234047   -0.026949007696967574   -0.0005643200038270261
-0.003181209040111649   -0.03142931192073514   -0.000734794208190542
-0.003293990480582943   -0.02689549476768393   -0.000557474442240451
-0.0010256412865382763   -0.03136296486283588   -0.0006390800745022901
-0.0031813881435489274   -0.03137370688625488   -0.0007321968401506025
-0.003293990480582943   -0.02689549476768393   -0.000557474442240451
-0.003181209040111649   -0.03142931192073514   -0.000734794208190542
-0.0010256412865382763   -0.03136296486283588   -0.0006390800745022901
-0.003293990480582943   -0.02689549476768393   -0.000557474442240451
-0.0007444866807840766   -0.026898605367118293   -0.00046373730115382457
-0.0007323710097177039   -0.02696283824655634   -0.00044878177290012507
-0.0010256412865382763   -0.03136296486283588   -0.0006390800745022901
-0.003293990480582943   -0.02689549476768393   -0.000557474442240451
-0.0007323710097177039   -0.02696283824655634   -0.00044878177290012507
-0.003181209040111649   -0.03142931192073514   -0.000734794208190542
-0.0010256412865382763   -0.03136296486283588   -0.0006390800745022901
-0.0007444866807840766   -0.026898605367118293   -0.00046373730115382457
-0.0031813881435489274   -0.03137370688625488   -0.0007321968401506025
-0.00101770163413232   -0.031315671227966156   -0.0006623528596050508
-0.0007444866807840766   -0.026898605367118293   -0.00046373730115382457
-0.003293990480582943   -0.02689549476768393   -0.000557474442240451
-0.0031813881435489274   -0.03137370688625488   -0.0007321968401506025
-0.0033112676462381686   -0.026853835478514953   -0.0005468051724355349
-0.00101770163413232   -0.031315671227966156   -0.0006623528596050508
-0.00318141682358312   -0.03133446623684663   -0.0007254753391565718
-0.0033112676462381686   -0.026853835478514953   -0.0005468051724355349
-0.0031813881435489274   -0.03137370688625488   -0.0007321968401506025
-0.00101770163413232   -0.031315671227966156   -0.0006623528596050508
-0.0033112676462381686   -0.026853835478514953   -0.0005468051724355349
-0.0007571753065431813   -0.026848205882160924   -0.0004749826450683202
-0.0007444866807840766   -0.026898605367118293   -0.00046373730115382457
-0.00101770163413232   -0.031315671227966156   -0.0006623528596050508
-0.0033112676462381686   -0.026853835478514953   -0.0005468051724355349
-0.0007444866807840766   -0.026898605367118293   -0.00046373730115382457
-0.0031813881435489274   -0.03137370688625488   -0.0007321968401506025
-0.00101770163413232   -0.031315671227966156   -0.0006623528596050508
-0.0007571753065431813   -0.026848205882160924   -0.0004749826450683202
-0.00318141682358312   -0.03133446623684663   -0.0007254753391565718
-0.0010211349634719222   -0.03128540916816881   -0.0006817907557456773
-0.0007571753065431813   -0.026848205882160924   -0.0004749826450683202
-0.0033112676462381686   -0.026853835478514953   -0.0005468051724355349
-0.00318141682358312   -0.03133446623684663   -0.0007254753391565718
-0.0033312687072867882   -0.026824228965194496   -0.0005325018006334905
-0.0010211349634719222   -0.03128540916816881   -0.0006817907557456773
-0.0031843078430626253   -0.03131162071926615   -0.0007148493089990128
-0.0033312687072867882   -0.026824228965194496   -0.0005325018006334905
-0.00318141682358312   -0.03133446623684663   -0.0007254753391565718
-0.0010211349634719222   -0.03128540916816881   -0.0006817907557456773
-0.0033312687072867882   -0.026824228965194496   -0.0005325018006334905
-0.0007791157941001222   -0.026810026380249746   -0.00048264225386281605
-0.0007571753065431813   -0.026848205882160924   -0.0004749826450683202
-0.0010211349634719222   -0.03128540916816881   -0.0006817907557456773
-0.0033312687072867882   -0.026824228965194496   -0.0005325018006334905
-0.0007571753065431813   -0.026848205882160924   -0.0004749826450683202
-0.00318141682358312   -0.03133446623684663   -0.0007254753391565718
-0.003181209040111649   -0.03142931192073514   -0.000734794208190542
-0.0032769495660234047   -0.026949007696967574   -0.0005643200038270261
-0.0052944306841890675   -0.03137566394126614   -0.0008425303920551739
-0.0031813881435489274   -0.03137370688625488   -0.0007321968401506025
-0.0032769495660234047   -0.026949007696967574   -0.0005643200038270261
-0.005778755688681163   -0.02689610581209711   -0.0006629774229658471
-0.0052944306841890675   -0.03137566394126614   -0.0008425303920551739
-0.0057971928594654195   -0.026852298863907626   -0.0006344467249412353
-0.0031813881435489274   -0.03137370688625488   -0.0007321968401506025
-0.005296213757873964   -0.03132903564991735   -0.0008102939130224986
-0.0057971928594654195   -0.026852298863907626   -0.0006344467249412353
-0.0052944306841890675   -0.03137566394126614   -0.0008425303920551739
-0.0031813881435489274   -0.03137370688625488   -0.0007321968401506025
-0.0057971928594654195   -0.026852298863907626   -0.0006344467249412353
-0.003293990480582943   -0.02689549476768393   -0.000557474442240451
-0.0032769495660234047   -0.026949007696967574   -0.0005643200038270261
-0.0031813881435489274   -0.03137370688625488   -0.0007321968401506025
-0.0057971928594654195   -0.026852298863907626   -0.0006344467249412353
-0.0032769495660234047   -0.026949007696967574   -0.0005643200038270261
-0.0052944306841890675   -0.03137566394126614   -0.0008425303920551739
-0.0031813881435489274   -0.03137370688625488   -0.0007321968401506025
-0.003293990480582943   -0.02689549476768393   -0.000557474442240451
-0.005296213757873964   -0.03132903564991735   -0.0008102939130224986
-0.00318141682358312   -0.03133446623684663   -0.0007254753391565718
-0.003293990480582943   -0.02689549476768393   -0.000557474442240451
-0.0057971928594654195   -0.026852298863907626   -0.0006344467249412353
-0.005296213757873964   -0.03132903564991735   -0.0008102939130224986
-0.005812431817623148   -0.026820233106192543   -0.0006021624498115306
-0.00318141682358312   -0.03133446623684663   -0.0007254753391565718
-0.005294405536947316   -0.03129862751277536   -0.0007740163289356066
-0.005812431817623148   -0.026820233106192543   -0.0006021624498115306
-0.005296213757873964   -0.03132903564991735   -0.0008102939130224986
-0.00318141682358312   -0.03133446623684663   -0.0007254753391565718
-0.005812431817623148   -0.026820233106192543   -0.0006021624498115306
-0.0033112676462381686   -0.026853835478514953   -0.0005468051724355349
-0.003293990480582943   -0.02689549476768393   -0.000557474442240451
-0.00318141682358312   -0.03133446623684663   -0.0007254753391565718
-0.005812431817623148   -0.026820233106192543   -0.0006021624498115306
-0.003293990480582943   -0.02689549476768393   -0.000557474442240451
-0.005296213757873964   -0.03132903564991735   -0.0008102939130224986
-0.00318141682358312   -0.03133446623684663   -0.0007254753391565718
-0.0033112676462381686   -0.026853835478514953   -0.0005468051724355349
-0.005294405536947316   -0.03129862751277536   -0.0007740163289356066
-0.0031843078430626253   -0.03131162071926615   -0.0007148493089990128
-0.0033112676462381686   -0.026853835478514953   -0.0005468051724355349
-0.005812431817623148   -0.026820233106192543   -0.0006021624498115306
-0.005294405536947316   -0.03129862751277536   -0.0007740163289356066
-0.005828125777206815   -0.02679985752161767   -0.0005662334412307667
-0.0031843078430626253   -0.03131162071926615   -0.0007148493089990128
-0.005293258219329262   -0.03128416040310058   -0.000733814016270105
-0.005828125777206815   -0.02679985752161767   -0.0005662334412307667
-0.005294405536947316   -0.03129862751277536   -0.0007740163289356066
-0.0031843078430626253   -0.03131162071926615   -0.0007148493089990128
-0.005828125777206815   -0.02679985752161767   -0.0005662334412307667
-0.0033312687072867882   -0.026824228965194496   -0.0005325018006334905
-0.0033112676462381686   -0.026853835478514953   -0.0005468051724355349
-0.0031843078430626253   -0.03131162071926615   -0.0007148493089990128
-0.005828125777206815   -0.02679985752161767   -0.0005662334412307667
-0.0033112676462381686   -0.026853835478514953   -0.0005468051724355349
-0.005294405536947316   -0.03129862751277536   -0.0007740163289356066
-0.0052944306841890675   -0.03137566394126614   -0.0008425303920551739
-0.005778755688681163   -0.02689610581209711   -0.0006629774229658471
-0.0074732725899713985   -0.031269870453315855   -0.0009351371218087937
-0.005296213757873964   -0.03132903564991735   -0.0008102939130224986
-0.005778755688681163   -0.02689610581209711   -0.0006629774229658471
-0.008340038625933502   -0.026805166885612748   -0.0007451742856231179
-0.0074732725899713985   -0.031269870453315855   -0.0009351371218087937
-0.008355199931050121   -0.02677081719686071   -0.0006946581947919327
-0.005296213757873964   -0.03132903564991735   -0.0008102939130224986
-0.00747054751474171   -0.031231806672620085   -0.0008729020615938192
-0.008355199931050121   -0.02677081719686071   -0.0006946581947919327
-0.0074732725899713985   -0.031269870453315855   -0.0009351371218087937
-0.005296213757873964   -0.03132903564991735   -0.0008102939130224986
-0.008355199931050121   -0.02677081719686071   -0.0006946581947919327
-0.0057971928594654195   -0.026852298863907626   -0.0006344467249412353
-0.005778755688681163   -0.02689610581209711   -0.0006629774229658471
-0.005296213757873964   -0.03132903564991735   -0.0008102939130224986
-0.008355199931050121   -0.02677081719686071   -0.0006946581947919327
-0.005778755688681163   -0.02689610581209711   -0.0006629774229658471
-0.0074732725899713985   -0.031269870453315855   -0.0009351371218087937
-0.005296213757873964   -0.03132903564991735   -0.0008102939130224986
-0.0057971928594654195   -0.026852298863907626   -0.0006344467249412353
-0.00747054751474171   -0.031231806672620085   -0.0008729020615938192
-0.005294405536947316   -0.03129862751277536   -0.0007740163289356066
-0.0057971928594654195   -0.026852298863907626   -0.0006344467249412353
-0.008355199931050121   -0.02677081719686071   -0.0006946581947919327
-0.00747054751474171   -0.031231806672620085   -0.0008729020615938192
-0.008356830046274513   -0.02674752807587257   -0.0006409070700578341
-0.005294405536947316   -0.03129862751277536   -0.0007740163289356066
-0.007452067945191114   -0.031209408846520098   -0.0008072370402151277
-0.008356830046274513   -0.02674752807587257   -0.0006409070700578341
-0.00747054751474171   -0.031231806672620085   -0.0008729020615938192
-0.005294405536947316   -0.03129862751277536   -0.0007740163289356066
-0.008356830046274513   -0.02674752807587257   -0.0006409070700578341
-0.005812431817623148   -0.026820233106192543   -0.0006021624498115306
-0.0057971928594654195   -0.026852298863907626   -0.0006344467249412353
-0.005294405536947316   -0.03129862751277536   -0.0007740163289356066
-0.008356830046274513   -0.02674752807587257   -0.0006409070700578341
-0.0057971928594654195   -0.026852298863907626   -0.0006344467249412353
-0.00747054751474171   -0.031231806672620085   -0.0008729020615938192
-0.005294405536947316   -0.03129862751277536   -0.0007740163289356066
-0.005812431817623148   -0.026820233106192543   -0.0006021624498115306
-0.007452067945191114   -0.031209408846520098   -0.0008072370402151277
-0.005293258219329262   -0.03128416040310058   -0.000733814016270105
-0.005812431817623148   -0.026820233106192543   -0.0006021624498115306
-0.008356830046274513   -0.02674752807587257   -0.0006409070700578341
-0.007452067945191114   -0.031209408846520098   -0.0008072370402151277
-0.008362374935467263   -0.026736989141133902   -0.0005832330884678741
-0.005293258219329262   -0.03128416040310058   -0.000733814016270105
-0.007439765631771091   -0.031204297654723784   -0.0007373287269704638
-0.008362374935467263   -0.026736989141133902   -0.0005832330884678741
-0.007452067945191114   -0.031209408846520098   -0.0008072370402151277
-0.005293258219329262   -0.03128416040310058   -0.000733814016270105
-0.008362374935467263   -0.026736989141133902   -0.0005832330884678741
-0.005828125777206815   -0.02679985752161767   -0.0005662334412307667
-0.005812431817623148   -0.026820233106192543   -0.0006021624498115306
-0.005293258219329262   -0.03128416040310058   -0.000733814016270105
-0.008362374935467263   -0.026736989141133902   -0.0005832330884678741
-0.005812431817623148   -0.026820233106192543   -0.0006021624498115306
-0.007452067945191114   -0.031209408846520098   -0.0008072370402151277
-0.0074732725899713985   -0.031269870453315855   -0.0009351371218087937
-0.008340038625933502   -0.026805166885612748   -0.0007451742856231179
-0.009907099373977128   -0.031123673200558567   -0.0010188319468098057
-0.00747054751474171   -0.031231806672620085   -0.0008729020615938192
-0.008340038625933502   -0.026805166885612748   -0.0007451742856231179
-0.01113360404552315   -0.026685504944311485   -0.0008154107872157094
-0.009907099373977128   -0.031123673200558567   -0.0010188319468098057
-0.011079018701038678   -0.026654123504301352   -0.0007415306948686917
-0.00747054751474171   -0.031231806672620085   -0.0008729020615938192
-0.009815033660593372   -0.031086223875737933   -0.0009235124926592366
-0.011079018701038678   -0.026654123504301352   -0.0007415306948686917
-0.009907099373977128   -0.031123673200558567   -0.0010188319468098057
-0.00747054751474171   -0.031231806672620085   -0.0008729020615938192
-0.011079018701038678   -0.026654123504301352   -0.0007415306948686917
-0.008355199931050121   -0.02677081719686071   -0.0006946581947919327
-0.008340038625933502   -0.026805166885612748   -0.0007451742856231179
-0.00747054751474171   -0.031231806672620085   -0.0008729020615938192
-0.011079018701038678   -0.026654123504301352   -0.0007415306948686917
-0.008340038625933502   -0.026805166885612748   -0.0007451742856231179
-0.009907099373977128   -0.031123673200558567   -0.0010188319468098057
-0.00747054751474171   -0.031231806672620085   -0.0008729020615938192
-0.008355199931050121   -0.02677081719686071   -0.0006946581947919327
-0.009815033660593372   -0.031086223875737933   -0.0009235124926592366
-0.007452067945191114   -0.031209408846520098   -0.0008072370402151277
-0.008355199931050121   -0.02677081719686071   -0.0006946581947919327
-0.011079018701038678   -0.026654123504301352   -0.0007415306948686917
-0.009815033660593372   -0.031086223875737933   -0.0009235124926592366
-0.011033066756692035   -0.02663456084096274   -0.0006619947531319581
-0.007452067945191114   -0.031209408846520098   -0.0008072370402151277
-0.009736435604018231   -0.03106675400012628   -0.0008224149628551205
-0.011033066756692035   -0.02663456084096274   -0.0006619947531319581
-0.009815033660593372   -0.031086223875737933   -0.0009235124926592366
-0.007452067945191114   -0.031209408846520098   -0.0008072370402151277
-0.011033066756692035   -0.02663456084096274   -0.0006619947531319581
-0.008356830046274513   -0.02674752807587257   -0.0006409070700578341
-0.008355199931050121   -0.02677081719686071   -0.0006946581947919327
-0.007452067945191114   -0.031209408846520098   -0.0008072370402151277
-0.011033066756692035   -0.02663456084096274   -0.0006619947531319581
-0.008355199931050121   -0.02677081719686071   -0.0006946581947919327
-0.009815033660593372   -0.031086223875737933   -0.0009235124926592366
-0.007452067945191114   -0.031209408846520098   -0.0008072370402151277
-0.008356830046274513   -0.02674752807587257   -0.0006409070700578341
-0.009736435604018231   -0.03106675400012628   -0.0008224149628551205
-0.007439765631771091   -0.031204297654723784   -0.0007373287269704638
-0.008356830046274513   -0.02674752807587257   -0.0006409070700578341
-0.011033066756692035   -0.02663456084096274   -0.0006619947531319581
-0.009736435604018231   -0.03106675400012628   -0.0008224149628551205
-0.01095764886016695   -0.026636603601323014   -0.0005775103571254365
-0.007439765631771091   -0.031204297654723784   -0.0007373287269704638
-0.009623196130881792   -0.031074651607605693   -0.0007163374974609975
-0.01095764886016695   -0.026636603601323014   -0.0005775103571254365
-0.009736435604018231   -0.03106675400012628   -0.0008224149628551205
-0.007439765631771091   -0.031204297654723784   -0.0007373287269704638
-0.01095764886016695   -0.026636603601323014   -0.0005775103571254365
-0.008362374935467263   -0.026736989141133902   -0.0005832330884678741
-0.008356830046274513   -0.02674752807587257   -0.0006409070700578341
-0.007439765631771091   -0.031204297654723784   -0.0007373287269704638
-0.01095764886016695   -0.026636603601323014   -0.0005775103571254365
-0.008356830046274513   -0.02674752807587257   -0.0006409070700578341
-0.009736435604018231   -0.03106675400012628   -0.0008224149628551205
0.0019211413783499056   -0.026934894623361735   -0.0003079411547907856
0.0023266460898565635   -0.02194456298702053   -0.00015752736626034977
-0.0007323710097177039   -0.02696283824655634   -0.00044878177290012507
0.0019479223882154647   -0.02686003124877642   -0.00035197049979406785
0.0023266460898565635   -0.02194456298702053   -0.00015752736626034977
-0.0006243671725971896   -0.02194459572158273   -0.00028798361753781197
-0.0007323710097177039   -0.02696283824655634   -0.00044878177290012507
-0.0006502766809140673   -0.02188252884861028   -0.00029026329577219484
0.0019479223882154647   -0.02686003124877642   -0.00035197049979406785
-0.0007444866807840766   -0.026898605367118293   -0.00046373730115382457
-0.0006502766809140673   -0.02188252884861028   -0.00029026329577219484
-0.0007323710097177039   -0.02696283824655634   -0.00044878177290012507
0.0019479223882154647   -0.02686003124877642   -0.00035197049979406785
-0.0006502766809140673   -0.02188252884861028   -0.00029026329577219484
0.0023192732358898703   -0.021872941036506197   -0.00017906261321288725
0.0023266460898565635   -0.02194456298702053   -0.00015752736626034977
0.0019479223882154647   -0.02686003124877642   -0.00035197049979406785
-0.0006502766809140673   -0.02188252884861028   -0.00029026329577219484
0.0023266460898565635   -0.02194456298702053   -0.00015752736626034977
-0.0007323710097177039   -0.02696283824655634   -0.00044878177290012507
0.0019479223882154647   -0.02686003124877642   -0.00035197049979406785
0.0023192732358898703   -0.021872941036506197   -0.00017906261321288725
-0.0007444866807840766   -0.026898605367118293   -0.00046373730115382457
0.0019566060616884517   -0.026805995912395502   -0.00039052179270282836
0.0023192732358898703   -0.021872941036506197   -0.00017906261321288725
-0.0006502766809140673   -0.02188252884861028   -0.00029026329577219484
-0.0007444866807840766   -0.026898605367118293   -0.00046373730115382457
-0.0006790758489876192   -0.02182945269540512   -0.00028923532140291914
0.0019566060616884517   -0.026805995912395502   -0.00039052179270282836
-0.0007571753065431813   -0.026848205882160924   -0.0004749826450683202
-0.0006790758489876192   -0.02182945269540512   -0.00028923532140291914
-0.0007444866807840766   -0.026898605367118293   -0.00046373730115382457
0.0019566060616884517   -0.026805995912395502   -0.00039052179270282836
-0.0006790758489876192   -0.02182945269540512   -0.00028923532140291914
0.002298999014324958   -0.0218157786199915   -0.0001952961499089817
0.0023192732358898703   -0.021872941036506197   -0.00017906261321288725
0.0019566060616884517   -0.026805995912395502   -0.00039052179270282836
-0.0006790758489876192   -0.02182945269540512   -0.00028923532140291914
0.0023192732358898703   -0.021872941036506197   -0.00017906261321288725
-0.0007444866807840766   -0.026898605367118293   -0.00046373730115382457
0.0019566060616884517   -0.026805995912395502   -0.00039052179270282836
0.002298999014324958   -0.0218157786199915   -0.0001952961499089817
-0.0007571753065431813   -0.026848205882160924   -0.0004749826450683202
0.001962099691691228   -0.02676308621499116   -0.0004238565384798696
0.002298999014324958   -0.0218157786199915   -0.0001952961499089817
-0.0006790758489876192   -0.02182945269540512   -0.00028923532140291914
-0.0007571753065431813   -0.026848205882160924   -0.0004749826450683202
-0.0007149929439686962   -0.021783964325727614   -0.00028476929354080493
0.001962099691691228   -0.02676308621499116   -0.0004238565384798696
-0.0007791157941001222   -0.026810026380249746   -0.00048264225386281605
-0.0007149929439686962   -0.021783964325727614   -0.00028476929354080493
-0.0007571753065431813   -0.026848205882160924   -0.0004749826450683202
0.001962099691691228   -0.02676308621499116   -0.0004238565384798696
-0.0007149929439686962   -0.021783964325727614   -0.00028476929354080493
0.0022705252889978138   -0.02176354705636298   -0.00020659840317576152
0.002298999014324958   -0.0218157786199915   -0.0001952961499089817
0.001962099691691228   -0.02676308621499116   -0.0004238565384798696
-0.0007149929439686962   -0.021783964325727614   -0.00028476929354080493
0.002298999014324958   -0.0218157786199915   -0.0001952961499089817
-0.0007571753065431813   -0.026848205882160924   -0.0004749826450683202
-0.0007323710097177039   -0.02696283824655634   -0.00044878177290012507
-0.0006243671725971896   -0.02194459572158273   -0.00028798361753781197
-0.0032769495660234047   -0.026949007696967574   -0.0005643200038270261
-0.0007444866807840766   -0.026898605367118293   -0.00046373730115382457
-0.0006243671725971896   -0.02194459572158273   -0.00028798361753781197
-0.0034396498923944165   -0.021918058500947094   -0.0003951515133228017
-0.0032769495660234047   -0.026949007696967574   -0.0005643200038270261
-0.0034688273781515503   -0.021866744333478527   -0.0003836784667125328
-0.0007444866807840766   -0.026898605367118293   -0.00046373730115382457
-0.003293990480582943   -0.02689549476768393   -0.000557474442240451
-0.0034688273781515503   -0.021866744333478527   -0.0003836784667125328
-0.0032769495660234047   -0.026949007696967574   -0.0005643200038270261
-0.0007444866807840766   -0.026898605367118293   -0.00046373730115382457
-0.0034688273781515503   -0.021866744333478527   -0.0003836784667125328
-0.0006502766809140673   -0.02188252884861028   -0.00029026329577219484
-0.0006243671725971896   -0.02194459572158273   -0.00028798361753781197
-0.0007444866807840766   -0.026898605367118293   -0.00046373730115382457
-0.0034688273781515503   -0.021866744333478527   -0.0003836784667125328
-0.0006243671725971896   -0.02194459572158273   -0.00028798361753781197
-0.0032769495660234047   -0.026949007696967574   -0.0005643200038270261
-0.0007444866807840766   -0.026898605367118293   -0.00046373730115382457
-0.0006502766809140673   -0.02188252884861028   -0.00029026329577219484
-0.003293990480582943   -0.02689549476768393   -0.000557474442240451
-0.0007571753065431813   -0.026848205882160924   -0.0004749826450683202
-0.0006502766809140673   -0.02188252884861028   -0.00029026329577219484
-0.0034688273781515503   -0.021866744333478527   -0.0003836784667125328
-0.003293990480582943   -0.02689549476768393   -0.000557474442240451
-0.003498603504457798   -0.021822747999932106   -0.0003687555286755739
-0.0007571753065431813   -0.026848205882160924   -0.0004749826450683202
-0.0033112676462381686   -0.026853835478514953   -0.0005468051724355349
-0.003498603504457798   -0.021822747999932106   -0.0003687555286755739
-0.003293990480582943   -0.02689549476768393   -0.000557474442240451
-0.0007571753065431813   -0.026848205882160924   -0.0004749826450683202
-0.003498603504457798   -0.021822747999932106   -0.0003687555286755739
-0.0006790758489876192   -0.02182945269540512   -0.00028923532140291914
-0.0006502766809140673   -0.02188252884861028   -0.00029026329577219484
-0.0007571753065431813   -0.026848205882160924   -0.0004749826450683202
-0.003498603504457798   -0.021822747999932106   -0.0003687555286755739
-0.0006502766809140673   -0.02188252884861028   -0.00029026329577219484
-0.003293990480582943   -0.02689549476768393   -0.000557474442240451
-0.0007571753065431813   -0.026848205882160924   -0.0004749826450683202
-0.0006790758489876192   -0.02182945269540512   -0.00028923532140291914
-0.0033112676462381686   -0.026853835478514953   -0.0005468051724355349
-0.0007791157941001222   -0.026810026380249746   -0.00048264225386281605
-0.0006790758489876192   -0.02182945269540512   -0.00028923532140291914
-0.003498603504457798   -0.021822747999932106   -0.0003687555286755739
-0.0033112676462381686   -0.026853835478514953   -0.0005468051724355349
-0.003530926173868929   -0.02178649802630177   -0.0003505495604263846
-0.0007791157941001222   -0.026810026380249746   -0.00048264225386281605
-0.0033312687072867882   -0.026824228965194496   -0.0005325018006334905
-0.003530926173868929   -0.02178649802630177   -0.0003505495604263846
-0.0033112676462381686   -0.026853835478514953   -0.0005468051724355349
-0.0007791157941001222   -0.026810026380249746   -0.00048264225386281605
-0.003530926173868929   -0.02178649802630177   -0.0003505495604263846
-0.0007149929439686962   -0.021783964325727614   -0.00028476929354080493
-0.0006790758489876192   -0.02182945269540512   -0.00028923532140291914
-0.0007791157941001222   -0.026810026380249746   -0.00048264225386281605
-0.003530926173868929   -0.02178649802630177   -0.0003505495604263846
-0.0006790758489876192   -0.02182945269540512   -0.00028923532140291914
-0.0033112676462381686   -0.026853835478514953   -0.0005468051724355349
-0.0032769495660234047   -0.026949007696967574   -0.0005643200038270261
-0.0034396498923944165   -0.021918058500947094   -0.0003951515133228017
-0.005778755688681163   -0.02689610581209711   -0.0006629774229658471
-0.003293990480582943   -0.02689549476768393   -0.000557474442240451
-0.0034396498923944165   -0.021918058500947094   -0.0003951515133228017
-0.006207357342055011   -0.021868084062452872   -0.0004852840357357868
-0.005778755688681163   -0.02689610581209711   -0.0006629774229658471
-0.006237456370140885   -0.021826649347325637   -0.00046009833685707976
-0.003293990480582943   -0.02689549476768393   -0.000557474442240451
-0.0057971928594654195   -0.026852298863907626   -0.0006344467249412353
-0.006237456370140885   -0.021826649347325637   -0.00046009833685707976
-0.005778755688681163   -0.02689610581209711   -0.0006629774229658471
-0.003293990480582943   -0.02689549476768393   -0.000557474442240451
-0.006237456370140885   -0.021826649347325637   -0.00046009833685707976
-0.0034688273781515503   -0.021866744333478527   -0.0003836784667125328
-0.0034396498923944165   -0.021918058500947094   -0.0003951515133228017
-0.003293990480582943   -0.02689549476768393   -0.000557474442240451
-0.006237456370140885   -0.021826649347325637   -0.00046009833685707976
-0.0034396498923944165   -0.021918058500947094   -0.0003951515133228017
-0.005778755688681163   -0.02689610581209711   -0.0006629774229658471
-0.003293990480582943   -0.02689549476768393   -0.000557474442240451
-0.0034688273781515503   -0.021866744333478527   -0.0003836784667125328
-0.0057971928594654195   -0.026852298863907626   -0.0006344467249412353
-0.0033112676462381686   -0.026853835478514953   -0.0005468051724355349
-0.0034688273781515503   -0.021866744333478527   -0.0003836784667125328
-0.006237456370140885   -0.021826649347325637   -0.00046009833685707976
-0.0057971928594654195   -0.026852298863907626   -0.0006344467249412353
-0.006264732999971452   -0.021792480884739143   -0.00043154478052226917
-0.0033112676462381686   -0.026853835478514953   -0.0005468051724355349
-0.005812431817623148   -0.026820233106192543   -0.0006021624498115306
-0.006264732999971452   -0.021792480884739143   -0.00043154478052226917
-0.0057971928594654195   -0.026852298863907626   -0.0006344467249412353
-0.0033112676462381686   -0.026853835478514953   -0.0005468051724355349
-0.006264732999971452   -0.021792480884739143   -0.00043154478052226917
-0.003498603504457798   -0.021822747999932106   -0.0003687555286755739
-0.0034688273781515503   -0.021866744333478527   -0.0003836784667125328
-0.0033112676462381686   -0.026853835478514953   -0.0005468051724355349
-0.006264732999971452   -0.021792480884739143   -0.00043154478052226917
-0.0034688273781515503   -0.021866744333478527   -0.0003836784667125328
-0.0057971928594654195   -0.026852298863907626   -0.0006344467249412353
-0.0033112676462381686   -0.026853835478514953   -0.0005468051724355349
-0.003498603504457798   -0.021822747999932106   -0.0003687555286755739
-0.005812431817623148   -0.026820233106192543   -0.0006021624498115306
-0.0033312687072867882   -0.026824228965194496   -0.0005325018006334905
-0.003498603504457798   -0.021822747999932106   -0.0003687555286755739
-0.006264732999971452   -0.021792480884739143   -0.00043154478052226917
-0.005812431817623148   -0.026820233106192543   -0.0006021624498115306
-0.0062922721619327075   -0.021765632579093155   -0.0003997498406635121
-0.0033312687072867882   -0.026824228965194496   -0.0005325018006334905
-0.005828125777206815   -0.02679985752161767   -0.0005662334412307667
-0.0062922721619327075   -0.021765632579093155   -0.0003997498406635121
-0.005812431817623148   -0.026820233106192543   -0.0006021624498115306
-0.0033312687072867882   -0.026824228965194496   -0.0005325018006334905
-0.0062922721619327075   -0.021765632579093155   -0.0003997498406635121
-0.003530926173868929   -0.02178649802630177   -0.0003505495604263846
-0.003498603504457798   -0.021822747999932106   -0.0003687555286755739
-0.0033312687072867882   -0.026824228965194496   -0.0005325018006334905
-0.0062922721619327075   -0.021765632579093155   -0.0003997498406635121
-0.003498603504457798   -0.021822747999932106   -0.0003687555286755739
-0.005812431817623148   -0.026820233106192543   -0.0006021624498115306
-0.005778755688681163   -0.02689610581209711   -0.0006629774229658471
-0.006207357342055011   -0.021868084062452872   -0.0004852840357357868
-0.008340038625933502   -0.026805166885612748   -0.0007451742856231179
-0.0057971928594654195   -0.026852298863907626   -0.0006344467249412353
-0.006207357342055011   -0.021868084062452872   -0.0004852840357357868
-0.009030007781524251   -0.02179361865840057   -0.0005586161929566304
-0.008340038625933502   -0.026805166885612748   -0.0007451742856231179
-0.009057898865166237   -0.021762131883925454   -0.0005196102438138375
-0.0057971928594654195   -0.026852298863907626   -0.0006344467249412353
-0.008355199931050121   -0.02677081719686071   -0.0006946581947919327
-0.009057898865166237   -0.021762131883925454   -0.0005196102438138375
-0.008340038625933502   -0.026805166885612748   -0.0007451742856231179
-0.0057971928594654195   -0.026852298863907626   -0.0006344467249412353
-0.009057898865166237   -0.021762131883925454   -0.0005196102438138375
-0.006237456370140885   -0.021826649347325637   -0.00046009833685707976
-0.006207357342055011   -0.021868084062452872   -0.0004852840357357868
-0.0057971928594654195   -0.026852298863907626   -0.0006344467249412353
-0.009057898865166237   -0.021762131883925454   -0.0005196102438138375
-0.006207357342055011   -0.021868084062452872   -0.0004852840357357868
-0.008340038625933502   -0.026805166885612748   -0.0007451742856231179
-0.0057971928594654195   -0.026852298863907626   -0.0006344467249412353
-0.006237456370140885   -0.021826649347325637   -0.00046009833685707976
-0.008355199931050121   -0.02677081719686071   -0.0006946581947919327
-0.005812431817623148   -0.026820233106192543   -0.0006021624498115306
-0.006237456370140885   -0.021826649347325637   -0.00046009833685707976
-0.009057898865166237   -0.021762131883925454   -0.0005196102438138375
-0.008355199931050121   -0.02677081719686071   -0.0006946581947919327
-0.009074582357136228   -0.02173702938191097   -0.0004776865510009928
-0.005812431817623148   -0.026820233106192543   -0.0006021624498115306
-0.008356830046274513   -0.02674752807587257   -0.0006409070700578341
-0.009074582357136228   -0.02173702938191097   -0.0004776865510009928
-0.008355199931050121   -0.02677081719686071   -0.0006946581947919327
-0.005812431817623148   -0.026820233106192543   -0.0006021624498115306
-0.009074582357136228   -0.02173702938191097   -0.0004776865510009928
-0.006264732999971452   -0.021792480884739143   -0.00043154478052226917
-0.006237456370140885   -0.021826649347325637   -0.00046009833685707976
-0.005812431817623148   -0.026820233106192543   -0.0006021624498115306
-0.009074582357136228   -0.02173702938191097   -0.0004776865510009928
-0.006237456370140885   -0.021826649347325637   -0.00046009833685707976
-0.008355199931050121   -0.02677081719686071   -0.0006946581947919327
-0.005812431817623148   -0.026820233106192543   -0.0006021624498115306
-0.006264732999971452   -0.021792480884739143   -0.00043154478052226917
-0.008356830046274513   -0.02674752807587257   -0.0006409070700578341
-0.005828125777206815   -0.02679985752161767   -0.0005662334412307667
-0.006264732999971452   -0.021792480884739143   -0.00043154478052226917
-0.009074582357136228   -0.02173702938191097   -0.0004776865510009928
-0.008356830046274513   -0.02674752807587257   -0.0006409070700578341
-0.009093016814040532   -0.021719892364917354   -0.0004322439200246242
-0.005828125777206815   -0.02679985752161767   -0.0005662334412307667
-0.008362374935467263   -0.026736989141133902   -0.0005832330884678741
-0.009093016814040532   -0.021719892364917354   -0.0004322439200246242
-0.008356830046274513   -0.02674752807587257   -0.0006409070700578341
-0.005828125777206815   -0.02679985752161767   -0.0005662334412307667
-0.009093016814040532   -0.021719892364917354   -0.0004322439200246242
-0.0062922721619327075   -0.021765632579093155   -0.0003997498406635121
-0.006264732999971452   -0.021792480884739143   -0.00043154478052226917
-0.005828125777206815   -0.02679985752161767   -0.0005662334412307667
-0.009093016814040532   -0.021719892364917354   -0.0004322439200246242
-0.006264732999971452   -0.021792480884739143   -0.00043154478052226917
-0.008356830046274513   -0.02674752807587257   -0.0006409070700578341
-0.008340038625933502   -0.026805166885612748   -0.0007451742856231179
-0.009030007781524251   -0.02179361865840057   -0.0005586161929566304
-0.01113360404552315   -0.026685504944311485   -0.0008154107872157094
-0.008355199931050121   -0.02677081719686071   -0.0006946581947919327
-0.009030007781524251   -0.02179361865840057   -0.0005586161929566304
-0.012060437383620833   -0.02170164882640086   -0.0006167287038620406
-0.01113360404552315   -0.026685504944311485   -0.0008154107872157094
-0.012038535824217378   -0.02167522603138773   -0.0005645429344633285
-0.008355199931050121   -0.02677081719686071   -0.0006946581947919327
-0.011079018701038678   -0.026654123504301352   -0.0007415306948686917
-0.012038535824217378   -0.02167522603138773   -0.0005645429344633285
-0.01113360404552315   -0.026685504944311485   -0.0008154107872157094
-0.008355199931050121   -0.02677081719686071   -0.0006946581947919327
-0.012038535824217378   -0.02167522603138773   -0.0005645429344633285
-0.009057898865166237   -0.021762131883925454   -0.0005196102438138375
-0.009030007781524251   -0.02179361865840057   -0.0005586161929566304
-0.008355199931050121   -0.02677081719686071   -0.0006946581947919327
-0.012038535824217378   -0.02167522603138773   -0.0005645429344633285
-0.009030007781524251   -0.02179361865840057   -0.0005586161929566304
-0.01113360404552315   -0.026685504944311485   -0.0008154107872157094
-0.008355199931050121   -0.02677081719686071   -0.0006946581947919327
-0.009057898865166237   -0.021762131883925454   -0.0005196102438138375
-0.011079018701038678   -0.026654123504301352   -0.0007415306948686917
-0.008356830046274513   -0.02674752807587257   -0.0006409070700578341
-0.009057898865166237   -0.021762131883925454   -0.0005196102438138375
-0.012038535824217378   -0.02167522603138773   -0.0005645429344633285
-0.011079018701038678   -0.026654123504301352   -0.0007415306948686917
-0.012020673063101613   -0.021654398659798298   -0.0005070025160516517
-0.008356830046274513   -0.02674752807587257   -0.0006409070700578341
-0.011033066756692035   -0.02663456084096274   -0.0006619947531319581
-0.012020673063101613   -0.021654398659798298   -0.0005070025160516517
-0.011079018701038678   -0.026654123504301352   -0.0007415306948686917
-0.008356830046274513   -0.02674752807587257   -0.0006409070700578341
-0.012020673063101613   -0.021654398659798298   -0.0005070025160516517
-0.009074582357136228   -0.02173702938191097   -0.0004776865510009928
-0.009057898865166237   -0.021762131883925454   -0.0005196102438138375
-0.008356830046274513   -0.02674752807587257   -0.0006409070700578341
-0.012020673063101613   -0.021654398659798298   -0.0005070025160516517
-0.009057898865166237   -0.021762131883925454   -0.0005196102438138375
-0.011079018701038678   -0.026654123504301352   -0.0007415306948686917
-0.008356830046274513   -0.02674752807587257   -0.0006409070700578341
-0.009074582357136228   -0.02173702938191097   -0.0004776865510009928
-0.011033066756692035   -0.02663456084096274   -0.0006619947531319581
-0.008362374935467263   -0.026736989141133902   -0.0005832330884678741
-0.009074582357136228   -0.02173702938191097   -0.0004776865510009928
-0.012020673063101613   -0.021654398659798298   -0.0005070025160516517
-0.011033066756692035   -0.02663456084096274   -0.0006619947531319581
-0.011978816678682218   -0.02164896130078625   -0.00044471683646019663
-0.008362374935467263   -0.026736989141133902   -0.0005832330884678741
-0.01095764886016695   -0.026636603601323014   -0.0005775103571254365
-0.011978816678682218   -0.02164896130078625   -0.00044471683646019663
-0.011033066756692035   -0.02663456084096274   -0.0006619947531319581
-0.008362374935467263   -0.026736989141133902   -0.0005832330884678741
-0.011978816678682218   -0.02164896130078625   -0.00044471683646019663
-0.009093016814040532   -0.021719892364917354   -0.0004322439200246242
-0.009074582357136228   -0.02173702938191097   -0.0004776865510009928
-0.008362374935467263   -0.026736989141133902   -0.0005832330884678741
-0.011978816678682218   -0.02164896130078625   -0.00044471683646019663
-0.009074582357136228   -0.02173702938191097   -0.0004776865510009928
-0.011033066756692035   -0.02663456084096274   -0.0006619947531319581
0.0023266460898565635   -0.02194456298702053   -0.00015752736626034977
0.0024152134113345327   -0.0165998715824882   -2.5933070989386912e-05
-0.0006243671725971896   -0.02194459572158273   -0.00028798361753781197
0.0023192732358898703   -0.021872941036506197   -0.00017906261321288725
0.0024152134113345327   -0.0165998715824882   -2.5933070989386912e-05
-0.0007082235260935011   -0.016572997755789503   -0.00014292378194679146
-0.0006243671725971896   -0.02194459572158273   -0.00028798361753781197
-0.0007440139374029689   -0.016513698589785228   -0.00013246308849037498
0.0023192732358898703   -0.021872941036506197   -0.00017906261321288725
-0.0006502766809140673   -0.02188252884861028   -0.00029026329577219484
-0.0007440139374029689   -0.016513698589785228   -0.00013246308849037498
-0.0006243671725971896   -0.02194459572158273   -0.00028798361753781197
0.0023192732358898703   -0.021872941036506197   -0.00017906261321288725
-0.0007440139374029689   -0.016513698589785228   -0.00013246308849037498
0.00237786071726155   -0.016531654166694512   -2.4482535592081987e-05
0.0024152134113345327   -0.0165998715824882   -2.5933070989386912e-05
0.0023192732358898703   -0.021872941036506197   -0.00017906261321288725
-0.0007440139374029689   -0.016513698589785228   -0.00013246308849037498
0.0024152134113345327   -0.0165998715824882   -2.5933070989386912e-05
-0.0006243671725971896   -0.02194459572158273   -0.00028798361753781197
0.0023192732358898703   -0.021872941036506197   -0.00017906261321288725
0.00237786071726155   -0.016531654166694512   -2.4482535592081987e-05
-0.0006502766809140673   -0.02188252884861028   -0.00029026329577219484
0.002298999014324958   -0.0218157786199915   -0.0001952961499089817
0.00237786071726155   -0.016531654166694512   -2.4482535592081987e-05
-0.0007440139374029689   -0.016513698589785228   -0.00013246308849037498
-0.0006502766809140673   -0.02188252884861028   -0.00029026329577219484
-0.0007850379153500777   -0.016457978595232528   -0.00011898754347989252
0.002298999014324958   -0.0218157786199915   -0.0001952961499089817
-0.0006790758489876192   -0.02182945269540512   -0.00028923532140291914
-0.0007850379153500777   -0.016457978595232528   -0.00011898754347989252
-0.0006502766809140673   -0.02188252884861028   -0.00029026329577219484
0.002298999014324958   -0.0218157786199915   -0.0001952961499089817
-0.0007850379153500777   -0.016457978595232528   -0.00011898754347989252
0.002331522675037595   -0.0164710724306169   -1.6882413394222153e-05
0.00237786071726155   -0.016531654166694512   -2.4482535592081987e-05
0.002298999014324958   -0.0218157786199915   -0.0001952961499089817
-0.0007850379153500777   -0.016457978595232528   -0.00011898754347989252
0.00237786071726155   -0.016531654166694512   -2.4482535592081987e-05
-0.0006502766809140673   -0.02188252884861028   -0.00029026329577219484
0.002298999014324958   -0.0218157786199915   -0.0001952961499089817
0.002331522675037595   -0.0164710724306169   -1.6882413394222153e-05
-0.0006790758489876192   -0.02182945269540512   -0.00028923532140291914
0.0022705252889978138   -0.02176354705636298   -0.00020659840317576152
0.002331522675037595   -0.0164710724306169   -1.6882413394222153e-05
-0.0007850379153500777   -0.016457978595232528   -0.00011898754347989252
-0.0006790758489876192   -0.02182945269540512   -0.00028923532140291914
-0.0008312037156049965   -0.016405062484462878   -0.0001017434702135861
0.0022705252889978138   -0.02176354705636298   -0.00020659840317576152
-0.0007149929439686962   -0.021783964325727614   -0.00028476929354080493
-0.0008312037156049965   -0.016405062484462878   -0.0001017434702135861
-0.0006790758489876192   -0.02182945269540512   -0.00028923532140291914
0.0022705252889978138   -0.02176354705636298   -0.00020659840317576152
-0.0008312037156049965   -0.016405062484462878   -0.0001017434702135861
0.0022703115513786165   -0.016407890687815   -3.407698384523287e-06
0.002331522675037595   -0.0164710724306169   -1.6882413394222153e-05
0.0022705252889978138   -0.02176354705636298   -0.00020659840317576152
-0.0008312037156049965   -0.016405062484462878   -0.0001017434702135861
0.002331522675037595   -0.0164710724306169   -1.6882413394222153e-05
-0.0006790758489876192   -0.02182945269540512   -0.00028923532140291914
-0.0006243671725971896   -0.02194459572158273   -0.00028798361753781197
-0.0007082235260935011   -0.016572997755789503   -0.00014292378194679146
-0.0034396498923944165   -0.021918058500947094   -0.0003951515133228017
-0.0006502766809140673   -0.02188252884861028   -0.00029026329577219484
-0.0007082235260935011   -0.016572997755789503   -0.00014292378194679146
-0.003667670610492797   -0.016541061488591108   -0.00024141307236275327
-0.0034396498923944165   -0.021918058500947094   -0.0003951515133228017
-0.00370433914607896   -0.016491696128327477   -0.00022498692400615554
-0.0006502766809140673   -0.02188252884861028   -0.00029026329577219484
-0.0034688273781515503   -0.021866744333478527   -0.0003836784667125328
-0.00370433914607896   -0.016491696128327477   -0.00022498692400615554
-0.0034396498923944165   -0.021918058500947094   -0.0003951515133228017
-0.0006502766809140673   -0.02188252884861028   -0.00029026329577219484
-0.00370433914607896   -0.016491696128327477   -0.00022498692400615554
-0.0007440139374029689   -0.016513698589785228   -0.00013246308849037498
-0.0007082235260935011   -0.016572997755789503   -0.00014292378194679146
-0.0006502766809140673   -0.02188252884861028   -0.00029026329577219484
-0.00370433914607896   -0.016491696128327477   -0.00022498692400615554
-0.0007082235260935011   -0.016572997755789503   -0.00014292378194679146
-0.0034396498923944165   -0.021918058500947094   -0.0003951515133228017
-0.0006502766809140673   -0.02188252884861028   -0.00029026329577219484
-0.0007440139374029689   -0.016513698589785228   -0.00013246308849037498
-0.0034688273781515503   -0.021866744333478527   -0.0003836784667125328
-0.0006790758489876192   -0.02182945269540512   -0.00028923532140291914
-0.0007440139374029689   -0.016513698589785228   -0.00013246308849037498
-0.00370433914607896   -0.016491696128327477   -0.00022498692400615554
-0.0034688273781515503   -0.021866744333478527   -0.0003836784667125328
-0.003741847505105929   -0.01644510345510574   -0.0002056793437183322
-0.0006790758489876192   -0.02182945269540512   -0.00028923532140291914
-0.003498603504457798   -0.021822747999932106   -0.0003687555286755739
-0.003741847505105929   -0.01644510345510574   -0.0002056793437183322
-0.0034688273781515503   -0.021866744333478527   -0.0003836784667125328
-0.0006790758489876192   -0.02182945269540512   -0.00028923532140291914
-0.003741847505105929   -0.01644510345510574   -0.0002056793437183322
-0.0007850379153500777   -0.016457978595232528   -0.00011898754347989252
-0.0007440139374029689   -0.016513698589785228   -0.00013246308849037498
-0.0006790758489876192   -0.02182945269540512   -0.00028923532140291914
-0.003741847505105929   -0.01644510345510574   -0.0002056793437183322
-0.0007440139374029689   -0.016513698589785228   -0.00013246308849037498
-0.0034688273781515503   -0.021866744333478527   -0.0003836784667125328
-0.0006790758489876192   -0.02182945269540512   -0.00028923532140291914
-0.0007850379153500777   -0.016457978595232528   -0.00011898754347989252
-0.003498603504457798   -0.021822747999932106   -0.0003687555286755739
-0.0007149929439686962   -0.021783964325727614   -0.00028476929354080493
-0.0007850379153500777   -0.016457978595232528   -0.00011898754347989252
-0.003741847505105929   -0.01644510345510574   -0.0002056793437183322
-0.003498603504457798   -0.021822747999932106   -0.0003687555286755739
-0.003781769947564791   -0.01640203059105227   -0.0001834656545928932
-0.0007149929439686962   -0.021783964325727614   -0.00028476929354080493
-0.003530926173868929   -0.02178649802630177   -0.0003505495604263846
-0.003781769947564791   -0.01640203059105227   -0.0001834656545928932
-0.003498603504457798   -0.021822747999932106   -0.0003687555286755739
-0.0007149929439686962   -0.021783964325727614   -0.00028476929354080493
-0.003781769947564791   -0.01640203059105227   -0.0001834656545928932
-0.0008312037156049965   -0.016405062484462878   -0.0001017434702135861
-0.0007850379153500777   -0.016457978595232528   -0.00011898754347989252
-0.0007149929439686962   -0.021783964325727614   -0.00028476929354080493
-0.003781769947564791   -0.01640203059105227   -0.0001834656545928932
-0.0007850379153500777   -0.016457978595232528   -0.00011898754347989252
-0.003498603504457798   -0.021822747999932106   -0.0003687555286755739
-0.0034396498923944165   -0.021918058500947094   -0.0003951515133228017
-0.003667670610492797   -0.016541061488591108   -0.00024141307236275327
-0.006207357342055011   -0.021868084062452872   -0.0004852840357357868
-0.0034688273781515503   -0.021866744333478527   -0.0003836784667125328
-0.003667670610492797   -0.016541061488591108   -0.00024141307236275327
-0.006578652651856174   -0.016502482617313404   -0.000324746021620037
-0.006207357342055011   -0.021868084062452872   -0.0004852840357357868
-0.006615117662644552   -0.0164622892012163   -0.0003023829599029854
-0.0034688273781515503   -0.021866744333478527   -0.0003836784667125328
-0.006237456370140885   -0.021826649347325637   -0.00046009833685707976
-0.006615117662644552   -0.0164622892012163   -0.0003023829599029854
-0.006207357342055011   -0.021868084062452872   -0.0004852840357357868
-0.0034688273781515503   -0.021866744333478527   -0.0003836784667125328
-0.006615117662644552   -0.0164622892012163   -0.0003023829599029854
-0.00370433914607896   -0.016491696128327477   -0.00022498692400615554
-0.003667670610492797   -0.016541061488591108   -0.00024141307236275327
-0.0034688273781515503   -0.021866744333478527   -0.0003836784667125328
-0.006615117662644552   -0.0164622892012163   -0.0003023829599029854
-0.003667670610492797   -0.016541061488591108   -0.00024141307236275327
-0.006207357342055011   -0.021868084062452872   -0.0004852840357357868
-0.0034688273781515503   -0.021866744333478527   -0.0003836784667125328
-0.00370433914607896   -0.016491696128327477   -0.00022498692400615554
-0.006237456370140885   -0.021826649347325637   -0.00046009833685707976
-0.003498603504457798   -0.021822747999932106   -0.0003687555286755739
-0.00370433914607896   -0.016491696128327477   -0.00022498692400615554
-0.006615117662644552   -0.0164622892012163   -0.0003023829599029854
-0.006237456370140885   -0.021826649347325637   -0.00046009833685707976
-0.006649205809573848   -0.016425014895320153   -0.0002772365917316152
-0.003498603504457798   -0.021822747999932106   -0.0003687555286755739
-0.006264732999971452   -0.021792480884739143   -0.00043154478052226917
-0.006649205809573848   -0.016425014895320153   -0.0002772365917316152
-0.006237456370140885   -0.021826649347325637   -0.00046009833685707976
-0.003498603504457798   -0.021822747999932106   -0.0003687555286755739
-0.006649205809573848   -0.016425014895320153   -0.0002772365917316152
-0.003741847505105929   -0.01644510345510574   -0.0002056793437183322
-0.00370433914607896   -0.016491696128327477   -0.00022498692400615554
-0.003498603504457798   -0.021822747999932106   -0.0003687555286755739
-0.006649205809573848   -0.016425014895320153   -0.0002772365917316152
-0.00370433914607896   -0.016491696128327477   -0.00022498692400615554
-0.006237456370140885   -0.021826649347325637   -0.00046009833685707976
-0.003498603504457798   -0.021822747999932106   -0.0003687555286755739
-0.003741847505105929   -0.01644510345510574   -0.0002056793437183322
-0.006264732999971452   -0.021792480884739143   -0.00043154478052226917
-0.003530926173868929   -0.02178649802630177   -0.0003505495604263846
-0.003741847505105929   -0.01644510345510574   -0.0002056793437183322
-0.006649205809573848   -0.016425014895320153   -0.0002772365917316152
-0.006264732999971452   -0.021792480884739143   -0.00043154478052226917
-0.006683416468033182   -0.01639075903408361   -0.0002494428528145928
-0.003530926173868929   -0.02178649802630177   -0.0003505495604263846
-0.0062922721619327075   -0.021765632579093155   -0.0003997498406635121
-0.006683416468033182   -0.01639075903408361   -0.0002494428528145928
-0.006264732999971452   -0.021792480884739143   -0.00043154478052226917
-0.003530926173868929   -0.02178649802630177   -0.0003505495604263846
-0.006683416468033182   -0.01639075903408361   -0.0002494428528145928
-0.003781769947564791   -0.01640203059105227   -0.0001834656545928932
-0.003741847505105929   -0.01644510345510574   -0.0002056793437183322
-0.003530926173868929   -0.02178649802630177   -0.0003505495604263846
-0.006683416468033182   -0.01639075903408361   -0.0002494428528145928
-0.003741847505105929   -0.01644510345510574   -0.0002056793437183322
-0.006264732999971452   -0.021792480884739143   -0.00043154478052226917
-0.006207357342055011   -0.021868084062452872   -0.0004852840357357868
-0.006578652651856174   -0.016502482617313404   -0.000324746021620037
-0.009030007781524251   -0.02179361865840057   -0.0005586161929566304
-0.006237456370140885   -0.021826649347325637   -0.00046009833685707976
-0.006578652651856174   -0.016502482617313404   -0.000324746021620037
-0.00954240610023101   -0.016450145544831547   -0.0003922056956188445
-0.009030007781524251   -0.02179361865840057   -0.0005586161929566304
-0.009577300849048107   -0.01641959768810774   -0.000363977637648075
-0.006237456370140885   -0.021826649347325637   -0.00046009833685707976
-0.009057898865166237   -0.021762131883925454   -0.0005196102438138375
-0.009577300849048107   -0.01641959768810774   -0.000363977637648075
-0.009030007781524251   -0.02179361865840057   -0.0005586161929566304
-0.006237456370140885   -0.021826649347325637   -0.00046009833685707976
-0.009577300849048107   -0.01641959768810774   -0.000363977637648075
-0.006615117662644552   -0.0164622892012163   -0.0003023829599029854
-0.006578652651856174   -0.016502482617313404   -0.000324746021620037
-0.006237456370140885   -0.021826649347325637   -0.00046009833685707976
-0.009577300849048107   -0.01641959768810774   -0.000363977637648075
-0.006578652651856174   -0.016502482617313404   -0.000324746021620037
-0.009030007781524251   -0.02179361865840057   -0.0005586161929566304
-0.006237456370140885   -0.021826649347325637   -0.00046009833685707976
-0.006615117662644552   -0.0164622892012163   -0.0003023829599029854
-0.009057898865166237   -0.021762131883925454   -0.0005196102438138375
-0.006264732999971452   -0.021792480884739143   -0.00043154478052226917
-0.006615117662644552   -0.0164622892012163   -0.0003023829599029854
-0.009577300849048107   -0.01641959768810774   -0.000363977637648075
-0.009057898865166237   -0.021762131883925454   -0.0005196102438138375
-0.009603609650635126   -0.016390921127671508   -0.0003334165498887984
-0.006264732999971452   -0.021792480884739143   -0.00043154478052226917
-0.009074582357136228   -0.02173702938191097   -0.0004776865510009928
-0.009603609650635126   -0.016390921127671508   -0.0003334165498887984
-0.009057898865166237   -0.021762131883925454   -0.0005196102438138375
-0.006264732999971452   -0.021792480884739143   -0.00043154478052226917
-0.009603609650635126   -0.016390921127671508   -0.0003334165498887984
-0.006649205809573848   -0.016425014895320153   -0.0002772365917316152
-0.006615117662644552   -0.0164622892012163   -0.0003023829599029854
-0.006264732999971452   -0.021792480884739143   -0.00043154478052226917
-0.009603609650635126   -0.016390921127671508   -0.0003334165498887984
-0.006615117662644552   -0.0164622892012163   -0.0003023829599029854
-0.009057898865166237   -0.021762131883925454   -0.0005196102438138375
-0.006264732999971452   -0.021792480884739143   -0.00043154478052226917
-0.006649205809573848   -0.016425014895320153   -0.0002772365917316152
-0.009074582357136228   -0.02173702938191097   -0.0004776865510009928
-0.0062922721619327075   -0.021765632579093155   -0.0003997498406635121
-0.006649205809573848   -0.016425014895320153   -0.0002772365917316152
-0.009603609650635126   -0.016390921127671508   -0.0003334165498887984
-0.009074582357136228   -0.02173702938191097   -0.0004776865510009928
-0.009629748022554785   -0.016365441706930554   -0.00029992169219737654
-0.0062922721619327075   -0.021765632579093155   -0.0003997498406635121
-0.009093016814040532   -0.021719892364917354   -0.0004322439200246242
-0.009629748022554785   -0.016365441706930554   -0.00029992169219737654
-0.009074582357136228   -0.02173702938191097   -0.0004776865510009928
-0.0062922721619327075   -0.021765632579093155   -0.0003997498406635121
-0.009629748022554785   -0.016365441706930554   -0.00029992169219737654
-0.006683416468033182   -0.01639075903408361   -0.0002494428528145928
-0.006649205809573848   -0.016425014895320153   -0.0002772365917316152
-0.0062922721619327075   -0.021765632579093155   -0.0003997498406635121
-0.009629748022554785   -0.016365441706930554   -0.00029992169219737654
-0.006649205809573848   -0.016425014895320153   -0.0002772365917316152
-0.009074582357136228   -0.02173702938191097   -0.0004776865510009928
-0.009030007781524251   -0.02179361865840057   -0.0005586161929566304
-0.00954240610023101   -0.016450145544831547   -0.0003922056956188445
-0.012060437383620833   -0.02170164882640086   -0.0006167287038620406
-0.009057898865166237   -0.021762131883925454   -0.0005196102438138375
-0.00954240610023101   -0.016450145544831547   -0.0003922056956188445
-0.0126849913121193   -0.0163879946143129   -0.0004418303430498176
-0.012060437383620833   -0.02170164882640086   -0.0006167287038620406
-0.012689487982592316   -0.016363860423521937   -0.0004103791151856816
-0.009057898865166237   -0.021762131883925454   -0.0005196102438138375
-0.012038535824217378   -0.02167522603138773   -0.0005645429344633285
-0.012689487982592316   -0.016363860423521937   -0.0004103791151856816
-0.012060437383620833   -0.02170164882640086   -0.0006167287038620406
-0.009057898865166237   -0.021762131883925454   -0.0005196102438138375
-0.012689487982592316   -0.016363860423521937   -0.0004103791151856816
-0.009577300849048107   -0.01641959768810774   -0.000363977637648075
-0.00954240610023101   -0.016450145544831547   -0.0003922056956188445
-0.009057898865166237   -0.021762131883925454   -0.0005196102438138375
-0.012689487982592316   -0.016363860423521937   -0.0004103791151856816
-0.00954240610023101   -0.016450145544831547   -0.0003922056956188445
-0.012060437383620833   -0.02170164882640086   -0.0006167287038620406
-0.009057898865166237   -0.021762131883925454   -0.0005196102438138375
-0.009577300849048107   -0.01641959768810774   -0.000363977637648075
-0.012038535824217378   -0.02167522603138773   -0.0005645429344633285
-0.009074582357136228   -0.02173702938191097   -0.0004776865510009928
-0.009577300849048107   -0.01641959768810774   -0.000363977637648075
-0.012689487982592316   -0.016363860423521937   -0.0004103791151856816
-0.012038535824217378   -0.02167522603138773   -0.0005645429344633285
-0.012694248865207064   -0.016339603535384474   -0.0003742406867834719
-0.009074582357136228   -0.02173702938191097   -0.0004776865510009928
-0.012020673063101613   -0.021654398659798298   -0.0005070025160516517
-0.012694248865207064   -0.016339603535384474   -0.0003742406867834719
-0.012038535824217378   -0.02167522603138773   -0.0005645429344633285
-0.009074582357136228   -0.02173702938191097   -0.0004776865510009928
-0.012694248865207064   -0.016339603535384474   -0.0003742406867834719
-0.009603609650635126   -0.016390921127671508   -0.0003334165498887984
-0.009577300849048107   -0.01641959768810774   -0.000363977637648075
-0.009074582357136228   -0.02173702938191097   -0.0004776865510009928
-0.012694248865207064   -0.016339603535384474   -0.0003742406867834719
-0.009577300849048107   -0.01641959768810774   -0.000363977637648075
-0.012038535824217378   -0.02167522603138773   -0.0005645429344633285
-0.009074582357136228   -0.02173702938191097   -0.0004776865510009928
-0.009603609650635126   -0.016390921127671508   -0.0003334165498887984
-0.012020673063101613   -0.021654398659798298   -0.0005070025160516517
-0.009093016814040532   -0.021719892364917354   -0.0004322439200246242
-0.009603609650635126   -0.016390921127671508   -0.0003334165498887984
-0.012694248865207064   -0.016339603535384474   -0.0003742406867834719
-0.012020673063101613   -0.021654398659798298   -0.0005070025160516517
-0.012681110797127661   -0.016324346638236578   -0.00033396531428430434
-0.009093016814040532   -0.021719892364917354   -0.0004322439200246242
-0.011978816678682218   -0.02164896130078625   -0.00044471683646019663
-0.012681110797127661   -0.016324346638236578   -0.00033396531428430434
-0.012020673063101613   -0.021654398659798298   -0.0005070025160516517
-0.009093016814040532   -0.021719892364917354   -0.0004322439200246242
-0.012681110797127661   -0.016324346638236578   -0.00033396531428430434
-0.009629748022554785   -0.016365441706930554   -0.00029992169219737654
-0.009603609650635126   -0.016390921127671508   -0.0003334165498887984
-0.009093016814040532   -0.021719892364917354   -0.0004322439200246242
-0.012681110797127661   -0.016324346638236578   -0.00033396531428430434
-0.009603609650635126   -0.016390921127671508   -0.0003334165498887984
-0.012020673063101613   -0.021654398659798298   -0.0005070025160516517
0.0024152134113345327   -0.0165998715824882   -2.5933070989386912e-05
0.0021718020005481124   -0.011087511699465686   6.498757343863572e-05
-0.0007082235260935011   -0.016572997755789503   -0.00014292378194679146
0.00237786071726155   -0.016531654166694512   -2.4482535592081987e-05
0.0021718020005481124   -0.011087511699465686   6.498757343863572e-05
-0.0009797700065578444   -0.011036168224217605   -2.7340977920926907e-05
-0.0007082235260935011   -0.016572997755789503   -0.00014292378194679146
-0.0010228133582215135   -0.01098265014998821   -5.075050642494158e-06
0.00237786071726155   -0.016531654166694512   -2.4482535592081987e-05
-0.0007440139374029689   -0.016513698589785228   -0.00013246308849037498
-0.0010228133582215135   -0.01098265014998821   -5.075050642494158e-06
-0.0007082235260935011   -0.016572997755789503   -0.00014292378194679146
0.00237786071726155   -0.016531654166694512   -2.4482535592081987e-05
-0.0010228133582215135   -0.01098265014998821   -5.075050642494158e-06
0.0021044557122816875   -0.011022646524475849   9.23171812599373e-05
0.0021718020005481124   -0.011087511699465686   6.498757343863572e-05
0.00237786071726155   -0.016531654166694512   -2.4482535592081987e-05
-0.0010228133582215135   -0.01098265014998821   -5.075050642494158e-06
0.0021718020005481124   -0.011087511699465686   6.498757343863572e-05
-0.0007082235260935011   -0.016572997755789503   -0.00014292378194679146
0.00237786071726155   -0.016531654166694512   -2.4482535592081987e-05
0.0021044557122816875   -0.011022646524475849   9.23171812599373e-05
-0.0007440139374029689   -0.016513698589785228   -0.00013246308849037498
0.002331522675037595   -0.0164710724306169   -1.6882413394222153e-05
0.0021044557122816875   -0.011022646524475849   9.23171812599373e-05
-0.0010228133582215135   -0.01098265014998821   -5.075050642494158e-06
-0.0007440139374029689   -0.016513698589785228   -0.00013246308849037498
-0.0010732405848324729   -0.010926263414800927   2.121104984473537e-05
0.002331522675037595   -0.0164710724306169   -1.6882413394222153e-05
-0.0007850379153500777   -0.016457978595232528   -0.00011898754347989252
-0.0010732405848324729   -0.010926263414800927   2.121104984473537e-05
-0.0007440139374029689   -0.016513698589785228   -0.00013246308849037498
0.002331522675037595   -0.0164710724306169   -1.6882413394222153e-05
-0.0010732405848324729   -0.010926263414800927   2.121104984473537e-05
0.0020288839397590965   -0.01095846163004354   0.00013191897098347583
0.0021044557122816875   -0.011022646524475849   9.23171812599373e-05
0.002331522675037595   -0.0164710724306169   -1.6882413394222153e-05
-0.0010732405848324729   -0.010926263414800927   2.121104984473537e-05
0.0021044557122816875   -0.011022646524475849   9.23171812599373e-05
-0.0007440139374029689   -0.016513698589785228   -0.00013246308849037498
0.002331522675037595   -0.0164710724306169   -1.6882413394222153e-05
0.0020288839397590965   -0.01095846163004354   0.00013191897098347583
-0.0007850379153500777   -0.016457978595232528   -0.00011898754347989252
0.0022703115513786165   -0.016407890687815   -3.407698384523287e-06
0.0020288839397590965   -0.01095846163004354   0.00013191897098347583
-0.0010732405848324729   -0.010926263414800927   2.121104984473537e-05
-0.0007850379153500777   -0.016457978595232528   -0.00011898754347989252
-0.00112548891179275   -0.01086648032943631   5.1475487722768555e-05
0.0022703115513786165   -0.016407890687815   -3.407698384523287e-06
-0.0008312037156049965   -0.016405062484462878   -0.0001017434702135861
-0.00112548891179275   -0.01086648032943631   5.1475487722768555e-05
-0.0007850379153500777   -0.016457978595232528   -0.00011898754347989252
0.0022703115513786165   -0.016407890687815   -3.407698384523287e-06
-0.00112548891179275   -0.01086648032943631   5.1475487722768555e-05
0.0019365076311047332   -0.010879523745372295   0.00017555585969562188
0.0020288839397590965   -0.01095846163004354   0.00013191897098347583
0.0022703115513786165   -0.016407890687815   -3.407698384523287e-06
-0.00112548891179275   -0.01086648032943631   5.1475487722768555e-05
0.0020288839397590965   -0.01095846163004354   0.00013191897098347583
-0.0007850379153500777   -0.016457978595232528   -0.00011898754347989252
-0.0007082235260935011   -0.016572997755789503   -0.00014292378194679146
-0.0009797700065578444   -0.011036168224217605   -2.7340977920926907e-05
-0.003667670610492797   -0.016541061488591108   -0.00024141307236275327
-0.0007440139374029689   -0.016513698589785228   -0.00013246308849037498
-0.0009797700065578444   -0.011036168224217605   -2.7340977920926907e-05
-0.003946196072869788   -0.011022848703901   -0.0001160511131370952
-0.003667670610492797   -0.016541061488591108   -0.00024141307236275327
-0.003985251291173384   -0.010976355321198245   -9.514794196060486e-05
-0.0007440139374029689   -0.016513698589785228   -0.00013246308849037498
-0.00370433914607896   -0.016491696128327477   -0.00022498692400615554
-0.003985251291173384   -0.010976355321198245   -9.514794196060486e-05
-0.003667670610492797   -0.016541061488591108   -0.00024141307236275327
-0.0007440139374029689   -0.016513698589785228   -0.00013246308849037498
-0.003985251291173384   -0.010976355321198245   -9.514794196060486e-05
-0.0010228133582215135   -0.01098265014998821   -5.075050642494158e-06
-0.0009797700065578444   -0.011036168224217605   -2.7340977920926907e-05
-0.0007440139374029689   -0.016513698589785228   -0.00013246308849037498
-0.003985251291173384   -0.010976355321198245   -9.514794196060486e-05
-0.0009797700065578444   -0.011036168224217605   -2.7340977920926907e-05
-0.003667670610492797   -0.016541061488591108   -0.00024141307236275327
-0.0007440139374029689   -0.016513698589785228   -0.00013246308849037498
-0.0010228133582215135   -0.01098265014998821   -5.075050642494158e-06
-0.00370433914607896   -0.016491696128327477   -0.00022498692400615554
-0.0007850379153500777   -0.016457978595232528   -0.00011898754347989252
-0.0010228133582215135   -0.01098265014998821   -5.075050642494158e-06
-0.003985251291173384   -0.010976355321198245   -9.514794196060486e-05
-0.00370433914607896   -0.016491696128327477   -0.00022498692400615554
-0.0040256886427291645   -0.010928031153709843   -7.213540005014634e-05
-0.0007850379153500777   -0.016457978595232528   -0.00011898754347989252
-0.003741847505105929   -0.01644510345510574   -0.0002056793437183322
-0.0040256886427291645   -0.010928031153709843   -7.213540005014634e-05
-0.00370433914607896   -0.016491696128327477   -0.00022498692400615554
-0.0007850379153500777   -0.016457978595232528   -0.00011898754347989252
-0.0040256886427291645   -0.010928031153709843   -7.213540005014634e-05
-0.0010732405848324729   -0.010926263414800927   2.121104984473537e-05
-0.0010228133582215135   -0.01098265014998821   -5.075050642494158e-06
-0.0007850379153500777   -0.016457978595232528   -0.00011898754347989252
-0.0040256886427291645   -0.010928031153709843   -7.213540005014634e-05
-0.0010228133582215135   -0.01098265014998821   -5.075050642494158e-06
-0.00370433914607896   -0.016491696128327477   -0.00022498692400615554
-0.0007850379153500777   -0.016457978595232528   -0.00011898754347989252
-0.0010732405848324729   -0.010926263414800927   2.121104984473537e-05
-0.003741847505105929   -0.01644510345510574   -0.0002056793437183322
-0.0008312037156049965   -0.016405062484462878   -0.0001017434702135861
-0.0010732405848324729   -0.010926263414800927   2.121104984473537e-05
-0.0040256886427291645   -0.010928031153709843   -7.213540005014634e-05
-0.003741847505105929   -0.01644510345510574   -0.0002056793437183322
-0.00406782397217806   -0.010878791853340942   -4.6600066220704716e-05
-0.0008312037156049965   -0.016405062484462878   -0.0001017434702135861
-0.003781769947564791   -0.01640203059105227   -0.0001834656545928932
-0.00406782397217806   -0.010878791853340942   -4.6600066220704716e-05
-0.003741847505105929   -0.01644510345510574   -0.0002056793437183322
-0.0008312037156049965   -0.016405062484462878   -0.0001017434702135861
-0.00406782397217806   -0.010878791853340942   -4.6600066220704716e-05
-0.00112548891179275   -0.01086648032943631   5.1475487722768555e-05
-0.0010732405848324729   -0.010926263414800927   2.121104984473537e-05
-0.0008312037156049965   -0.016405062484462878   -0.0001017434702135861
-0.00406782397217806   -0.010878791853340942   -4.6600066220704716e-05
-0.0010732405848324729   -0.010926263414800927   2.121104984473537e-05
-0.003741847505105929   -0.01644510345510574   -0.0002056793437183322
-0.003667670610492797   -0.016541061488591108   -0.00024141307236275327
-0.003946196072869788   -0.011022848703901   -0.0001160511131370952
-0.006578652651856174   -0.016502482617313404   -0.000324746021620037
-0.00370433914607896   -0.016491696128327477   -0.00022498692400615554
-0.003946196072869788   -0.011022848703901   -0.0001160511131370952
-0.006881244483219384   -0.011019100462284376   -0.00019605873695901263
-0.006578652651856174   -0.016502482617313404   -0.000324746021620037
-0.006918653465840445   -0.010978489448955884   -0.00017595809452687248
-0.00370433914607896   -0.016491696128327477   -0.00022498692400615554
-0.006615117662644552   -0.0164622892012163   -0.0003023829599029854
-0.006918653465840445   -0.010978489448955884   -0.00017595809452687248
-0.006578652651856174   -0.016502482617313404   -0.000324746021620037
-0.00370433914607896   -0.016491696128327477   -0.00022498692400615554
-0.006918653465840445   -0.010978489448955884   -0.00017595809452687248
-0.003985251291173384   -0.010976355321198245   -9.514794196060486e-05
-0.003946196072869788   -0.011022848703901   -0.0001160511131370952
-0.00370433914607896   -0.016491696128327477   -0.00022498692400615554
-0.006918653465840445   -0.010978489448955884   -0.00017595809452687248
-0.003946196072869788   -0.011022848703901   -0.0001160511131370952
-0.006578652651856174   -0.016502482617313404   -0.000324746021620037
-0.00370433914607896   -0.016491696128327477   -0.00022498692400615554
-0.003985251291173384   -0.010976355321198245   -9.514794196060486e-05
-0.006615117662644552   -0.0164622892012163   -0.0003023829599029854
-0.003741847505105929   -0.01644510345510574   -0.0002056793437183322
-0.003985251291173384   -0.010976355321198245   -9.514794196060486e-05
-0.006918653465840445   -0.010978489448955884   -0.00017595809452687248
-0.006615117662644552   -0.0164622892012163   -0.0003023829599029854
-0.00695429374160246   -0.0109372053508828   -0.0001540069864405248
-0.003741847505105929   -0.01644510345510574   -0.0002056793437183322
-0.006649205809573848   -0.016425014895320153   -0.0002772365917316152
-0.00695429374160246   -0.0109372053508828   -0.0001540069864405248
-0.006615117662644552   -0.0164622892012163   -0.0003023829599029854
-0.003741847505105929   -0.01644510345510574   -0.0002056793437183322
-0.00695429374160246   -0.0109372053508828   -0.0001540069864405248
-0.0040256886427291645   -0.010928031153709843   -7.213540005014634e-05
-0.003985251291173384   -0.010976355321198245   -9.514794196060486e-05
-0.003741847505105929   -0.01644510345510574   -0.0002056793437183322
-0.00695429374160246   -0.0109372053508828   -0.0001540069864405248
-0.003985251291173384   -0.010976355321198245   -9.514794196060486e-05
-0.006615117662644552   -0.0164622892012163   -0.0003023829599029854
-0.003741847505105929   -0.01644510345510574   -0.0002056793437183322
-0.0040256886427291645   -0.010928031153709843   -7.213540005014634e-05
-0.006649205809573848   -0.016425014895320153   -0.0002772365917316152
-0.003781769947564791   -0.01640203059105227   -0.0001834656545928932
-0.0040256886427291645   -0.010928031153709843   -7.213540005014634e-05
-0.00695429374160246   -0.0109372053508828   -0.0001540069864405248
-0.006649205809573848   -0.016425014895320153   -0.0002772365917316152
-0.006989579485897879   -0.010895003113097223   -0.00013030472538466147
-0.003781769947564791   -0.01640203059105227   -0.0001834656545928932
-0.006683416468033182   -0.01639075903408361   -0.0002494428528145928
-0.006989579485897879   -0.010895003113097223   -0.00013030472538466147
-0.006649205809573848   -0.016425014895320153   -0.0002772365917316152
-0.003781769947564791   -0.01640203059105227   -0.0001834656545928932
-0.006989579485897879   -0.010895003113097223   -0.00013030472538466147
-0.00406782397217806   -0.010878791853340942   -4.6600066220704716e-05
-0.0040256886427291645   -0.010928031153709843   -7.213540005014634e-05
-0.003781769947564791   -0.01640203059105227   -0.0001834656545928932
-0.006989579485897879   -0.010895003113097223   -0.00013030472538466147
-0.0040256886427291645   -0.010928031153709843   -7.213540005014634e-05
-0.006649205809573848   -0.016425014895320153   -0.0002772365917316152
-0.006578652651856174   -0.016502482617313404   -0.000324746021620037
-0.006881244483219384   -0.011019100462284376   -0.00019605873695901263
-0.00954240610023101   -0.016450145544831547   -0.0003922056956188445
-0.006615117662644552   -0.0164622892012163   -0.0003023829599029854
-0.006881244483219384   -0.011019100462284376   -0.00019605873695901263
-0.00987861130939776   -0.011001825861194208   -0.0002629101321828252
-0.00954240610023101   -0.016450145544831547   -0.0003922056956188445
-0.009914271512058934   -0.01096898228523908   -0.00024373365192560233
-0.006615117662644552   -0.0164622892012163   -0.0003023829599029854
-0.009577300849048107   -0.01641959768810774   -0.000363977637648075
-0.009914271512058934   -0.01096898228523908   -0.00024373365192560233
-0.00954240610023101   -0.016450145544831547   -0.0003922056956188445
-0.006615117662644552   -0.0164622892012163   -0.0003023829599029854
-0.009914271512058934   -0.01096898228523908   -0.00024373365192560233
-0.006918653465840445   -0.010978489448955884   -0.00017595809452687248
-0.006881244483219384   -0.011019100462284376   -0.00019605873695901263
-0.006615117662644552   -0.0164622892012163   -0.0003023829599029854
-0.009914271512058934   -0.01096898228523908   -0.00024373365192560233
-0.006881244483219384   -0.011019100462284376   -0.00019605873695901263
-0.00954240610023101   -0.016450145544831547   -0.0003922056956188445
-0.006615117662644552   -0.0164622892012163   -0.0003023829599029854
-0.006918653465840445   -0.010978489448955884   -0.00017595809452687248
-0.009577300849048107   -0.01641959768810774   -0.000363977637648075
-0.006649205809573848   -0.016425014895320153   -0.0002772365917316152
-0.006918653465840445   -0.010978489448955884   -0.00017595809452687248
-0.009914271512058934   -0.01096898228523908   -0.00024373365192560233
-0.009577300849048107   -0.01641959768810774   -0.000363977637648075
-0.00994440725796349   -0.010934359044802956   -0.00022322568933493857
-0.006649205809573848   -0.016425014895320153   -0.0002772365917316152
-0.009603609650635126   -0.016390921127671508   -0.0003334165498887984
-0.00994440725796349   -0.010934359044802956   -0.00022322568933493857
-0.009577300849048107   -0.01641959768810774   -0.000363977637648075
-0.006649205809573848   -0.016425014895320153   -0.0002772365917316152
-0.00994440725796349   -0.010934359044802956   -0.00022322568933493857
-0.00695429374160246   -0.0109372053508828   -0.0001540069864405248
-0.006918653465840445   -0.010978489448955884   -0.00017595809452687248
-0.006649205809573848   -0.016425014895320153   -0.0002772365917316152
-0.00994440725796349   -0.010934359044802956   -0.00022322568933493857
-0.006918653465840445   -0.010978489448955884   -0.00017595809452687248
-0.009577300849048107   -0.01641959768810774   -0.000363977637648075
-0.006649205809573848   -0.016425014895320153   -0.0002772365917316152
-0.00695429374160246   -0.0109372053508828   -0.0001540069864405248
-0.009603609650635126   -0.016390921127671508   -0.0003334165498887984
-0.006683416468033182   -0.01639075903408361   -0.0002494428528145928
-0.00695429374160246   -0.0109372053508828   -0.0001540069864405248
-0.00994440725796349   -0.010934359044802956   -0.00022322568933493857
-0.009603609650635126   -0.016390921127671508   -0.0003334165498887984
-0.009972885430605885   -0.010898877766584662   -0.00020082291328305476
-0.006683416468033182   -0.01639075903408361   -0.0002494428528145928
-0.009629748022554785   -0.016365441706930554   -0.00029992169219737654
-0.009972885430605885   -0.010898877766584662   -0.00020082291328305476
-0.009603609650635126   -0.016390921127671508   -0.0003334165498887984
-0.006683416468033182   -0.01639075903408361   -0.0002494428528145928
-0.009972885430605885   -0.010898877766584662   -0.00020082291328305476
-0.006989579485897879   -0.010895003113097223   -0.00013030472538466147
-0.00695429374160246   -0.0109372053508828   -0.0001540069864405248
-0.006683416468033182   -0.01639075903408361   -0.0002494428528145928
-0.009972885430605885   -0.010898877766584662   -0.00020082291328305476
-0.00695429374160246   -0.0109372053508828   -0.0001540069864405248
-0.009603609650635126   -0.016390921127671508   -0.0003334165498887984
-0.00954240610023101   -0.016450145544831547   -0.0003922056956188445
-0.00987861130939776   -0.011001825861194208   -0.0002629101321828252
-0.0126849913121193   -0.0163879946143129   -0.0004418303430498176
-0.009577300849048107   -0.01641959768810774   -0.000363977637648075
-0.00987861130939776   -0.011001825861194208   -0.0002629101321828252
-0.013020056468165514   -0.010973139037472395   -0.00031179871696989715
-0.0126849913121193   -0.0163879946143129   -0.0004418303430498176
-0.013041797841187334   -0.010945819708006548   -0.0002971618900336264
-0.009577300849048107   -0.01641959768810774   -0.000363977637648075
-0.012689487982592316   -0.016363860423521937   -0.0004103791151856816
-0.013041797841187334   -0.010945819708006548   -0.0002971618900336264
-0.0126849913121193   -0.0163879946143129   -0.0004418303430498176
-0.009577300849048107   -0.01641959768810774   -0.000363977637648075
-0.013041797841187334   -0.010945819708006548   -0.0002971618900336264
-0.009914271512058934   -0.01096898228523908   -0.00024373365192560233
-0.00987861130939776   -0.011001825861194208   -0.0002629101321828252
-0.009577300849048107   -0.01641959768810774   -0.000363977637648075
-0.013041797841187334   -0.010945819708006548   -0.0002971618900336264
-0.00987861130939776   -0.011001825861194208   -0.0002629101321828252
-0.0126849913121193   -0.0163879946143129   -0.0004418303430498176
-0.009577300849048107   -0.01641959768810774   -0.000363977637648075
-0.009914271512058934   -0.01096898228523908   -0.00024373365192560233
-0.012689487982592316   -0.016363860423521937   -0.0004103791151856816
-0.009603609650635126   -0.016390921127671508   -0.0003334165498887984
-0.009914271512058934   -0.01096898228523908   -0.00024373365192560233
-0.013041797841187334   -0.010945819708006548   -0.0002971618900336264
-0.012689487982592316   -0.016363860423521937   -0.0004103791151856816
-0.013061678103621637   -0.010914801782463355   -0.00027929422317745875
-0.009603609650635126   -0.016390921127671508   -0.0003334165498887984
-0.012694248865207064   -0.016339603535384474   -0.0003742406867834719
-0.013061678103621637   -0.010914801782463355   -0.00027929422317745875
-0.012689487982592316   -0.016363860423521937   -0.0004103791151856816
-0.009603609650635126   -0.016390921127671508   -0.0003334165498887984
-0.013061678103621637   -0.010914801782463355   -0.00027929422317745875
-0.00994440725796349   -0.010934359044802956   -0.00022322568933493857
-0.009914271512058934   -0.01096898228523908   -0.00024373365192560233
-0.009603609650635126   -0.016390921127671508   -0.0003334165498887984
-0.013061678103621637   -0.010914801782463355   -0.00027929422317745875
-0.009914271512058934   -0.01096898228523908   -0.00024373365192560233
-0.012689487982592316   -0.016363860423521937   -0.0004103791151856816
-0.009603609650635126   -0.016390921127671508   -0.0003334165498887984
-0.00994440725796349   -0.010934359044802956   -0.00022322568933493857
-0.012694248865207064   -0.016339603535384474   -0.0003742406867834719
-0.009629748022554785   -0.016365441706930554   -0.00029992169219737654
-0.00994440725796349   -0.010934359044802956   -0.00022322568933493857
-0.013061678103621637   -0.010914801782463355   -0.00027929422317745875
-0.012694248865207064   -0.016339603535384474   -0.0003742406867834719
-0.013070839785862733   -0.010886651296480273   -0.0002589835749121278
-0.009629748022554785   -0.016365441706930554   -0.00029992169219737654
-0.012681110797127661   -0.016324346638236578   -0.00033396531428430434
-0.013070839785862733   -0.010886651296480273   -0.0002589835749121278
-0.012694248865207064   -0.016339603535384474   -0.0003742406867834719
-0.009629748022554785   -0.016365441706930554   -0.00029992169219737654
-0.013070839785862733   -0.010886651296480273   -0.0002589835749121278
-0.009972885430605885   -0.010898877766584662   -0.00020082291328305476
-0.00994440725796349   -0.010934359044802956   -0.00022322568933493857
-0.009629748022554785   -0.016365441706930554   -0.00029992169219737654
-0.013070839785862733   -0.010886651296480273   -0.0002589835749121278
-0.00994440725796349   -0.010934359044802956   -0.00022322568933493857
-0.012694248865207064   -0.016339603535384474   -0.0003742406867834719
0.0021718020005481124   -0.011087511699465686   6.498757343863572e-05
0.0015260488416522526   -0.0055764584095844135   7.034078336582934e-05
-0.0009797700065578444   -0.011036168224217605   -2.7340977920926907e-05
0.0021044557122816875   -0.011022646524475849   9.23171812599373e-05
0.0015260488416522526   -0.0055764584095844135   7.034078336582934e-05
-0.0014181399184523995   -0.005505541524896171   3.805731804537224e-05
-0.0009797700065578444   -0.011036168224217605   -2.7340977920926907e-05
-0.0014611406840118854   -0.00547921873007444   6.927617784696917e-05
0.0021044557122816875   -0.011022646524475849   9.23171812599373e-05
-0.0010228133582215135   -0.01098265014998821   -5.075050642494158e-06
-0.0014611406840118854   -0.00547921873007444   6.927617784696917e-05
-0.0009797700065578444   -0.011036168224217605   -2.7340977920926907e-05
0.0021044557122816875   -0.011022646524475849   9.23171812599373e-05
-0.0014611406840118854   -0.00547921873007444   6.927617784696917e-05
0.0013918132207444253   -0.005507235865014269   0.00014734822389251084
0.0015260488416522526   -0.0055764584095844135   7.034078336582934e-05
0.0021044557122816875   -0.011022646524475849   9.23171812599373e-05
-0.0014611406840118854   -0.00547921873007444   6.927617784696917e-05
0.0015260488416522526   -0.0055764584095844135   7.034078336582934e-05
-0.0009797700065578444   -0.011036168224217605   -2.7340977920926907e-05
0.0021044557122816875   -0.011022646524475849   9.23171812599373e-05
0.0013918132207444253   -0.005507235865014269   0.00014734822389251084
-0.0010228133582215135   -0.01098265014998821   -5.075050642494158e-06
0.0020288839397590965   -0.01095846163004354   0.00013191897098347583
0.0013918132207444253   -0.005507235865014269   0.00014734822389251084
-0.0014611406840118854   -0.00547921873007444   6.927617784696917e-05
-0.0010228133582215135   -0.01098265014998821   -5.075050642494158e-06
-0.0015179709810426662   -0.005431268861087041   0.00010727591855939306
0.0020288839397590965   -0.01095846163004354   0.00013191897098347583
-0.0010732405848324729   -0.010926263414800927   2.121104984473537e-05
-0.0015179709810426662   -0.005431268861087041   0.00010727591855939306
-0.0010228133582215135   -0.01098265014998821   -5.075050642494158e-06
0.0020288839397590965   -0.01095846163004354   0.00013191897098347583
-0.0015179709810426662   -0.005431268861087041   0.00010727591855939306
0.0013133491164649205   -0.005451120717028504   0.00020463984420713137
0.0013918132207444253   -0.005507235865014269   0.00014734822389251084
0.0020288839397590965   -0.01095846163004354   0.00013191897098347583
-0.0015179709810426662   -0.005431268861087041   0.00010727591855939306
0.0013918132207444253   -0.005507235865014269   0.00014734822389251084
-0.0010228133582215135   -0.01098265014998821   -5.075050642494158e-06
0.0020288839397590965   -0.01095846163004354   0.00013191897098347583
0.0013133491164649205   -0.005451120717028504   0.00020463984420713137
-0.0010732405848324729   -0.010926263414800927   2.121104984473537e-05
0.0019365076311047332   -0.010879523745372295   0.00017555585969562188
0.0013133491164649205   -0.005451120717028504   0.00020463984420713137
-0.0015179709810426662   -0.005431268861087041   0.00010727591855939306
-0.0010732405848324729   -0.010926263414800927   2.121104984473537e-05
-0.0015658893702412081   -0.005379904508277677   0.00014070752898120273
0.0019365076311047332   -0.010879523745372295   0.00017555585969562188
-0.00112548891179275   -0.01086648032943631   5.1475487722768555e-05
-0.0015658893702412081   -0.005379904508277677   0.00014070752898120273
-0.0010732405848324729   -0.010926263414800927   2.121104984473537e-05
0.0019365076311047332   -0.010879523745372295   0.00017555585969562188
-0.0015658893702412081   -0.005379904508277677   0.00014070752898120273
0.0012125661118789312   -0.005364883185212608   0.00027032368380255467
0.0013133491164649205   -0.005451120717028504   0.00020463984420713137
0.0019365076311047332   -0.010879523745372295   0.00017555585969562188
-0.0015658893702412081   -0.005379904508277677   0.00014070752898120273
0.0013133491164649205   -0.005451120717028504   0.00020463984420713137
-0.0010732405848324729   -0.010926263414800927   2.121104984473537e-05
-0.0009797700065578444   -0.011036168224217605   -2.7340977920926907e-05
-0.0014181399184523995   -0.005505541524896171   3.805731804537224e-05
-0.003946196072869788   -0.011022848703901   -0.0001160511131370952
-0.0010228133582215135   -0.01098265014998821   -5.075050642494158e-06
-0.0014181399184523995   -0.005505541524896171   3.805731804537224e-05
-0.004216334971911982   -0.005587911084839389   -3.180034327147602e-05
-0.003946196072869788   -0.011022848703901   -0.0001160511131370952
-0.004256210013989328   -0.005546904087099896   -9.57226300877139e-06
-0.0010228133582215135   -0.01098265014998821   -5.075050642494158e-06
-0.003985251291173384   -0.010976355321198245   -9.514794196060486e-05
-0.004256210013989328   -0.005546904087099896   -9.57226300877139e-06
-0.003946196072869788   -0.011022848703901   -0.0001160511131370952
-0.0010228133582215135   -0.01098265014998821   -5.075050642494158e-06
-0.004256210013989328   -0.005546904087099896   -9.57226300877139e-06
-0.0014611406840118854   -0.00547921873007444   6.927617784696917e-05
-0.0014181399184523995   -0.005505541524896171   3.805731804537224e-05
-0.0010228133582215135   -0.01098265014998821   -5.075050642494158e-06
-0.004256210013989328   -0.005546904087099896   -9.57226300877139e-06
-0.0014181399184523995   -0.005505541524896171   3.805731804537224e-05
-0.003946196072869788   -0.011022848703901   -0.0001160511131370952
-0.0010228133582215135   -0.01098265014998821   -5.075050642494158e-06
-0.0014611406840118854   -0.00547921873007444   6.927617784696917e-05
-0.003985251291173384   -0.010976355321198245   -9.514794196060486e-05
-0.0010732405848324729   -0.010926263414800927   2.121104984473537e-05
-0.0014611406840118854   -0.00547921873007444   6.927617784696917e-05
-0.004256210013989328   -0.005546904087099896   -9.57226300877139e-06
-0.003985251291173384   -0.010976355321198245   -9.514794196060486e-05
-0.004298100481583694   -0.00550040897827066   1.4028603194580374e-05
-0.0010732405848324729   -0.010926263414800927   2.121104984473537e-05
-0.0040256886427291645   -0.010928031153709843   -7.213540005014634e-05
-0.004298100481583694   -0.00550040897827066   1.4028603194580374e-05
-0.003985251291173384   -0.010976355321198245   -9.514794196060486e-05
-0.0010732405848324729   -0.010926263414800927   2.121104984473537e-05
-0.004298100481583694   -0.00550040897827066   1.4028603194580374e-05
-0.0015179709810426662   -0.005431268861087041   0.00010727591855939306
-0.0014611406840118854   -0.00547921873007444   6.927617784696917e-05
-0.0010732405848324729   -0.010926263414800927   2.121104984473537e-05
-0.004298100481583694   -0.00550040897827066   1.4028603194580374e-05
-0.0014611406840118854   -0.00547921873007444   6.927617784696917e-05
-0.003985251291173384   -0.010976355321198245   -9.514794196060486e-05
-0.0010732405848324729   -0.010926263414800927   2.121104984473537e-05
-0.0015179709810426662   -0.005431268861087041   0.00010727591855939306
-0.0040256886427291645   -0.010928031153709843   -7.213540005014634e-05
-0.00112548891179275   -0.01086648032943631   5.1475487722768555e-05
-0.0015179709810426662   -0.005431268861087041   0.00010727591855939306
-0.004298100481583694   -0.00550040897827066   1.4028603194580374e-05
-0.0040256886427291645   -0.010928031153709843   -7.213540005014634e-05
-0.0043380431754668795   -0.005449448066474035   4.010220080190891e-05
-0.00112548891179275   -0.01086648032943631   5.1475487722768555e-05
-0.00406782397217806   -0.010878791853340942   -4.6600066220704716e-05
-0.0043380431754668795   -0.005449448066474035   4.010220080190891e-05
-0.0040256886427291645   -0.010928031153709843   -7.213540005014634e-05
-0.00112548891179275   -0.01086648032943631   5.1475487722768555e-05
-0.0043380431754668795   -0.005449448066474035   4.010220080190891e-05
-0.0015658893702412081   -0.005379904508277677   0.00014070752898120273
-0.0015179709810426662   -0.005431268861087041   0.00010727591855939306
-0.00112548891179275   -0.01086648032943631   5.1475487722768555e-05
-0.0043380431754668795   -0.005449448066474035   4.010220080190891e-05
-0.0015179709810426662   -0.005431268861087041   0.00010727591855939306
-0.0040256886427291645   -0.010928031153709843   -7.213540005014634e-05
-0.003946196072869788   -0.011022848703901   -0.0001160511131370952
-0.004216334971911982   -0.005587911084839389   -3.180034327147602e-05
-0.006881244483219384   -0.011019100462284376   -0.00019605873695901263
-0.003985251291173384   -0.010976355321198245   -9.514794196060486e-05
-0.004216334971911982   -0.005587911084839389   -3.180034327147602e-05
-0.007081428646110557   -0.005652284060075824   -0.0001097132276061256
-0.006881244483219384   -0.011019100462284376   -0.00019605873695901263
-0.007117365310938485   -0.00561012697117796   -9.239491667858411e-05
-0.003985251291173384   -0.010976355321198245   -9.514794196060486e-05
-0.006918653465840445   -0.010978489448955884   -0.00017595809452687248
-0.007117365310938485   -0.00561012697117796   -9.239491667858411e-05
-0.006881244483219384   -0.011019100462284376   -0.00019605873695901263
-0.003985251291173384   -0.010976355321198245   -9.514794196060486e-05
-0.007117365310938485   -0.00561012697117796   -9.239491667858411e-05
-0.004256210013989328   -0.005546904087099896   -9.57226300877139e-06
-0.004216334971911982   -0.005587911084839389   -3.180034327147602e-05
-0.003985251291173384   -0.010976355321198245   -9.514794196060486e-05
-0.007117365310938485   -0.00561012697117796   -9.239491667858411e-05
-0.004216334971911982   -0.005587911084839389   -3.180034327147602e-05
-0.006881244483219384   -0.011019100462284376   -0.00019605873695901263
-0.003985251291173384   -0.010976355321198245   -9.514794196060486e-05
-0.004256210013989328   -0.005546904087099896   -9.57226300877139e-06
-0.006918653465840445   -0.010978489448955884   -0.00017595809452687248
-0.0040256886427291645   -0.010928031153709843   -7.213540005014634e-05
-0.004256210013989328   -0.005546904087099896   -9.57226300877139e-06
-0.007117365310938485   -0.00561012697117796   -9.239491667858411e-05
-0.006918653465840445   -0.010978489448955884   -0.00017595809452687248
-0.007151849252212733   -0.005565515988945376   -7.507832394483786e-05
-0.0040256886427291645   -0.010928031153709843   -7.213540005014634e-05
-0.00695429374160246   -0.0109372053508828   -0.0001540069864405248
-0.007151849252212733   -0.005565515988945376   -7.507832394483786e-05
-0.006918653465840445   -0.010978489448955884   -0.00017595809452687248
-0.0040256886427291645   -0.010928031153709843   -7.213540005014634e-05
-0.007151849252212733   -0.005565515988945376   -7.507832394483786e-05
-0.004298100481583694   -0.00550040897827066   1.4028603194580374e-05
-0.004256210013989328   -0.005546904087099896   -9.57226300877139e-06
-0.0040256886427291645   -0.010928031153709843   -7.213540005014634e-05
-0.007151849252212733   -0.005565515988945376   -7.507832394483786e-05
-0.004256210013989328   -0.005546904087099896   -9.57226300877139e-06
-0.006918653465840445   -0.010978489448955884   -0.00017595809452687248
-0.0040256886427291645   -0.010928031153709843   -7.213540005014634e-05
-0.004298100481583694   -0.00550040897827066   1.4028603194580374e-05
-0.00695429374160246   -0.0109372053508828   -0.0001540069864405248
-0.00406782397217806   -0.010878791853340942   -4.6600066220704716e-05
-0.004298100481583694   -0.00550040897827066   1.4028603194580374e-05
-0.007151849252212733   -0.005565515988945376   -7.507832394483786e-05
-0.00695429374160246   -0.0109372053508828   -0.0001540069864405248
-0.007183705449790324   -0.00551714846299601   -5.616794423111387e-05
-0.00406782397217806   -0.010878791853340942   -4.6600066220704716e-05
-0.006989579485897879   -0.010895003113097223   -0.00013030472538466147
-0.007183705449790324   -0.00551714846299601   -5.616794423111387e-05
-0.00695429374160246   -0.0109372053508828   -0.0001540069864405248
-0.00406782397217806   -0.010878791853340942   -4.6600066220704716e-05
-0.007183705449790324   -0.00551714846299601   -5.616794423111387e-05
-0.0043380431754668795   -0.005449448066474035   4.010220080190891e-05
-0.004298100481583694   -0.00550040897827066   1.4028603194580374e-05
-0.00406782397217806   -0.010878791853340942   -4.6600066220704716e-05
-0.007183705449790324   -0.00551714846299601   -5.616794423111387e-05
-0.004298100481583694   -0.00550040897827066   1.4028603194580374e-05
-0.00695429374160246   -0.0109372053508828   -0.0001540069864405248
-0.006881244483219384   -0.011019100462284376   -0.00019605873695901263
-0.007081428646110557   -0.005652284060075824   -0.0001097132276061256
-0.00987861130939776   -0.011001825861194208   -0.0002629101321828252
-0.006918653465840445   -0.010978489448955884   -0.00017595809452687248
-0.007081428646110557   -0.005652284060075824   -0.0001097132276061256
-0.010047212153852573   -0.0056787859117578875   -0.00018152628075058502
-0.00987861130939776   -0.011001825861194208   -0.0002629101321828252
-0.010079615091415847   -0.005641068064091969   -0.00016882466925654215
-0.006918653465840445   -0.010978489448955884   -0.00017595809452687248
-0.009914271512058934   -0.01096898228523908   -0.00024373365192560233
-0.010079615091415847   -0.005641068064091969   -0.00016882466925654215
-0.00987861130939776   -0.011001825861194208   -0.0002629101321828252
-0.006918653465840445   -0.010978489448955884   -0.00017595809452687248
-0.010079615091415847   -0.005641068064091969   -0.00016882466925654215
-0.007117365310938485   -0.00561012697117796   -9.239491667858411e-05
-0.007081428646110557   -0.005652284060075824   -0.0001097132276061256
-0.006918653465840445   -0.010978489448955884   -0.00017595809452687248
-0.010079615091415847   -0.005641068064091969   -0.00016882466925654215
-0.007081428646110557   -0.005652284060075824   -0.0001097132276061256
-0.00987861130939776   -0.011001825861194208   -0.0002629101321828252
-0.006918653465840445   -0.010978489448955884   -0.00017595809452687248
-0.007117365310938485   -0.00561012697117796   -9.239491667858411e-05
-0.009914271512058934   -0.01096898228523908   -0.00024373365192560233
-0.00695429374160246   -0.0109372053508828   -0.0001540069864405248
-0.007117365310938485   -0.00561012697117796   -9.239491667858411e-05
-0.010079615091415847   -0.005641068064091969   -0.00016882466925654215
-0.009914271512058934   -0.01096898228523908   -0.00024373365192560233
-0.010108495036059517   -0.005599871079149083   -0.00015643518801101923
-0.00695429374160246   -0.0109372053508828   -0.0001540069864405248
-0.00994440725796349   -0.010934359044802956   -0.00022322568933493857
-0.010108495036059517   -0.005599871079149083   -0.00015643518801101923
-0.009914271512058934   -0.01096898228523908   -0.00024373365192560233
-0.00695429374160246   -0.0109372053508828   -0.0001540069864405248
-0.010108495036059517   -0.005599871079149083   -0.00015643518801101923
-0.007151849252212733   -0.005565515988945376   -7.507832394483786e-05
-0.007117365310938485   -0.00561012697117796   -9.239491667858411e-05
-0.00695429374160246   -0.0109372053508828   -0.0001540069864405248
-0.010108495036059517   -0.005599871079149083   -0.00015643518801101923
-0.007117365310938485   -0.00561012697117796   -9.239491667858411e-05
-0.009914271512058934   -0.01096898228523908   -0.00024373365192560233
-0.00695429374160246   -0.0109372053508828   -0.0001540069864405248
-0.007151849252212733   -0.005565515988945376   -7.507832394483786e-05
-0.00994440725796349   -0.010934359044802956   -0.00022322568933493857
-0.006989579485897879   -0.010895003113097223   -0.00013030472538466147
-0.007151849252212733   -0.005565515988945376   -7.507832394483786e-05
-0.010108495036059517   -0.005599871079149083   -0.00015643518801101923
-0.00994440725796349   -0.010934359044802956   -0.00022322568933493857
-0.010134667734629751   -0.00555596052084841   -0.00014361943073678903
-0.006989579485897879   -0.010895003113097223   -0.00013030472538466147
-0.009972885430605885   -0.010898877766584662   -0.00020082291328305476
-0.010134667734629751   -0.00555596052084841   -0.00014361943073678903
-0.00994440725796349   -0.010934359044802956   -0.00022322568933493857
-0.006989579485897879   -0.010895003113097223   -0.00013030472538466147
-0.010134667734629751   -0.00555596052084841   -0.00014361943073678903
-0.007183705449790324   -0.00551714846299601   -5.616794423111387e-05
-0.007151849252212733   -0.005565515988945376   -7.507832394483786e-05
-0.006989579485897879   -0.010895003113097223   -0.00013030472538466147
-0.010134667734629751   -0.00555596052084841   -0.00014361943073678903
-0.007151849252212733   -0.005565515988945376   -7.507832394483786e-05
-0.00994440725796349   -0.010934359044802956   -0.00022322568933493857
-0.00987861130939776   -0.011001825861194208   -0.0002629101321828252
-0.010047212153852573   -0.0056787859117578875   -0.00018152628075058502
-0.013020056468165514   -0.010973139037472395   -0.00031179871696989715
-0.009914271512058934   -0.01096898228523908   -0.00024373365192560233
-0.010047212153852573   -0.0056787859117578875   -0.00018152628075058502
-0.013120193124632544   -0.005681610233922223   -0.00024075875099413248
-0.013020056468165514   -0.010973139037472395   -0.00031179871696989715
-0.013147908049868741   -0.005645065024461806   -0.00023515737327135453
-0.009914271512058934   -0.01096898228523908   -0.00024373365192560233
-0.013041797841187334   -0.010945819708006548   -0.0002971618900336264
-0.013147908049868741   -0.005645065024461806   -0.00023515737327135453
-0.013020056468165514   -0.010973139037472395   -0.00031179871696989715
-0.009914271512058934   -0.01096898228523908   -0.00024373365192560233
-0.013147908049868741   -0.005645065024461806   -0.00023515737327135453
-0.010079615091415847   -0.005641068064091969   -0.00016882466925654215
-0.010047212153852573   -0.0056787859117578875   -0.00018152628075058502
-0.009914271512058934   -0.01096898228523908   -0.00024373365192560233
-0.013147908049868741   -0.005645065024461806   -0.00023515737327135453
-0.010047212153852573   -0.0056787859117578875   -0.00018152628075058502
-0.013020056468165514   -0.010973139037472395   -0.00031179871696989715
-0.009914271512058934   -0.01096898228523908   -0.00024373365192560233
-0.010079615091415847   -0.005641068064091969   -0.00016882466925654215
-0.013041797841187334   -0.010945819708006548   -0.0002971618900336264
-0.00994440725796349   -0.010934359044802956   -0.00022322568933493857
-0.010079615091415847   -0.005641068064091969   -0.00016882466925654215
-0.013147908049868741   -0.005645065024461806   -0.00023515737327135453
-0.013041797841187334   -0.010945819708006548   -0.0002971618900336264
-0.01317273835339585   -0.005605435833892127   -0.00022857876493107096
-0.00994440725796349   -0.010934359044802956   -0.00022322568933493857
-0.013061678103621637   -0.010914801782463355   -0.00027929422317745875
-0.01317273835339585   -0.005605435833892127   -0.00022857876493107096
-0.013041797841187334   -0.010945819708006548   -0.0002971618900336264
-0.00994440725796349   -0.010934359044802956   -0.00022322568933493857
-0.01317273835339585   -0.005605435833892127   -0.00022857876493107096
-0.010108495036059517   -0.005599871079149083   -0.00015643518801101923
-0.010079615091415847   -0.005641068064091969   -0.00016882466925654215
-0.00994440725796349   -0.010934359044802956   -0.00022322568933493857
-0.01317273835339585   -0.005605435833892127   -0.00022857876493107096
-0.010079615091415847   -0.005641068064091969   -0.00016882466925654215
-0.013041797841187334   -0.010945819708006548   -0.0002971618900336264
-0.00994440725796349   -0.010934359044802956   -0.00022322568933493857
-0.010108495036059517   -0.005599871079149083   -0.00015643518801101923
-0.013061678103621637   -0.010914801782463355   -0.00027929422317745875
-0.009972885430605885   -0.010898877766584662   -0.00020082291328305476
-0.010108495036059517   -0.005599871079149083   -0.00015643518801101923
-0.01317273835339585   -0.005605435833892127   -0.00022857876493107096
-0.013061678103621637   -0.010914801782463355   -0.00027929422317745875
-0.01319345675952233   -0.005563494438509628   -0.00022236598218629446
-0.009972885430605885   -0.010898877766584662   -0.00020082291328305476
-0.013070839785862733   -0.010886651296480273   -0.0002589835749121278
-0.01319345675952233   -0.005563494438509628   -0.00022236598218629446
-0.013061678103621637   -0.010914801782463355   -0.00027929422317745875
-0.009972885430605885   -0.010898877766584662   -0.00020082291328305476
-0.01319345675952233   -0.005563494438509628   -0.00022236598218629446
-0.010134667734629751   -0.00555596052084841   -0.00014361943073678903
-0.010108495036059517   -0.005599871079149083   -0.00015643518801101923
-0.009972885430605885   -0.010898877766584662   -0.00020082291328305476
-0.01319345675952233   -0.005563494438509628   -0.00022236598218629446
-0.010108495036059517   -0.005599871079149083   -0.00015643518801101923
-0.013061678103621637   -0.010914801782463355   -0.00027929422317745875
0.0015260488416522526   -0.0055764584095844135   7.034078336582934e-05
0.0   0.0   0.0
-0.0014181399184523995   -0.005505541524896171   3.805731804537224e-05
0.0013918132207444253   -0.005507235865014269   0.00014734822389251084
0.0   0.0   0.0
-0.0017751095421516747   -0.0004588419812407298   -1.288064387615599e-05
-0.0014181399184523995   -0.005505541524896171   3.805731804537224e-05
-0.001881355250871042   -0.0003583590437999649   4.9158419688971475e-05
0.0013918132207444253   -0.005507235865014269   0.00014734822389251084
-0.0014611406840118854   -0.00547921873007444   6.927617784696917e-05
-0.001881355250871042   -0.0003583590437999649   4.9158419688971475e-05
-0.0014181399184523995   -0.005505541524896171   3.805731804537224e-05
0.0013918132207444253   -0.005507235865014269   0.00014734822389251084
-0.001881355250871042   -0.0003583590437999649   4.9158419688971475e-05
0.0   0.0   0.0
0.0   0.0   0.0
0.0013918132207444253   -0.005507235865014269   0.00014734822389251084
-0.001881355250871042   -0.0003583590437999649   4.9158419688971475e-05
0.0   0.0   0.0
-0.0014181399184523995   -0.005505541524896171   3.805731804537224e-05
0.0013918132207444253   -0.005507235865014269   0.00014734822389251084
0.0   0.0   0.0
-0.0014611406840118854   -0.00547921873007444   6.927617784696917e-05
0.0013133491164649205   -0.005451120717028504   0.00020463984420713137
0.0   0.0   0.0
-0.001881355250871042   -0.0003583590437999649   4.9158419688971475e-05
-0.0014611406840118854   -0.00547921873007444   6.927617784696917e-05
-0.00194829893423702   -0.00031017083788862336   8.526448720342199e-05
0.0013133491164649205   -0.005451120717028504   0.00020463984420713137
-0.0015179709810426662   -0.005431268861087041   0.00010727591855939306
-0.00194829893423702   -0.00031017083788862336   8.526448720342199e-05
-0.0014611406840118854   -0.00547921873007444   6.927617784696917e-05
0.0013133491164649205   -0.005451120717028504   0.00020463984420713137
-0.00194829893423702   -0.00031017083788862336   8.526448720342199e-05
0.0   0.0   0.0
0.0   0.0   0.0
0.0013133491164649205   -0.005451120717028504   0.00020463984420713137
-0.00194829893423702   -0.00031017083788862336   8.526448720342199e-05
0.0   0.0   0.0
-0.0014611406840118854   -0.00547921873007444   6.927617784696917e-05
0.0013133491164649205   -0.005451120717028504   0.00020463984420713137
0.0   0.0   0.0
-0.0015179709810426662   -0.005431268861087041   0.00010727591855939306
0.0012125661118789312   -0.005364883185212608   0.00027032368380255467
0.0   0.0   0.0
-0.00194829893423702   -0.00031017083788862336   8.526448720342199e-05
-0.0015179709810426662   -0.005431268861087041   0.00010727591855939306
-0.002038513612473282   -0.0002460296921400503   0.00012676454151948355
0.0012125661118789312   -0.005364883185212608   0.00027032368380255467
-0.0015658893702412081   -0.005379904508277677   0.00014070752898120273
-0.002038513612473282   -0.0002460296921400503   0.00012676454151948355
-0.0015179709810426662   -0.005431268861087041   0.00010727591855939306
0.0012125661118789312   -0.005364883185212608   0.00027032368380255467
-0.002038513612473282   -0.0002460296921400503   0.00012676454151948355
0.0   0.0   0.0
0.0   0.0   0.0
0.0012125661118789312   -0.005364883185212608   0.00027032368380255467
-0.002038513612473282   -0.0002460296921400503   0.00012676454151948355
0.0   0.0   0.0
-0.0015179709810426662   -0.005431268861087041   0.00010727591855939306
-0.0014181399184523995   -0.005505541524896171   3.805731804537224e-05
-0.0017751095421516747   -0.0004588419812407298   -1.288064387615599e-05
-0.004216334971911982   -0.005587911084839389   -3.180034327147602e-05
-0.0014611406840118854   -0.00547921873007444   6.927617784696917e-05
-0.0017751095421516747   -0.0004588419812407298   -1.288064387615599e-05
-0.004340159131195918   -0.000604235946330778   -9.133336698524603e-06
-0.004216334971911982   -0.005587911084839389   -3.180034327147602e-05
-0.004395253540729191   -0.0005498084600366612   7.164886508921618e-06
-0.0014611406840118854   -0.00547921873007444   6.927617784696917e-05
-0.004256210013989328   -0.005546904087099896   -9.57226300877139e-06
-0.004395253540729191   -0.0005498084600366612   7.164886508921618e-06
-0.004216334971911982   -0.005587911084839389   -3.180034327147602e-05
-0.0014611406840118854   -0.00547921873007444   6.927617784696917e-05
-0.004395253540729191   -0.0005498084600366612   7.164886508921618e-06
-0.001881355250871042   -0.0003583590437999649   4.9158419688971475e-05
-0.0017751095421516747   -0.0004588419812407298   -1.288064387615599e-05
-0.0014611406840118854   -0.00547921873007444   6.927617784696917e-05
-0.004395253540729191   -0.0005498084600366612   7.164886508921618e-06
-0.0017751095421516747   -0.0004588419812407298   -1.288064387615599e-05
-0.004216334971911982   -0.005587911084839389   -3.180034327147602e-05
-0.0014611406840118854   -0.00547921873007444   6.927617784696917e-05
-0.001881355250871042   -0.0003583590437999649   4.9158419688971475e-05
-0.004256210013989328   -0.005546904087099896   -9.57226300877139e-06
-0.0015179709810426662   -0.005431268861087041   0.00010727591855939306
-0.001881355250871042   -0.0003583590437999649   4.9158419688971475e-05
-0.004395253540729191   -0.0005498084600366612   7.164886508921618e-06
-0.004256210013989328   -0.005546904087099896   -9.57226300877139e-06
-0.004450238446884777   -0.00048599584497882175   3.605973964856165e-05
-0.0015179709810426662   -0.005431268861087041   0.00010727591855939306
-0.004298100481583694   -0.00550040897827066   1.4028603194580374e-05
-0.004450238446884777   -0.00048599584497882175   3.605973964856165e-05
-0.004256210013989328   -0.005546904087099896   -9.57226300877139e-06
-0.0015179709810426662   -0.005431268861087041   0.00010727591855939306
-0.004450238446884777   -0.00048599584497882175   3.605973964856165e-05
-0.00194829893423702   -0.00031017083788862336   8.526448720342199e-05
-0.001881355250871042   -0.0003583590437999649   4.9158419688971475e-05
-0.0015179709810426662   -0.005431268861087041   0.00010727591855939306
-0.004450238446884777   -0.00048599584497882175   3.605973964856165e-05
-0.001881355250871042   -0.0003583590437999649   4.9158419688971475e-05
-0.004256210013989328   -0.005546904087099896   -9.57226300877139e-06
-0.0015179709810426662   -0.005431268861087041   0.00010727591855939306
-0.00194829893423702   -0.00031017083788862336   8.526448720342199e-05
-0.004298100481583694   -0.00550040897827066   1.4028603194580374e-05
-0.0015658893702412081   -0.005379904508277677   0.00014070752898120273
-0.00194829893423702   -0.00031017083788862336   8.526448720342199e-05
-0.004450238446884777   -0.00048599584497882175   3.605973964856165e-05
-0.004298100481583694   -0.00550040897827066   1.4028603194580374e-05
-0.004511601802210086   -0.00041192232908737823   6.391348376493424e-05
-0.0015658893702412081   -0.005379904508277677   0.00014070752898120273
-0.0043380431754668795   -0.005449448066474035   4.010220080190891e-05
-0.004511601802210086   -0.00041192232908737823   6.391348376493424e-05
-0.004298100481583694   -0.00550040897827066   1.4028603194580374e-05
-0.0015658893702412081   -0.005379904508277677   0.00014070752898120273
-0.004511601802210086   -0.00041192232908737823   6.391348376493424e-05
-0.002038513612473282   -0.0002460296921400503   0.00012676454151948355
-0.00194829893423702   -0.00031017083788862336   8.526448720342199e-05
-0.0015658893702412081   -0.005379904508277677   0.00014070752898120273
-0.004511601802210086   -0.00041192232908737823   6.391348376493424e-05
-0.00194829893423702   -0.00031017083788862336   8.526448720342199e-05
-0.004298100481583694   -0.00550040897827066   1.4028603194580374e-05
-0.004216334971911982   -0.005587911084839389   -3.180034327147602e-05
-0.004340159131195918   -0.000604235946330778   -9.133336698524603e-06
-0.007081428646110557   -0.005652284060075824   -0.0001097132276061256
-0.004256210013989328   -0.005546904087099896   -9.57226300877139e-06
-0.004340159131195918   -0.000604235946330778   -9.133336698524603e-06
-0.007150836900805545   -0.0006466399002436601   -5.734479493454753e-05
-0.007081428646110557   -0.005652284060075824   -0.0001097132276061256
-0.00718445493457204   -0.0006047277617088879   -5.266241159609075e-05
-0.004256210013989328   -0.005546904087099896   -9.57226300877139e-06
-0.007117365310938485   -0.00561012697117796   -9.239491667858411e-05
-0.00718445493457204   -0.0006047277617088879   -5.266241159609075e-05
-0.007081428646110557   -0.005652284060075824   -0.0001097132276061256
-0.004256210013989328   -0.005546904087099896   -9.57226300877139e-06
-0.00718445493457204   -0.0006047277617088879   -5.266241159609075e-05
-0.004395253540729191   -0.0005498084600366612   7.164886508921618e-06
-0.004340159131195918   -0.000604235946330778   -9.133336698524603e-06
-0.004256210013989328   -0.005546904087099896   -9.57226300877139e-06
-0.00718445493457204   -0.0006047277617088879   -5.266241159609075e-05
-0.004340159131195918   -0.000604235946330778   -9.133336698524603e-06
-0.007081428646110557   -0.005652284060075824   -0.0001097132276061256
-0.004256210013989328   -0.005546904087099896   -9.57226300877139e-06
-0.004395253540729191   -0.0005498084600366612   7.164886508921618e-06
-0.007117365310938485   -0.00561012697117796   -9.239491667858411e-05
-0.004298100481583694   -0.00550040897827066   1.4028603194580374e-05
-0.004395253540729191   -0.0005498084600366612   7.164886508921618e-06
-0.00718445493457204   -0.0006047277617088879   -5.266241159609075e-05
-0.007117365310938485   -0.00561012697117796   -9.239491667858411e-05
-0.007219445345301876   -0.0005558187124198488   -4.45412409989569e-05
-0.004298100481583694   -0.00550040897827066   1.4028603194580374e-05
-0.007151849252212733   -0.005565515988945376   -7.507832394483786e-05
-0.007219445345301876   -0.0005558187124198488   -4.45412409989569e-05
-0.007117365310938485   -0.00561012697117796   -9.239491667858411e-05
-0.004298100481583694   -0.00550040897827066   1.4028603194580374e-05
-0.007219445345301876   -0.0005558187124198488   -4.45412409989569e-05
-0.004450238446884777   -0.00048599584497882175   3.605973964856165e-05
-0.004395253540729191   -0.0005498084600366612   7.164886508921618e-06
-0.004298100481583694   -0.00550040897827066   1.4028603194580374e-05
-0.007219445345301876   -0.0005558187124198488   -4.45412409989569e-05
-0.004395253540729191   -0.0005498084600366612   7.164886508921618e-06
-0.007117365310938485   -0.00561012697117796   -9.239491667858411e-05
-0.004298100481583694   -0.00550040897827066   1.4028603194580374e-05
-0.004450238446884777   -0.00048599584497882175   3.605973964856165e-05
-0.007151849252212733   -0.005565515988945376   -7.507832394483786e-05
-0.0043380431754668795   -0.005449448066474035   4.010220080190891e-05
-0.004450238446884777   -0.00048599584497882175   3.605973964856165e-05
-0.007219445345301876   -0.0005558187124198488   -4.45412409989569e-05
-0.007151849252212733   -0.005565515988945376   -7.507832394483786e-05
-0.007253039354033846   -0.0004958734986477604   -3.3794681510933606e-05
-0.0043380431754668795   -0.005449448066474035   4.010220080190891e-05
-0.007183705449790324   -0.00551714846299601   -5.616794423111387e-05
-0.007253039354033846   -0.0004958734986477604   -3.3794681510933606e-05
-0.007151849252212733   -0.005565515988945376   -7.507832394483786e-05
-0.0043380431754668795   -0.005449448066474035   4.010220080190891e-05
-0.007253039354033846   -0.0004958734986477604   -3.3794681510933606e-05
-0.004511601802210086   -0.00041192232908737823   6.391348376493424e-05
-0.004450238446884777   -0.00048599584497882175   3.605973964856165e-05
-0.0043380431754668795   -0.005449448066474035   4.010220080190891e-05
-0.007253039354033846   -0.0004958734986477604   -3.3794681510933606e-05
-0.004450238446884777   -0.00048599584497882175   3.605973964856165e-05
-0.007151849252212733   -0.005565515988945376   -7.507832394483786e-05
-0.007081428646110557   -0.005652284060075824   -0.0001097132276061256
-0.007150836900805545   -0.0006466399002436601   -5.734479493454753e-05
-0.010047212153852573   -0.0056787859117578875   -0.00018152628075058502
-0.007117365310938485   -0.00561012697117796   -9.239491667858411e-05
-0.007150836900805545   -0.0006466399002436601   -5.734479493454753e-05
-0.010099500411806203   -0.0006413797598942099   -0.00012804729763097168
-0.010047212153852573   -0.0056787859117578875   -0.00018152628075058502
-0.010122255897168577   -0.0006041126702324447   -0.00012601726019240112
-0.007117365310938485   -0.00561012697117796   -9.239491667858411e-05
-0.010079615091415847   -0.005641068064091969   -0.00016882466925654215
-0.010122255897168577   -0.0006041126702324447   -0.00012601726019240112
-0.010047212153852573   -0.0056787859117578875   -0.00018152628075058502
-0.007117365310938485   -0.00561012697117796   -9.239491667858411e-05
-0.010122255897168577   -0.0006041126702324447   -0.00012601726019240112
-0.00718445493457204   -0.0006047277617088879   -5.266241159609075e-05
-0.007150836900805545   -0.0006466399002436601   -5.734479493454753e-05
-0.007117365310938485   -0.00561012697117796   -9.239491667858411e-05
-0.010122255897168577   -0.0006041126702324447   -0.00012601726019240112
-0.007150836900805545   -0.0006466399002436601   -5.734479493454753e-05
-0.010047212153852573   -0.0056787859117578875   -0.00018152628075058502
-0.007117365310938485   -0.00561012697117796   -9.239491667858411e-05
-0.00718445493457204   -0.0006047277617088879   -5.266241159609075e-05
-0.010079615091415847   -0.005641068064091969   -0.00016882466925654215
-0.007151849252212733   -0.005565515988945376   -7.507832394483786e-05
-0.00718445493457204   -0.0006047277617088879   -5.266241159609075e-05
-0.010122255897168577   -0.0006041126702324447   -0.00012601726019240112
-0.010079615091415847   -0.005641068064091969   -0.00016882466925654215
-0.010145984916527035   -0.000562378234215165   -0.00012446348323991678
-0.007151849252212733   -0.005565515988945376   -7.507832394483786e-05
-0.010108495036059517   -0.005599871079149083   -0.00015643518801101923
-0.010145984916527035   -0.000562378234215165   -0.00012446348323991678
-0.010079615091415847   -0.005641068064091969   -0.00016882466925654215
-0.007151849252212733   -0.005565515988945376   -7.507832394483786e-05
-0.010145984916527035   -0.000562378234215165   -0.00012446348323991678
-0.007219445345301876   -0.0005558187124198488   -4.45412409989569e-05
-0.00718445493457204   -0.0006047277617088879   -5.266241159609075e-05
-0.007151849252212733   -0.005565515988945376   -7.507832394483786e-05
-0.010145984916527035   -0.000562378234215165   -0.00012446348323991678
-0.00718445493457204   -0.0006047277617088879   -5.266241159609075e-05
-0.010079615091415847   -0.005641068064091969   -0.00016882466925654215
-0.007151849252212733   -0.005565515988945376   -7.507832394483786e-05
-0.007219445345301876   -0.0005558187124198488   -4.45412409989569e-05
-0.010108495036059517   -0.005599871079149083   -0.00015643518801101923
-0.007183705449790324   -0.00551714846299601   -5.616794423111387e-05
-0.007219445345301876   -0.0005558187124198488   -4.45412409989569e-05
-0.010145984916527035   -0.000562378234215165   -0.00012446348323991678
-0.010108495036059517   -0.005599871079149083   -0.00015643518801101923
-0.010164277323443464   -0.0005169321405259912   -0.0001234735773088207
-0.007183705449790324   -0.00551714846299601   -5.616794423111387e-05
-0.010134667734629751   -0.00555596052084841   -0.00014361943073678903
-0.010164277323443464   -0.0005169321405259912   -0.0001234735773088207
-0.010108495036059517   -0.005599871079149083   -0.00015643518801101923
-0.007183705449790324   -0.00551714846299601   -5.616794423111387e-05
-0.010164277323443464   -0.0005169321405259912   -0.0001234735773088207
-0.007253039354033846   -0.0004958734986477604   -3.3794681510933606e-05
-0.007219445345301876   -0.0005558187124198488   -4.45412409989569e-05
-0.007183705449790324   -0.00551714846299601   -5.616794423111387e-05
-0.010164277323443464   -0.0005169321405259912   -0.0001234735773088207
-0.007219445345301876   -0.0005558187124198488   -4.45412409989569e-05
-0.010108495036059517   -0.005599871079149083   -0.00015643518801101923
-0.010047212153852573   -0.0056787859117578875   -0.00018152628075058502
-0.010099500411806203   -0.0006413797598942099   -0.00012804729763097168
-0.013120193124632544   -0.005681610233922223   -0.00024075875099413248
-0.010079615091415847   -0.005641068064091969   -0.00016882466925654215
-0.010099500411806203   -0.0006413797598942099   -0.00012804729763097168
-0.013130707571411705   -0.0006370777278559201   -0.00019777707163730904
-0.013120193124632544   -0.005681610233922223   -0.00024075875099413248
-0.013148977965518465   -0.0005967451622268223   -0.0001976592260014017
-0.010079615091415847   -0.005641068064091969   -0.00016882466925654215
-0.013147908049868741   -0.005645065024461806   -0.00023515737327135453
-0.013148977965518465   -0.0005967451622268223   -0.0001976592260014017
-0.013120193124632544   -0.005681610233922223   -0.00024075875099413248
-0.010079615091415847   -0.005641068064091969   -0.00016882466925654215
-0.013148977965518465   -0.0005967451622268223   -0.0001976592260014017
-0.010122255897168577   -0.0006041126702324447   -0.00012601726019240112
-0.010099500411806203   -0.0006413797598942099   -0.00012804729763097168
-0.010079615091415847   -0.005641068064091969   -0.00016882466925654215
-0.013148977965518465   -0.0005967451622268223   -0.0001976592260014017
-0.010099500411806203   -0.0006413797598942099   -0.00012804729763097168
-0.013120193124632544   -0.005681610233922223   -0.00024075875099413248
-0.010079615091415847   -0.005641068064091969   -0.00016882466925654215
-0.010122255897168577   -0.0006041126702324447   -0.00012601726019240112
-0.013147908049868741   -0.005645065024461806   -0.00023515737327135453
-0.010108495036059517   -0.005599871079149083   -0.00015643518801101923
-0.010122255897168577   -0.0006041126702324447   -0.00012601726019240112
-0.013148977965518465   -0.0005967451622268223   -0.0001976592260014017
-0.013147908049868741   -0.005645065024461806   -0.00023515737327135453
-0.013169010742753215   -0.0005562802576246362   -0.00020069760038223157
-0.010108495036059517   -0.005599871079149083   -0.00015643518801101923
-0.01317273835339585   -0.005605435833892127   -0.00022857876493107096
-0.013169010742753215   -0.0005562802576246362   -0.00020069760038223157
-0.013147908049868741   -0.005645065024461806   -0.00023515737327135453
-0.010108495036059517   -0.005599871079149083   -0.00015643518801101923
-0.013169010742753215   -0.0005562802576246362   -0.00020069760038223157
-0.010145984916527035   -0.000562378234215165   -0.00012446348323991678
-0.010122255897168577   -0.0006041126702324447   -0.00012601726019240112
-0.010108495036059517   -0.005599871079149083   -0.00015643518801101923
-0.013169010742753215   -0.0005562802576246362   -0.00020069760038223157
-0.010122255897168577   -0.0006041126702324447   -0.00012601726019240112
-0.013147908049868741   -0.005645065024461806   -0.00023515737327135453
-0.010108495036059517   -0.005599871079149083   -0.00015643518801101923
-0.010145984916527035   -0.000562378234215165   -0.00012446348323991678
-0.01317273835339585   -0.005605435833892127   -0.00022857876493107096
-0.010134667734629751   -0.00555596052084841   -0.00014361943073678903
-0.010145984916527035   -0.000562378234215165   -0.00012446348323991678
-0.013169010742753215   -0.0005562802576246362   -0.00020069760038223157
-0.01317273835339585   -0.005605435833892127   -0.00022857876493107096
-0.013183857930579442   -0.0005121050088163793   -0.00020388759594378483
-0.010134667734629751   -0.00555596052084841   -0.00014361943073678903
-0.01319345675952233   -0.005563494438509628   -0.00022236598218629446
-0.013183857930579442   -0.0005121050088163793   -0.00020388759594378483
-0.01317273835339585   -0.005605435833892127   -0.00022857876493107096
-0.010134667734629751   -0.00555596052084841   -0.00014361943073678903
-0.013183857930579442   -0.0005121050088163793   -0.00020388759594378483
-0.010164277323443464   -0.0005169321405259912   -0.0001234735773088207
-0.010145984916527035   -0.000562378234215165   -0.00012446348323991678
-0.010134667734629751   -0.00555596052084841   -0.00014361943073678903
-0.013183857930579442   -0.0005121050088163793   -0.00020388759594378483
-0.010145984916527035   -0.000562378234215165   -0.00012446348323991678
-0.01317273835339585   -0.005605435833892127   -0.00022857876493107096
              </DataArray>   
          </PointData>  
       </Piece>  
   </UnstructuredGrid> 
</VTKFile> 
